##TITLE=Library Entry 68486
##JCAMP-DX=Revision 4.10 
##DATA TYPE=MASS SPECTRUM
##SAMPLE DESCRIPTION=Japan AIST/NIMC Database- Spectrum MS-NW-1337
##NAMES=HP
##CAS NAME=2-Furanmethanol, 5-methyl-
##MOLFORM=C6H8O2
##CAS REGISTRY NO=3857-25-8
##MP= -300
##BP= -300
##MW= 112
##$RETENTION INDEX=958
##$CONDENSED SPECTRUM=NO
##NPOINTS= 89
##XYDATA=(XY..XY) 1 
    12          1
    13          3
    14         14
    15         58
    16          1
    17          1
    18          4
    25          5
    26         48
    27        196
    28         61
    29         79
    30         13
    31         86
    32         11
    33          2
    36          3
    37         24
    38         43
    39        230
    40         88
    41        369
    42         57
    43        740
    44         21
    45          6
    47          9
    48          2
    49         18
    50        122
    51        183
    52        112
    53        225
    54         19
    55        204
    56         13
    57          7
    58         20
    59          2
    60          3
    61          6
    62          9
    63         15
    64          6
    65        126
    66         97
    67         86
    68         25
    69        267
    70         19
    71          9
    72          1
    73          4
    74          3
    75          1
    76          2
    77         14
    78          2
    79         45
    80         41
    81         47
    82         15
    83         84
    84        181
    85         11
    86          1
    87          1
    88          2
    89          1
    91          9
    92          2
    93          9
    94        296
    95        999
    96        103
    97        387
    98         23
    99          8
   103          2
   105         24
   106          3
   107          2
   108          4
   109         41
   110         26
   111        327
   112        951
   113         65
   114          3