##TITLE=Library Entry 12477
##JCAMP-DX=Revision 4.10 
##DATA TYPE=MASS SPECTRUM
##SAMPLE DESCRIPTION=Div. of Experiment Therapeutics WRAIR, WRAMC, Washingto
n DC 20307
##NAMES=HP
##CAS NAME=Methyl 5-acetamido-1,3,4-thiadiazol-2-yl sulfide
##MOLFORM=C5H7N3OS2
##CAS REGISTRY NO=38583-51-6
##MP= -300
##BP= -300
##MW= 189
##$RETENTION INDEX=0
##$CONDENSED SPECTRUM=NO
##NPOINTS= 67
##XYDATA=(XY..XY) 1 
    41         16
    42         65
    43        999
    44         33
    45        168
    46        105
    47         68
    48          8
    49          3
    51          1
    53          0
    54          2
    55          2
    56          0
    57          7
    58         36
    59         67
    60         39
    61          4
    62          2
    64         10
    66          0
    67          2
    68          4
    69          3
    70         14
    71          3
    72         10
    73         17
    74        103
    76         65
    77          7
    78          8
    79          3
    83          0
    84          1
    86          2
    88        172
    90         27
    91        156
    93         17
    99          6
   100          8
   101          2
   102          6
   104          3
   105         22
   106          3
   107          1
   113          1
   114        216
   115         12
   116          8
   131          2
   132          1
   145          8
   147        674
   149        100
   150          3
   151          1
   162          1
   174          7
   187          1
   189        289
   190         27
   191          5
   192          1