##TITLE=Library Entry 176
##JCAMP-DX=Revision 4.10 
##DATA TYPE=MASS SPECTRUM
##SAMPLE DESCRIPTION=Japan AIST/NIMC Database- Spectrum MS-NW-7251
##NAMES=HP
##CAS NAME=1,3-Cyclopentanedione
##MOLFORM=C5H6O2
##CAS REGISTRY NO=3859-41-4
##MP= -300
##BP= -300
##MW= 98
##$RETENTION INDEX=0
##$CONDENSED SPECTRUM=NO
##NPOINTS= 59
##XYDATA=(XY..XY) 1 
    12          2
    13         10
    14         48
    15         26
    16          1
    24          3
    25         16
    26        112
    27        214
    28        999
    29         45
    30          2
    31          1
    36          6
    37         30
    38         32
    39         71
    40         28
    41         74
    42        944
    43        111
    44         14
    45          2
    48          3
    49         13
    50         25
    51         21
    52         13
    53         25
    54         10
    55        172
    56        447
    57         61
    58          3
    60          2
    61          3
    62          2
    63          1
    65          1
    66          1
    67          2
    68          5
    69        140
    70        110
    71         31
    72          2
    73          1
    77          1
    79          2
    80          2
    81          4
    82          1
    94          1
    96          1
    97         78
    98        889
    99         54
   100          4
   101          1