##TITLE=Library Entry 54288
##JCAMP-DX=Revision 4.10 
##DATA TYPE=MASS SPECTRUM
##SAMPLE DESCRIPTION=M. VANDEWALLE
##NAMES=HP
##CAS NAME=1,3-Cyclopentanedione, 2-acetyl-
##MOLFORM=C7H8O3
##CAS REGISTRY NO=3859-39-0
##MP= -300
##BP= -300
##MW= 140
##$RETENTION INDEX=0
##$CONDENSED SPECTRUM=NO
##NPOINTS= 36
##XYDATA=(XY..XY) 1 
    39         40
    40         90
    41         30
    42         40
    43        250
    44        120
    45         20
    53         50
    55        140
    56         60
    57         50
    66         20
    67         30
    68         20
    69        230
    70         20
    74         10
    80         10
    83         20
    84        999
    85         40
    94         10
    97        130
    98         40
    99         10
   101         10
   102         20
   122         10
   123         10
   125        560
   126         50
   127        100
   128         40
   139         10
   140        999
   141        160