##TITLE=Library Entry 16933
##JCAMP-DX=Revision 4.10 
##DATA TYPE=MASS SPECTRUM
##SAMPLE DESCRIPTION=Chemical Concepts
##NAMES=HP
##CAS NAME=N-Methoxymethyl-N-methylacetamide
##MOLFORM=C5H11NO2
##CAS REGISTRY NO=38592-02-8
##MP= -300
##BP= -300
##MW= 117
##$RETENTION INDEX=0
##$CONDENSED SPECTRUM=NO
##NPOINTS= 57
##XYDATA=(XY..XY) 1 
    26          2
    27         10
    29         66
    30         64
    31         16
    33          4
    38          1
    39          3
    40          9
    41         25
    42        305
    43        861
    44        874
    45        999
    46         11
    47          1
    49          1
    51          1
    52          2
    53          0
    54          4
    55          5
    56         27
    57         10
    58         18
    59          4
    60        431
    61         11
    62          1
    65          0
    69          1
    70          3
    71          1
    72         12
    73         22
    74        155
    75          9
    76          0
    77          1
    79          0
    81          0
    83          0
    84          1
    85          2
    86        193
    87         45
    88          4
    91          1
    97          1
   102        737
   103         35
   104          3
   115          1
   116          1
   117         42
   118         11
   119          1