##TITLE=Library Entry 80448
##JCAMP-DX=Revision 4.10 
##DATA TYPE=MASS SPECTRUM
##SAMPLE DESCRIPTION=A.A.Kutin, Moscow, Russia
##NAMES=HP
##CAS NAME=Pyridine-1-oxide, 2-ethyl-4-nitro-
##MOLFORM=C7H8N2O3
##CAS REGISTRY NO=38594-62-6
##MP= -300
##BP= -300
##MW= 168
##$RETENTION INDEX=0
##$CONDENSED SPECTRUM=NO
##NPOINTS= 87
##XYDATA=(XY..XY) 1 
    33         15
    34          6
    36          6
    37         34
    38         93
    39        232
    40        156
    41         71
    42         26
    43          4
    44          8
    46         79
    48          4
    50        277
    51        374
    52        154
    53         83
    54         64
    55         40
    56         23
    57          7
    61         28
    62         66
    63        127
    64         74
    65         87
    66         38
    67         40
    68         16
    69          5
    70          4
    71          0
    74         46
    75         43
    76         72
    77        323
    78        304
    79         87
    80         20
    81          4
    82          9
    83          5
    84          8
    85          5
    86          7
    87          7
    89         16
    91         57
    93        462
    94         67
    95         16
    96          2
   101          0
   102          8
   104        392
   105        999
   106        100
   107         17
   108          4
   109         13
   110          4
   111          0
   118          1
   119          7
   121        112
   122         53
   123         53
   124          9
   125          1
   127          1
   133          0
   135          1
   136          2
   137          3
   138          2
   140         13
   141          2
   147          0
   149          5
   151        314
   152         57
   153          8
   154          1
   165          4
   168        388
   169         24
   170          2