##TITLE=Library Entry 31699
##JCAMP-DX=Revision 4.10 
##DATA TYPE=MASS SPECTRUM
##SAMPLE DESCRIPTION=L.E. Slivon, Battelle Columbus Laboratories, Columbus,
 Ohio 43201
##NAMES=HP
##CAS NAME=Benzene, 1,3-dibromo-2-methoxy-
##MOLFORM=C7H6Br2O
##CAS REGISTRY NO=38603-09-7
##MP= -300
##BP= -300
##MW= 264
##$RETENTION INDEX=1351
##$CONDENSED SPECTRUM=NO
##NPOINTS= 103
##XYDATA=(XY..XY) 1 
    48          3
    49         67
    50        186
    53        107
    60         29
    61        196
    62        397
    63        999
    64         53
    73         75
    74        337
    75        492
    76        200
    78         87
    79         53
    80         35
    81         40
    82         31
    83          4
    91         47
    92          9
    93         14
    94          4
    95          2
   105         17
   106         15
   107          8
   108          0
   118         42
   119         82
   120          3
   130         28
   131         11
   132          1
   133          3
   146          1
   149          0
   153         15
   155         94
   156         57
   157         88
   158         18
   159         12
   160          3
   164          0
   167          0
   168          5
   169          4
   170        187
   171         28
   172        186
   173         32
   174          5
   175          9
   176          1
   177          2
   178          2
   179          2
   181          0
   183          1
   184          7
   185         18
   186         17
   187         18
   188         13
   189          3
   191          0
   194          1
   195          9
   197         16
   198          2
   199         11
   200          1
   201          2
   203          0
   206          1
   207          2
   209          2
   221        222
   222         16
   223        444
   224         27
   225        212
   226         14
   233         10
   235         19
   236          1
   237         10
   238          1
   248          1
   249        259
   250         21
   251        517
   252         36
   253        241
   254         17
   255          2
   264        438
   265         33
   266        891
   267         65
   268        401
   269         34