##TITLE=Library Entry 47233
##JCAMP-DX=Revision 4.10 
##DATA TYPE=MASS SPECTRUM
##SAMPLE DESCRIPTION=J. Little, Eastman chemical company.
##NAMES=HP
##CAS NAME=Acetic acid, 2-methyl-2-phenyl-, hydrazide
##MOLFORM=C9H12N2O
##CAS REGISTRY NO=38604-68-1
##MP= -300
##BP= -300
##MW= 164
##$RETENTION INDEX=0
##$CONDENSED SPECTRUM=NO
##NPOINTS= 37
##XYDATA=(XY..XY) 1 
    27         53
    28         44
    29         53
    38         38
    39        143
    42         45
    43        329
    50        139
    51        434
    52         95
    53         29
    63         78
    64         58
    65        160
    74         45
    75         38
    76         46
    77        999
    78        178
    79        119
    90         18
    91         60
    92        345
    93         88
    94         42
   104        148
   105        711
   106        156
   107        336
   108         27
   120         13
   121        918
   122        389
   123         31
   164        232
   165         30
   166          3