##TITLE=Library Entry 2814
##JCAMP-DX=Revision 4.10 
##DATA TYPE=MASS SPECTRUM
##SAMPLE DESCRIPTION=E. TALMAN, CENT. LAB. TNO, SCHOEMAKERSTRAAT 97, DELFT,
 N
##NAMES=HP
##CAS NAME=2,6-Dimethyl-9-(1-methylethyl)-1-cyclodecanone
##MOLFORM=C15H28O
##CAS REGISTRY NO=38601-98-8
##MP= -300
##BP= -300
##MW= 224
##$RETENTION INDEX=0
##$CONDENSED SPECTRUM=NO
##NPOINTS= 71
##XYDATA=(XY..XY) 1 
    41        999
    42        160
    43        560
    53        140
    54         60
    55        920
    56        330
    57        300
    58         30
    59         60
    65         30
    66         20
    67        290
    68        200
    69        730
    70        180
    71        190
    77         40
    79         90
    80         30
    81        380
    82        260
    83        300
    84        100
    85         60
    86         30
    91         30
    93        100
    94         40
    95        370
    96        120
    97        360
    98         80
    99         40
   106         10
   107         90
   108         50
   109        260
   110         80
   111        130
   112         60
   113         80
   121         40
   122         20
   123        110
   124         70
   125         60
   126         40
   127         10
   135         30
   136         10
   137         30
   138         30
   139         80
   140        370
   141         40
   149         20
   150         10
   151         10
   153        150
   154         40
   163         40
   165         10
   167         10
   179        100
   181        390
   182        110
   191         10
   209         20
   224        100
   225         20