##TITLE=Library Entry 55971
##JCAMP-DX=Revision 4.10 
##DATA TYPE=MASS SPECTRUM
##SAMPLE DESCRIPTION=HOME OFFICE, CENTRAL RES. EST., ALDERMASTON, BERKS., U.
K.
##NAMES=HP
##CAS NAME=Clonitazene
##MOLFORM=C20H23ClN4O2
##CAS REGISTRY NO=3861-76-5
##MP= -300
##BP= -300
##MW= 386
##$RETENTION INDEX=0
##$CONDENSED SPECTRUM=NO
##NPOINTS= 57
##XYDATA=(XY..XY) 1 
    39         20
    40         20
    41        130
    42         50
    43        180
    44         20
    45         20
    54         10
    55        130
    56         80
    57        230
    58        130
    60         20
    65         10
    67         40
    68         20
    69        130
    70         40
    71        140
    72         30
    73         20
    76         10
    77         10
    79         10
    81         60
    82         30
    83        100
    84         50
    85         80
    86        999
    87         50
    89         10
    91         10
    93         10
    94         10
    95         60
    96         30
    97         80
    98         20
    99         40
   105         30
   107         10
   109         40
   110         10
   111         50
   112         20
   113         10
   123         20
   125         40
   127         10
   135         10
   137         10
   139         10
   149         80
   151         10
   161         10
   162         40