##TITLE=Library Entry 39149
##JCAMP-DX=Revision 4.10 
##DATA TYPE=MASS SPECTRUM
##SAMPLE DESCRIPTION=S.M. Lee, CA Export Lab. Services, CA, USA
##NAMES=HP
##CAS NAME=Butanoic acid, 2,6-dibromo-4-cyanophenyl ester
##MOLFORM=C11H9Br2NO2
##CAS REGISTRY NO=3861-41-4
##MP= -300
##BP= -300
##MW= 345
##$RETENTION INDEX=0
##$CONDENSED SPECTRUM=NO
##NPOINTS= 171
##XYDATA=(XY..XY) 1 
    51          4
    52          3
    53         34
    54          2
    55         39
    56          3
    60          7
    61         87
    62         56
    63         47
    64          8
    65          5
    66          1
    69          6
    70         14
    71        999
    72         46
    73         18
    74         20
    75          9
    76          3
    77          2
    79          7
    80          2
    81          7
    82          1
    83          2
    84          1
    85          2
    86         18
    87         72
    88        351
    89         34
    90          5
    91          7
    92          1
    93         11
    94          1
    95          6
    96          1
    98          4
    99         35
   100         57
   101          6
   102          3
   103          1
   104          7
   105          2
   106          8
   107          3
   108          1
   114          2
   115          7
   116         37
   117         53
   118         38
   119         34
   120          2
   121          1
   128         15
   129          3
   130         17
   131          4
   132          1
   133          3
   135          1
   139          2
   140          7
   141         30
   142         87
   143         31
   144         81
   145          6
   146          1
   152          2
   153          2
   154          2
   155          3
   159          6
   160          1
   166         15
   167         38
   168         57
   169         40
   170         42
   171         16
   173         23
   175         12
   178          8
   179         21
   180         11
   181         21
   182          4
   183          2
   193          2
   195         82
   196         17
   197        104
   198         14
   199         26
   200          2
   201          1
   207          7
   208          2
   209          4
   210          5
   211          2
   212          4
   213          1
   219          3
   220          2
   221          5
   222          5
   223          5
   224         15
   225          4
   226         13
   227          1
   237          2
   238         11
   239          3
   240         12
   241          1
   246         99
   248        188
   249         18
   250         96
   251          9
   252          1
   253          2
   254          1
   258         12
   260         25
   261          4
   262         13
   263          2
   264          1
   266          9
   267          1
   268          9
   269          1
   270          1
   272          3
   274         23
   275        118
   276         50
   277        228
   278         42
   279        115
   280         12
   281          2
   282          1
   286          3
   287          1
   288          7
   289          1
   290          5
   291          1
   302          9
   304         17
   305          2
   306          8
   307          1
   308          1
   345         16
   346          3
   347         30
   348          5
   349         15
   350          2
   351          1