##TITLE=Library Entry 89957
##JCAMP-DX=Revision 4.10 
##DATA TYPE=MASS SPECTRUM
##SAMPLE DESCRIPTION=Div. of Experiment Therapeutics WRAIR, WRAMC, Washingto
n DC 20307
##NAMES=HP
##CAS NAME=5'-Chloro-2'-nitro-3,5-di[trifluoromethyl]-.alpha.-phenylcinnamic
 acid
##MOLFORM=C17H8ClF6NO4
##CAS REGISTRY NO=38635-62-0
##MP= -300
##BP= -300
##MW= 439
##$RETENTION INDEX=0
##$CONDENSED SPECTRUM=NO
##NPOINTS= 232
##XYDATA=(XY..XY) 1 
    41          8
    43         22
    44         50
    45        676
    49         30
    50         97
    51        132
    52         10
    53         39
    55         11
    57         23
    61         25
    62        101
    63        220
    64         22
    69        260
    73        103
    74        103
    75        301
    76         45
    77         40
    78        370
    79         20
    81         43
    84         24
    85         28
    86         51
    87         90
    88         46
    89         78
    90        105
    91         12
    93          9
    97         69
    98        137
    99        152
   100         31
   101         24
   103         22
   105         48
   106         48
   107         29
   108          8
   110         77
   111        207
   112         30
   113        999
   114         31
   115        350
   116         44
   118         12
   119         12
   120          9
   121         12
   122         31
   123         48
   124        303
   125        268
   126        181
   127         72
   128         29
   130         14
   131         10
   132         14
   134         27
   136         23
   137         29
   138        226
   139         42
   140        111
   141        468
   143        205
   144         59
   145         11
   146         25
   148         11
   149         26
   150         30
   151         12
   153         60
   154         45
   155         39
   156         49
   157         54
   161          9
   162         22
   163         81
   164         14
   168        254
   169        356
   170        103
   171         99
   172         10
   173         17
   174         43
   175         27
   176         53
   177         22
   179         12
   180         54
   181         26
   182         36
   183         27
   186         41
   187         70
   188         30
   193         71
   194         65
   195         93
   197        548
   198         18
   199        170
   200         45
   201         11
   204         10
   205         37
   206         42
   207         11
   210         10
   211         32
   212         49
   213        303
   214         42
   217         40
   218          9
   219         62
   220         39
   222          8
   223         85
   224         44
   225         72
   226         56
   227         23
   230         45
   231         30
   232        119
   233        162
   234          8
   235         13
   237         16
   239         13
   241        322
   242         64
   243        161
   244         54
   245         23
   246         21
   248         23
   250         43
   251         46
   254         10
   256         10
   259         23
   260         10
   261         59
   262         23
   263         12
   266         11
   267         50
   268         21
   269         69
   271         26
   274         13
   275         44
   276         11
   277         21
   279         17
   280         24
   281         57
   282         74
   283         42
   284          8
   287         15
   288         47
   292         14
   293         57
   294         64
   295         50
   296         25
   297         13
   298          9
   300         35
   301         79
   302         10
   303         96
   305         23
   309          9
   310         41
   311         35
   312         76
   313         22
   314         31
   315         15
   316          9
   318          9
   329         10
   330         87
   331         23
   332         26
   335          9
   338          9
   339         61
   340          8
   345         13
   346         79
   347         45
   348         37
   349         76
   350        136
   351         17
   352         26
   366         29
   367          8
   373         74
   374         27
   375         51
   376         11
   377         34
   378         78
   379         27
   380         15
   392        110
   393         62
   394        284
   395         60
   396         66
   420        133
   421         24
   422         48
   423         12
   439         78
   441         23