##TITLE=Library Entry 89955
##JCAMP-DX=Revision 4.10 
##DATA TYPE=MASS SPECTRUM
##SAMPLE DESCRIPTION=Div. of Experiment Therapeutics WRAIR, WRAMC, Washingto
n DC 20307
##NAMES=HP
##CAS NAME=4'-Chloro-2'-nitro-3,5-di[trifluoromethyl]-.alpha.-phenylcinnamic
 acid
##MOLFORM=C17H8ClF6NO4
##CAS REGISTRY NO=38635-61-9
##MP= -300
##BP= -300
##MW= 439
##$RETENTION INDEX=0
##$CONDENSED SPECTRUM=NO
##NPOINTS= 230
##XYDATA=(XY..XY) 1 
    43         20
    44         35
    45        667
    46         21
    49         25
    50         91
    51        131
    53         53
    57         27
    61         30
    62         84
    63        229
    64         24
    69        245
    73         99
    74         83
    75        276
    76         50
    77         35
    78        312
    79         26
    81         37
    84         20
    85         33
    86         55
    87         95
    88         48
    89         78
    90         95
    91         22
    96         19
    97         66
    98        133
    99        164
   100         39
   101         34
   103         25
   105         30
   106         52
   107         39
   109         21
   110         67
   111        228
   112         41
   113        999
   114         82
   115        335
   116         53
   117         26
   119         16
   121         38
   122         35
   123         70
   124        322
   125        157
   126        270
   127         46
   128         46
   130         26
   131         29
   133         23
   134         27
   135         17
   136         22
   137         29
   138        299
   139         87
   140        161
   141        371
   142         26
   143        155
   144         62
   145         23
   146         25
   149         27
   150         24
   151         22
   152         21
   153         58
   154         79
   155         43
   156         52
   157         52
   161         19
   162         25
   163         72
   164         21
   168        428
   169        666
   170        168
   171        178
   172         18
   174         28
   175         32
   176         54
   177         26
   180         71
   181         33
   182         45
   183         28
   186         25
   187         54
   188         30
   193         61
   194         71
   195         85
   197        548
   199        214
   200         27
   201         25
   204         22
   205         34
   206         41
   207         18
   210         16
   211         25
   212         72
   213        345
   214         49
   217         38
   218         18
   219         54
   220         31
   223         80
   224         44
   225         87
   226         56
   227         16
   230         37
   231         40
   232        153
   233        192
   234         33
   235         21
   237         23
   240         26
   241        414
   242         66
   243        178
   244         63
   245         26
   246         26
   248         30
   249         19
   250         45
   251         49
   254         26
   256         17
   259         31
   260         20
   261         60
   262         31
   263         22
   266         28
   267         65
   268         32
   269        134
   270         40
   271         17
   274         28
   275         37
   276         22
   277         21
   278         21
   279         41
   280         34
   281         60
   282         74
   283         42
   284         19
   287         34
   288         56
   292         25
   293         63
   294         67
   295         52
   296         36
   297         27
   298         31
   300         39
   301        115
   302         32
   303        109
   304         21
   305         28
   310         44
   311         45
   312         57
   313         29
   314         44
   315         35
   316         17
   318         19
   329         19
   330         93
   331         32
   332         30
   335         24
   337         27
   338         67
   339         35
   340         27
   346        140
   347         51
   348         67
   349         68
   350        121
   351         30
   352         27
   366        173
   367         60
   368         60
   369         17
   373         39
   375         21
   377         27
   378        129
   379         30
   380         36
   394        339
   395         67
   396         96
   397         17
   420        220
   421         40
   422         81
   423         22
   439         94
   440         18
   441         30