##TITLE=Library Entry 16604
##JCAMP-DX=Revision 4.10 
##DATA TYPE=MASS SPECTRUM
##SAMPLE DESCRIPTION=Exported from NIST MS Search
##NAMES=HP
##CAS NAME=11H-Dibenzo[b,e][1,4]dioxepin-7-carboxylic acid, 8-hydroxy-3-meth
oxy-1,4,6-trimethyl-11-oxo-
##MOLFORM=C18H16O7
##CAS REGISTRY NO=38636-86-1
##MP= -300
##BP= -300
##MW= 344
##$RETENTION INDEX=0
##$CONDENSED SPECTRUM=NO
##NPOINTS= 76
##XYDATA=(XY..XY) 1 
    41        150
    43        220
    44        999
    50         70
    51        180
    52        100
    53        120
    55        110
    63        110
    64         60
    65        270
    66         50
    67        190
    69        200
    77        200
    78        170
    79         90
    82         70
    83        100
    89         50
    91        340
    92         50
   103         70
   107         80
   115         80
   116         90
   119         50
   121         70
   122        140
   123         50
   128         60
   134         80
   135         60
   136         70
   147         60
   148         50
   149        170
   150        250
   151         80
   152        110
   163        170
   165         50
   178        280
   179        619
   180         70
   215        180
   216         60
   217        140
   229        140
   230        220
   231        190
   232        170
   233        659
   234        100
   242         80
   243        380
   244        290
   245         80
   256        120
   257        100
   258        490
   259        110
   260        420
   271         60
   272         60
   273        110
   284        260
   285        170
   286         80
   298        310
   299        120
   300        999
   301        190
   326        210
   344        989
   345        200