##TITLE=Library Entry 90676
##JCAMP-DX=Revision 4.10 
##DATA TYPE=MASS SPECTRUM
##SAMPLE DESCRIPTION=Div. of Experiment Therapeutics WRAIR, WRAMC, Washingto
n DC 20307
##NAMES=HP
##CAS NAME=5'-Chloro-2'-nitro-4-trifluoromethyl-.alpha.-phenylcinnamic acid
##MOLFORM=C16H9ClF3NO4
##CAS REGISTRY NO=38635-52-8
##MP= -300
##BP= -300
##MW= 371
##$RETENTION INDEX=0
##$CONDENSED SPECTRUM=NO
##NPOINTS= 213
##XYDATA=(XY..XY) 1 
    41         58
    42         15
    43         91
    44         23
    45        552
    46          6
    47         46
    48         14
    49        245
    50        119
    51        247
    52         30
    53         41
    55         33
    57         48
    59          6
    60         28
    61         36
    62        113
    63        268
    64         33
    67         15
    69        200
    70         13
    71         15
    73         96
    74         94
    75        260
    76         65
    77         62
    78        405
    79         38
    81         77
    82         43
    83         18
    84        120
    85         26
    86        155
    87        122
    88         96
    89        157
    90        115
    91         34
    93          6
    94         30
    95         67
    96         32
    97         78
    98        150
    99        157
   100         62
   101         42
   102         26
   103         21
   105         26
   106         52
   107        101
   108         48
   109         30
   110         66
   111        124
   112         76
   113        999
   115        445
   116         33
   117          6
   119         34
   120         30
   122         38
   123         67
   124        252
   125        294
   126        212
   127        199
   128         32
   129         12
   131         23
   132         28
   133         31
   134         22
   135          6
   137         28
   138        235
   139         89
   140        100
   141        478
   142         27
   143        178
   144         23
   145        324
   146         27
   147         32
   149         45
   150         69
   151         98
   152         69
   153         65
   154         30
   155         46
   156         24
   157         47
   158         75
   159         34
   162         29
   163        101
   164         62
   165        148
   166         45
   167         31
   168        210
   169        447
   170        120
   171        132
   172         35
   173        214
   174         68
   175        181
   176        157
   177         87
   178         54
   179         20
   180         52
   181         34
   182         44
   183         86
   184         21
   186         65
   187         23
   188         33
   192         13
   193         43
   194         65
   195         30
   196         10
   197        821
   198         61
   199        323
   200         36
   201         58
   203        111
   204         21
   205         22
   206         34
   207         38
   210         27
   212         54
   213         46
   214         75
   215         33
   216          6
   217         33
   219         73
   220        118
   221         27
   223         37
   224         22
   225         90
   226         59
   227         23
   228         25
   229          6
   230         30
   231         24
   232         72
   233        120
   234         36
   235         60
   236          8
   241         28
   242         26
   243         63
   244         64
   245         34
   246         83
   247         84
   248         36
   259          6
   261         26
   262         45
   263         53
   264         19
   267         30
   269         29
   277         19
   279         31
   280         22
   281         73
   282        154
   283         47
   284         62
   295          7
   298         99
   299          6
   300         37
   302          6
   305         23
   310         86
   311         27
   312         35
   323         22
   324          6
   325         35
   326        276
   327         56
   328        104
   329         15
   352        117
   353         12
   354         92
   355         26
   356         24
   371         46
   373         16