##TITLE=Library Entry 90225
##JCAMP-DX=Revision 4.10 
##DATA TYPE=MASS SPECTRUM
##SAMPLE DESCRIPTION=J.B.WESTMORE DEPT. CHEM., UNIV., WINNIPEG, MANITOBA, CA
NADA
##NAMES=HP
##CAS NAME=Propanoic acid, 2,2-dimethyl-, 2-[(2,2-dimethyl-1-oxopropoxy)meth
yl]-2,3,3a,9a-tetrahydro-6-oxo-6H-furo[2',3':4,5]oxazolo[3,2-a]pyrimidin-3-y
l ester, [2R-(2.alpha.,3.beta.,3a.beta.,9a.beta.)]-
##MOLFORM=C19H26N2O7
##CAS REGISTRY NO=38642-36-3
##MP= -300
##BP= -300
##MW= 394
##$RETENTION INDEX=0
##$CONDENSED SPECTRUM=NO
##NPOINTS= 74
##XYDATA=(XY..XY) 1 
    53         60
    54         40
    55        180
    56        400
    57        450
    58         90
    68         90
    69        300
    70        100
    71        450
    72        460
    73         40
    81        300
    82         50
    83         90
    84         70
    85        800
    86        100
    94        170
    95         90
    96        100
    97        160
    98         50
    99         30
   108         50
   109         30
   110         30
   111         70
   112         50
   113        999
   114         30
   115         30
   135         30
   136        130
   137        400
   138         60
   148        110
   149         80
   154         80
   162         40
   163         50
   164         40
   165         60
   167         90
   168         40
   169         30
   170         60
   177        220
   178         30
   179        260
   180         50
   181        140
   182         40
   183         90
   190         30
   191        300
   192         50
   193        320
   194         40
   195         30
   197         60
   198         40
   207         30
   208        110
   221         30
   293        280
   294        100
   295         30
   309        360
   310         80
   379        200
   380         50
   394        140
   395         30