##TITLE=Library Entry 18486
##JCAMP-DX=Revision 4.10 
##DATA TYPE=MASS SPECTRUM
##SAMPLE DESCRIPTION=J.VOTH UNIV. OF CALIFORNIA, DAVIS, CALIFORNIA, 95616, U
SA
##NAMES=HP
##CAS NAME=Ethanol, 2-(2-butynyloxy)-
##MOLFORM=C6H10O2
##CAS REGISTRY NO=38644-91-6
##MP= -300
##BP= -300
##MW= 114
##$RETENTION INDEX=0
##$CONDENSED SPECTRUM=NO
##NPOINTS= 66
##XYDATA=(XY..XY) 1 
    12          6
    13         10
    14         32
    15         78
    16          4
    17          6
    18         15
    19         23
    24          1
    25          6
    26         61
    27        456
    28         71
    29        171
    30         20
    31        315
    32         11
    33          9
    36          4
    37         26
    38         39
    39        216
    40         25
    41         96
    42         35
    43         90
    44        132
    45         99
    46          3
    48          1
    49         12
    50         72
    51        123
    52         98
    53        999
    54        133
    55         51
    56          6
    57          3
    58          3
    60          3
    61         18
    62          1
    65          3
    66         12
    67         32
    68         10
    69        105
    70         14
    71        485
    72         21
    73          2
    74          1
    75          1
    81          8
    82          2
    83        124
    84         11
    85          2
    86          6
    87          1
    95         12
    96          1
    97          1
    99          2
   113          1