##TITLE=Library Entry 18840
##JCAMP-DX=Revision 4.10 
##DATA TYPE=MASS SPECTRUM
##SAMPLE DESCRIPTION=J.VOTH UNIV. OF CALIFORNIA, DAVIS, CALIFORNIA, 95616, U
SA
##NAMES=HP
##CAS NAME=2H,6H-Cyclopenta[b][1,4]dioxepin, 5a,7,8,8a-tetrahydro-, trans-
##MOLFORM=C8H12O2
##CAS REGISTRY NO=38653-39-3
##MP= -300
##BP= -300
##MW= 140
##$RETENTION INDEX=0
##$CONDENSED SPECTRUM=NO
##NPOINTS= 81
##XYDATA=(XY..XY) 1 
    12          4
    13         10
    14         47
    15        115
    16          3
    17          3
    18         11
    19          7
    25          8
    26        133
    27        683
    28        290
    29        597
    30         17
    31         85
    32          0
    37         17
    38         53
    39        476
    40        105
    41        433
    42        138
    43        128
    44         37
    45         14
    49          2
    50         13
    51         23
    52         11
    53        121
    54         46
    55        999
    56        344
    57        235
    58         16
    59          2
    61          1
    62          2
    63          5
    64          2
    65         22
    66         67
    67        428
    68        322
    69         81
    70         14
    71         36
    72          2
    73         12
    74          3
    77          7
    78          5
    79         12
    80          2
    81         36
    82         20
    83        214
    84        569
    85         65
    86          4
    91          4
    93          8
    94          7
    95         38
    96         11
    97         19
    98          9
    99          2
   103          1
   107          1
   109          1
   111         47
   112         10
   113         16
   114          1
   121          5
   122          1
   139         74
   140        209
   141         19
   142          2