##TITLE=Library Entry 5519
##JCAMP-DX=Revision 4.10 
##DATA TYPE=MASS SPECTRUM
##SAMPLE DESCRIPTION=J.VOTH UNIV. OF CALIFORNIA, DAVIS, CALIFORNIA, 95616, U
SA
##NAMES=HP
##CAS NAME=5H-1,4-Dioxepin, 2,3-dihydro-7-methyl-
##MOLFORM=C6H10O2
##CAS REGISTRY NO=38653-35-9
##MP= -300
##BP= -300
##MW= 114
##$RETENTION INDEX=0
##$CONDENSED SPECTRUM=NO
##NPOINTS= 64
##XYDATA=(XY..XY) 1 
    12          5
    13         16
    14         68
    15        234
    16          7
    17          4
    18         12
    19          8
    24          1
    25          8
    26         78
    27        300
    28        131
    29        176
    30         24
    31         27
    36          1
    37         10
    38         22
    39        232
    40         19
    41         94
    42         75
    43        999
    44         44
    45        129
    46          3
    49          3
    50         18
    51         25
    52         17
    53         83
    54         99
    55        216
    56          9
    57         11
    58        146
    59          5
    61          2
    67          2
    68          1
    69         28
    70          6
    71         58
    72          2
    73         11
    81          1
    82          1
    83         24
    84          2
    85         19
    86         11
    87         97
    88          4
    95          1
    97          1
    99        253
   100         14
   101          1
   112          0
   113         75
   114        167
   115         11
   116          1