##TITLE=Library Entry 40705
##JCAMP-DX=Revision 4.10 
##DATA TYPE=MASS SPECTRUM
##SAMPLE DESCRIPTION=J.VOTH UNIV. OF CALIFORNIA, DAVIS, CALIFORNIA, 95616, U
SA
##NAMES=HP
##CAS NAME=1,3-Dioxolane, 2-(2-propenyl)-
##MOLFORM=C6H10O2
##CAS REGISTRY NO=38653-49-5
##MP= -300
##BP= -300
##MW= 114
##$RETENTION INDEX=0
##$CONDENSED SPECTRUM=NO
##NPOINTS= 63
##XYDATA=(XY..XY) 1 
    12          5
    13         10
    14         42
    15        139
    16          6
    17          5
    18         17
    19         50
    24          0
    25          5
    26         52
    27        241
    28         69
    29        202
    30         14
    31         29
    36          1
    37         15
    38         33
    39        195
    40         22
    41        177
    42         53
    43         86
    44         13
    45        548
    46         12
    47          3
    49          2
    50         13
    51         17
    52          9
    53         31
    54         36
    55         61
    56         15
    57          6
    58          2
    65          1
    66          1
    67          3
    68          3
    69         18
    70          4
    71          3
    73        999
    74         34
    75          5
    77          0
    78          3
    79          0
    83          8
    84          3
    85          5
    86          3
    87          3
    91          2
    99          4
   100          1
   105          0
   106          1
   113         15
   114          2