##TITLE=Library Entry 6978
##JCAMP-DX=Revision 4.10 
##DATA TYPE=MASS SPECTRUM
##SAMPLE DESCRIPTION=J.VOTH UNIV. OF CALIFORNIA, DAVIS, CALIFORNIA, 95616, U
SA
##NAMES=HP
##CAS NAME=2-Propanol, 1-[(1-methyl-2-propynyl)oxy]-, acetate
##MOLFORM=C9H14O3
##CAS REGISTRY NO=38653-27-9
##MP= -300
##BP= -300
##MW= 170
##$RETENTION INDEX=0
##$CONDENSED SPECTRUM=NO
##NPOINTS= 77
##XYDATA=(XY..XY) 1 
    12          1
    13          4
    14         22
    15        126
    16          3
    18          1
    19          2
    25          2
    26         20
    27        141
    28         23
    29         47
    30          5
    31         25
    37          3
    38         11
    39         37
    40          7
    41         34
    42         29
    43        999
    44         24
    45         49
    46          1
    49          2
    50         15
    51         25
    52         16
    53        274
    54         19
    55         23
    56          3
    57         15
    58        174
    59         29
    60          2
    61         11
    65          1
    66          2
    67         12
    68          2
    69         18
    70          2
    71          4
    72          3
    73          3
    74          1
    75          4
    79          3
    80          3
    81         10
    82          3
    83         33
    84          5
    85          2
    86          1
    87         44
    88          4
    91          0
    92          1
    93          1
    95         58
    96          6
    97          9
    98          1
   100          1
   101         24
   102          2
   103          2
   109          6
   110          2
   111         13
   112          1
   113          1
   117          0
   125          1
   127          4