##TITLE=Library Entry 52318
##JCAMP-DX=Revision 4.10 
##DATA TYPE=MASS SPECTRUM
##SAMPLE DESCRIPTION=Chuck Anderson, Aldrich Chemical Co.
##NAMES=HP
##CAS NAME=Bicyclo[3.1.1]heptan-2-one, 6,6-dimethyl-, (1R)-
##MOLFORM=C9H14O
##CAS REGISTRY NO=38651-65-9
##MP= -300
##BP= -300
##MW= 138
##$RETENTION INDEX=1152
##$CONDENSED SPECTRUM=NO
##NPOINTS= 66
##XYDATA=(XY..XY) 1 
    15          6
    18          0
    26         16
    27        258
    28         43
    29        123
    30          1
    31          0
    37          3
    38         15
    39        217
    40         41
    41        314
    42         39
    43         80
    44          3
    45          4
    50         12
    51         29
    52         14
    53         84
    54         47
    55        408
    56         39
    57          6
    62          3
    63          9
    64          0
    65         34
    66         21
    67        233
    68        106
    69        145
    70        122
    71          8
    77         55
    78         12
    79         94
    80         21
    81        360
    82        144
    83        999
    84         55
    85          3
    91         22
    92         11
    93         25
    94         39
    95        346
    96        209
    97        122
    98          8
   105         34
   106          3
   107          7
   108          7
   109        239
   110         85
   111          9
   120         30
   121          5
   123        149
   124         12
   137          3
   138         79
   139          8