##TITLE=Library Entry 23198
##JCAMP-DX=Revision 4.10 
##DATA TYPE=MASS SPECTRUM
##SAMPLE DESCRIPTION=J.VOTH UNIV. OF CALIFORNIA, DAVIS, CALIFORNIA, 95616, U
SA
##NAMES=HP
##CAS NAME=Cyclopentanol, 2-(2-propynyloxy)-, trans-
##MOLFORM=C8H12O2
##CAS REGISTRY NO=38653-28-0
##MP= -300
##BP= -300
##MW= 140
##$RETENTION INDEX=0
##$CONDENSED SPECTRUM=NO
##NPOINTS= 92
##XYDATA=(XY..XY) 1 
    12          4
    13          6
    14         19
    15         74
    16          4
    17          4
    18         13
    19         40
    24          2
    25         12
    26         66
    27        366
    28         85
    29        514
    30         28
    31        241
    32          2
    36          2
    37         32
    38         77
    39        598
    40         86
    41        224
    42         55
    43        237
    44        103
    45         82
    46          2
    47          2
    49          1
    50          8
    51         14
    52          8
    53        133
    54         49
    55        436
    56         94
    57        999
    58         54
    59         33
    60          3
    61          2
    62          3
    63          5
    64          2
    65         21
    66         43
    67        151
    68        133
    69         59
    70         10
    71         18
    72          4
    73         30
    74          4
    77         15
    78          5
    79         53
    80          8
    81         78
    82         83
    83        206
    84        304
    85         60
    86          4
    87          1
    91         11
    92          3
    93         24
    94         71
    95         66
    96         50
    97         19
    98          3
    99          2
   100          1
   101        146
   102          8
   103          1
   104          1
   107         15
   108          1
   109          8
   110          1
   111          6
   112          1
   121          7
   122          8
   123          4
   125          1
   139          1
   140          1