##TITLE=Library Entry 10567
##JCAMP-DX=Revision 4.10 
##DATA TYPE=MASS SPECTRUM
##SAMPLE DESCRIPTION=J.VOTH UNIV. OF CALIF, DAVIS, CALIFORNIA, 95616, USA
##NAMES=HP
##CAS NAME=5H-1,4-Dioxepin, 2,3-dihydro-5-methyl-
##MOLFORM=C6H10O2
##CAS REGISTRY NO=38653-36-0
##MP= -300
##BP= -300
##MW= 114
##$RETENTION INDEX=0
##$CONDENSED SPECTRUM=NO
##NPOINTS= 61
##XYDATA=(XY..XY) 1 
    12          9
    13         27
    14        131
    15        365
    16         14
    17          3
    18          9
    19         30
    24          1
    25         11
    26        130
    27        446
    28        218
    29        434
    30         34
    31         49
    32          0
    36          2
    37         23
    38         53
    39        435
    40         43
    41        341
    42        131
    43        999
    44         58
    45        336
    46          8
    49          7
    50         26
    51         34
    52         21
    53        111
    54         58
    55        120
    56         13
    57         22
    58        189
    59          7
    67          3
    68          5
    69        194
    70         22
    71        302
    72         11
    73         68
    74          2
    81         11
    82          1
    83         10
    84          3
    85         19
    86         17
    87         94
    88          5
    97          2
    99        756
   100         42
   113         72
   114        184
   115         13