##TITLE=Library Entry 5596
##JCAMP-DX=Revision 4.10 
##DATA TYPE=MASS SPECTRUM
##SAMPLE DESCRIPTION=Chemical Concepts
##NAMES=HP
##CAS NAME=Taurultam
##MOLFORM=C3H8N2O2S
##CAS REGISTRY NO=38668-01-8
##MP= -300
##BP= -300
##MW= 136
##$RETENTION INDEX=0
##$CONDENSED SPECTRUM=NO
##NPOINTS= 43
##XYDATA=(XY..XY) 1 
    26         55
    27        186
    28        833
    29        420
    30        943
    31         25
    39         14
    40         50
    41        121
    42        447
    43        999
    44        513
    45         41
    46         32
    47         15
    48         94
    49         18
    50         10
    54         40
    55        171
    56        238
    57        530
    58         36
    64         47
    65         53
    69         17
    71         68
    72         99
    73         38
    79         11
    80         30
    81         47
    91         12
    94          6
   106         10
   107          9
   108         41
   118         12
   119         10
   135        351
   136        141
   137         25
   138          6