##TITLE=Library Entry 85762
##JCAMP-DX=Revision 4.10 
##DATA TYPE=MASS SPECTRUM
##SAMPLE DESCRIPTION=NIST Mass Spectrometry Data Center, 1990.
##NAMES=HP
##CAS NAME=3,3,5,5-Tetramethylcyclopentene
##MOLFORM=C9H16
##CAS REGISTRY NO=38667-10-6
##MP= -300
##BP= -300
##MW= 124
##$RETENTION INDEX=852
##$CONDENSED SPECTRUM=NO
##NPOINTS= 33
##XYDATA=(XY..XY) 1 
    15         13
    27         41
    28         36
    29         24
    39        108
    40         21
    41        122
    42         11
    43         49
    50         14
    51         42
    52         16
    53         68
    55         81
    63         14
    65         53
    67        422
    68         26
    69         29
    77         94
    78         21
    79         86
    81        146
    82         12
    91         68
    92         10
    93         26
    94         20
    95         11
   107         22
   109        999
   110         90
   124         37