##TITLE=Library Entry 24916
##JCAMP-DX=Revision 4.10 
##DATA TYPE=MASS SPECTRUM
##SAMPLE DESCRIPTION=Zaikin V.G., TIPS RAS, Moscow, Russia
##NAMES=HP
##CAS NAME=2- Bromopropionic acid, heptyl ester
##MOLFORM=C10H19BrO2
##CAS REGISTRY NO=38674-99-6
##MP= -300
##BP= -300
##MW= 250
##$RETENTION INDEX=1413
##$CONDENSED SPECTRUM=NO
##NPOINTS= 57
##XYDATA=(XY..XY) 1 
    26         27
    27        215
    28          2
    29        196
    30          6
    31         13
    36         18
    38          9
    39         83
    40         22
    41        420
    42        194
    43        429
    44         34
    45         12
    51          5
    52          5
    53         24
    54         44
    55        403
    56        607
    57        999
    58         41
    67         19
    68         63
    69        250
    70        498
    71         42
    72          3
    73         19
    74         22
    75         10
    79          8
    80          9
    81         13
    82          8
    83         54
    84          4
    85          4
    96          7
    97         53
    98        408
    99         30
   106          4
   107        138
   108          8
   109        131
   110          4
   115          5
   134          3
   135         69
   136          6
   137         66
   143         16
   153         81
   154          4
   155         80