##TITLE=Library Entry 52631
##JCAMP-DX=Revision 4.10 
##DATA TYPE=MASS SPECTRUM
##SAMPLE DESCRIPTION=Dr. Jiri Zamecnik, DCIEM, North York, Canada, GP Librar
y
##NAMES=HP
##CAS NAME=Ethyl 2-(methylamino)-1-phenyl-3-cyclohexene-1-carboxylate
##MOLFORM=C16H21NO2
##CAS REGISTRY NO=38677-94-0
##MP= -300
##BP= -300
##MW= 259
##$RETENTION INDEX=1860
##$CONDENSED SPECTRUM=NO
##NPOINTS= 50
##XYDATA=(XY..XY) 1 
    51         18
    54         17
    55         28
    57         15
    65         13
    67          9
    68        475
    69         46
    70         10
    77         48
    80         16
    81         23
    82         34
    83        999
    84         81
    89         10
    91         49
    94          8
    95          6
    96         15
    97          8
   103         54
   104         15
   105          8
   115         18
   116          4
   117          7
   127          7
   128         18
   129         16
   130          3
   131          4
   132          7
   141          9
   143          3
   153          9
   154          9
   155         18
   156         18
   157         20
   158          4
   167          3
   168          5
   170         11
   171          9
   184         10
   185          7
   186          6
   244          7
   259          4