##TITLE=Library Entry 22211
##JCAMP-DX=Revision 4.10 
##DATA TYPE=MASS SPECTRUM
##SAMPLE DESCRIPTION=V.Zaikin,Topchiev Inst.Petrochem.Synth.,Moscow
##NAMES=HP
##CAS NAME=Bromoacetic acid, octyl ester
##MOLFORM=C10H19BrO2
##CAS REGISTRY NO=38674-98-5
##MP= -300
##BP= -300
##MW= 250
##$RETENTION INDEX=1482
##$CONDENSED SPECTRUM=NO
##NPOINTS= 81
##XYDATA=(XY..XY) 1 
    27        179
    28         68
    29        334
    30          6
    31         21
    36          9
    37          4
    38          5
    39        171
    40         43
    41        799
    42        690
    43        948
    44         72
    45          8
    46          2
    50          6
    51         10
    52          8
    53         58
    54         86
    55        831
    56        999
    57        563
    58         29
    59          5
    60         11
    61          3
    62          4
    63          4
    65          4
    66          6
    67         68
    68        197
    69        657
    70        908
    71        228
    72         21
    73         10
    77          6
    79          4
    80          4
    81         23
    82        159
    83        600
    84        821
    85         59
    87          4
    92          4
    93        109
    94          9
    95        113
    96          8
    97         66
    98          9
   101          4
   105          3
   110         11
   111         76
   112        319
   113         34
   114          3
   115          6
   120         11
   121        206
   122          9
   123        228
   124          6
   127          7
   129         19
   138          6
   139         97
   140          7
   141         91
   151         10
   153         10
   157         24
   167          3
   169          3
   179          7
   181          7