##TITLE=Library Entry 15410
##JCAMP-DX=Revision 4.10 
##DATA TYPE=MASS SPECTRUM
##SAMPLE DESCRIPTION=Chemical Sci. & Tec. Lab., NIST, Gaithersburg, MD 20899
##NAMES=HP
##CAS NAME=8-Hydroxyguanosine
##MOLFORM=C10H13N5O6
##CAS REGISTRY NO=3868-31-3
##MP= -300
##BP= -300
##MW= 299
##$RETENTION INDEX=0
##$CONDENSED SPECTRUM=NO
##NPOINTS= 99
##XYDATA=(XY..XY) 1 
    41        138
    42        183
    43        394
    44        999
    45        153
    46         21
    47         37
    48         11
    49         81
    50         26
    51         48
    52         26
    53        111
    54         52
    55        109
    56         53
    57         72
    58         14
    59         49
    60        227
    61         32
    62         15
    64         18
    65         11
    66          9
    67         10
    68         57
    69        116
    70         86
    71        170
    72         23
    73         97
    74          7
    75          2
    76         12
    77          8
    79          7
    80         16
    81        178
    82         40
    83         26
    84         49
    85         44
    86         41
    87         15
    88         45
    89         10
    90          6
    91          1
    92         15
    95         14
    96          4
    97        120
    98        134
    99         85
   100          8
   101          0
   103         16
   105          1
   106          0
   107         31
   108         19
   109         29
   110          0
   111          6
   112         22
   113          3
   114          5
   115         19
   116         17
   117         99
   118          3
   119          0
   123          9
   124          1
   125         68
   126         18
   127          3
   131         50
   132        339
   133         10
   134        109
   135         11
   139         30
   140          8
   150         21
   151         13
   152          0
   165          3
   166          9
   167        328
   168         36
   169         15
   194         13
   197          3
   214          0
   229          8
   240          1
   282          1