##TITLE=Library Entry 15975
##JCAMP-DX=Revision 4.10 
##DATA TYPE=MASS SPECTRUM
##SAMPLE DESCRIPTION=CARL DJERASSI DEPT OF CHEM STANFORD UNIV STANFORD CALIF
 94305
##NAMES=HP
##CAS NAME=Curan-17-oic acid, 2,16-didehydro-19-hydroxy-, methyl ester, (20.
xi.)-
##MOLFORM=C20H24N2O3
##CAS REGISTRY NO=38681-90-2
##MP= -300
##BP= -300
##MW= 340
##$RETENTION INDEX=0
##$CONDENSED SPECTRUM=NO
##NPOINTS= 211
##XYDATA=(XY..XY) 1 
    40         25
    41         95
    42        120
    43        135
    44        999
    45         65
    49         10
    50         55
    51         90
    52         70
    53         40
    54         20
    55         40
    56         30
    57         30
    58         35
    59         30
    61          5
    62         15
    63         45
    64         15
    65         80
    66         15
    67         35
    68         25
    69         20
    70         50
    71         20
    72         10
    73         10
    74         20
    75         25
    76         20
    77         65
    78         45
    79         90
    80         35
    81         20
    82         35
    83         10
    87         10
    88         10
    89         25
    90         10
    91         20
    92        175
    93         45
    94        140
    95         25
    96         45
    97         15
    98         15
    99          5
   100          5
   101         15
   102         20
   103         15
   104         15
   105         15
   106        100
   107        165
   108         45
   109         10
   110         10
   111          5
   112          5
   113         10
   114         10
   115         80
   116         25
   117         20
   118         15
   119         10
   120         20
   121         50
   122         40
   123         20
   124         10
   126         10
   127         25
   128         40
   129         30
   130         35
   131         15
   132          5
   133          5
   134          5
   135          5
   136          5
   137          5
   138         25
   139         40
   140         80
   141         20
   142         25
   143         40
   144         65
   145         15
   149          5
   151         40
   152         25
   153         20
   154         60
   155         30
   156         90
   157        110
   158         75
   159         15
   164          5
   165         10
   166         20
   167         75
   168         65
   169         35
   170         40
   171         20
   172         15
   173          5
   178         10
   179         15
   180        110
   181         75
   182         80
   183         65
   184         25
   185         10
   186          5
   190          5
   191         10
   192         15
   193         30
   194         50
   195         25
   196         25
   197         40
   198         25
   199         10
   200          5
   202          5
   203          5
   204         10
   205         10
   206         25
   207         40
   208         40
   209         35
   210         20
   211         30
   212         10
   214          5
   215         10
   216         10
   217         10
   218          5
   219         10
   220         20
   221         35
   222         25
   223         15
   224         10
   225         20
   226         15
   227         15
   228          5
   232          5
   233          5
   234         10
   235         15
   236         15
   237         20
   238         15
   239         20
   240         10
   241         70
   242         15
   247          5
   248          5
   249         10
   250          5
   251         10
   252         15
   253         15
   254          5
   261          5
   262          5
   263         15
   264         10
   265         15
   266         10
   267          5
   277          5
   278         10
   279          5
   280         10
   281         15
   282         30
   283          5
   284          5
   292          5
   293          5
   294          5
   295         10
   296         20
   297          5
   307          5
   308         45
   309         10
   310          5
   322          5
   340         15
   341          5