##TITLE=Library Entry 55831
##JCAMP-DX=Revision 4.10 
##DATA TYPE=MASS SPECTRUM
##SAMPLE DESCRIPTION=Japan AIST/NIMC Database- Spectrum MS-NW-3352
##NAMES=HP
##CAS NAME=d-Leucyl-l-leucine
##MOLFORM=C12H24N2O3
##CAS REGISTRY NO=38689-31-5
##MP= -300
##BP= -300
##MW= 244
##$RETENTION INDEX=0
##$CONDENSED SPECTRUM=NO
##NPOINTS= 88
##XYDATA=(XY..XY) 1 
    15          5
    17          4
    18          3
    26          1
    27         39
    28         43
    29         27
    30        192
    31          3
    38          1
    39         19
    40          4
    41         66
    42         25
    43        118
    44        203
    45          7
    46          1
    51          1
    52          1
    53          6
    54          5
    55         28
    56         11
    57         12
    58          2
    59          1
    65          1
    67          5
    68          5
    69         13
    70         24
    71          8
    72          5
    73          8
    74          4
    80          1
    81          2
    82          3
    83          2
    84         12
    85         12
    86        999
    87         59
    88          2
    95          2
    96          3
    97          5
    98          7
    99          2
   100          1
   110          1
   111          1
   112         11
   113         20
   114         16
   115          1
   116          1
   124          1
   125          1
   126          2
   127          2
   128          1
   130          2
   132          5
   138          1
   139          1
   140         42
   141         32
   142          4
   144          2
   151          1
   153          1
   154          1
   155          6
   166          1
   169          4
   170         93
   171          9
   172          1
   183         13
   184          2
   187          4
   188          3
   199          1
   211          3
   212          1
   229          2