##TITLE=Library Entry 50094
##JCAMP-DX=Revision 4.10 
##DATA TYPE=MASS SPECTRUM
##SAMPLE DESCRIPTION=KONINKLIJKE SHELL LABORATORIUM AMSTERDAM
##NAMES=HP
##CAS NAME=Pentalene, octahydro-2-methyl-
##MOLFORM=C9H16
##CAS REGISTRY NO=3868-64-2
##MP= -300
##BP= -300
##MW= 124
##$RETENTION INDEX=930
##$CONDENSED SPECTRUM=NO
##NPOINTS= 87
##XYDATA=(XY..XY) 1 
    36          1
    37         11
    38         35
    39        436
    40         70
    41        507
    42        100
    43         69
    44          2
    45          1
    46          1
    47          0
    48          0
    49          2
    50         28
    51         64
    52         34
    53        153
    54        206
    55        240
    56         34
    57         30
    58          2
    59          0
    60          0
    61          2
    62          6
    63         16
    64          4
    65         42
    66         51
    67        686
    68        174
    69         43
    70          9
    71          5
    72          2
    73          1
    74          3
    75          3
    76          2
    77         53
    78         17
    79         77
    80         53
    81        999
    82        450
    83         52
    84          3
    85          1
    86          1
    87          0
    88          0
    89          1
    90          1
    91         18
    92          3
    93         15
    94          7
    95         95
    96        407
    97         30
    98          1
    99          0
   102          0
   103          1
   104          0
   105          1
   106          0
   107          2
   108          0
   109         81
   110          7
   111          0
   112          0
   115          0
   116          0
   117          0
   118          0
   119          0
   120          0
   121          0
   122          2
   123          4
   124        128
   125         12
   126          0