##TITLE=Library Entry 62251
##JCAMP-DX=Revision 4.10 
##DATA TYPE=MASS SPECTRUM
##SAMPLE DESCRIPTION=Exported from NIST MS Search
##NAMES=HP
##CAS NAME=2-Cyclopentene-1-thione, 2-ethyl-3-methyl-
##MOLFORM=C8H12S
##CAS REGISTRY NO=38693-67-3
##MP= -300
##BP= -300
##MW= 140
##$RETENTION INDEX=0
##$CONDENSED SPECTRUM=NO
##NPOINTS= 14
##XYDATA=(XY..XY) 1 
    39        420
    41        340
    45        260
    53        200
    65        300
    77        450
    79        539
    91        999
    97        230
   105        340
   111        220
   125        350
   139        959
   140        969