##TITLE=Library Entry 69351
##JCAMP-DX=Revision 4.10 
##DATA TYPE=MASS SPECTRUM
##SAMPLE DESCRIPTION=J.VOTH UNIV. OF CALIFORNIA, DAVIS, CALIFORNIA, 95616, U
SA
##NAMES=HP
##CAS NAME=Cyclohexanone, 2,5,5-trimethyl-3-(1-methylethylidene)-
##MOLFORM=C12H20O
##CAS REGISTRY NO=38696-32-1
##MP= -300
##BP= -300
##MW= 180
##$RETENTION INDEX=1346
##$CONDENSED SPECTRUM=NO
##NPOINTS= 120
##XYDATA=(XY..XY) 1 
    14         13
    15         90
    16          2
    17          6
    18         23
    26         13
    27        271
    28         73
    29        207
    30          4
    31          1
    37          3
    38         12
    39        295
    40         53
    41        475
    42         59
    43        106
    44          3
    45          3
    46          2
    47          1
    48          1
    50         39
    51        131
    52         57
    53        286
    54        103
    55        341
    56        138
    57         94
    58          7
    59          7
    60          4
    61          5
    62         10
    63         33
    64          9
    65         77
    66         38
    67        294
    68        101
    69         75
    70         27
    71          4
    72          1
    73         15
    74          6
    75         13
    76          5
    77        104
    78         26
    79        173
    80         31
    81        549
    82         97
    83        957
    84         55
    85         10
    86          1
    87          1
    89          3
    90          2
    91         66
    92         10
    93         40
    94         16
    95        156
    96        999
    97        106
    98          8
   102          1
   103          5
   104          2
   105         20
   106          8
   107         32
   108         10
   109        123
   110         14
   111          8
   112          3
   115          3
   116          1
   117          2
   118          1
   119          7
   120          2
   121         18
   122          8
   123         65
   124         54
   125          9
   126          1
   131          1
   133          2
   134          1
   135          3
   136          3
   137        107
   138         21
   139         22
   140          2
   147          8
   148          1
   149          2
   150          1
   151          9
   152          6
   162          1
   163          2
   164          2
   165        151
   166         18
   167          1
   178          1
   179          4
   180        443
   181         58
   182          4