##TITLE=Library Entry 19445
##JCAMP-DX=Revision 4.10 
##DATA TYPE=MASS SPECTRUM
##SAMPLE DESCRIPTION=FOOD RESEARCH REPORT 120, K.E. MURRAY & COLLEAGUES, DIV
. OF FOOD RESEARCH, CSIRO, AUSTRALIA
##NAMES=HP
##CAS NAME=2-Heptenoic acid, methyl ester, (E)-
##MOLFORM=C8H14O2
##CAS REGISTRY NO=38693-91-3
##MP= -300
##BP= -300
##MW= 142
##$RETENTION INDEX=0
##$CONDENSED SPECTRUM=NO
##NPOINTS= 61
##XYDATA=(XY..XY) 1 
    26         80
    27        780
    29        310
    30         20
    31         50
    33         10
    37         20
    38         50
    39        580
    40        130
    41        950
    42        160
    43        450
    45         70
    50         30
    51         60
    52         40
    53        260
    54        100
    55        999
    56        280
    57         40
    58         30
    59        360
    60         10
    63         10
    65         20
    66         20
    67        110
    68        380
    69        340
    70         30
    71        100
    72         20
    73         10
    74        430
    75         30
    77         20
    79         30
    81        250
    82        220
    83         70
    85        100
    86         10
    87        930
    88         90
    95         30
    96         10
    97         10
    99         30
   100        170
   101        160
   102         10
   110        130
   111        280
   112         20
   113        520
   114         50
   125         20
   127         20
   142         50