##TITLE=Library Entry 67833
##JCAMP-DX=Revision 4.10 
##DATA TYPE=MASS SPECTRUM
##SAMPLE DESCRIPTION=A.Pleshkova, Nesmeyanov Inst.Org.Elem.Cpds, Moscow
##NAMES=HP
##CAS NAME=Diisopropylaminoacrylonitryl
##MOLFORM=C9H16N2
##CAS REGISTRY NO=38691-28-0
##MP= -300
##BP= -300
##MW= 152
##$RETENTION INDEX=0
##$CONDENSED SPECTRUM=NO
##NPOINTS= 44
##XYDATA=(XY..XY) 1 
    39         61
    40         61
    41        261
    42        163
    43        382
    44         32
    52         43
    53         21
    54         32
    55         63
    56         32
    57         25
    58         22
    66         31
    67         52
    68        181
    69         33
    70        135
    71        122
    72         11
    78         73
    79         54
    80         11
    81         23
    82         83
    83         56
    84         51
    85          8
    92         23
    93         83
    94         55
    95        999
    96         82
    97         11
   108         23
   109        205
   110         53
   111          9
   137        251
   138         55
   139          9
   152        353
   153         72
   154          2