##TITLE=Library Entry 1913
##JCAMP-DX=Revision 4.10 
##DATA TYPE=MASS SPECTRUM
##SAMPLE DESCRIPTION=A.A.Kutin, Moscow, Russia
##NAMES=HP
##CAS NAME=Thiophene, 3-methylsulfonyl-
##MOLFORM=C5H6O2S2
##CAS REGISTRY NO=38695-58-8
##MP= -300
##BP= -300
##MW= 162
##$RETENTION INDEX=0
##$CONDENSED SPECTRUM=NO
##NPOINTS= 55
##XYDATA=(XY..XY) 1 
    33          4
    34          3
    36          3
    37         40
    38        134
    39        999
    40        144
    43         18
    44         31
    45        404
    46         17
    47         22
    48         22
    49         19
    50         56
    51         24
    52          1
    53         17
    55         29
    57        101
    58         26
    59         24
    63         22
    64         12
    65          4
    68          4
    69         60
    70          5
    71         66
    72          6
    73         31
    76          3
    77         76
    79         23
    81        103
    82        134
    83        596
    84         46
    85         28
    86          2
    87         19
    97         15
    99        413
   100         38
   101         18
   103         12
   115          6
   130          3
   131         40
   147        625
   148         35
   149         64
   162        508
   163         32
   164         42