##TITLE=Library Entry 10703
##JCAMP-DX=Revision 4.10 
##DATA TYPE=MASS SPECTRUM
##SAMPLE DESCRIPTION=A.Pleshkova, Nesmeyanov Inst.Org.Elem.Cpds, Moscow
##NAMES=HP
##CAS NAME=Diisopropyl-cyano-phosphine
##MOLFORM=C7H14NP
##CAS REGISTRY NO=38691-24-6
##MP= -300
##BP= -300
##MW= 143
##$RETENTION INDEX=0
##$CONDENSED SPECTRUM=NO
##NPOINTS= 34
##XYDATA=(XY..XY) 1 
    26         22
    27        453
    28         72
    29         81
    30         22
    31        113
    32          9
    39        121
    40         35
    41        337
    42         93
    43        999
    44         62
    45         83
    46         31
    47         35
    57         53
    58         41
    59         43
    60         31
    71         22
    72         43
    73         74
    74        247
    75         41
    85         21
    86         93
    87         15
   101        552
   102         61
   103         11
   143        221
   144         19
   145          1