##TITLE=Library Entry 109493
##JCAMP-DX=Revision 4.10 
##DATA TYPE=MASS SPECTRUM
##SAMPLE DESCRIPTION=NIST Mass Spectrometry Data Center, 2010
##NAMES=HP
##CAS NAME=Trifluoroacetic acid, 4-chlorobenzyl ester
##MOLFORM=C9H6ClF3O2
##CAS REGISTRY NO=38696-07-0
##MP= -300
##BP= -300
##MW= 238
##$RETENTION INDEX=1184
##$CONDENSED SPECTRUM=NO
##NPOINTS= 96
##XYDATA=(XY..XY) 1 
    26          2
    27          4
    28          4
    29          7
    31          3
    35          1
    36          1
    37          6
    38         14
    39         42
    40          4
    41          1
    43          5
    44         21
    47          2
    48          1
    49          8
    50         67
    51         67
    52          9
    53          2
    57          1
    60          2
    61         14
    62         41
    63        109
    64         20
    65         11
    66          1
    69        153
    70          2
    72          3
    73         29
    74         24
    75         64
    76         13
    77         80
    78         15
    79          1
    83          4
    84          4
    85         12
    86         10
    87         11
    88          5
    89        318
    90         73
    91          6
    95          1
    96          1
    97         11
    98          1
    99         56
   100          3
   101         18
   102          1
   104          1
   105         11
   106          1
   107          2
   108          2
   109          8
   110          2
   111         44
   112          8
   113         17
   114          3
   115          1
   117          1
   123          7
   124        377
   125        999
   126        195
   127        333
   128         24
   129          1
   139         26
   140          4
   141         21
   142          2
   143          9
   144          1
   145          4
   155          1
   161          3
   163          1
   169          1
   175          6
   176          1
   203         58
   204          6
   209          1
   238        171
   239         18
   240         56
   241          5