##TITLE=Library Entry 59971
##JCAMP-DX=Revision 4.10 
##DATA TYPE=MASS SPECTRUM
##SAMPLE DESCRIPTION=Chemical Concepts
##NAMES=HP
##CAS NAME=Bicyclo[3.2.0]hept-2-ene, 6-methylene-
##MOLFORM=C8H10
##CAS REGISTRY NO=38695-51-1
##MP= -300
##BP= -300
##MW= 106
##$RETENTION INDEX=0
##$CONDENSED SPECTRUM=NO
##NPOINTS= 61
##XYDATA=(XY..XY) 1 
    25          1
    26         23
    27        167
    28         29
    29          4
    31          0
    32          4
    36          0
    37         19
    38         56
    39        389
    40        104
    41         91
    42          3
    43          1
    45          1
    49          6
    50         72
    51        170
    52         74
    53         47
    54         10
    55          1
    57          2
    58          1
    59          2
    60          1
    61          9
    62         23
    63         58
    64         15
    65        187
    66        928
    67         80
    68          2
    73          3
    74         14
    75         11
    76          9
    77        178
    78        708
    79        197
    80         14
    81          0
    85          1
    86          1
    87          1
    88          0
    89         12
    90          6
    91        999
    92         77
    93          3
    98          1
   101          2
   102          7
   103         56
   104         12
   105        193
   106        122
   107         10