##TITLE=Library Entry 69876
##JCAMP-DX=Revision 4.10 
##DATA TYPE=MASS SPECTRUM
##SAMPLE DESCRIPTION=CARL DJERASSI DEPT OF CHEM STANFORD UNIV STANFORD CALIF
 94305
##NAMES=HP
##CAS NAME=Stigmasta-5,22-dien-3-ol, trifluoroacetate, (3.beta.,22E)-
##MOLFORM=C31H47F3O2
##CAS REGISTRY NO=3870-50-6
##MP= -300
##BP= -300
##MW= 508
##$RETENTION INDEX=0
##$CONDENSED SPECTRUM=NO
##NPOINTS= 108
##XYDATA=(XY..XY) 1 
    41        445
    43        485
    44         69
    53         39
    55        881
    56         49
    57        336
    67        435
    68         59
    69        762
    70         89
    71        247
    77        148
    79        376
    80         49
    81        722
    82        227
    83        881
    84        217
    85        178
    91        465
    92         89
    93        386
    95        653
    96        198
    97        999
    98         99
   105        455
   106         79
   107        455
   108         99
   109        465
   110        198
   111        168
   117        128
   118         39
   119        267
   120        128
   121        237
   122        128
   123        574
   124        108
   125         29
   129         59
   130         19
   131        188
   132         59
   133        524
   134         69
   135        207
   136         19
   137        277
   138         49
   139          9
   143        178
   144         69
   145        564
   146        108
   147        326
   148         49
   149        118
   157        168
   158        128
   159        396
   160         69
   161        148
   162         19
   163         59
   165         29
   166        128
   171         49
   173         79
   175         69
   176         19
   185         49
   187         29
   191         19
   199         79
   213        158
   214          9
   215          9
   253         39
   254         69
   255        485
   256         79
   271         19
   272        148
   273        108
   296         29
   351        306
   352         69
   354        108
   366         89
   367        445
   368        207
   369        118
   382         59
   383         49
   394        514
   395        257
   396        326
   397         89
   410         69
   465        217
   466         39
   493          9
   508        524
   509        148