##TITLE=Library Entry 28888
##JCAMP-DX=Revision 4.10 
##DATA TYPE=MASS SPECTRUM
##SAMPLE DESCRIPTION=Japan AIST/NIMC Database- Spectrum MS-IW- 71
##NAMES=HP
##CAS NAME=Dimethylaminoacetaldehyde dimethyl acetal
##MOLFORM=C6H15NO2
##CAS REGISTRY NO=38711-20-5
##MP= -300
##BP= -300
##MW= 133
##$RETENTION INDEX=0
##$CONDENSED SPECTRUM=NO
##NPOINTS= 45
##XYDATA=(XY..XY) 1 
    15         22
    18          2
    26          1
    27          6
    28         14
    29         18
    30         49
    31         21
    32          1
    40          2
    41          6
    42         57
    43         30
    44         29
    45         17
    47         30
    54          1
    55          3
    56         17
    57         21
    58        999
    59        103
    60          3
    70         13
    71         50
    72         48
    73          3
    74          2
    75        140
    76          4
    84          1
    85          1
    86         12
    87          7
    88          4
    89          1
   100          4
   101          6
   102        197
   103         36
   104          2
   116          1
   132          1
   133         73
   134          6