##TITLE=Library Entry 81995
##JCAMP-DX=Revision 4.10 
##DATA TYPE=MASS SPECTRUM
##SAMPLE DESCRIPTION=Div. of Experiment Therapeutics WRAIR, WRAMC, Washingto
n DC 20307
##NAMES=HP
##CAS NAME=5-Chloro-2-[2-phenylethoxy]benzonitrile
##MOLFORM=C15H12ClNO
##CAS REGISTRY NO=38711-11-4
##MP= -300
##BP= -300
##MW= 257
##$RETENTION INDEX=0
##$CONDENSED SPECTRUM=NO
##NPOINTS= 102
##XYDATA=(XY..XY) 1 
    41          4
    43          0
    47          2
    49          8
    50         18
    51         56
    52         12
    53         10
    54          0
    61          5
    62         12
    63         29
    65         41
    66          2
    73         12
    74          5
    75         10
    77        136
    78         26
    79        127
    80          6
    84          2
    85          0
    86          4
    87          2
    88          8
    89         12
    91         74
    92          4
    97          3
    98          4
    99          1
   100         10
   103         92
   105        999
   106         86
   107          3
   109          0
   110          0
   111          1
   113          0
   115          1
   117          2
   124         14
   125          4
   126          6
   127          1
   128          1
   129          1
   131          1
   135          1
   136          4
   138          3
   140          1
   141          2
   142          1
   143          1
   144          0
   145          0
   152          4
   153          4
   154          1
   155          2
   156          0
   166          9
   167          2
   168          0
   169          3
   177          1
   179          2
   181          6
   182          2
   189          0
   191          0
   192          0
   193          1
   194          0
   195          2
   201          0
   203          0
   204          0
   205          0
   206          2
   207          0
   209          5
   210          0
   215          1
   220          1
   221          1
   222          2
   228          0
   230          4
   231          0
   232          1
   235          0
   240          0
   254          0
   256         67
   257        234
   258         74
   259         78
   260         24