##TITLE=Library Entry 22353
##JCAMP-DX=Revision 4.10 
##DATA TYPE=MASS SPECTRUM
##SAMPLE DESCRIPTION=F.CHASTRETTE UNIV. OF LYON, VILLEURBANNE, FRANCE
##NAMES=HP
##CAS NAME=[1,4]Dioxino[2,3-b]-1,4-dioxin, hexahydro-2,3,6,7-tetramethyl-
##MOLFORM=C10H18O4
##CAS REGISTRY NO=38737-48-3
##MP= -300
##BP= -300
##MW= 202
##$RETENTION INDEX=0
##$CONDENSED SPECTRUM=NO
##NPOINTS= 16
##XYDATA=(XY..XY) 1 
    39        160
    40         35
    41        465
    43        260
    45        105
    55        600
    56        999
    57        130
    60         25
    71         70
    72         75
    73        560
    85         60
   101        520
   114        370
   202         54