##TITLE=Library Entry 56201
##JCAMP-DX=Revision 4.10 
##DATA TYPE=MASS SPECTRUM
##SAMPLE DESCRIPTION=F.CHASTRETTE UNIV. OF LYON, VILLEURBANNE, FRANCE
##NAMES=HP
##CAS NAME=[1,4]Dioxino[2,3-b]-1,4-dioxin, hexahydro-2,2,3,3-tetramethyl-
##MOLFORM=C10H18O4
##CAS REGISTRY NO=38737-49-4
##MP= -300
##BP= -300
##MW= 202
##$RETENTION INDEX=0
##$CONDENSED SPECTRUM=NO
##NPOINTS= 20
##XYDATA=(XY..XY) 1 
    39        105
    41        230
    43        240
    45        110
    55        115
    57        100
    58        230
    59         80
    67         25
    69        430
    73         30
    83        200
    84        230
    85        100
    86        999
    87         80
   129        167
   142         10
   144         10
   202         58