##TITLE=Library Entry 66614
##JCAMP-DX=Revision 4.10 
##DATA TYPE=MASS SPECTRUM
##SAMPLE DESCRIPTION=Chemical Concepts
##NAMES=HP
##CAS NAME=Bicyclo[4.1.0]heptan-3-ol, 4,7,7-trimethyl-, (1.alpha.,3.alpha.,4
.beta.,6.alpha.)-
##MOLFORM=C10H18O
##CAS REGISTRY NO=38748-96-8
##MP= -300
##BP= -300
##MW= 154
##$RETENTION INDEX=0
##$CONDENSED SPECTRUM=NO
##NPOINTS= 98
##XYDATA=(XY..XY) 1 
    28         13
    29        257
    30         21
    31         56
    37          1
    38          7
    39        265
    40         15
    41        622
    42         67
    43        390
    44         16
    45         35
    46          1
    47          0
    48          0
    49          0
    50          9
    51         40
    52         19
    53        168
    54         66
    55        621
    56        118
    57        188
    58        273
    59         40
    60          2
    61          0
    62          2
    63          8
    64          2
    65         55
    66         23
    67        352
    68         88
    69        324
    70        118
    71        101
    72         25
    73          2
    75          0
    76          0
    77        107
    78         17
    79        318
    80         98
    81        676
    82        130
    83        159
    84         88
    85         87
    86          8
    89          0
    91        127
    92        270
    93        999
    94        134
    95        273
    96        319
    97        277
    98         31
    99          7
   100          5
   101          0
   103          4
   104          0
   105         71
   106         17
   107        426
   108         67
   109         30
   110         50
   111         89
   112         39
   113         24
   114          2
   115          1
   117          1
   119         14
   120          3
   121        888
   122         87
   123         16
   124          2
   125          6
   133          0
   134          0
   135         19
   136        979
   137        112
   138         30
   139         23
   140          2
   153          3
   154         83
   155          9
   156          4