##TITLE=Library Entry 28898
##JCAMP-DX=Revision 4.10 
##DATA TYPE=MASS SPECTRUM
##SAMPLE DESCRIPTION=A.S.Moskovkin,I.M.Karnaukh, Russian Center on Disaster
 Medicine
##NAMES=HP
##CAS NAME=1,8-Diphenyl-3,6-diazahomoadamantan-9-one
##MOLFORM=C21H22N2O
##CAS REGISTRY NO=38740-12-4
##MP= -300
##BP= -300
##MW= 318
##$RETENTION INDEX=0
##$CONDENSED SPECTRUM=NO
##NPOINTS= 149
##XYDATA=(XY..XY) 1 
    39         11
    40         14
    41         25
    42         93
    43         34
    44         31
    45          6
    50          3
    51          8
    52          3
    53          3
    54          7
    55         19
    56         34
    57         39
    58        999
    59         42
    63          3
    65          6
    66          1
    67          4
    68          5
    69         10
    70         10
    71         10
    72          7
    73          2
    74          9
    75         17
    76         44
    77         47
    78         15
    79          3
    80          2
    81          3
    82          5
    83         10
    84          8
    85         29
    86          3
    87         20
    88         16
    89          8
    90          5
    91         68
    92          7
    96          2
    97          5
    98          3
    99          3
   101          3
   102         19
   103        160
   104         31
   105          8
   106          4
   115         57
   116         22
   117         52
   118         27
   119          5
   120          3
   121          1
   125          1
   127          4
   128          8
   129         12
   130         21
   131         15
   132          5
   133          3
   141          3
   142          3
   143         11
   144         30
   145         11
   146          7
   154          2
   155          2
   156          8
   157          4
   158         20
   159          9
   160         48
   161          6
   165          2
   170          5
   171          4
   172          7
   173          3
   178          3
   185          5
   186         10
   187          8
   189          2
   190          2
   191          4
   192          1
   194          2
   198          2
   199          2
   200          1
   201         15
   202          6
   203          4
   204          3
   205          5
   206          2
   213          1
   215          5
   216          2
   217          3
   218          4
   219          5
   220          2
   227          1
   228          2
   229          1
   230          2
   231          3
   232          6
   233          4
   234          8
   235          2
   241          3
   243          1
   244          1
   245          1
   246          5
   247          5
   248          4
   258          1
   260          2
   261          2
   262          2
   271          2
   272          8
   273          2
   274          5
   275          2
   276          2
   279          2
   289          2
   290         10
   291          2
   317          4
   318         96
   319         23
   320          3