##TITLE=Library Entry 85046
##JCAMP-DX=Revision 4.10 
##DATA TYPE=MASS SPECTRUM
##SAMPLE DESCRIPTION=R. GREENHALGH, AGRIC. CAN., PLANT RES. CENT., OTTAWA, C
AN.
##NAMES=HP
##CAS NAME=Isotrichodermol
##MOLFORM=C15H22O3
##CAS REGISTRY NO=38757-97-0
##MP= -300
##BP= -300
##MW= 250
##$RETENTION INDEX=0
##$CONDENSED SPECTRUM=NO
##NPOINTS= 35
##XYDATA=(XY..XY) 1 
    53        254
    55        379
    67        311
    77        342
    79        283
    91        503
    93        944
    95        372
   105        213
   107        433
   108        999
   109        499
   119        188
   123        514
   124        778
   125        253
   133        146
   135        106
   159         85
   161         87
   171         88
   173         83
   175         45
   187         34
   189         99
   191         24
   199         56
   202        170
   203        153
   217         36
   222         18
   235        342
   236         47
   250        152
   251         13