##TITLE=Library Entry 81211
##JCAMP-DX=Revision 4.10 
##DATA TYPE=MASS SPECTRUM
##SAMPLE DESCRIPTION=Exported from NIST MS Search
##NAMES=HP
##CAS NAME=Methanone, (1-ethyl-3-phenyl-2-aziridinyl)phenyl-, cis-
##MOLFORM=C17H17NO
##CAS REGISTRY NO=38751-79-0
##MP= -300
##BP= -300
##MW= 251
##$RETENTION INDEX=0
##$CONDENSED SPECTRUM=NO
##NPOINTS= 45
##XYDATA=(XY..XY) 1 
    29         64
    30         11
    41        106
    51         98
    63         65
    65         54
    69         91
    77        702
    78         79
    79         13
    89        161
    90        161
    91        260
    92         24
   104         63
   105        999
   106         82
   107         11
   117        137
   118        191
   119         30
   120         32
   145         63
   146        780
   147         95
   152         41
   165         68
   166         34
   167        164
   168         31
   174        671
   175         76
   206         82
   207         57
   208         13
   222        123
   223         27
   224         11
   234        379
   235         79
   236         19
   250        157
   251        654
   252        123
   253         16