##TITLE=Library Entry 33504
##JCAMP-DX=Revision 4.10 
##DATA TYPE=MASS SPECTRUM
##SAMPLE DESCRIPTION=Exported from NIST MS Search
##NAMES=HP
##CAS NAME=Cyclopentane, (1-methylethyl)-
##MOLFORM=C8H16
##CAS REGISTRY NO=3875-51-2
##MP= -300
##BP= -300
##MW= 112
##$RETENTION INDEX=817
##$CONDENSED SPECTRUM=NO
##NPOINTS= 63
##XYDATA=(XY..XY) 1 
    13          1
    14          1
    15         40
    16          1
    26         10
    27        245
    28         48
    29        127
    30          3
    37          3
    38          8
    39        226
    40         48
    41        719
    42        181
    43        262
    44          9
    45          1
    46          2
    47          1
    50          4
    51         14
    52          8
    53         68
    54         21
    55        426
    56        310
    57        116
    58          5
    62          1
    63          4
    64          1
    65         14
    67        168
    68        999
    69        842
    70        123
    71          8
    72          1
    77          7
    78          2
    79          6
    80          1
    81          6
    82          4
    83         32
    84         56
    85          3
    89          1
    91          2
    92          1
    93          1
    94          1
    95          3
    96          6
    97        259
    98         19
    99          1
   109          1
   110          1
   111          4
   112         29
   113          2