##TITLE=Library Entry 12214
##JCAMP-DX=Revision 4.10 
##DATA TYPE=MASS SPECTRUM
##SAMPLE DESCRIPTION=Chemical Concepts
##NAMES=HP
##CAS NAME=Pregn-16-ene-11,14,18,20-tetrol, 3,9-epoxy-3-methoxy-, 11,20-diac
etate, (3.alpha.,5.beta.,11.alpha.,14.beta.,20R)-
##MOLFORM=C26H38O8
##CAS REGISTRY NO=38774-56-0
##MP= -300
##BP= -300
##MW= 478
##$RETENTION INDEX=0
##$CONDENSED SPECTRUM=NO
##NPOINTS= 337
##XYDATA=(XY..XY) 1 
    27         36
    29         67
    30         12
    31         23
    35         10
    36         11
    39         29
    40         10
    41        181
    42         29
    43        999
    44         41
    45         90
    47         16
    49         54
    51         29
    53         38
    55        170
    56         30
    57         60
    59         36
    60         49
    61         29
    65         37
    66         14
    67        103
    68         15
    69         86
    70         12
    71         50
    72         22
    73         24
    74         26
    76         10
    77        101
    78         25
    79        146
    80         39
    81        114
    82         30
    83         36
    84         37
    85         74
    86         30
    87         35
    88         12
    91        196
    92         33
    93        158
    94         32
    95        121
    96         29
    97         57
    98         20
    99         24
   100         16
   101         16
   102         11
   103         14
   104         21
   105        161
   106         36
   107        146
   108         52
   109        114
   110         66
   111        100
   112         30
   113         20
   114         12
   115         41
   116         23
   117         86
   118         28
   119        138
   120        229
   121        164
   122         85
   123        174
   124         96
   125         91
   126         23
   127         23
   128         44
   129         65
   130         30
   131         72
   132         35
   133        108
   134         60
   135        198
   136        103
   137        207
   138        376
   139         60
   140         54
   141         50
   142         41
   143         73
   144         32
   145         77
   146         38
   147         72
   148         50
   149        123
   150         37
   151         91
   152         34
   153         29
   154         31
   155         92
   156         52
   157         63
   158         36
   159         60
   160         33
   161         79
   162         35
   163         49
   164         30
   165         33
   166         25
   167         40
   168         31
   169         62
   170         28
   171         88
   172         60
   173         67
   174         49
   175         69
   176         31
   177         36
   178         21
   179         44
   180         42
   181         54
   182         30
   183         39
   184         31
   185         63
   186         39
   187         85
   188         37
   189         53
   190         27
   191         40
   192         23
   193         51
   194         28
   195         76
   196         34
   197         62
   198         41
   199         47
   200         30
   201         54
   202         35
   203        121
   204         37
   205         39
   206         31
   207         53
   208         57
   209         52
   210         28
   211         50
   212         25
   213         41
   214         27
   215         29
   216         22
   217         19
   218         21
   219         36
   220         23
   221         82
   222         26
   223        137
   224         65
   225         84
   226         42
   227         36
   228         32
   229         21
   230         18
   231         14
   232         13
   233         13
   234         14
   235         35
   236         22
   237         41
   238         30
   239         39
   240         28
   241         66
   242         36
   243         33
   244         25
   245         24
   246         21
   247         25
   248         11
   249         52
   250         32
   251         42
   252         26
   253         54
   254         43
   255         49
   256        158
   257         57
   258         21
   259         17
   260         11
   261         22
   262         14
   263         52
   264         20
   265         24
   266         24
   267         36
   268         25
   269         28
   270         12
   271         23
   272         41
   273         27
   274         23
   275         19
   276         12
   277         35
   278         28
   279         38
   280         39
   281         49
   282         20
   283         70
   284         27
   285         30
   286         17
   287         11
   289         11
   290         11
   291         28
   292         30
   293         28
   294         14
   295         39
   296         79
   297         33
   298         24
   299         28
   300         20
   301         20
   302         10
   303         11
   304         14
   305         11
   307         17
   308         39
   309         73
   310        133
   311         55
   312         42
   313         26
   314         49
   315         18
   316         27
   317         19
   318         11
   322         27
   323         21
   324         16
   325         30
   326         39
   327         76
   328        101
   329         34
   330         19
   331         15
   332         11
   337         11
   338         13
   339         16
   340        154
   341         55
   342         20
   343         18
   344         14
   345         13
   351         11
   355         12
   357         14
   358        147
   359         84
   360         24
   361         10
   367         14
   368         25
   369         18
   370         15
   371         13
   374         10
   376         12
   382         28
   383         17
   384         15
   385         17
   386         16
   387        152
   388         50
   389         21
   390         11
   391         12
   394         10
   399         10
   400        118
   401         39
   402         20
   403         14
   404         10
   411         10
   415         11
   417         13
   418        181
   419         65
   420         22
   442         12
   443         11
   449         10
   460         38
   461         13
   462         11
   476         10
   478          9