##TITLE=Library Entry 31293
##JCAMP-DX=Revision 4.10 
##DATA TYPE=MASS SPECTRUM
##SAMPLE DESCRIPTION=Exported from NIST MS Search
##NAMES=HP
##CAS NAME=Propane, 1-(methylthio)-
##MOLFORM=C4H10S
##CAS REGISTRY NO=3877-15-4
##MP= -300
##BP= -300
##MW= 90
##$RETENTION INDEX=715
##$CONDENSED SPECTRUM=NO
##NPOINTS= 60
##XYDATA=(XY..XY) 1 
     1         24
     2          3
    12          2
    13          5
    14         22
    15        122
    16          2
    25          3
    26         35
    27        347
    28         28
    29         30
    30          1
    32          5
    33          5
    34          6
    35        142
    36          2
    37         16
    38         25
    39        187
    40         27
    41        349
    42         96
    43        193
    45        242
    46        120
    47        236
    48        397
    49        188
    50         21
    51          9
    53          1
    55          2
    56          1
    57          8
    58         28
    59         35
    60          9
    61        999
    62         49
    63         46
    64          2
    68          1
    69          6
    70          2
    71         11
    72          3
    73          9
    74          6
    75         96
    76          6
    77          4
    87          1
    88          1
    89          5
    90        474
    91         25
    92         22
    93          1