##TITLE=Library Entry 60323
##JCAMP-DX=Revision 4.10 
##DATA TYPE=MASS SPECTRUM
##SAMPLE DESCRIPTION=Exported from NIST MS Search
##NAMES=HP
##CAS NAME=2-Naphthalenemethanol, 8-ethenyl-3,4,4a,5,6,7,8,8a-octahydro-5-me
thylene-
##MOLFORM=C14H20O
##CAS REGISTRY NO=3877-79-0
##MP= -300
##BP= -300
##MW= 204
##$RETENTION INDEX=0
##$CONDENSED SPECTRUM=NO
##NPOINTS= 67
##XYDATA=(XY..XY) 1 
    51        221
    53        371
    55        395
    57        102
    65        237
    66         94
    67        415
    68         86
    69         39
    78        197
    79        790
    80        158
    81        300
    82         55
    83         47
    91        999
    92        300
    93        513
    94        158
    95        249
    96         67
   103        102
   104        162
   105        422
   106        118
   107        288
   108         79
   109        106
   110         67
   115        158
   116         71
   117        422
   118        158
   119        383
   120        142
   121        118
   122        146
   123         67
   128         94
   129        158
   130        102
   131        304
   132        150
   133        110
   134         71
   135        146
   143        118
   144         63
   145        173
   146         39
   147         71
   148        110
   149         47
   150        292
   158        110
   159         71
   161         67
   171         86
   173        565
   174        110
   175         79
   176        308
   177         67
   186         63
   189         23
   204        276
   205         71