##TITLE=Library Entry 24440
##JCAMP-DX=Revision 4.10 
##DATA TYPE=MASS SPECTRUM
##SAMPLE DESCRIPTION=Japan AIST/NIMC Database- Spectrum MS-NW-9995
##NAMES=HP
##CAS NAME=1-Hexadecanesulfonyl chloride
##MOLFORM=C16H33ClO2S
##CAS REGISTRY NO=38775-38-1
##MP= -300
##BP= -300
##MW= 324
##$RETENTION INDEX=0
##$CONDENSED SPECTRUM=NO
##NPOINTS= 186
##XYDATA=(XY..XY) 1 
    26          3
    27         47
    28         21
    29        160
    30          4
    32          2
    34          1
    35          2
    36         22
    37          1
    38          8
    39         42
    40          9
    41        421
    42        111
    43        766
    44         26
    45          1
    47          1
    48         12
    50          1
    51          2
    52          1
    53         23
    54         50
    55        559
    56        277
    57        999
    58         47
    59          1
    60          1
    61          1
    63          7
    64         40
    65          5
    66          9
    67         75
    68        140
    69        608
    70        294
    71        611
    72         34
    73          1
    75          1
    76          1
    77          6
    78          1
    79          8
    80          3
    81         61
    82        214
    83        681
    84        221
    85        360
    86         23
    87          3
    89          2
    91         19
    92          1
    93          8
    94          2
    95         38
    96        112
    97        637
    98        166
    99         98
   100          6
   101          2
   103          1
   104          1
   105          9
   106          1
   107          4
   108          1
   109         19
   110         58
   111        401
   112        129
   113         54
   114          4
   115          1
   117          2
   118          1
   119          6
   121          3
   122          1
   123         12
   124         37
   125        207
   126         88
   127         35
   128          3
   129          1
   131          2
   133          6
   135          3
   137          8
   138         26
   139        100
   140         63
   141         26
   142          2
   143          1
   145          2
   147          5
   149          3
   151          3
   152         18
   153         61
   154         49
   155         18
   156          2
   157          1
   159          2
   161          3
   163          2
   165          1
   166         11
   167         43
   168         36
   169         11
   170          1
   171          2
   173          2
   175          3
   177          2
   179          1
   180          8
   181         31
   182         22
   183          8
   184          1
   185          2
   187          2
   189          2
   191          2
   194          5
   195         24
   196         53
   197          9
   198          1
   199          2
   201          2
   203          2
   205          2
   209          3
   210          1
   211          5
   213          2
   215          2
   217          1
   219          2
   221          1
   222          3
   223          4
   224         83
   225         18
   226          3
   227          2
   229          1
   233          1
   239          3
   241          2
   252          2
   253         16
   254          3
   255          2
   256          1
   257          3
   258          1
   260          2
   267          1
   271         48
   272          9
   273          4
   274          1
   281          1
   289         12
   290          3
   291          1
   307         14
   308          3
   309          6
   310          1
   323          1
   325          1