##TITLE=Library Entry 77632
##JCAMP-DX=Revision 4.10 
##DATA TYPE=MASS SPECTRUM
##SAMPLE DESCRIPTION=Chemical Concepts
##NAMES=HP
##CAS NAME=Naphthalene, 1,2,3,4-tetrahydro-2-methyl-
##MOLFORM=C11H14
##CAS REGISTRY NO=3877-19-8
##MP= -300
##BP= -300
##MW= 146
##$RETENTION INDEX=1207
##$CONDENSED SPECTRUM=NO
##NPOINTS= 77
##XYDATA=(XY..XY) 1 
    26          2
    27         30
    29          4
    37          1
    38          6
    39         67
    40          2
    41         25
    42          1
    50         21
    51         61
    52         18
    53         20
    54          2
    55          9
    57          4
    58         11
    61          2
    62         11
    63         44
    64         39
    65         45
    66          4
    67          5
    68          2
    69          2
    70          4
    71          7
    72          8
    73          1
    74         10
    75         11
    76         11
    77         70
    78         83
    79         15
    80          1
    86          3
    87          4
    88          2
    89         23
    90          4
    91        324
    92         40
    93          2
    98          1
   101          5
   102         26
   103         79
   104        999
   105        114
   106          6
   113          4
   114          4
   115        115
   116         44
   117         99
   118         70
   119          8
   125          1
   126          5
   127         32
   128         78
   129         64
   130         24
   131        193
   132         24
   133          1
   139          4
   141         13
   142          9
   143          6
   144          7
   145         39
   146        457
   147         52
   148          3