##TITLE=Library Entry 73895
##JCAMP-DX=Revision 4.10 
##DATA TYPE=MASS SPECTRUM
##SAMPLE DESCRIPTION=Japan AIST/NIMC Database- Spectrum MS-NW-7242
##NAMES=HP
##CAS NAME=Butanedioic acid, monomethyl ester
##MOLFORM=C5H8O4
##CAS REGISTRY NO=3878-55-5
##MP= -300
##BP= -300
##MW= 132
##$RETENTION INDEX=1106
##$CONDENSED SPECTRUM=NO
##NPOINTS= 65
##XYDATA=(XY..XY) 1 
    12          1
    13          3
    14         13
    15        192
    16          5
    17          1
    18          3
    24          1
    25          7
    26         60
    27        224
    28        177
    29        285
    30         10
    31         77
    32         14
    33         12
    37          2
    38          2
    39          5
    40          1
    41         10
    42         47
    43         73
    44          9
    45        267
    46          7
    47          2
    52          1
    53         10
    54          6
    55        498
    56        135
    57         68
    58          9
    59        238
    60         24
    61          4
    68          1
    69          1
    71          3
    72         22
    73        228
    74         13
    75          1
    77         20
    81          1
    82          2
    83          9
    84          6
    85          5
    86          7
    87         55
    88         53
    89          3
    99          7
   100         91
   101        999
   102         48
   103          8
   104          2
   114        132
   115         38
   116          3
   117          1