##TITLE=Library Entry 67104
##JCAMP-DX=Revision 4.10 
##DATA TYPE=MASS SPECTRUM
##SAMPLE DESCRIPTION=Zaikin V.G., TIPS RAS, Moscow, Russia
##NAMES=HP
##CAS NAME=Carbonic acid, ethyl phenyl ester
##MOLFORM=C9H10O3
##CAS REGISTRY NO=3878-46-4
##MP= -300
##BP= -300
##MW= 166
##$RETENTION INDEX=1233
##$CONDENSED SPECTRUM=NO
##NPOINTS= 42
##XYDATA=(XY..XY) 1 
    26          9
    27         29
    28          2
    29         66
    36          4
    37          3
    38         10
    39         54
    40         11
    41          2
    43          3
    44         19
    50         14
    51         31
    52          5
    53          3
    55         11
    61          2
    62          6
    63         18
    64          7
    65         82
    66         92
    67          5
    68          1
    74          4
    75          2
    76          4
    77         93
    78         11
    79         17
    91          2
    93         13
    94        999
    95         63
    96          3
   105          2
   107          3
   121         14
   122         21
   166         56
   167          5