##TITLE=Library Entry 1579
##JCAMP-DX=Revision 4.10 
##DATA TYPE=MASS SPECTRUM
##SAMPLE DESCRIPTION=NIST Mass Spectrometry Data Center
##NAMES=HP
##CAS NAME=4-Hydroxybutyric acid hydrazide
##MOLFORM=C4H10N2O2
##CAS REGISTRY NO=3879-08-1
##MP= -300
##BP= -300
##MW= 118
##$RETENTION INDEX=0
##$CONDENSED SPECTRUM=NO
##NPOINTS= 49
##XYDATA=(XY..XY) 1 
    15          3
    16          2
    17          5
    18          3
    26         16
    27         71
    29        127
    30         33
    31        554
    32        999
    33         23
    37          6
    38         10
    39         89
    40         10
    41        408
    42        108
    43        265
    44         57
    45        153
    46          4
    50          1
    51          3
    52          5
    53         10
    54         18
    55        120
    56         34
    57         90
    58         38
    59        103
    60          5
    68          4
    69        236
    70         13
    71          2
    72          3
    73          4
    74         50
    75          2
    85         16
    86         13
    87        230
    88         46
    89          3
    99          5
   100         16
   101          2
   118          6