##TITLE=Library Entry 49748
##JCAMP-DX=Revision 4.10 
##DATA TYPE=MASS SPECTRUM
##SAMPLE DESCRIPTION=A.A.Kutin, Moscow, Russia
##NAMES=HP
##CAS NAME=Cyclohexanecarboxylic acid, 4-hexyl-
##MOLFORM=C13H24O2
##CAS REGISTRY NO=38792-92-6
##MP= -300
##BP= -300
##MW= 212
##$RETENTION INDEX=0
##$CONDENSED SPECTRUM=NO
##NPOINTS= 151
##XYDATA=(XY..XY) 1 
    35          0
    36          1
    37          1
    39        137
    40         30
    41        485
    42         74
    43        414
    44         35
    45         67
    46          3
    47          9
    48          0
    49          1
    51         12
    52          8
    53         91
    54         97
    55        373
    56         96
    57        111
    58          7
    59          8
    60         33
    61          8
    62          1
    63          2
    65         27
    66         22
    67        274
    68         81
    69        211
    70        197
    71         75
    72          8
    73        158
    74         27
    75          2
    77         35
    78         11
    79        101
    80         80
    81        999
    82        208
    83        151
    84         46
    85         45
    86         46
    87         63
    88         36
    89          3
    91         23
    92         13
    93         28
    94         30
    95        164
    96        101
    97         83
    98         28
    99         37
   100         16
   101         17
   102          4
   103          1
   104          1
   105         10
   106          9
   107         13
   108         38
   109        353
   110        107
   111        151
   112         44
   113         22
   114          9
   115          7
   116          7
   117          2
   119          8
   120          2
   121          5
   122         17
   123         51
   124        155
   125         59
   126         26
   127         92
   128         44
   129         65
   130         21
   131          3
   132          0
   133          5
   134          3
   135          4
   136          3
   137         22
   138         20
   139         11
   140         46
   141         31
   142        221
   143         29
   144          6
   145          0
   147         14
   148          5
   149          1
   150          5
   151         11
   152         29
   153          5
   154          2
   155         36
   156          8
   157          4
   158          0
   160          0
   161          2
   163         25
   164          4
   165         39
   166         13
   167          4
   168          2
   169         11
   170          4
   171          0
   172          0
   173          0
   175          1
   176         12
   177          2
   178          0
   179          2
   180          0
   182          2
   183         18
   184          4
   185          1
   192          1
   194        153
   195         21
   197         38
   198          5
   200          1
   202          0
   207          0
   212        317
   213         44
   214          4