##TITLE=Library Entry 80727
##JCAMP-DX=Revision 4.10 
##DATA TYPE=MASS SPECTRUM
##SAMPLE DESCRIPTION=N.Klyuev, Institute of Ecology & Evolution, RAS, Moscow
##NAMES=HP
##CAS NAME=1-Phenyl-2-(1H-purin-8-ylthio)ethanone
##MOLFORM=C13H10N4OS
##CAS REGISTRY NO=38801-62-6
##MP= -300
##BP= -300
##MW= 270
##$RETENTION INDEX=0
##$CONDENSED SPECTRUM=NO
##NPOINTS= 41
##XYDATA=(XY..XY) 1 
    42          7
    43         16
    50         25
    51         86
    52         14
    53          9
    63         18
    64          8
    65         85
    66         55
    67          3
    74          1
    75          1
    76          1
    77          3
    78         97
    89         16
    90         11
    91        102
    92         19
    93         18
    94         19
   103         19
   104         18
   105        999
   106        225
   107         14
   118         15
   119         57
   120         23
   124         36
   151         18
   152         44
   153          4
   165         43
   228         64
   229         10
   242         51
   243         19
   270        117
   271         20