##TITLE=Library Entry 61780
##JCAMP-DX=Revision 4.10 
##DATA TYPE=MASS SPECTRUM
##SAMPLE DESCRIPTION=Japan AIST/NIMC Database- Spectrum MS-IW-1544
##NAMES=HP
##CAS NAME=N-Acetyl-dl-phenylalanine p-nitrophenyl ester
##MOLFORM=C17H16N2O5
##CAS REGISTRY NO=38806-34-7
##MP= -300
##BP= -300
##MW= 328
##$RETENTION INDEX=0
##$CONDENSED SPECTRUM=NO
##NPOINTS= 110
##XYDATA=(XY..XY) 1 
    15          8
    26          4
    27         10
    28          8
    29          1
    30          9
    31          1
    37          4
    38         11
    39         74
    40          4
    41          7
    42         11
    43        184
    44          6
    45          1
    49          1
    50         15
    51         28
    52         10
    53         17
    54          3
    55          3
    57          4
    58          1
    60          1
    61          5
    62         11
    63         33
    64         14
    65        139
    66          9
    67          2
    68          4
    69          1
    70          1
    71          1
    72          3
    73          2
    74          7
    75          7
    76          6
    77         27
    78         12
    79          3
    80          3
    81         21
    82          2
    87          1
    89         14
    90         10
    91        999
    92         93
    93         40
    94          3
    95          1
    99          2
   101          1
   102          7
   103         35
   104         14
   105          2
   107          3
   108          2
   109         59
   110          4
   115          1
   116          3
   117         18
   118         15
   119         16
   120        249
   121         22
   122          1
   123          8
   124          1
   128          3
   130          9
   131        137
   132         14
   133          1
   139        193
   140         16
   141          2
   144          3
   145          1
   146          4
   147          7
   148          4
   149          1
   159          3
   161          4
   162        100
   163         10
   164          1
   167          3
   176          1
   187          7
   188          1
   189        145
   190        147
   191         16
   192          2
   195          8
   196          1
   212          5
   213         12
   214          2
   269          2
   328          2