##TITLE=Library Entry 69924
##JCAMP-DX=Revision 4.10 
##DATA TYPE=MASS SPECTRUM
##SAMPLE DESCRIPTION=CARL DJERASSI DEPT OF CHEM STANFORD UNIV STANFORD CALIF
 94305
##NAMES=HP
##CAS NAME=Cholestan-7-ol, 8,14-epoxy-, (5.alpha.,7.alpha.,8.alpha.)-
##MOLFORM=C27H46O2
##CAS REGISTRY NO=38819-60-2
##MP= -300
##BP= -300
##MW= 402
##$RETENTION INDEX=0
##$CONDENSED SPECTRUM=NO
##NPOINTS= 138
##XYDATA=(XY..XY) 1 
    41        590
    42         50
    43        600
    44         50
    53        120
    54         20
    55        970
    56         90
    57        450
    67        510
    68        120
    69        730
    70         60
    71        210
    77        140
    78         30
    79        410
    80        110
    81        660
    82        130
    83        400
    84         90
    85         60
    91        310
    92         50
    93        490
    94        180
    95        810
    96        220
    97        999
    98        100
   105        310
   106         90
   107        930
   108        180
   109        540
   110        140
   111        140
   117         60
   118         10
   119        180
   120         50
   121        330
   122         80
   123        220
   124         70
   125         50
   131        110
   132         20
   133        260
   134         70
   135        290
   136         50
   137        100
   138         30
   139         40
   143        200
   144         30
   145        140
   146         20
   147        240
   148         60
   149        100
   150         40
   151         60
   157         80
   158         20
   159        250
   160         40
   161        270
   162         60
   163        140
   164         20
   165        260
   166         40
   171         50
   172         10
   173         50
   174         20
   175        150
   176         20
   177        220
   178        650
   179        110
   180         10
   181         60
   191        380
   192        190
   193         90
   194         30
   195        100
   196         10
   201         40
   202         10
   203         90
   204         10
   205         40
   206         60
   207         70
   208         30
   209        110
   210        130
   211         50
   218         50
   219         50
   220         20
   243         70
   244         30
   245         20
   246         10
   247         40
   248         60
   253        460
   254        110
   255         50
   261         50
   262         40
   263         20
   271        840
   272        170
   279        330
   280         60
   351         80
   352         30
   353         20
   366         50
   367         20
   368         30
   369        160
   370         30
   384        160
   385         40
   386         10
   387        370
   388        100
   402        480
   403        140
   404         20