##TITLE=Library Entry 49315
##JCAMP-DX=Revision 4.10 
##DATA TYPE=MASS SPECTRUM
##SAMPLE DESCRIPTION=D.HENNEBERG, MAX-PLANCK INSTITUTE, MULHEIM, WEST GERMAN
Y
##NAMES=HP
##CAS NAME=Nickel, bis[(1,2,3-.eta.)-2-cyclohepten-1-yl]-
##MOLFORM=C14H22Ni
##CAS REGISTRY NO=38816-29-4
##MP= -300
##BP= -300
##MW= 248
##$RETENTION INDEX=0
##$CONDENSED SPECTRUM=NO
##NPOINTS= 122
##XYDATA=(XY..XY) 1 
    27        177
    28        513
    29         76
    30          3
    37          3
    38         17
    39        340
    40        161
    41        306
    42         39
    43         12
    44         38
    45          4
    46          8
    47          1
    48          1
    50         19
    51         75
    52         51
    53        167
    54        346
    55        227
    56         11
    57          3
    58         94
    60         32
    61          1
    62          5
    63         30
    64          7
    65        148
    66        258
    67        466
    68        204
    69         14
    70          1
    71          2
    72          5
    75          9
    77        365
    78         78
    79        999
    80         87
    81        233
    82         14
    83          2
    84         23
    85          4
    86         19
    87          3
    88          5
    89         10
    90          4
    91        388
    92         52
    93        151
    94        497
    95        382
    96        169
    97         14
    98         19
    99         26
   100         32
   101         17
   102         14
   103          6
   104          2
   105          9
   106          1
   107          2
   108          4
   109          3
   110         17
   111          8
   112        122
   113         16
   114         48
   115          6
   116          7
   117          3
   118          1
   119          2
   121          3
   122          3
   123         48
   124        441
   125         52
   126        203
   127         22
   128         41
   129          5
   130          6
   131          1
   133          2
   135          2
   136         55
   137         14
   138         30
   139          5
   140          4
   149         95
   150        255
   151         67
   152        819
   153         79
   154        356
   155         40
   156         66
   157          6
   158         14
   159          3
   160          1
   190          3
   246          4
   247          1
   248        260
   249         39
   250        107
   251         16
   252         17
   253          2
   254          3