##TITLE=Library Entry 4282
##JCAMP-DX=Revision 4.10 
##DATA TYPE=MASS SPECTRUM
##SAMPLE DESCRIPTION=H. KENTTAEMAA, DEP. CHEM., HELSINKI UNIV., FINLAND
##NAMES=HP
##CAS NAME=4-Ethyl-2,6,7-trioxa-1-phosphabicyclo[2.2.2]octane 1-selenide
##MOLFORM=C6H11O3PSe
##CAS REGISTRY NO=3883-97-4
##MP= -300
##BP= -300
##MW= 242
##$RETENTION INDEX=0
##$CONDENSED SPECTRUM=NO
##NPOINTS= 29
##XYDATA=(XY..XY) 1 
    27        130
    28         60
    29        160
    39        220
    41        999
    42         40
    43        300
    47        110
    53        140
    55        190
    57        210
    67        140
    68        150
    69        420
    79        160
    80         50
    81        240
   119         70
   131         50
   132         60
   161         30
   162         30
   200         30
   238        150
   239        120
   240        440
   242        920
   243         30
   244        140