##TITLE=Library Entry 10045
##JCAMP-DX=Revision 4.10 
##DATA TYPE=MASS SPECTRUM
##SAMPLE DESCRIPTION=Chemical Concepts
##NAMES=HP
##CAS NAME=2-Hexanone, 4-hydroxy-5-methyl-
##MOLFORM=C7H14O2
##CAS REGISTRY NO=38836-21-4
##MP= -300
##BP= -300
##MW= 130
##$RETENTION INDEX=954
##$CONDENSED SPECTRUM=NO
##NPOINTS= 67
##XYDATA=(XY..XY) 1 
    25          1
    26         16
    27        119
    28         22
    29         78
    30          1
    31         16
    36          0
    37          7
    38         13
    39         92
    40         12
    41        214
    42         37
    43        999
    44         31
    45         22
    50          3
    51          5
    52          2
    53         15
    54          4
    55         84
    56          4
    57         43
    58        134
    59         16
    60          0
    61          1
    62          0
    63          0
    65          1
    66          0
    67          5
    68          2
    69         51
    70         17
    71         22
    72        108
    73         56
    74          2
    77          1
    79          2
    80          0
    81          1
    82          1
    83          0
    84          0
    85          0
    86         31
    87        390
    88         15
    89          2
    91          0
    93          0
    94          0
    95          0
    96          0
    97         56
    98          3
    99          0
   111          1
   112         52
   113          2
   114          0
   115          2
   129          0