##TITLE=Library Entry 4862
##JCAMP-DX=Revision 4.10 
##DATA TYPE=MASS SPECTRUM
##SAMPLE DESCRIPTION=M. VANDEWALLE
##NAMES=HP
##CAS NAME=1,3-Cyclopentanedione, 2,2-dimethyl-
##MOLFORM=C7H10O2
##CAS REGISTRY NO=3883-58-7
##MP= -300
##BP= -300
##MW= 126
##$RETENTION INDEX=0
##$CONDENSED SPECTRUM=NO
##NPOINTS= 19
##XYDATA=(XY..XY) 1 
    41        510
    42        999
    43        210
    53         40
    55        240
    56        310
    67         40
    68         30
    69        160
    70        780
    71        110
    83        160
    84         80
    97         40
    98         30
   111         20
   125         20
   126        780
   127         60