##TITLE=Library Entry 59264
##JCAMP-DX=Revision 4.10 
##DATA TYPE=MASS SPECTRUM
##SAMPLE DESCRIPTION=D.HENNEBERG, MAX-PLANCK INSTITUTE, MULHEIM, WEST GERMAN
Y
##NAMES=HP
##CAS NAME=Benzene, (2,2,2-trichloroethyl)-
##MOLFORM=C8H7Cl3
##CAS REGISTRY NO=3883-13-4
##MP= -300
##BP= -300
##MW= 208
##$RETENTION INDEX=1290
##$CONDENSED SPECTRUM=NO
##NPOINTS= 121
##XYDATA=(XY..XY) 1 
    26          7
    27          9
    28          5
    29          2
    31          0
    34          0
    35          5
    36         41
    37          1
    38         13
    39         28
    40          2
    41          8
    42          0
    43          1
    44          1
    45          0
    47          0
    49          2
    50         21
    51         95
    52         15
    53          2
    54          0
    55          1
    56          1
    57          5
    58          0
    59          0
    60          1
    61          3
    62          3
    63         18
    64          3
    65         56
    66          3
    67          1
    69          2
    70          0
    71          0
    73          5
    74          5
    75         26
    76         20
    77         80
    78         13
    79          1
    81          2
    82          1
    83          1
    84          1
    85          2
    86          1
    87          2
    88          0
    89         12
    90          5
    91        999
    92         74
    93          2
    95          1
    96          1
    97          1
    98          1
    99          3
   100          2
   101         47
   102         87
   103         62
   104          5
   105          0
   107          0
   108          0
   109          1
   110          0
   111          2
   112         16
   113          1
   114          4
   115          0
   117          3
   119          1
   120          0
   121          0
   123          0
   124          0
   125          1
   126          0
   127          0
   128          0
   129          0
   133          0
   134          0
   135          1
   136          6
   137         40
   138         24
   139         14
   140          6
   141          1
   142          0
   145          0
   163          0
   165          0
   167          0
   171          1
   172          7
   173         48
   174         10
   175         30
   176          3
   177          4
   178          0
   207          0
   208         61
   209          4
   210         57
   211          4
   212         18
   213          1
   214          1