##TITLE=Library Entry 77810
##JCAMP-DX=Revision 4.10 
##DATA TYPE=MASS SPECTRUM
##SAMPLE DESCRIPTION=A.C.MOFFAT BAYLOR UNIVERSITY, HOUSTON, TEXAS, USA
##NAMES=HP
##CAS NAME=Benzamide, 2,3,4,5,6-pentafluoro-N-(2-phenylethyl)-
##MOLFORM=C15H10F5NO
##CAS REGISTRY NO=38842-14-7
##MP= -300
##BP= -300
##MW= 315
##$RETENTION INDEX=0
##$CONDENSED SPECTRUM=NO
##NPOINTS= 53
##XYDATA=(XY..XY) 1 
    39         28
    40         13
    41         10
    44          7
    50          7
    51         25
    52          7
    63         17
    64          5
    65         87
    66          5
    69         16
    77         28
    78         30
    79          9
    89         14
    90          7
    91        265
    92         32
    93         11
    98          7
    99         13
   102          6
   103         31
   104        999
   105         88
   106          4
   117         43
   118          7
   119          7
   131          5
   137          5
   148         13
   149          5
   167        140
   168         46
   169          7
   176          6
   177          5
   181          4
   195        755
   196         66
   197          5
   224         36
   225          4
   231          2
   269          1
   281          1
   313          1
   314          0
   315         77
   316         13
   317          1