##TITLE=Library Entry 8063
##JCAMP-DX=Revision 4.10 
##DATA TYPE=MASS SPECTRUM
##SAMPLE DESCRIPTION=CARL DJERASSI DEPT OF CHEM STANFORD UNIV STANFORD CALIF
 94305
##NAMES=HP
##CAS NAME=2-Pentanone, 5-bromo-
##MOLFORM=C5H9BrO
##CAS REGISTRY NO=3884-71-7
##MP= -300
##BP= -300
##MW= 164
##$RETENTION INDEX=0
##$CONDENSED SPECTRUM=NO
##NPOINTS= 24
##XYDATA=(XY..XY) 1 
    41        140
    42         60
    43        999
    44         30
    50         10
    51         10
    53         20
    54         30
    55         20
    56         10
    58        660
    59         30
    69         20
    83         50
    84        100
    85         50
    93         10
    95         10
   121         20
   123         20
   149         20
   151         20
   164         30
   166         30