##TITLE=Library Entry 69679
##JCAMP-DX=Revision 4.10 
##DATA TYPE=MASS SPECTRUM
##SAMPLE DESCRIPTION=J.VOTH UNIV. OF CALIFORNIA, DAVIS, CALIFORNIA, 95616, U
SA
##NAMES=HP
##CAS NAME=2H-Pyran-4-carboxylic acid, 3,4-dihydro-5-methyl-, ethyl ester
##MOLFORM=C9H14O3
##CAS REGISTRY NO=38858-64-9
##MP= -300
##BP= -300
##MW= 170
##$RETENTION INDEX=0
##$CONDENSED SPECTRUM=NO
##NPOINTS= 84
##XYDATA=(XY..XY) 1 
    12          1
    13          2
    14         11
    15         39
    16          2
    17          2
    18          7
    19          1
    25          1
    26         24
    27        147
    28         47
    29        169
    30          8
    31         11
    32          3
    37          4
    38         14
    39        133
    40         28
    41        319
    42         19
    43        186
    44          6
    45          8
    46          0
    47          0
    48          0
    49          0
    50         10
    51         20
    52         12
    53         51
    54          8
    55         26
    56          3
    57          8
    58          1
    59          7
    60          5
    61          2
    62          4
    63          8
    64          2
    65         21
    66         15
    67         60
    68         19
    69         97
    70          6
    71          2
    73          1
    75          0
    77          7
    78          1
    79         14
    80          1
    81          5
    82          6
    83          6
    84          0
    85          3
    86          1
    87          0
    94          1
    95         18
    96         25
    97        999
    98         66
    99          5
   111          2
   112          0
   113          3
   114          0
   123          0
   124          2
   125          0
   127          0
   139          0
   141          2
   142          1
   170        115
   171         11
   172          1