##TITLE=Library Entry 49680
##JCAMP-DX=Revision 4.10 
##DATA TYPE=MASS SPECTRUM
##SAMPLE DESCRIPTION=J.H.SUPPLE STATE UNIV. COLLEGE, FREDONIA, NEW YORK, USA
##NAMES=HP
##CAS NAME=8-Azabicyclo[3.2.1]oct-2-ene-8-carboxylic acid, ethyl ester
##MOLFORM=C10H15NO2
##CAS REGISTRY NO=38853-56-4
##MP= -300
##BP= -300
##MW= 181
##$RETENTION INDEX=0
##$CONDENSED SPECTRUM=NO
##NPOINTS= 54
##XYDATA=(XY..XY) 1 
    29        257
    30        464
    39        171
    40         28
    41        350
    42         64
    43         78
    44        142
    50         28
    51         64
    52         57
    53        185
    54        100
    55        121
    56        121
    57         42
    62         71
    65         85
    66         57
    67        185
    68        142
    69         57
    70         21
    76         35
    77        114
    78         57
    79        178
    80        999
    81        257
    82         64
    90         57
    91        192
    92        200
    93        285
    94        142
   104         50
   105         28
   106         64
   107         28
   108        542
   109         64
   110         28
   121         21
   122        135
   123         21
   124        407
   125         57
   136         92
   140         35
   152        885
   153        285
   166         35
   181        985
   182        114