##TITLE=Library Entry 33122
##JCAMP-DX=Revision 4.10 
##DATA TYPE=MASS SPECTRUM
##SAMPLE DESCRIPTION=J.VOTH UNIV. OF CALIFORNIA, DAVIS, CALIFORNIA, 95616, U
SA
##NAMES=HP
##CAS NAME=4-Oxepincarboxylic acid, 2,3,6,7-tetrahydro-, ethyl ester
##MOLFORM=C9H14O3
##CAS REGISTRY NO=38858-66-1
##MP= -300
##BP= -300
##MW= 170
##$RETENTION INDEX=0
##$CONDENSED SPECTRUM=NO
##NPOINTS= 100
##XYDATA=(XY..XY) 1 
    12          5
    13          8
    14         42
    15        143
    16         10
    17          7
    18         25
    19          6
    25          5
    26         82
    27        590
    28        145
    29        746
    30         48
    31        166
    32          4
    37         21
    38         70
    39        636
    40        163
    41        816
    42         68
    43        113
    44         43
    45         94
    46          3
    47          4
    48          3
    49          4
    50        155
    51        116
    52         85
    53        195
    54         41
    55        145
    56         40
    57         24
    58          7
    59        293
    60         12
    61         12
    62         27
    63         62
    64         20
    65        224
    66        468
    67        999
    68        168
    69        136
    70         36
    71         10
    72          5
    73         15
    74          2
    75          1
    77          9
    78          5
    79         25
    80          6
    81         39
    82         12
    83         97
    84         32
    85         10
    86          6
    90          6
    92          2
    93         17
    94        199
    95        116
    96        103
    97        215
    98         24
    99         16
   100          1
   107          2
   109          3
   110          7
   111        117
   112        992
   113         80
   114          9
   115          3
   116          4
   123         14
   124         21
   125        307
   126         32
   127         11
   138          3
   139          7
   140        811
   141         88
   142         14
   143          2
   155          3
   169          1
   170        131
   171         13
   172          1