##TITLE=Library Entry 62091
##JCAMP-DX=Revision 4.10 
##DATA TYPE=MASS SPECTRUM
##SAMPLE DESCRIPTION=A.Swigar, R.Silverstein, Monoterpenes,1981
##NAMES=HP
##CAS NAME=cis-p-Mentha-2,8-dien-1-ol
##MOLFORM=C10H16O
##CAS REGISTRY NO=3886-78-0
##MP= -300
##BP= -300
##MW= 152
##$RETENTION INDEX=1102
##$CONDENSED SPECTRUM=NO
##NPOINTS= 78
##XYDATA=(XY..XY) 1 
    31         38
    38         49
    39        592
    40         98
    41        632
    42         56
    43        844
    44         41
    45         71
    50         79
    51        214
    52         92
    53        250
    54         43
    55        212
    56         55
    57         41
    58         81
    62         43
    63        102
    64         41
    65        231
    66        100
    67        276
    68         56
    69        179
    70         39
    71        120
    74         24
    75         28
    76         24
    77        453
    78        148
    79        761
    80        143
    81        280
    82         60
    83        128
    84        372
    85         30
    89         41
    90         24
    91        999
    92        331
    93        421
    94        143
    95        235
    96         55
    97         49
    98         26
   102         24
   103         92
   104         55
   105        299
   106        143
   107        103
   108         70
   109         58
   110        141
   111         43
   115         79
   116         32
   117        133
   118         32
   119        820
   120        100
   121         55
   122         28
   123        169
   124         51
   132         41
   133         53
   134        919
   135        120
   136         32
   137        415
   138         60
   152         62