##TITLE=Library Entry 82683
##JCAMP-DX=Revision 4.10 
##DATA TYPE=MASS SPECTRUM
##SAMPLE DESCRIPTION=Japan AIST/NIMC Database- Spectrum MS-NW-1235
##NAMES=HP
##CAS NAME=Benzenemethanamine, .alpha.-methyl-, (R)-
##MOLFORM=C8H11N
##CAS REGISTRY NO=3886-69-9
##MP= -300
##BP= -300
##MW= 121
##$RETENTION INDEX=0
##$CONDENSED SPECTRUM=NO
##NPOINTS= 65
##XYDATA=(XY..XY) 1 
    14          4
    15         15
    16          1
    17          1
    26          3
    27         20
    28         10
    29          5
    30          3
    32          3
    37          3
    38          7
    39         30
    40          5
    41          9
    42        121
    43         64
    44        156
    45          5
    46          1
    49          2
    50         28
    51         73
    52         25
    53         54
    54          4
    58          5
    59          7
    60          2
    61          2
    62          6
    63         12
    64          3
    65         11
    66          2
    67          2
    73          2
    74          9
    75          7
    76          8
    77        122
    78         44
    79        225
    80         17
    87          1
    89          5
    90          2
    91          9
    92          3
    93          2
    94          1
   100          1
   101          1
   102          5
   103         23
   104         45
   105         33
   106        999
   107         80
   108          3
   117          2
   118          4
   119          4
   120         61
   121         12