##TITLE=Library Entry 71030
##JCAMP-DX=Revision 4.10 
##DATA TYPE=MASS SPECTRUM
##SAMPLE DESCRIPTION=Div. of Experiment Therapeutics WRAIR, WRAMC, Washingto
n DC 20307
##NAMES=HP
##CAS NAME=Phenol, o-[4-[1-cycloazapropyl]-n-butyl]-2,6-dimethyl-
##MOLFORM=C14H21NO
##CAS REGISTRY NO=38914-67-9
##MP= -300
##BP= -300
##MW= 219
##$RETENTION INDEX=0
##$CONDENSED SPECTRUM=NO
##NPOINTS= 76
##XYDATA=(XY..XY) 1 
    41        269
    42        359
    43        138
    44        208
    45          9
    47          2
    49          9
    50          7
    51         49
    52         23
    53         70
    55        330
    56        644
    57         57
    58         16
    59          3
    62          2
    63         23
    64          2
    65         47
    66          4
    67          9
    68         18
    69         71
    70        113
    71         47
    72          4
    74          3
    75          2
    77        174
    78         39
    79         57
    80          5
    81          3
    82          6
    83          2
    84         21
    85          7
    86          2
    88          5
    89          7
    91        116
    92         12
    93          6
    94          3
    96         29
    98        999
    99         56
   101          1
   102         14
   103         27
   105         56
   107         40
   108          4
   114          7
   115          2
   117          1
   119          5
   121         31
   122         22
   123          3
   131          1
   133          7
   134          3
   135         10
   145          0
   147          2
   148          2
   161          0
   177          1
   204          3
   205          0
   218          1
   219         14
   220          2
   221          0