##TITLE=Library Entry 11344
##JCAMP-DX=Revision 4.10 
##DATA TYPE=MASS SPECTRUM
##SAMPLE DESCRIPTION=O A MAMER, MCGILL UNIVERSITY, MONTREAL,
##NAMES=HP
##CAS NAME=D-Glucose, 2,3,4,5,6-pentaacetate
##MOLFORM=C16H22O11
##CAS REGISTRY NO=3891-59-6
##MP= -300
##BP= -300
##MW= 390
##$RETENTION INDEX=2010
##$CONDENSED SPECTRUM=NO
##NPOINTS= 101
##XYDATA=(XY..XY) 1 
    14          1
    15         15
    27          2
    29          4
    31          1
    39          2
    41          4
    42          9
    43        999
    44         25
    45          3
    53          2
    54          1
    55          4
    56          2
    57          5
    60          6
    61         10
    68          2
    69         17
    70         11
    71          7
    73         40
    74          2
    80          8
    81         25
    82          4
    83          1
    84          4
    85         25
    86         14
    87          2
    89          1
    96          3
    97         33
    98        137
    99         18
   100          2
   101          4
   102         14
   103         63
   104          3
   109         26
   110          3
   111          2
   112          9
   113         12
   114         19
   115        198
   116         19
   117          2
   122          1
   125          3
   126         21
   127         17
   128          3
   129          2
   131          7
   138          1
   139         16
   140         51
   141          9
   142          1
   143          9
   144          6
   145         42
   146          3
   155         13
   156          3
   157        113
   158         35
   159          3
   168         11
   169         31
   170          3
   171          1
   173          2
   182          7
   183          1
   185          2
   186          4
   187          4
   197          7
   199         16
   200         49
   201          5
   203          4
   210          2
   211          7
   215         13
   216          1
   217          1
   228          6
   229          3
   242         43
   243          6
   244          1
   245          5
   271          1
   317          2
   331          4