##TITLE=Library Entry 22159
##JCAMP-DX=Revision 4.10 
##DATA TYPE=MASS SPECTRUM
##SAMPLE DESCRIPTION=Div. of Experiment Therapeutics WRAIR, WRAMC, Washingto
n DC 20307
##NAMES=HP
##CAS NAME=n-Octane, 1-[1-cycloazapropyl]-
##MOLFORM=C10H21N
##CAS REGISTRY NO=38914-83-9
##MP= -300
##BP= -300
##MW= 155
##$RETENTION INDEX=0
##$CONDENSED SPECTRUM=NO
##NPOINTS= 68
##XYDATA=(XY..XY) 1 
    41        606
    42        557
    43        699
    44        361
    45         18
    46          5
    47         11
    49         64
    51         28
    53         41
    54         11
    55        239
    56        999
    57        548
    58        189
    59         12
    60          0
    61          2
    63          4
    65          6
    67         21
    68          5
    69         85
    70        249
    71        304
    72         19
    73          6
    74          2
    75          0
    77          4
    79          4
    80          1
    81          8
    82         20
    84        381
    85         47
    86         14
    87          2
    88          3
    91          1
    92         16
    94          8
    95          1
    96          9
    98        192
    99         34
   100         10
   101          2
   102          1
   106          0
   109          0
   110          4
   112        203
   113         16
   114          2
   124          2
   126        108
   127          7
   128          1
   129          0
   139          2
   140         10
   141          1
   153          1
   154         19
   155         73
   156          7
   157          1