##TITLE=Library Entry 22004
##JCAMP-DX=Revision 4.10 
##DATA TYPE=MASS SPECTRUM
##SAMPLE DESCRIPTION=Div. of Experiment Therapeutics WRAIR, WRAMC, Washingto
n DC 20307
##NAMES=HP
##CAS NAME=n-Butane, 2-cyclohexyl-1-[1-cycloazapropyl]-
##MOLFORM=C12H23N
##CAS REGISTRY NO=38914-51-1
##MP= -300
##BP= -300
##MW= 181
##$RETENTION INDEX=0
##$CONDENSED SPECTRUM=NO
##NPOINTS= 72
##XYDATA=(XY..XY) 1 
    41        302
    42        156
    43        166
    44        296
    45         12
    46          2
    47          2
    49          9
    51         13
    52          2
    53         48
    56        999
    57        242
    58         48
    59          3
    60          0
    62          0
    63          2
    65         12
    67         73
    68         20
    69         39
    70         77
    71         57
    72          4
    73          1
    74          1
    77         12
    79         25
    81         53
    82         33
    84        133
    85          9
    86          3
    87          0
    88          3
    91          6
    92          5
    93          4
    94          4
    95         17
    96         20
    98         94
    99        118
   100          7
   102          6
   103          2
   105          1
   107          4
   109         37
   110         14
   111          3
   112          3
   113          0
   121          1
   122          1
   124         22
   125          4
   126          1
   130          0
   136          3
   138         29
   139          2
   150          1
   152         27
   153          4
   166          3
   168          0
   180          7
   181         37
   182          4
   183          1