##TITLE=Library Entry 75885
##JCAMP-DX=Revision 4.10 
##DATA TYPE=MASS SPECTRUM
##SAMPLE DESCRIPTION=Chemical Concepts
##NAMES=HP
##CAS NAME=Butanoic acid, 2,2-dimethyl-3-oxo-, methyl ester
##MOLFORM=C7H12O3
##CAS REGISTRY NO=38923-57-8
##MP= -300
##BP= -300
##MW= 144
##$RETENTION INDEX=0
##$CONDENSED SPECTRUM=NO
##NPOINTS= 51
##XYDATA=(XY..XY) 1 
    26         10
    27         40
    29         31
    30          3
    31          8
    33          4
    37          5
    38         13
    39        102
    40         21
    41        170
    42        123
    43        753
    44         19
    45         28
    50          4
    51          6
    52          2
    53          7
    55         27
    56          3
    57         85
    58          5
    59         62
    60          4
    61          6
    67          5
    68          3
    69         52
    70        217
    71         37
    72          4
    73         68
    74         29
    75          3
    83          3
    85         98
    86          7
    87        340
    88         16
    89          1
    97          2
   100          5
   101         80
   102        999
   103         53
   104          6
   113        122
   114          9
   143          2
   144          6