##TITLE=Library Entry 96922
##JCAMP-DX=Revision 4.10 
##DATA TYPE=MASS SPECTRUM
##SAMPLE DESCRIPTION=NIST Mass Spectrometry Data Center
##NAMES=HP
##CAS NAME=Cyclohexylphenylacetonitrile
##MOLFORM=C14H17N
##CAS REGISTRY NO=3893-23-0
##MP= -300
##BP= -300
##MW= 199
##$RETENTION INDEX=0
##$CONDENSED SPECTRUM=NO
##NPOINTS= 59
##XYDATA=(XY..XY) 1 
    15          5
    18          1
    27         69
    28         22
    29         63
    30          1
    37          1
    39        116
    41        223
    42         11
    43         14
    50         17
    51         40
    52         13
    53         31
    55        306
    56         15
    61          1
    62          8
    63         34
    64         11
    65         22
    66          5
    67         19
    69          1
    74          2
    75          5
    76          7
    77         24
    78         10
    79         11
    81         12
    83         89
    84          6
    86          1
    87          3
    89         80
    90         54
    91         25
    92          2
   101          2
   102          6
   103          5
   104          1
   113          1
   114          5
   115         30
   117        999
   118         92
   119          3
   126          1
   127          4
   128          9
   129          2
   140          2
   141          1
   142          2
   199         27
   200          5