##TITLE=Library Entry 2780
##JCAMP-DX=Revision 4.10 
##DATA TYPE=MASS SPECTRUM
##SAMPLE DESCRIPTION=P. C. CHEN PROBE INLET
##NAMES=HP
##CAS NAME=Bicyclo[2.2.1]heptan-2-ol, 3-cyclohexyl-, (endo,endo)-
##MOLFORM=C13H22O
##CAS REGISTRY NO=38935-68-1
##MP= -300
##BP= -300
##MW= 194
##$RETENTION INDEX=0
##$CONDENSED SPECTRUM=NO
##NPOINTS= 89
##XYDATA=(XY..XY) 1 
    25         11
    26         55
    27        270
    29        403
    30         11
    31         79
    38         13
    39        344
    40         82
    41        999
    42        115
    43        202
    44         22
    45         17
    50         27
    51         58
    52         39
    53        229
    54        134
    55        969
    56        113
    57        589
    58         29
    63         15
    65        116
    66        411
    67        937
    68        164
    69        178
    70        238
    71         62
    77        176
    78         86
    79        529
    80        892
    81        780
    82        334
    83        458
    84         63
    91        205
    92        107
    93        360
    94        825
    95        609
    96        401
    97        317
    98         86
    99         20
   105         77
   106         35
   107        114
   108        170
   109        157
   110         81
   111        136
   112         89
   113         19
   119         70
   120         53
   121         82
   122         84
   123         59
   124         22
   125         27
   126         57
   133        219
   134        170
   135        111
   136         21
   137         21
   138         43
   139         11
   147        149
   148        202
   149         35
   150         47
   151         24
   161         58
   162         15
   163        387
   164         54
   165         18
   175         26
   176        827
   177        131
   178         13
   193         12
   194        262
   195         37