##TITLE=Library Entry 3186
##JCAMP-DX=Revision 4.10 
##DATA TYPE=MASS SPECTRUM
##SAMPLE DESCRIPTION=P. C. CHEN PROBE INLET
##NAMES=HP
##CAS NAME=Bicyclo[2.2.1]heptan-2-ol, 3-cyclohexyl-, (exo,exo)-
##MOLFORM=C13H22O
##CAS REGISTRY NO=38935-70-5
##MP= -300
##BP= -300
##MW= 194
##$RETENTION INDEX=0
##$CONDENSED SPECTRUM=NO
##NPOINTS= 89
##XYDATA=(XY..XY) 1 
    25         14
    26         69
    27        270
    29        349
    30         10
    31         69
    38         14
    39        360
    40         74
    41        999
    42         93
    43        176
    44         19
    45         19
    50         30
    51         54
    52         39
    53        207
    54        134
    55        948
    56         99
    57        529
    58         33
    63         14
    65        105
    66        542
    67        998
    68        174
    69        166
    70        229
    71         59
    77        163
    78         84
    79        496
    80        924
    81        793
    82        368
    83        441
    84         74
    91        196
    92        114
    93        347
    94        807
    95        616
    96        409
    97        302
    98         77
    99         21
   105         69
   106         39
   107        114
   108        161
   109        144
   110         72
   111        139
   112         97
   113         20
   119         68
   120         51
   121         84
   122        123
   123         59
   124         24
   125         32
   126         53
   133        223
   134        174
   135        113
   136         22
   137         23
   138         41
   139         11
   147        162
   148        263
   149         44
   150         53
   151         25
   161         58
   162         15
   163        365
   164         47
   165         20
   175         24
   176        768
   177        142
   178         14
   193          6
   194        193
   195         28