##TITLE=Library Entry 2784
##JCAMP-DX=Revision 4.10 
##DATA TYPE=MASS SPECTRUM
##SAMPLE DESCRIPTION=P. C. CHEN PROBE INLET
##NAMES=HP
##CAS NAME=Bicyclo[2.2.1]heptan-2-ol, 3-cyclohexyl-, (2-exo,3-endo)-
##MOLFORM=C13H22O
##CAS REGISTRY NO=38935-69-2
##MP= -300
##BP= -300
##MW= 194
##$RETENTION INDEX=0
##$CONDENSED SPECTRUM=NO
##NPOINTS= 89
##XYDATA=(XY..XY) 1 
    25          9
    26         44
    27        243
    29        385
    30          9
    31         72
    38         11
    39        322
    40         64
    41        999
    42        105
    43        185
    44         19
    45         18
    50         28
    51         49
    52         30
    53        207
    54        127
    55        922
    56        106
    57        559
    58         32
    63         13
    65        100
    66        354
    67        909
    68        163
    69        167
    70        235
    71         55
    77        157
    78         91
    79        490
    80        855
    81        804
    82        322
    83        489
    84         71
    91        180
    92         98
    93        336
    94        807
    95        583
    96        362
    97        329
    98         82
    99         21
   105         72
   106         32
   107         99
   108        154
   109        149
   110         82
   111        143
   112        100
   113         22
   119         66
   120         46
   121         83
   122         85
   123         56
   124         22
   125         34
   126         63
   133        191
   134        156
   135        110
   136         22
   137         24
   138         44
   139         10
   147        146
   148        212
   149         44
   150         50
   151         28
   161         59
   162         15
   163        392
   164         54
   165         19
   175         24
   176        823
   177        153
   178         15
   193          5
   194        266
   195         37