##TITLE=Library Entry 20980
##JCAMP-DX=Revision 4.10 
##DATA TYPE=MASS SPECTRUM
##SAMPLE DESCRIPTION=Exported from NIST MS Search
##NAMES=HP
##CAS NAME=Carda-16,20(22)-dienolide, 3-[(6-deoxy-3,4-O-methylenehexopyranos
-2-ulos-1-yl)oxy]-7,8-epoxy-11,14-dihydroxy-12-oxo-, (3.beta.,5.beta.,7.beta
.,11.alpha.)-
##MOLFORM=C30H36O11
##CAS REGISTRY NO=38945-72-1
##MP= -300
##BP= -300
##MW= 572
##$RETENTION INDEX=0
##$CONDENSED SPECTRUM=NO
##NPOINTS= 405
##XYDATA=(XY..XY) 1 
    26         79
    27        366
    28        450
    29        483
    30         75
    31        281
    38         66
    39        387
    40         95
    41        970
    42        204
    43        954
    44        400
    45        375
    50         70
    51        141
    52         83
    53        385
    54        227
    55        999
    56        247
    57        658
    58         87
    59         77
    60        147
    61         64
    62         39
    63         77
    64         62
    65        222
    66        118
    67        483
    68        162
    69        622
    70        162
    71        364
    72         79
    73        225
    74         64
    75         39
    76         54
    77        562
    78        170
    79        708
    80        162
    81        529
    82        204
    83        666
    84        624
    85        418
    87        137
    88        125
    89         93
    91        989
    92        364
    93        749
    94        281
    95        385
    96        145
    97        233
    98        116
    99        281
   100        133
   101        291
   102         87
   103        197
   104        116
   105        785
   106        237
   107        354
   108        170
   109        347
   110        139
   111        202
   112        243
   113        183
   114         56
   115        312
   116        150
   117        289
   118        133
   119        431
   120        275
   121        389
   122        170
   123        170
   124        133
   125         87
   126         62
   127        141
   128        341
   129        454
   130        150
   131        275
   132        133
   133        233
   134        150
   135        225
   136         95
   137        118
   138         64
   139         95
   140         62
   141        283
   142        312
   143        254
   144        116
   145        333
   146        133
   147        216
   148        118
   149        162
   150        139
   151        160
   152        158
   153        181
   154         97
   155        172
   156         79
   157        175
   158        118
   159        254
   160        108
   161        245
   162        181
   163        254
   164         97
   165        247
   166        177
   167        139
   168         91
   169        139
   170         64
   171        204
   172        100
   173        245
   174        131
   175        168
   176         95
   177        170
   178        741
   179        874
   180        185
   181        152
   182         79
   183        118
   184         89
   185        139
   186        106
   187        166
   188        100
   189        275
   190        175
   191        275
   192        168
   193        150
   194         79
   195        120
   196         79
   197        120
   198         66
   199        133
   200         95
   201        170
   202        150
   203        225
   204        131
   205        129
   206        120
   207        302
   208        247
   209        141
   210         77
   211        120
   212         79
   213        120
   214         77
   215        183
   216        120
   217        175
   218        118
   219        170
   220        118
   221        129
   222         81
   223        120
   224         64
   225        120
   226         87
   227        162
   228        118
   229        185
   230         93
   231        120
   232         79
   233        116
   234         64
   235        106
   236         72
   237        116
   238         77
   239        112
   240         83
   241        141
   242        150
   243        156
   244        106
   245        150
   246         97
   247        116
   248         77
   249        116
   250         77
   251        120
   252         95
   253        120
   254         87
   255        120
   256         87
   257        150
   258         95
   259        120
   260         79
   261        116
   262         81
   263        133
   264         79
   265        150
   266        141
   267        150
   268         87
   269        147
   270        120
   271         97
   272         66
   273         93
   274         77
   275        108
   276         66
   277         79
   278         66
   279        116
   280        116
   281        154
   282        108
   283         79
   284         66
   285         66
   286         66
   287         97
   288        141
   289        141
   290         97
   291        152
   292         89
   293        162
   294         85
   295        116
   296         75
   297         70
   298         83
   299         66
   300         58
   301         58
   302         54
   303         66
   304         50
   305        118
   306         79
   307        172
   308        245
   309        131
   310         95
   311         87
   312         54
   313         54
   315         52
   316         41
   317         85
   318         60
   319        116
   320         60
   321        114
   322         95
   323        150
   324        100
   325         66
   326        106
   327         62
   328         66
   329         43
   331         41
   332         43
   333        102
   334        118
   335        129
   336         89
   337        133
   338         62
   339         62
   340         52
   341         56
   342         41
   343         41
   344         41
   345         64
   346         54
   347        120
   348         56
   349         79
   350         95
   351        175
   352        104
   353         56
   354         41
   360         43
   361         95
   362        100
   363         95
   364         66
   365         79
   366         64
   367         58
   368        106
   369         95
   370         77
   376         35
   377         62
   378        135
   379        120
   380        177
   381        118
   382         75
   383         54
   384         39
   394         39
   395         60
   396        241
   397        162
   398        666
   399        275
   400         77
   407         39
   412         83
   413         54
   414         77
   415        139
   416         60
   424         39
   425         60
   426         95
   427         75
   428         37
   442         33
   443         45
   444         56
   454         39
   470         39
   471         33
   472         93
   473         54
   480         43
   481         33
   482         75
   483         35
   484         33
   494         50
   495         58
   496         50
   497         58
   498         62
   499         33
   500         37
   502         39
   506         83
   507         39
   508         52
   509         31
   510        227
   511         64
   512         79
   513         54
   514         31
   515         54
   524        308
   525        118
   526         77
   527         39
   528        275
   529         87
   530         39
   536        131
   537         54
   538         64
   539         33
   542         79
   543         45
   544         41
   554        416
   555        154
   556         97
   557         41
   572        333
   573        116
   574         43