##TITLE=Library Entry 30776
##JCAMP-DX=Revision 4.10 
##DATA TYPE=MASS SPECTRUM
##SAMPLE DESCRIPTION=TAT 0285
##NAMES=HP
##CAS NAME=Morphinan, 6,7-didehydro-3-methoxy-6,17-dimethyl-
##MOLFORM=C19H25NO
##CAS REGISTRY NO=3894-27-7
##MP= -300
##BP= -300
##MW= 283
##$RETENTION INDEX=0
##$CONDENSED SPECTRUM=NO
##NPOINTS= 58
##XYDATA=(XY..XY) 1 
    58         80
    59        999
    60        170
    61         30
    70         70
    71         10
    77         70
    78         10
    82         60
    83         10
    91         70
    92         10
    94         50
    95         10
   115         90
   116         20
   119         40
   122         50
   123         10
   128         90
   129         70
   130         10
   134         40
   146         50
   148         80
   149         10
   152         50
   153         40
   158         80
   159         10
   160         60
   162        310
   163         50
   164         10
   165         70
   166         10
   171         60
   172         60
   173         10
   174         50
   203        200
   204         30
   209         60
   210         10
   214         50
   215         10
   224         80
   225         70
   226         80
   227         10
   240         80
   241         10
   268        170
   269         20
   282        160
   283        610
   284        130
   285         20