##TITLE=Library Entry 71033
##JCAMP-DX=Revision 4.10 
##DATA TYPE=MASS SPECTRUM
##SAMPLE DESCRIPTION=Div. of Experiment Therapeutics WRAIR, WRAMC, Washingto
n DC 20307
##NAMES=HP
##CAS NAME=6-t-Butyl-4-methylphenol, o-[4-[1-cycloazapropyl]-n-butyl]-
##MOLFORM=C17H27NO
##CAS REGISTRY NO=38944-42-2
##MP= -300
##BP= -300
##MW= 261
##$RETENTION INDEX=0
##$CONDENSED SPECTRUM=NO
##NPOINTS= 85
##XYDATA=(XY..XY) 1 
    41        175
    42        218
    43         96
    44         95
    45          3
    47          3
    49          3
    51          2
    52          4
    53         38
    55        241
    56        286
    57         39
    58          6
    59          1
    63          8
    65         17
    66          2
    67          6
    69         55
    70         48
    71         16
    72          2
    73          1
    75          1
    77         40
    78         12
    79         21
    80          3
    81          3
    82          3
    84          2
    85          0
    86          0
    87          0
    88          1
    89          4
    91         44
    92          4
    93          3
    94          1
    96         18
    98        999
    99         60
   100          2
   101          2
   103         13
   105         72
   106          6
   107         10
   108          3
   109          3
   115         29
   116         11
   117         10
   119         14
   121         30
   122          2
   123          3
   127          3
   128          4
   129          3
   131          7
   133         26
   134          3
   135          7
   136          0
   145          4
   147          8
   148          9
   149         19
   150          2
   159          1
   161          5
   163          1
   164          4
   175          1
   203          1
   204          0
   206          0
   246          1
   247          0
   260          2
   261         10
   262          2