##TITLE=Library Entry 87609
##JCAMP-DX=Revision 4.10 
##DATA TYPE=MASS SPECTRUM
##SAMPLE DESCRIPTION=Japan AIST/NIMC Database- Spectrum MS-NW-4334
##NAMES=HP
##CAS NAME=p-di-n-Propoxybenzene
##MOLFORM=C12H18O2
##CAS REGISTRY NO=3898-41-7
##MP= -300
##BP= -300
##MW= 194
##$RETENTION INDEX=0
##$CONDENSED SPECTRUM=NO
##NPOINTS= 64
##XYDATA=(XY..XY) 1 
    15          2
    17          1
    18          3
    26          6
    27         62
    28          2
    29          6
    37          1
    38          6
    39         37
    40          4
    41         73
    42          9
    43        106
    44          4
    50          6
    51          5
    52          6
    53         13
    54          9
    55          9
    62          3
    63         13
    64         17
    65         30
    66          5
    67          2
    68          1
    74          1
    75          1
    76          4
    77          4
    78          1
    79          3
    80          2
    81         39
    82         13
    91          3
    92          2
    93         11
    94          5
    95          6
   105          1
   107          3
   108          2
   109        103
   110        999
   111         66
   112          6
   121          1
   123         10
   124          1
   135          1
   136          1
   137          2
   151          6
   152         89
   153          9
   154          1
   165          4
   193          1
   194        218
   195         29
   196          2