##TITLE=Library Entry 100604
##JCAMP-DX=Revision 4.10 
##DATA TYPE=MASS SPECTRUM
##SAMPLE DESCRIPTION=Japan AIST/NIMC Database- Spectrum MS-NW- 300
##NAMES=HP
##CAS NAME=Thiourea, N,N-diphenyl-
##MOLFORM=C13H12N2S
##CAS REGISTRY NO=3898-08-6
##MP= -300
##BP= -300
##MW= 228
##$RETENTION INDEX=0
##$CONDENSED SPECTRUM=NO
##NPOINTS= 138
##XYDATA=(XY..XY) 1 
    16         29
    17         42
    18          7
    26          1
    27         10
    28          1
    32         14
    33          4
    34          9
    39         43
    40          6
    41          6
    42          2
    43          6
    44          3
    45          2
    50         28
    51        142
    52         15
    53          2
    54          1
    55          2
    56          3
    57          3
    58          4
    59         43
    60         55
    61          4
    62          7
    63         22
    64         18
    65         54
    66         85
    67          6
    68          1
    69          4
    70          7
    71          7
    73          1
    74          9
    75          9
    76         14
    77        235
    78         24
    79          2
    80          2
    81          1
    82          3
    83         44
    84          9
    85          4
    87          2
    88          2
    89          9
    90          8
    91         32
    92         14
    93         13
    94          1
    95          1
    96          3
    97          7
    99          1
   101          3
   102          4
   103          9
   104         25
   105          3
   108          3
   109         10
   110         44
   111          4
   112          3
   113          3
   114         26
   115         28
   116          7
   117          6
   118        100
   119        999
   120         87
   121          3
   123          2
   124          3
   126          9
   127          6
   128          9
   129          4
   130          3
   135          1
   138          1
   139         20
   140         16
   141         27
   142         16
   143          9
   144          1
   149          6
   150          5
   151          9
   152          7
   153          6
   154         12
   155          2
   164          2
   165          4
   166         44
   167        244
   168        403
   169        642
   170         83
   171          6
   178          4
   179          2
   180          4
   184          3
   191          2
   192          6
   193         30
   194        188
   195         58
   196         10
   197          1
   198          2
   199          4
   200          5
   201          2
   202          5
   203          1
   211          1
   212          1
   225          2
   226          1
   227         54
   228        402
   229         65
   230         21
   231          3