##TITLE=Library Entry 62656
##JCAMP-DX=Revision 4.10 
##DATA TYPE=MASS SPECTRUM
##SAMPLE DESCRIPTION=Japan AIST/NIMC Database- Spectrum MS-NW-9374
##NAMES=HP
##CAS NAME=p-Toluenesulfonic acid m-nitrophenyl ester
##MOLFORM=C13H11NO5S
##CAS REGISTRY NO=3899-90-9
##MP= -300
##BP= -300
##MW= 293
##$RETENTION INDEX=0
##$CONDENSED SPECTRUM=NO
##NPOINTS= 72
##XYDATA=(XY..XY) 1 
    26          1
    27          3
    28          2
    30         19
    37          1
    38         10
    39         39
    40          3
    41         13
    43          2
    44          2
    45          3
    50          9
    51         17
    52          6
    53          4
    54          1
    55          2
    61          1
    62          9
    63         56
    64         40
    65        157
    66          9
    67          3
    69          1
    74          2
    75          3
    76          5
    77         13
    78          4
    79          7
    80          1
    86          1
    87          1
    89         33
    90         21
    91        999
    92         87
    93          5
    95          1
   105          1
   107          7
   108          1
   109          1
   111          2
   115          2
   121          1
   122          1
   123          1
   127          1
   128          3
   129          1
   139         17
   140          2
   141          1
   152          2
   153          3
   154          1
   155        888
   156         76
   157         44
   158          3
   168          2
   169          1
   181          1
   182          1
   277          1
   293        217
   294         34
   295         13
   296          1