##TITLE=Library Entry 24151
##JCAMP-DX=Revision 4.10 
##DATA TYPE=MASS SPECTRUM
##SAMPLE DESCRIPTION=Chemical Concepts
##NAMES=HP
##CAS NAME=4-Pentenoic acid, 3-hydroxy-, ethyl ester
##MOLFORM=C7H12O3
##CAS REGISTRY NO=38996-01-9
##MP= -300
##BP= -300
##MW= 144
##$RETENTION INDEX=0
##$CONDENSED SPECTRUM=NO
##NPOINTS= 117
##XYDATA=(XY..XY) 1 
    24          0
    25          3
    26         33
    27        249
    28         28
    29        415
    30         14
    31         96
    33          1
    34          0
    35          0
    36          0
    37          1
    38          6
    39         62
    40         24
    41         72
    42        261
    43        664
    44         39
    45        145
    46          5
    47         16
    48          1
    49          5
    50          8
    51         15
    52         11
    53         53
    54         67
    55        303
    56        479
    57        999
    58         43
    59         14
    60        518
    61        221
    62          5
    63          1
    64          0
    65          1
    66          1
    67          5
    68          2
    69         34
    70        509
    71        128
    72         12
    73         43
    74          5
    75         15
    76          0
    77          2
    78          0
    79          2
    80          1
    81         19
    82          4
    83          3
    84          5
    85         11
    86         82
    87         33
    88        413
    89         42
    90          3
    91          2
    93          0
    94          0
    95          2
    96          1
    97         63
    98        450
    99        239
   100         19
   101         13
   102          5
   103          4
   104          0
   105          1
   106          0
   107          2
   108          0
   109          1
   110          0
   111          1
   112          0
   113          2
   114          0
   115         66
   116         55
   117         18
   118          1
   119          1
   120          0
   121          1
   122          1
   123          0
   124          0
   125          1
   126          3
   127         19
   128          2
   129          1
   130          0
   131          2
   133          0
   134          0
   135          0
   137          0
   138          0
   139          0
   141          1
   143          1
   144          9
   145          3
   147          0