##TITLE=Library Entry 38332
##JCAMP-DX=Revision 4.10 
##DATA TYPE=MASS SPECTRUM
##SAMPLE DESCRIPTION=Japan AIST/NIMC Database- Spectrum MS-NW-5566
##NAMES=HP
##CAS NAME=trans-3-Penten-2-ol
##MOLFORM=C5H10O
##CAS REGISTRY NO=3899-34-1
##MP= -300
##BP= -300
##MW= 86
##$RETENTION INDEX=1170
##$CONDENSED SPECTRUM=NO
##NPOINTS= 63
##XYDATA=(XY..XY) 1 
    12          1
    13          2
    14         10
    15         62
    16          4
    17          3
    18         10
    25          2
    26         22
    27        171
    28         24
    29         65
    30          4
    31         50
    32          3
    33          1
    34          1
    35          3
    36          1
    37         18
    38         36
    39        231
    40         55
    41        458
    42         67
    43        568
    44         32
    45        182
    46          5
    49          4
    50         14
    51         19
    52          8
    53        193
    54         15
    55         20
    56          4
    57         50
    58        119
    59         14
    60         22
    61          7
    62          7
    63          8
    64          1
    65         17
    66          9
    67        129
    68         81
    69        169
    70         21
    71        999
    72         54
    73          4
    74          1
    81          2
    82          3
    83          6
    84         34
    85         78
    86        112
    87          9
    88          1