##TITLE=Library Entry 34218
##JCAMP-DX=Revision 4.10 
##DATA TYPE=MASS SPECTRUM
##SAMPLE DESCRIPTION=Exported from NIST MS Search
##NAMES=HP
##CAS NAME=3-Hexene, 3-methyl-, (E)-
##MOLFORM=C7H14
##CAS REGISTRY NO=3899-36-3
##MP= -300
##BP= -300
##MW= 98
##$RETENTION INDEX=688
##$CONDENSED SPECTRUM=NO
##NPOINTS= 70
##XYDATA=(XY..XY) 1 
    12          2
    13          3
    14         14
    15        117
    16          4
    24          1
    25          2
    26         38
    27        351
    28         67
    29        173
    30          4
    31          1
    32          2
    36          1
    37         12
    38         36
    39        360
    40         60
    41        891
    42         69
    43         78
    44          3
    45          1
    46          1
    47          1
    48          1
    49          3
    50         32
    51         58
    52         23
    53        117
    54         29
    55        647
    56        188
    57         15
    58          1
    60          1
    61          4
    62          8
    63         15
    64          3
    65         24
    66         11
    67         81
    68         33
    69        999
    70        120
    71          4
    73          1
    74          2
    75          1
    76          1
    77         13
    78          3
    79         13
    80          2
    81         20
    82          6
    83        142
    84          9
    85          1
    91          1
    93          1
    95          1
    96          1
    97          2
    98        290
    99         22
   100          1