##TITLE=Library Entry 85502
##JCAMP-DX=Revision 4.10 
##DATA TYPE=MASS SPECTRUM
##SAMPLE DESCRIPTION=Exported from NIST MS Search
##NAMES=HP
##CAS NAME=Gelsemine, 1-methoxy-
##MOLFORM=C21H24N2O3
##CAS REGISTRY NO=38990-03-3
##MP= -300
##BP= -300
##MW= 352
##$RETENTION INDEX=0
##$CONDENSED SPECTRUM=NO
##NPOINTS= 78
##XYDATA=(XY..XY) 1 
    51         40
    52         25
    53         72
    54         22
    55         87
    56         22
    57         65
    58         30
    67         45
    68         52
    69         25
    70        125
    71         22
    77        120
    78         37
    79         67
    80         25
    81         45
    82         92
    83         45
    89         40
    90         30
    91        107
    92         25
    93         75
    94         87
   101         22
   102         25
   103         50
   104         25
   105         57
   106         42
   107         55
   108        999
   109         85
   115         65
   116         50
   117         67
   118         35
   119         20
   120        142
   121         22
   126         25
   127         45
   128         57
   129         55
   130         35
   131        102
   132         22
   133         82
   146         57
   147         30
   164         45
   165         42
   166         25
   167         45
   168         20
   176         42
   185         25
   196         32
   204         32
   222         45
   234         55
   260         25
   261         25
   278        110
   279         25
   281         65
   291        147
   292         35
   293         37
   309        245
   310         50
   321        599
   322        140
   323         32
   352        387
   353         95