##TITLE=Library Entry 16362
##JCAMP-DX=Revision 4.10 
##DATA TYPE=MASS SPECTRUM
##SAMPLE DESCRIPTION=Exported from NIST MS Search
##NAMES=HP
##CAS NAME=Methoxamine
##MOLFORM=C11H17NO3
##CAS REGISTRY NO=390-28-3
##MP= -300
##BP= -300
##MW= 211
##$RETENTION INDEX=1743
##$CONDENSED SPECTRUM=NO
##NPOINTS= 116
##XYDATA=(XY..XY) 1 
    37          1
    38          4
    39         17
    40          2
    41         10
    42         22
    43          9
    44        999
    45         34
    50          9
    51         23
    52         16
    53         41
    54         11
    55         23
    56          3
    57          3
    59          2
    61          2
    62          7
    63         34
    64         21
    65         44
    66         13
    67         12
    68          4
    69         13
    70          1
    71          1
    73          2
    74          6
    75         10
    76         13
    77         68
    78         21
    79         35
    80         17
    81         48
    82          9
    83          1
    88          1
    89          4
    90          5
    91         21
    92         42
    93         21
    94         22
    95         35
    96         12
    97          2
    98          2
   102          1
   103          5
   104          5
   105         14
   106         30
   107         51
   108         62
   109         92
   110         24
   111          3
   116          1
   117          2
   118          7
   119          9
   120         26
   121         20
   122         10
   123         40
   124        135
   125         47
   126          4
   130          2
   131          3
   132          4
   133          7
   134         11
   135         49
   136         53
   137        277
   138         38
   139        199
   140         16
   141          1
   145          1
   146          8
   147         11
   148         15
   149         15
   150         14
   151         56
   152        107
   153         42
   154          3
   160          2
   161         11
   162         15
   163         11
   164          6
   165         18
   166         45
   167        105
   168        686
   169         64
   170          6
   176          2
   177          4
   178          8
   179          8
   180          2
   192          3
   193          4
   194          1
   209          1
   211         57
   212          7