##TITLE=Library Entry 29353
##JCAMP-DX=Revision 4.10 
##DATA TYPE=MASS SPECTRUM
##SAMPLE DESCRIPTION=Patti Price, Georgia Bureau of Investigation, Decatur,
 Georgia
##NAMES=HP
##CAS NAME=Prenylamine
##MOLFORM=C24H27N
##CAS REGISTRY NO=390-64-7
##MP= -300
##BP= -300
##MW= 329
##$RETENTION INDEX=2548
##$CONDENSED SPECTRUM=NO
##NPOINTS= 104
##XYDATA=(XY..XY) 1 
    44         53
    50          8
    51         36
    52          5
    53          5
    54          7
    55          3
    56        104
    57         55
    58        999
    59         39
    63         23
    64          5
    65        106
    66          6
    67          2
    68          6
    69          2
    70         28
    71         13
    73          1
    74          2
    75          6
    76          8
    77         71
    78         26
    79         11
    80          2
    82          1
    87          1
    88          1
    89         22
    90          8
    91        615
    92         68
    93          3
    99          1
   101          1
   102         14
   103         33
   104         14
   105         24
   106          5
   113          2
   114          1
   115        164
   116         24
   117         82
   118         12
   119         26
   120          5
   126          3
   127          5
   128         20
   130          7
   132         11
   133          5
   134         11
   135          1
   139         14
   140          1
   141          9
   142          1
   143          1
   144          3
   145          1
   146         13
   147         18
   148         16
   150          1
   151         17
   152        123
   153         23
   160          3
   163          9
   164         18
   165        199
   166         72
   167        200
   168         32
   176          6
   178         34
   179         20
   180          6
   182          1
   189          3
   190          2
   191          5
   192          3
   193         13
   194          6
   195          3
   206          1
   208          2
   222          9
   223          1
   234          2
   236         35
   237          8
   238        730
   239        131
   240         10
   327          4
   328          4