##TITLE=Library Entry 34544
##JCAMP-DX=Revision 4.10 
##DATA TYPE=MASS SPECTRUM
##SAMPLE DESCRIPTION=NIST Mass Spectrometry Data Center
##NAMES=HP
##CAS NAME=Sesquirosefuran
##MOLFORM=C15H22O
##CAS REGISTRY NO=39007-93-7
##MP= -300
##BP= -300
##MW= 218
##$RETENTION INDEX=1553
##$CONDENSED SPECTRUM=NO
##NPOINTS= 80
##XYDATA=(XY..XY) 1 
    27         39
    29         33
    39        132
    40         23
    41        624
    42         26
    43        173
    50         13
    51         48
    52         26
    53        140
    54         20
    55        167
    56         11
    57         17
    63         17
    64          5
    65        110
    66         34
    67        137
    68         26
    69        999
    70         54
    77        176
    78         39
    79        213
    80         42
    81        145
    82         64
    89          6
    90          3
    91        255
    92         38
    93        231
    94         64
    95        384
    96         43
    97          7
   102          6
   103         38
   104         13
   105        196
   106         42
   107        381
   108        117
   109         61
   110          7
   115         41
   116         58
   117         27
   119         67
   120         15
   121        165
   122        112
   123        469
   124         44
   127          5
   128         13
   129         40
   130          7
   131        328
   132         39
   133         85
   134         38
   135        200
   136         63
   145          7
   147        111
   148         60
   149        112
   150         34
   151          5
   161         28
   162         12
   163          4
   175         92
   176         11
   203          5
   218         86
   219         16