##TITLE=Library Entry 38557
##JCAMP-DX=Revision 4.10 
##DATA TYPE=MASS SPECTRUM
##SAMPLE DESCRIPTION=Chemical Concepts
##NAMES=HP
##CAS NAME=Cyclohexanol, 1-methyl-4-(1-methylethyl)-, trans-
##MOLFORM=C10H20O
##CAS REGISTRY NO=3901-93-7
##MP= -300
##BP= -300
##MW= 156
##$RETENTION INDEX=1167
##$CONDENSED SPECTRUM=NO
##NPOINTS= 94
##XYDATA=(XY..XY) 1 
    24          0
    26          4
    27        116
    29         92
    30          2
    31         17
    37          0
    38          2
    39         77
    40         21
    41        180
    42         15
    43        338
    44          8
    45         17
    46          0
    47          0
    48          0
    49          0
    50          2
    51          8
    52          3
    53         35
    54         10
    55        100
    56         20
    57         81
    58        126
    59         21
    60          0
    61          0
    62          0
    63          2
    64          0
    65          8
    66          3
    67         98
    68         14
    69         67
    70         26
    71        999
    72        156
    73         10
    74          0
    77         13
    78          2
    79         21
    80          4
    81        129
    82         16
    83         40
    84         19
    85         86
    86          7
    87          0
    89          0
    91          7
    92          0
    93         11
    94          7
    95         96
    96         21
    97         10
    98        294
    99         71
   100          4
   101          0
   103          0
   105          0
   107          2
   108          1
   109         45
   110          5
   111          1
   112         20
   113         34
   114          2
   115          0
   121          1
   122          0
   123        152
   124         15
   125          1
   127          0
   137          4
   138         32
   139          6
   140          2
   141        173
   142         18
   143          0
   156        139
   157         15
   158          1