##TITLE=Library Entry 48207
##JCAMP-DX=Revision 4.10 
##DATA TYPE=MASS SPECTRUM
##SAMPLE DESCRIPTION=H.K.HOFSTEE LAB. INORGANIC CHEM., GRONINGEN, THE NETHER
LANDS
##NAMES=HP
##CAS NAME=Titanium, [(1,2,3-.eta.)-2-butenyl](.eta.8-1,3,5,7-cyclooctatetra
ene)-
##MOLFORM=C12H15Ti
##CAS REGISTRY NO=39015-02-6
##MP= -300
##BP= -300
##MW= 207
##$RETENTION INDEX=0
##$CONDENSED SPECTRUM=NO
##NPOINTS= 36
##XYDATA=(XY..XY) 1 
    39        800
    41        850
    48        500
    50        250
    51        550
    52        200
    53        400
    54        560
    55        600
    56        450
    63        130
    65        130
    67        120
    73        300
    74        140
    77        550
    78        999
    79        360
    91        550
    98        150
    99        140
   103        800
   104        999
   105        500
   106        360
   113        450
   124        180
   125        180
   126        360
   127        160
   150        450
   151        460
   152        950
   153        950
   179        120
   207        999