##TITLE=Library Entry 38348
##JCAMP-DX=Revision 4.10 
##DATA TYPE=MASS SPECTRUM
##SAMPLE DESCRIPTION=FOOD RESEARCH REPORT 118, K.E. MURRAY & COLLEAGUES, DIV
. OF FOOD RESEARCH, CSIRO, AUSTRALIA
##NAMES=HP
##CAS NAME=Butanoic acid, 1-methylhexyl ester
##MOLFORM=C11H22O2
##CAS REGISTRY NO=39026-94-3
##MP= -300
##BP= -300
##MW= 186
##$RETENTION INDEX=1197
##$CONDENSED SPECTRUM=NO
##NPOINTS= 73
##XYDATA=(XY..XY) 1 
    25          1
    26         11
    27        164
    28         70
    29        138
    30          4
    31          5
    32          1
    37          3
    38          6
    39        106
    40         21
    41        308
    42        109
    43        503
    44        116
    45         42
    46          1
    47          1
    50          4
    51          6
    52          3
    53         20
    54         31
    55        176
    56        252
    57        283
    58         29
    59          4
    60         54
    61          1
    62          1
    63          1
    64          1
    65          3
    66          1
    67         13
    68         16
    69        120
    70        109
    71        999
    72         47
    73         23
    74          1
    77          1
    78          1
    79          3
    81          8
    82          3
    83         20
    84          1
    86         29
    87          6
    88         63
    89        118
    90          5
    91          1
    95          1
    96          1
    97          6
    98        182
    99         44
   100          4
   110          3
   114          1
   115        164
   116         13
   117          1
   119          1
   130          8
   142          8
   143          3
   171          5