##TITLE=Library Entry 77968
##JCAMP-DX=Revision 4.10 
##DATA TYPE=MASS SPECTRUM
##SAMPLE DESCRIPTION=Chemical Concepts
##NAMES=HP
##CAS NAME=6,6-Dimethyl-2-vinylidenebicyclo[3.1.1]heptane
##MOLFORM=C11H16
##CAS REGISTRY NO=39021-75-5
##MP= -300
##BP= -300
##MW= 148
##$RETENTION INDEX=0
##$CONDENSED SPECTRUM=NO
##NPOINTS= 107
##XYDATA=(XY..XY) 1 
    35          2
    36         15
    37          7
    38         25
    39        472
    40         70
    41        941
    42         44
    43         70
    44          5
    45          5
    46          1
    48          0
    49          1
    50         53
    51        190
    52         90
    53        205
    54         25
    55        211
    56         11
    57          7
    58          9
    59          6
    60          2
    61          3
    62         15
    63         68
    64         24
    65        158
    66         30
    67        112
    68         16
    69        220
    70         20
    71          2
    72          0
    73          2
    74          9
    75         15
    76         11
    77        346
    78        120
    79        451
    80         46
    81         32
    82         10
    83         24
    84          2
    85          0
    86          3
    87          3
    88          2
    89         17
    90          8
    91        636
    92        124
    93         97
    94         13
    95         10
    96          3
    97          2
    98          1
    99          1
   100          0
   101          5
   102         11
   103        120
   104         51
   105        999
   106        142
   107         46
   108          4
   109          4
   110          2
   111          0
   113          2
   114          1
   115         46
   116         19
   117         60
   118         29
   119         87
   120         38
   121          9
   122          1
   123          2
   125          0
   126          1
   127          4
   128          7
   129          7
   130          3
   131         42
   132          8
   133        835
   134         91
   135          6
   136          1
   143          0
   144          0
   145          1
   146          1
   147         18
   148         79
   149         10
   150          0