##TITLE=Library Entry 28084
##JCAMP-DX=Revision 4.10 
##DATA TYPE=MASS SPECTRUM
##SAMPLE DESCRIPTION=Div. of Experiment Therapeutics WRAIR, WRAMC, Washingto
n DC 20307
##NAMES=HP
##CAS NAME=2,4-Bis[dimethylaminomethyl]-6-phenylphenol
##MOLFORM=C18H24N2O
##CAS REGISTRY NO=39026-77-2
##MP= -300
##BP= -300
##MW= 284
##$RETENTION INDEX=0
##$CONDENSED SPECTRUM=NO
##NPOINTS= 107
##XYDATA=(XY..XY) 1 
    41         47
    42        395
    43         93
    44        818
    45        188
    46         93
    49          8
    50         12
    51         40
    52         13
    53         17
    55         12
    56         17
    57         47
    58        999
    59         38
    63         29
    64          9
    65         41
    66         12
    67         11
    68          8
    70         19
    72          4
    74          6
    75         13
    76         17
    77         55
    78         15
    79          3
    80          6
    81          9
    82         24
    83          6
    84         16
    86          3
    87          3
    89         20
    90          3
    91         54
    92         15
    93          3
    94         20
    97          4
    98          9
   101          9
   102         24
   103         23
   104          4
   105         16
   106         10
   108          9
   112          8
   113          6
   115         59
   116          8
   118          3
   119         23
   120         20
   126         13
   127         29
   128         60
   129         25
   134          9
   139         21
   140          3
   141         35
   142         19
   150          8
   151         28
   152        184
   153         80
   154         28
   155          9
   163          7
   165        174
   166         55
   167        105
   168         56
   169         13
   177          6
   178         11
   179         12
   180         10
   181        125
   182         29
   183         11
   194         30
   195        187
   196        270
   197        146
   198         21
   210         35
   211         10
   224         30
   225          7
   226         12
   238         65
   239         32
   240        671
   241        143
   242         16
   282         12
   283         50
   284        395
   285         87
   286         10