##TITLE=Library Entry 87361
##JCAMP-DX=Revision 4.10 
##DATA TYPE=MASS SPECTRUM
##SAMPLE DESCRIPTION=ASES Database, Dalian Institute, P.R. China
##NAMES=HP
##CAS NAME=1-Methylimidazole-5-carboxaldehyde
##MOLFORM=C5H6N2O
##CAS REGISTRY NO=39021-62-0
##MP= -300
##BP= -300
##MW= 110
##$RETENTION INDEX=0
##$CONDENSED SPECTRUM=NO
##NPOINTS= 29
##XYDATA=(XY..XY) 1 
    25          9
    26         50
    27        162
    28        139
    29         48
    37         20
    38         30
    39         50
    40        101
    41         50
    42         70
    50          9
    51         29
    52         81
    53         51
    54        306
    55         70
    56          9
    66         29
    67         10
    80         10
    81        271
    82         39
    83          9
   108         20
   109        377
   110        999
   111        120
   112         10