##TITLE=Library Entry 51889
##JCAMP-DX=Revision 4.10 
##DATA TYPE=MASS SPECTRUM
##SAMPLE DESCRIPTION=Chemical Concepts
##NAMES=HP
##CAS NAME=5-Methoxy-2,4-dimethyl-furan-3-one
##MOLFORM=C7H10O3
##CAS REGISTRY NO=39036-74-3
##MP= -300
##BP= -300
##MW= 142
##$RETENTION INDEX=0
##$CONDENSED SPECTRUM=NO
##NPOINTS= 78
##XYDATA=(XY..XY) 1 
    25         13
    26        143
    27        524
    28        140
    29        110
    30          7
    31         28
    33          2
    37          9
    38         16
    39         75
    40         16
    41         56
    42         42
    43        141
    44         12
    45         25
    46          2
    47          2
    48          2
    49          3
    50          8
    51          9
    52          7
    53        110
    54        164
    55        437
    56        107
    57         14
    58         11
    59        299
    60         13
    61          5
    62          4
    63          3
    64          2
    65          5
    66          4
    67          6
    68         16
    69         18
    70        127
    71         17
    72         10
    73          2
    74          2
    79          2
    80          3
    81         22
    82        222
    83        999
    84         62
    85         33
    86         29
    87         14
    88          2
    94          3
    95          2
    96         12
    97          3
    98         15
    99         35
   100          4
   108          2
   109         41
   110         92
   111         13
   112          4
   113         20
   114         16
   115          8
   116          2
   125          2
   127          3
   141         11
   142        439
   143         60
   144          8