##TITLE=Library Entry 10704
##JCAMP-DX=Revision 4.10 
##DATA TYPE=MASS SPECTRUM
##SAMPLE DESCRIPTION=R.T.HOLMAN,UNIVERSITY OF MINNESOTA
##NAMES=HP
##CAS NAME=2-Heptadecanone, 1-[(2,2-dimethyl-1,3-dioxolan-4-yl)methoxy]-
##MOLFORM=C23H44O4
##CAS REGISTRY NO=39033-40-4
##MP= -300
##BP= -300
##MW= 384
##$RETENTION INDEX=0
##$CONDENSED SPECTRUM=NO
##NPOINTS= 285
##XYDATA=(XY..XY) 1 
    25          6
    26         32
    27        116
    28        767
    29        222
    30         14
    31         89
    32         52
    33          2
    34          1
    35          2
    36          8
    37          7
    38          9
    39         63
    40         20
    41        396
    42        116
    43        999
    44        158
    45        116
    46          5
    47          3
    48          2
    49          2
    50          3
    51          5
    52          5
    53         23
    54         43
    55        306
    56        100
    57        518
    58        169
    59        158
    60         22
    61         28
    62          3
    63          3
    64          2
    65          7
    66          6
    67         79
    68         27
    69        174
    70        111
    71        248
    72         89
    73         79
    74         10
    75          9
    76          3
    77         10
    78          6
    79         22
    80          8
    81         89
    82         40
    83        137
    84         44
    85        126
    86         22
    87        211
    88         23
    89         12
    90          2
    91         10
    92          2
    93         16
    94         10
    95        105
    96         48
    97        100
    98         40
    99         40
   100        142
   101        952
   102         63
   103         20
   104          4
   105          7
   106          2
   107         13
   108          8
   109         58
   110         17
   111         36
   112         19
   113        116
   114         84
   115         68
   116         10
   117         37
   118          5
   119          5
   120          3
   121         14
   122          5
   123         23
   124          8
   125         31
   126          8
   127         16
   128         22
   129         14
   130         25
   131         17
   132          3
   133          7
   134          3
   135         18
   136          4
   137         11
   138          6
   139          8
   140          4
   141          9
   142          5
   143         27
   144          4
   145         59
   146          6
   147          4
   148          2
   149         12
   150          3
   151          6
   152          4
   153          4
   154          3
   155         14
   156          4
   157          9
   158          2
   159          3
   160          2
   161          2
   162          2
   163          4
   164          2
   165          4
   166          3
   167          5
   168          3
   169         26
   170          5
   171          4
   172          4
   173          3
   174          1
   175          2
   176          2
   177          2
   178          1
   179          3
   180          2
   181          2
   182          2
   183          4
   184          2
   185          9
   186          3
   187          2
   188          2
   189          2
   190          1
   191          2
   192          2
   193          2
   194          6
   195          3
   196          3
   197          5
   198          3
   199          9
   200          2
   201          2
   202          1
   203          1
   204          1
   205          1
   206          1
   207          2
   208          1
   209          2
   210          1
   211          8
   212          2
   213          2
   214          1
   219          3
   220          1
   221          2
   222          2
   223          1
   224          1
   225          5
   226          2
   227          1
   228          2
   229          1
   231          1
   232          1
   233          2
   234          1
   235          2
   236          5
   237          5
   238          3
   239         89
   240         16
   241          5
   242          2
   243          1
   249          1
   250          1
   251          2
   252          2
   253         17
   254         23
   255          7
   256          3
   257          3
   258          2
   264          1
   265          1
   266          1
   267          6
   268          2
   269          2
   270          2
   271          6
   272          2
   273          1
   274          1
   275          1
   276          1
   277          1
   278          1
   279          2
   280          1
   281          3
   282          2
   283          8
   284          4
   285          2
   286          1
   290          1
   291          1
   292          2
   293          1
   294          1
   295          3
   296         28
   297          8
   298          2
   307          1
   308          4
   309          8
   310          3
   311          3
   312          1
   313          2
   314          1
   324          3
   325          6
   326         63
   327         19
   328          3
   329          1
   341          1
   352          1
   353          1
   354          1
   355          1
   366          7
   367          3
   368          4
   369        185
   370         49
   371          8
   372          1
   380          1
   383          2
   384          4