##TITLE=Library Entry 7628
##JCAMP-DX=Revision 4.10 
##DATA TYPE=MASS SPECTRUM
##SAMPLE DESCRIPTION=EP-1295
##NAMES=HP
##CAS NAME=2-Hexadecanone, 1-[(2,2-dimethyl-1,3-dioxolan-4-yl)methoxy]-
##MOLFORM=C22H42O4
##CAS REGISTRY NO=39033-39-1
##MP= -300
##BP= -300
##MW= 370
##$RETENTION INDEX=0
##$CONDENSED SPECTRUM=NO
##NPOINTS= 248
##XYDATA=(XY..XY) 1 
    28        119
    29        235
    30          9
    31         96
    32         16
    33          2
    34          1
    35          1
    36          6
    37          3
    38          6
    39         52
    40         16
    41        375
    42        114
    43        999
    44         90
    45        102
    46          3
    47          3
    48          2
    49          2
    50          2
    51          3
    52          4
    53         20
    54         40
    55        290
    56         90
    57        527
    58        126
    59        157
    60         18
    61         27
    62          2
    63          2
    64          1
    65          5
    66          4
    67         72
    69        169
    70         90
    71        247
    72         90
    73         84
    74          9
    75          8
    76          2
    77          5
    78          3
    79         18
    80          7
    81         78
    82         33
    83        126
    84         38
    85        133
    86         20
    87        242
    88         22
    89          6
    90          1
    91          7
    92          2
    93         16
    94          6
    95         96
    96         32
    97         84
    98         33
    99         36
   100        126
   102         72
   103         19
   104          2
   105          4
   106          2
   107         12
   108          5
   109         50
   110         13
   111         29
   112         16
   113         90
   114         78
   115         68
   116         10
   117         33
   118          3
   119          3
   120          2
   121         10
   122          3
   123         22
   124          6
   125         24
   126          5
   127         14
   128         22
   129         13
   130         28
   131         16
   132          3
   133          4
   134          2
   135         14
   136          3
   137         10
   138          4
   139          6
   140          2
   141          7
   142          3
   143         27
   144          4
   145         63
   146          6
   147          3
   148          1
   149          7
   150          2
   151          5
   152          3
   153          4
   154          2
   155         12
   156          3
   157          5
   158          2
   159          3
   160          2
   161          2
   162          1
   163          2
   164          1
   165          3
   166          2
   167          4
   168          2
   169         21
   170          3
   171          3
   172          3
   173          2
   174          1
   175          1
   176          1
   177          2
   178          1
   179          2
   180          7
   181          3
   182          3
   183          5
   184          2
   185          7
   186          2
   187          1
   188          2
   189          1
   190          1
   191          1
   192          1
   193          1
   194          1
   195          1
   196          1
   197          5
   198          2
   199          8
   200          2
   201          1
   202          1
   203          1
   205          2
   206          1
   207          2
   208          1
   209          1
   211          5
   212          2
   213          3
   214          1
   219          2
   220          1
   221          2
   222          5
   223          3
   224          2
   225         84
   226         14
   227          3
   228          1
   229          1
   236          1
   237          2
   238          2
   239         15
   240         21
   241          7
   242          2
   253          6
   254          2
   255          3
   256          3
   257          7
   258          2
   266          1
   267          3
   268          2
   269          8
   270          3
   271          2
   272          1
   277          1
   278          1
   279          1
   281         21
   282          7
   283          2
   284          1
   286          1
   294          2
   295         10
   296          4
   297          3
   298          2
   299          2
   300          1
   301          3
   302          5
   303         54
   304         17
   305          3
   326          5
   327          3
   328          1
   340          1
   341          1
   352          3
   353          1
   354          3
   355        199
   356         49
   357          7
   358          1
   369          2
   370        371