##TITLE=Library Entry 13400
##JCAMP-DX=Revision 4.10 
##DATA TYPE=MASS SPECTRUM
##SAMPLE DESCRIPTION=LAC, NIDDK, NIH, Bethesda, MD 20892
##NAMES=HP
##CAS NAME=Histidine, N-acetyl-4-[4-bromophenylazo]-, methyl(ester)
##MOLFORM=C15H16BrN5O3
##CAS REGISTRY NO=39037-16-6
##MP= -300
##BP= -300
##MW= 393
##$RETENTION INDEX=0
##$CONDENSED SPECTRUM=NO
##NPOINTS= 232
##XYDATA=(XY..XY) 1 
    41         83
    42        200
    43        999
    44         89
    45         38
    50         70
    51         33
    52         95
    53        170
    54        212
    55         62
    56         20
    57         20
    59         50
    60         37
    61          7
    62         29
    63        113
    64         60
    65         94
    66         28
    67         62
    68         36
    69        129
    70         13
    71          8
    73          5
    74         26
    75        109
    76        145
    77         42
    78         14
    79         19
    80         40
    81        255
    82         73
    83         30
    84          8
    85         12
    86         10
    88        296
    89         26
    90        105
    91         81
    92         65
    93         35
    94         62
    95         43
    96         64
    97         11
    98          5
    99          9
   100          4
   101          9
   102         32
   103         21
   104         11
   105          9
   106         15
   107         23
   108         38
   109        138
   110         32
   111         13
   112          6
   114          9
   115          8
   116         20
   117         22
   118         15
   119         18
   120         20
   121        119
   122         83
   123         22
   124          8
   125          5
   127         13
   128         10
   129         29
   130         24
   131         19
   132          5
   133          5
   134          8
   135         15
   136         27
   137         21
   138          6
   139          4
   140          6
   141          8
   142         16
   143         33
   144          8
   145         23
   146          8
   147         16
   148         11
   149        361
   150         41
   151         19
   152          4
   153         31
   154        111
   155        346
   156         36
   157        375
   158         33
   159          4
   162          8
   163         14
   164         35
   165         11
   166          5
   167          9
   168         18
   169         33
   170         87
   171        520
   172        111
   173        484
   174         34
   178          4
   179         11
   180          9
   181        677
   182        161
   183         68
   184        161
   185         73
   186         14
   191        999
   192         99
   193         12
   194          5
   195         53
   196         47
   197         46
   198         13
   199          9
   205         41
   206          9
   207          6
   208         10
   209         28
   210         27
   211         26
   212         12
   213          8
   219         16
   220          4
   221         14
   222          6
   223        321
   224         59
   225          9
   226          6
   235         24
   236         44
   237         31
   238         43
   239          8
   240          4
   246          5
   247          4
   248         17
   249          9
   250         17
   251          7
   252          5
   253          3
   263        133
   264         65
   265        125
   266         55
   267         11
   272          5
   275        636
   276        108
   277        589
   278         76
   279         13
   282          4
   289         13
   290         45
   291         23
   292        121
   293         26
   294         76
   295         13
   302          5
   303          8
   304          6
   305          7
   306         10
   307          7
   308          8
   309          6
   315          5
   316          4
   317         16
   318         15
   319         23
   320         13
   321          8
   322          5
   324          5
   332         16
   333         14
   334         75
   335         25
   336         60
   337         12
   346          3
   348          5
   350        111
   351         21
   352        100
   353         18
   361         14
   362         34
   363         18
   364         33
   365          6
   378          7
   380          5
   393        446
   394        131
   395        426
   396        109
   397         16