##TITLE=Library Entry 85401
##JCAMP-DX=Revision 4.10 
##DATA TYPE=MASS SPECTRUM
##SAMPLE DESCRIPTION=Asinex Ltd, Moscow, Russia
##NAMES=HP
##CAS NAME=Benzenamine, 4-chlorodifluoromethoxy-
##MOLFORM=C7H6ClF2NO
##CAS REGISTRY NO=39065-95-7
##MP= -300
##BP= -300
##MW= 193
##$RETENTION INDEX=0
##$CONDENSED SPECTRUM=NO
##NPOINTS= 115
##XYDATA=(XY..XY) 1 
    33          1
    34          2
    35          9
    36         15
    37         19
    38         51
    39        103
    40         62
    41         48
    42         14
    43          8
    44         33
    46         59
    47         13
    48          0
    49          5
    50         44
    51         43
    52        131
    53        154
    54         40
    55          6
    56          3
    57          4
    58          0
    60          2
    61         15
    62         28
    63         67
    64         43
    65        207
    66         29
    67          5
    68          2
    69          6
    70          2
    71          1
    73          4
    74          7
    75          6
    76          6
    77          5
    78         11
    79         43
    80        286
    81         20
    82          2
    83          4
    85        101
    87         34
    88          1
    89          3
    90         10
    92        364
    93         21
    94          1
    95          1
    96          0
    97          0
    99          8
   100          2
   101          3
   102          1
   103          0
   104          0
   105          1
   106          4
   108        999
   109         65
   110          4
   111          4
   112          1
   113          0
   114          0
   117          0
   118          0
   119          0
   120          1
   122          2
   123          0
   125          1
   126          3
   127          5
   128          4
   129          2
   131          1
   134          0
   135          0
   136          0
   142          2
   143          0
   144          1
   146          0
   149          0
   150          0
   151          0
   155          0
   156          0
   158         79
   159          6
   160          0
   161          0
   169          0
   171          1
   172          0
   174          0
   176          3
   177          2
   178          0
   181          0
   193        383
   194         29
   195        119
   196          9
   197          0