##TITLE=Library Entry 31561
##JCAMP-DX=Revision 4.10 
##DATA TYPE=MASS SPECTRUM
##SAMPLE DESCRIPTION=A.A.Kutin, Moscow, Russia
##NAMES=HP
##CAS NAME=Benzotriazole, 1-(tetrafluoropyrid-4-yl)-
##MOLFORM=C11H4F4N4
##CAS REGISTRY NO=39066-47-2
##MP= -300
##BP= -300
##MW= 268
##$RETENTION INDEX=0
##$CONDENSED SPECTRUM=NO
##NPOINTS= 191
##XYDATA=(XY..XY) 1 
    33          1
    34          0
    36          4
    37        152
    38        368
    39        492
    40         36
    41          3
    42          0
    43          2
    44          3
    45          2
    46          2
    48          2
    49         22
    50        211
    51         63
    52         30
    53          3
    55         75
    56         10
    57         19
    58          1
    59          0
    60          5
    61         87
    62        220
    63        999
    64        741
    65         42
    67          2
    68          7
    69        129
    70          6
    71          0
    72          1
    73         17
    74        125
    75         87
    76         46
    77          7
    78          1
    79          2
    80          7
    81         56
    82         10
    83          5
    84          1
    85          4
    86         63
    87         30
    88         44
    89         10
    90        314
    91         24
    92          6
    93         39
    94         10
    95         53
    97          6
    99         24
   100        476
   101         26
   102          7
   103          1
   104          3
   105        153
   106         17
   107         16
   108          2
   109          0
   110          7
   111          4
   112         18
   113          5
   114          3
   115          1
   116          1
   117          5
   118          7
   119          8
   120         28
   122          0
   123          5
   124         11
   125         13
   126         30
   127          2
   128          2
   129          1
   130          3
   131         28
   132          4
   133          3
   134          1
   135          0
   136          2
   137          4
   138         21
   139          3
   140          1
   141          0
   142          2
   143          4
   144          9
   145         41
   146          4
   147          1
   148          2
   149          7
   150        155
   151         19
   152         10
   153          1
   154          0
   155          0
   156          3
   157          7
   158          0
   159          1
   160          0
   161          0
   162          6
   163         20
   164          7
   165          0
   166          0
   167          4
   168         30
   169         24
   170         25
   171         22
   172          2
   173          0
   174          5
   175         51
   176         92
   177         17
   178          1
   180          0
   181          2
   182          1
   183          3
   184          0
   185          0
   186          3
   187          8
   188          9
   189          8
   190        153
   191         17
   192          2
   193         33
   194        117
   195         58
   196          5
   197          0
   199          0
   200         24
   201        152
   202         17
   203          0
   207          0
   208          1
   209          2
   210          0
   211          0
   212         20
   213         15
   214         39
   215          4
   219         40
   220         71
   221        249
   222         33
   223          2
   225          2
   226          0
   237          0
   238          1
   239        199
   240        665
   241         87
   242          5
   243          0
   249          2
   250          0
   256          0
   268        306
   269         42
   270          2