##TITLE=Library Entry 49663
##JCAMP-DX=Revision 4.10 
##DATA TYPE=MASS SPECTRUM
##SAMPLE DESCRIPTION=MASS SPECTRA OF ORGANIC COMPOUNDS, CSIRO, B.H. KENNETT
 ET AL
##NAMES=HP
##CAS NAME=Methyl tetradec-5-ynoate
##MOLFORM=C15H26O2
##CAS REGISTRY NO=39077-29-7
##MP= -300
##BP= -300
##MW= 238
##$RETENTION INDEX=0
##$CONDENSED SPECTRUM=NO
##NPOINTS= 51
##XYDATA=(XY..XY) 1 
    27        228
    28        258
    29        324
    39        152
    41        538
    43        543
    53        131
    55        451
    57        121
    59        172
    65         86
    67        446
    68         81
    69        126
    71         76
    74        390
    75         65
    77        203
    78         81
    79        467
    80        999
    81        659
    82        192
    83         86
    84         76
    85         71
    91         86
    93        233
    94        111
    95        167
    96         86
    97        208
    98        319
    99         55
   107        126
   108        101
   111        101
   121         96
   122         40
   123         96
   124         40
   125         50
   126         40
   135         55
   137         40
   140        730
   141         81
   149         40
   150         40
   164         40
   238         40