##TITLE=Library Entry 2056
##JCAMP-DX=Revision 4.10 
##DATA TYPE=MASS SPECTRUM
##SAMPLE DESCRIPTION=D.HENNEBERG, MAX-PLANCK INSTITUTE, MULHEIM, WEST GERMAN
Y
##NAMES=HP
##CAS NAME=3,6,9-Trioxatetracyclo[6.1.0.0(2,4).0(5,7)]nonane, (1.alpha.,2.al
pha.,4.alpha.,5.alpha.,7.alpha.,8.alpha.)-
##MOLFORM=C6H6O3
##CAS REGISTRY NO=39078-11-0
##MP= -300
##BP= -300
##MW= 126
##$RETENTION INDEX=0
##$CONDENSED SPECTRUM=NO
##NPOINTS= 59
##XYDATA=(XY..XY) 1 
    26        174
    27        350
    28        205
    29        935
    30         82
    31         32
    37         11
    38         33
    39        850
    40        197
    41        999
    42        284
    43        268
    44         21
    45          2
    46          0
    49          1
    50         22
    51         64
    52         32
    53         43
    54         33
    55         61
    56          4
    58          4
    59          0
    62          0
    63          4
    64          1
    65          4
    66          9
    67          2
    68        808
    69        391
    70         22
    71        370
    72         15
    73          2
    74          1
    76          1
    77          2
    78         32
    79          4
    80          1
    81         24
    82          7
    83          1
    84         14
    85          0
    94         14
    95          1
    96          8
    97         54
    98          3
   103          0
   108          0
   110          4
   125          1
   126         12