##TITLE=Library Entry 80874
##JCAMP-DX=Revision 4.10 
##DATA TYPE=MASS SPECTRUM
##SAMPLE DESCRIPTION=NIST Mass Spectrometry Data Center, 1994
##NAMES=HP
##CAS NAME=Trimethylsilyl methyl sulfide
##MOLFORM=C4H12SSi
##CAS REGISTRY NO=3908-55-2
##MP= -300
##BP= -300
##MW= 120
##$RETENTION INDEX=745
##$CONDENSED SPECTRUM=NO
##NPOINTS= 57
##XYDATA=(XY..XY) 1 
    14          5
    15         45
    16          0
    18          1
    26          3
    27         18
    28         14
    29         41
    30          4
    31         14
    33          1
    35          3
    39          2
    41          6
    42         27
    43        130
    44         34
    45         72
    47          2
    53         18
    54          4
    55         17
    56          3
    57          9
    58          2
    59        302
    60         32
    61         36
    62          5
    63         10
    65          1
    67          1
    70          3
    71          5
    73        237
    74         31
    75        122
    76          1
    77        190
    78         12
    85          1
    87          1
    89         25
    90         23
    91         16
    92          3
    93          1
   103          5
   105        999
   106         91
   107         80
   108          6
   109          1
   120        303
   121         31
   122         23
   123          1