##TITLE=Library Entry 234
##JCAMP-DX=Revision 4.10 
##DATA TYPE=MASS SPECTRUM
##SAMPLE DESCRIPTION=CARL DJERASSI DEPT OF CHEM STANFORD UNIV STANFORD CALIF
 94305
##NAMES=HP
##CAS NAME=1-Butanamine, N-(1-methylethyl)-
##MOLFORM=C7H17N
##CAS REGISTRY NO=39099-23-5
##MP= -300
##BP= -300
##MW= 115
##$RETENTION INDEX=795
##$CONDENSED SPECTRUM=NO
##NPOINTS= 33
##XYDATA=(XY..XY) 1 
    27         78
    28        999
    29         78
    30        411
    31          9
    32         88
    39         39
    40         29
    41        117
    42         39
    43        127
    44        245
    45         19
    53          9
    54          9
    55         39
    56        137
    57        176
    58        225
    59          9
    69          9
    70         49
    71         19
    72        980
    73         68
    84          9
    85          9
    98          9
   100        352
   101         29
   114         19
   115         39
   116          9