##TITLE=Library Entry 5752
##JCAMP-DX=Revision 4.10 
##DATA TYPE=MASS SPECTRUM
##SAMPLE DESCRIPTION=J. SHAW, BORRISTON RESEARCH, ROCKVILLE, MD, USA
##NAMES=HP
##CAS NAME=Hydroxycyprazine
##MOLFORM=C9H15N5O
##CAS REGISTRY NO=39095-16-4
##MP= -300
##BP= -300
##MW= 209
##$RETENTION INDEX=0
##$CONDENSED SPECTRUM=NO
##NPOINTS= 136
##XYDATA=(XY..XY) 1 
    15        200
    16         79
    17         40
    27        559
    28        790
    29        171
    30        137
    31         22
    32         12
    35          7
    36         27
    37         10
    39        368
    41        797
    42        409
    43        999
    44        435
    45         51
    46          4
    47          1
    48          2
    50          6
    51         14
    52         21
    53         67
    54        154
    55        188
    56        370
    57        185
    58        433
    59         31
    60         11
    61          7
    62          4
    63          9
    64          5
    65         11
    66         14
    68        321
    69        584
    70        106
    71         36
    72         11
    73         10
    74          5
    75         12
    76          7
    77         13
    79         24
    81        112
    82         89
    83        125
    84        143
    85         55
    86         84
    87          9
    90        135
    91         13
    92          3
    94         72
    95         54
    96         47
    97         51
    98         48
    99         21
   100          9
   101          2
   103          2
   104          2
   105          6
   107         24
   108         36
   109        218
   110        208
   111        291
   112        259
   113         30
   114          3
   115          5
   117          4
   118          1
   119          4
   121         18
   122         17
   123         50
   124        156
   125         75
   126        171
   127         39
   128         21
   129          3
   131          2
   132          1
   133          6
   134          6
   135         22
   137         51
   138         16
   139         49
   140         15
   141          9
   142          2
   145          2
   147          3
   149         26
   150         18
   152        492
   153        155
   154         47
   155          4
   161          3
   162          3
   163         12
   164          6
   166        166
   167         82
   168         16
   169         13
   170          2
   175          1
   177          5
   178          8
   179          2
   180          3
   181         10
   182          8
   183          1
   192         15
   194        386
   195         37
   196         11
   197          1
   208        290
   209        377
   210         59
   211         10