##TITLE=Library Entry 70549
##JCAMP-DX=Revision 4.10 
##DATA TYPE=MASS SPECTRUM
##SAMPLE DESCRIPTION=NIST Mass Spectrometry Data Center, 2010
##NAMES=HP
##CAS NAME=2-Thiopheneacetyl chloride
##MOLFORM=C6H5ClOS
##CAS REGISTRY NO=39098-97-0
##MP= -300
##BP= -300
##MW= 160
##$RETENTION INDEX=1162
##$CONDENSED SPECTRUM=NO
##NPOINTS= 78
##XYDATA=(XY..XY) 1 
    25          1
    26          5
    27          7
    28          3
    29          1
    31          1
    32          3
    33          1
    35          4
    36         10
    37         14
    38         22
    39         35
    40          1
    41          1
    42          3
    44          4
    45        117
    46          5
    47         13
    48         18
    50         26
    51         28
    52         18
    53         74
    54          3
    56          2
    57         23
    58         25
    59          3
    60          5
    61         13
    62         23
    63         37
    64          3
    65          4
    66          1
    68          6
    69         69
    70         63
    71         18
    72          4
    73          3
    74          1
    75          1
    77          1
    79          2
    80          1
    81          7
    82          8
    83          3
    84          1
    85          2
    87          1
    92          4
    93         13
    94          2
    95         40
    96         94
    97        999
    98         62
    99         44
   100          2
   105          1
   109          1
   118          6
   120          2
   124        105
   125          8
   126          5
   131          3
   132          1
   133          1
   160        179
   161         13
   162         66
   163          5
   164          3