##TITLE=Library Entry 57622
##JCAMP-DX=Revision 4.10 
##DATA TYPE=MASS SPECTRUM
##SAMPLE DESCRIPTION=Exported from NIST MS Search
##NAMES=HP
##CAS NAME=.alpha.-D-Galactopyranosiduronic acid, methyl 3,4-O-(1-methylethy
lidene)-2-(2,3,4,6-tetra-O-methyl-.beta.-D-glucopyranosyl)-, methyl ester
##MOLFORM=C21H36O12
##CAS REGISTRY NO=39102-75-5
##MP= -300
##BP= -300
##MW= 480
##$RETENTION INDEX=0
##$CONDENSED SPECTRUM=NO
##NPOINTS= 22
##XYDATA=(XY..XY) 1 
    43        964
    45        864
    59        232
    71        314
    75        290
    88        999
   101        784
   111        125
   127        125
   145         66
   155         40
   173         44
   187        461
   219         24
   231         24
   245         43
   275         27
   305        312
   379         14
   406          4
   449          6
   465         15