##TITLE=Library Entry 81051
##JCAMP-DX=Revision 4.10 
##DATA TYPE=MASS SPECTRUM
##SAMPLE DESCRIPTION=NIST Mass Spectrometry Data Center, 1994
##NAMES=HP
##CAS NAME=Benzeneacetonitrile, 3,5-dimethyl-
##MOLFORM=C10H11N
##CAS REGISTRY NO=39101-54-7
##MP= -300
##BP= -300
##MW= 145
##$RETENTION INDEX=0
##$CONDENSED SPECTRUM=NO
##NPOINTS= 72
##XYDATA=(XY..XY) 1 
    14          5
    15         29
    26         23
    27        132
    28         40
    29          7
    37         18
    38         53
    39        267
    40         48
    41         63
    42          4
    50        116
    51        215
    52         85
    53         57
    54          6
    58         32
    61         19
    62         57
    63        154
    64         53
    65        120
    66         14
    67          3
    71         23
    73          8
    74         46
    75         54
    76         69
    77        276
    78        103
    79        108
    80          8
    85          5
    86         13
    87         20
    88         16
    89         78
    90         31
    91        133
    92         12
    98          7
    99          6
   100          6
   101         22
   102         79
   103        310
   104          6
   105        999
   106         84
   107          3
   113          6
   115        155
   116         71
   117        149
   118        440
   119         62
   120          4
   127          9
   128         24
   130        755
   131         76
   132          4
   140          8
   141          3
   142         13
   143         20
   144        124
   145        662
   146         70
   147          2