##TITLE=Library Entry 67242
##JCAMP-DX=Revision 4.10 
##DATA TYPE=MASS SPECTRUM
##SAMPLE DESCRIPTION=A.A.Kutin, Moscow, Russia
##NAMES=HP
##CAS NAME=1H-Pyrrolo(2,3-d)pyrimidine-2,4(3H,7H)-dione, 1,3-dimethyl-
##MOLFORM=C8H9N3O2
##CAS REGISTRY NO=39112-72-6
##MP= -300
##BP= -300
##MW= 179
##$RETENTION INDEX=0
##$CONDENSED SPECTRUM=NO
##NPOINTS= 79
##XYDATA=(XY..XY) 1 
    33         21
    34          1
    36         20
    37        112
    38        163
    39        282
    40        223
    41        149
    42        203
    43         32
    44         28
    45          0
    46          9
    47          0
    50         22
    51        100
    52        251
    53        141
    54         58
    55         37
    56        113
    57         42
    58        105
    59          0
    60         11
    61          7
    62          8
    63         38
    64         90
    65        131
    66        485
    67        409
    68         37
    69         10
    70         20
    71          0
    75          6
    76         14
    77         33
    78         37
    79         99
    80         32
    81         17
    82          2
    83          2
    90         27
    91         17
    92        115
    93        904
    94        999
    95        143
    96          7
   104          5
   105          2
   106          7
   107         21
   108          5
   109          3
   112          0
   118          3
   119          3
   120         25
   121        107
   122        145
   123         20
   124          2
   134          7
   135         18
   136          5
   148          3
   149         15
   150         37
   151          7
   160          2
   169          0
   178        132
   179        575
   180         57
   181          3