##TITLE=Library Entry 64345
##JCAMP-DX=Revision 4.10 
##DATA TYPE=MASS SPECTRUM
##SAMPLE DESCRIPTION=Chemical Concepts
##NAMES=HP
##CAS NAME=N-(4-Bromobenzylidene)-p-toluidine
##MOLFORM=C14H12BrN
##CAS REGISTRY NO=39128-27-3
##MP= -300
##BP= -300
##MW= 273
##$RETENTION INDEX=2192
##$CONDENSED SPECTRUM=NO
##NPOINTS= 113
##XYDATA=(XY..XY) 1 
    37          2
    38         19
    39        237
    41         33
    49          2
    50        123
    51        145
    52         41
    53         14
    59          1
    61         13
    62         84
    63        204
    64         62
    65        538
    66         37
    70         20
    74         39
    75        104
    76        113
    77        119
    78         24
    79         22
    80         22
    81         13
    82         64
    83         34
    84         37
    85          1
    86         16
    87         30
    88         30
    89        267
    90        148
    91        999
    92         84
    93          3
    94          1
    96        123
    97        167
    98          7
   101          8
   102         51
   103         26
   104          8
   105          3
   106          7
   107          8
   112          1
   114         23
   115         58
   116         43
   117         21
   118        251
   119         26
   120          1
   124          1
   125          3
   126          6
   127          5
   133          6
   135          5
   136          4
   137         21
   138          8
   139         18
   140          8
   141          3
   150          3
   151         14
   152         36
   153         13
   154          1
   155         16
   156         20
   157         14
   158         17
   159          1
   163          6
   164          9
   165         77
   166         27
   167         26
   168          1
   169          2
   171          7
   177          5
   178         16
   179         24
   180          1
   181          1
   182          2
   183          2
   184          2
   190         11
   191         26
   192         60
   193         90
   194         51
   195          8
   196         11
   197          1
   224          1
   258          5
   260          8
   270          1
   271         10
   272        617
   273        821
   274        643
   275        789
   276        113
   277          6