##TITLE=Library Entry 72918
##JCAMP-DX=Revision 4.10 
##DATA TYPE=MASS SPECTRUM
##SAMPLE DESCRIPTION=V.A.Korolev, Moscow, Russia
##NAMES=HP
##CAS NAME=4-Aminooxane-4-carboxylic acid
##MOLFORM=C6H11NO3
##CAS REGISTRY NO=39124-20-4
##MP= -300
##BP= -300
##MW= 145
##$RETENTION INDEX=0
##$CONDENSED SPECTRUM=NO
##NPOINTS= 44
##XYDATA=(XY..XY) 1 
    29         21
    30         26
    31         76
    37          1
    38         13
    39         81
    40         59
    41        364
    42        774
    43        160
    44         90
    45        848
    46         43
    47          6
    48          1
    50         13
    51         25
    52         33
    53        112
    54        170
    55         90
    56         66
    57         18
    58          1
    59          4
    60          1
    68         31
    69         70
    70        282
    71         31
    72         38
    73          2
    81          3
    82         90
    83         55
    84          9
    87        120
    88          8
    99         18
   100        999
   101         56
   102          1
   116          6
   145          5