##TITLE=Library Entry 9184
##JCAMP-DX=Revision 4.10 
##DATA TYPE=MASS SPECTRUM
##SAMPLE DESCRIPTION=Japan AIST/NIMC Database- Spectrum MS-NW-3974
##NAMES=HP
##CAS NAME=2-Decenoic acid
##MOLFORM=C10H18O2
##CAS REGISTRY NO=3913-85-7
##MP= -300
##BP= -300
##MW= 170
##$RETENTION INDEX=2793
##$CONDENSED SPECTRUM=NO
##NPOINTS= 111
##XYDATA=(XY..XY) 1 
    14          2
    15          8
    17          3
    18         11
    26         13
    27        242
    28         25
    29        355
    30          8
    31         13
    32          4
    37          2
    38          9
    39        214
    40         45
    41        577
    42        187
    43        999
    44         34
    45         45
    47          1
    50          7
    51         19
    52         10
    53         93
    54        112
    55        439
    56        483
    57        185
    58         23
    59         13
    60         58
    61          9
    62          1
    63          4
    65         14
    66         15
    67        121
    68        180
    69        348
    70        241
    71         58
    72          7
    73        658
    74         32
    75          3
    77         11
    78          5
    79         27
    80         12
    81        172
    82         81
    83         97
    84        204
    85         48
    86        253
    87         92
    88         13
    89          1
    91          5
    92          3
    93          7
    94         13
    95         85
    96         84
    97         64
    98        181
    99        207
   100         78
   101         57
   102         19
   103          2
   105          4
   106          2
   107          2
   108         51
   109         42
   110        199
   111         58
   112          5
   113         62
   114         66
   115         17
   116          3
   117          1
   119          5
   121          2
   122          1
   123         80
   124         27
   125          3
   126          1
   127         40
   128          9
   129          5
   130          1
   133          1
   134         12
   135          1
   137          8
   139          1
   141          9
   142          1
   150          1
   151          3
   152         44
   153         14
   154          3
   155          1
   170          3
   171          4