##TITLE=Library Entry 24107
##JCAMP-DX=Revision 4.10 
##DATA TYPE=MASS SPECTRUM
##SAMPLE DESCRIPTION=NIST Mass Spectrometry Data Center, 1990.
##NAMES=HP
##CAS NAME=1-Octanol, 2-butyl-
##MOLFORM=C12H26O
##CAS REGISTRY NO=3913-02-8
##MP= -300
##BP= -300
##MW= 186
##$RETENTION INDEX=1277
##$CONDENSED SPECTRUM=NO
##NPOINTS= 49
##XYDATA=(XY..XY) 1 
    27        117
    29        219
    30         12
    31         86
    39        137
    41        602
    42        140
    43        660
    44         36
    45         16
    52         10
    53         66
    54         75
    55        644
    56        412
    57        999
    58         44
    65         14
    66         16
    67        103
    68         76
    69        497
    70        358
    71        447
    72         33
    77         14
    79         18
    81         45
    82         99
    83        262
    84        206
    85        283
    86         20
    95         17
    96         50
    97        176
    98        110
    99         80
   100         17
   110         41
   111        164
   112         59
   113         24
   125         52
   126         33
   139         12
   140         27
   154         15
   168         43