##TITLE=Library Entry 27698
##JCAMP-DX=Revision 4.10 
##DATA TYPE=MASS SPECTRUM
##SAMPLE DESCRIPTION=S.N.ELOFF POTCHEFSTROOM UNIV., POTCHEFSTROOM, S. AFRICA
##NAMES=HP
##CAS NAME=L-Alanine, N-methyl-
##MOLFORM=C4H9NO2
##CAS REGISTRY NO=3913-67-5
##MP= -300
##BP= -300
##MW= 103
##$RETENTION INDEX=0
##$CONDENSED SPECTRUM=NO
##NPOINTS= 27
##XYDATA=(XY..XY) 1 
    30        274
    31         15
    32         11
    39          5
    40         13
    41         37
    42        161
    43         68
    44         68
    45         37
    46          3
    52          5
    53          3
    54         10
    55         11
    56        123
    57         37
    58        999
    59         47
    60          5
    70          7
    73          8
    74          8
    88         18
   102          3
   103        210
   104          2