##TITLE=Library Entry 90047
##JCAMP-DX=Revision 4.10 
##DATA TYPE=MASS SPECTRUM
##SAMPLE DESCRIPTION=Japan AIST/NIMC Database- Spectrum MS-NW-5767
##NAMES=HP
##CAS NAME=1-Amino-2,6-dimethylpiperidine
##MOLFORM=C7H16N2
##CAS REGISTRY NO=39135-39-2
##MP= -300
##BP= -300
##MW= 128
##$RETENTION INDEX=0
##$CONDENSED SPECTRUM=NO
##NPOINTS= 81
##XYDATA=(XY..XY) 1 
    14          1
    15         22
    16          5
    26          7
    27         70
    28         17
    29         51
    30         44
    31         10
    32          2
    33          3
    37          1
    38          4
    39         65
    40         15
    41        165
    42        129
    43         73
    44         44
    45         18
    46          1
    50          3
    51          6
    52          3
    53         17
    54         21
    55        113
    56         44
    57        193
    58        244
    59         63
    60          2
    62          1
    63          2
    64          1
    65          6
    66          7
    67         13
    68         40
    69         61
    70         57
    71         32
    72         11
    73          2
    77          3
    78          1
    79          8
    80          5
    81         18
    82         12
    83         41
    84         12
    85         15
    86          3
    87          5
    91          2
    92          4
    93          2
    94          6
    95          4
    96         21
    97          9
    98         27
    99         10
   100          1
   106          5
   107         14
   108          3
   109          2
   110          7
   111         24
   112         14
   113        999
   114         80
   115          3
   125          1
   126          9
   127         26
   128        210
   129         18
   130          1