##TITLE=Library Entry 23593
##JCAMP-DX=Revision 4.10 
##DATA TYPE=MASS SPECTRUM
##SAMPLE DESCRIPTION=Japan AIST/NIMC Database- Spectrum MS-IW-1898
##NAMES=HP
##CAS NAME=2-Bromopropionic acid tert-butyl ester
##MOLFORM=C7H13BrO2
##CAS REGISTRY NO=39149-80-9
##MP= -300
##BP= -300
##MW= 208
##$RETENTION INDEX=0
##$CONDENSED SPECTRUM=NO
##NPOINTS= 46
##XYDATA=(XY..XY) 1 
    15          6
    26         13
    27         90
    28         43
    29        130
    30          3
    31          9
    37          1
    38          3
    39         46
    40          8
    41        239
    42         13
    43         40
    44          4
    45          4
    50          2
    51          3
    53          5
    54          2
    55         30
    56         77
    57        999
    58         50
    59        132
    60          4
    73          3
    79          3
    80          5
    81          3
    82          5
   105          1
   106          1
   107        109
   108          5
   109        107
   110          4
   134          1
   135        131
   136          6
   137        126
   138          4
   193         35
   194          2
   195         35
   196          2