##TITLE=Library Entry 26134
##JCAMP-DX=Revision 4.10 
##DATA TYPE=MASS SPECTRUM
##SAMPLE DESCRIPTION=V.A.Korolev, Moscow, Russia
##NAMES=HP
##CAS NAME=2-(Chloromethyl)-5-ethyl-1,3,4-oxadiazole
##MOLFORM=C5H7ClN2O
##CAS REGISTRY NO=3914-45-2
##MP= -300
##BP= -300
##MW= 146
##$RETENTION INDEX=0
##$CONDENSED SPECTRUM=NO
##NPOINTS= 74
##XYDATA=(XY..XY) 1 
    35          7
    36          5
    37          5
    38         28
    39        738
    40        246
    41        583
    42        521
    43        105
    44         28
    45          8
    47         33
    48         70
    49        725
    50         49
    51        254
    52         40
    53         76
    54        262
    55        379
    56         94
    57        999
    58         33
    59          7
    60         42
    61        164
    62         26
    63         58
    64          6
    65          6
    67          6
    68         16
    69        376
    70         41
    71         13
    73          7
    74         11
    75         42
    76         90
    77        346
    78         36
    79        102
    80          3
    81          8
    82          6
    83         14
    88          5
    89         61
    90         31
    91         23
    92          9
    96         12
    97        761
    98         42
    99          4
   103         10
   104          3
   105          4
   111        159
   112         13
   113          4
   117        154
   118          5
   119         51
   125          2
   131         73
   132          5
   133         23
   145        292
   146        408
   147        122
   148        134
   149         42
   150          3