##TITLE=Library Entry 15608
##JCAMP-DX=Revision 4.10 
##DATA TYPE=MASS SPECTRUM
##SAMPLE DESCRIPTION=Japan AIST/NIMC Database- Spectrum MS-NW-2552
##NAMES=HP
##CAS NAME=dl-Alanyl-dl-.alpha.-amino-n-butyric acid
##MOLFORM=C7H14N2O3
##CAS REGISTRY NO=3914-53-2
##MP= -300
##BP= -300
##MW= 174
##$RETENTION INDEX=0
##$CONDENSED SPECTRUM=NO
##NPOINTS= 43
##XYDATA=(XY..XY) 1 
    15          9
    17          3
    18         11
    26          3
    27         21
    28         42
    29          9
    30         10
    31          4
    32          2
    39          7
    40          3
    41         18
    42         27
    43         17
    44        999
    45         30
    46          1
    54          2
    55          9
    56         12
    57          7
    58         77
    59          3
    69          1
    70          7
    71          4
    72          1
    73          2
    74          1
    84          4
    85         12
    86          1
    98          1
    99         11
   102          2
   113         28
   114          2
   127          1
   128         22
   129          3
   131          3
   174          2