##TITLE=Library Entry 34428
##JCAMP-DX=Revision 4.10 
##DATA TYPE=MASS SPECTRUM
##SAMPLE DESCRIPTION=NIST Mass Spectrometry Data Center
##NAMES=HP
##CAS NAME=Butanoic acid, 3-methyl-, 3,7-dimethyl-2,6-octadienyl ester, (Z)-
##MOLFORM=C15H26O2
##CAS REGISTRY NO=3915-83-1
##MP= -300
##BP= -300
##MW= 238
##$RETENTION INDEX=1582
##$CONDENSED SPECTRUM=NO
##NPOINTS= 88
##XYDATA=(XY..XY) 1 
    26          1
    27         29
    28          5
    29         42
    30          2
    31          1
    37          1
    38          3
    39         81
    40         28
    41        508
    42         36
    43         76
    44          4
    45          6
    50          2
    51         11
    52          8
    53         92
    54         11
    55         40
    56         13
    57        272
    58         16
    59          9
    60          8
    61          3
    62          1
    63          2
    64          1
    65         25
    66         11
    67        204
    68        468
    69        999
    70         59
    71          2
    72          1
    73          1
    77         34
    78          7
    79         55
    80        240
    81        174
    82         14
    83         14
    84         28
    85        299
    86          7
    87          3
    88          1
    91         42
    92         99
    93        479
    94         82
    95         48
    98          4
   103          9
   104          1
   105         26
   106          6
   107         91
   108         25
   110          8
   111          2
   112          3
   113          2
   120          4
   121        271
   122         28
   123         33
   124          2
   132          1
   133          1
   134          1
   135          5
   136        127
   137         40
   138          4
   139         10
   140          1
   141          5
   142          2
   149          1
   152          1
   154         24
   155          2
   168          2