##TITLE=Library Entry 67054
##JCAMP-DX=Revision 4.10 
##DATA TYPE=MASS SPECTRUM
##SAMPLE DESCRIPTION=Chemical Concepts
##NAMES=HP
##CAS NAME=2-Pentenenitrile, 4,4-dimethyl-
##MOLFORM=C7H11N
##CAS REGISTRY NO=39168-14-4
##MP= -300
##BP= -300
##MW= 109
##$RETENTION INDEX=0
##$CONDENSED SPECTRUM=NO
##NPOINTS= 64
##XYDATA=(XY..XY) 1 
    26         44
    27        230
    28          6
    29        122
    30          6
    31          1
    32          6
    36          1
    37         26
    38         44
    39        359
    40         77
    41        576
    42        122
    43         39
    44          3
    46          2
    48         11
    49          8
    50         43
    51        113
    52         91
    53        105
    54         70
    55         51
    56         48
    57        155
    58          8
    59          0
    61          5
    62          8
    63         29
    64         29
    65         93
    66        215
    67        899
    68        151
    69        224
    70         10
    71          1
    75         11
    76         13
    77         70
    78         27
    79         10
    80         18
    81         61
    82        296
    83         24
    88          1
    90          0
    91          1
    92         15
    93         41
    94        999
    95         76
    97          2
   104          0
   106          2
   107          9
   108         50
   109        220
   110         12
   111          0