##TITLE=Library Entry 19862
##JCAMP-DX=Revision 4.10 
##DATA TYPE=MASS SPECTRUM
##SAMPLE DESCRIPTION=Chemical Concepts
##NAMES=HP
##CAS NAME=3-Penten-1-ol
##MOLFORM=C5H10O
##CAS REGISTRY NO=39161-19-8
##MP= -300
##BP= -300
##MW= 86
##$RETENTION INDEX=725
##$CONDENSED SPECTRUM=NO
##NPOINTS= 43
##XYDATA=(XY..XY) 1 
    25          2
    27        319
    28         84
    29        448
    30         17
    31        314
    37         13
    38         31
    39        341
    40         55
    41        421
    42         56
    43         77
    44         92
    45         34
    49          6
    50         38
    51         48
    52         19
    53        173
    54        132
    55        999
    56        719
    57        153
    58         32
    59          8
    60          2
    61          3
    62          4
    63          7
    65         14
    66         10
    67         97
    68        713
    69         65
    70         11
    71         16
    81          2
    83          8
    84          6
    85          4
    86         93
    87          6