##TITLE=Library Entry 54605
##JCAMP-DX=Revision 4.10 
##DATA TYPE=MASS SPECTRUM
##SAMPLE DESCRIPTION=SHELL RESEARCH LIMITED THORNTON RESEARCH CENTRE
##NAMES=HP
##CAS NAME=Furan, tetrahydro-2,4-dimethyl-, cis-
##MOLFORM=C6H12O
##CAS REGISTRY NO=39168-01-9
##MP= -300
##BP= -300
##MW= 100
##$RETENTION INDEX=1004
##$CONDENSED SPECTRUM=NO
##NPOINTS= 21
##XYDATA=(XY..XY) 1 
    26         40
    27        103
    28         62
    29        140
    39        148
    40         52
    41        803
    42        205
    43        299
    45         72
    53         49
    55        758
    56        714
    57        166
    58         49
    67         75
    70        158
    85        999
    86         43
    99         51
   100        133