##TITLE=Library Entry 53880
##JCAMP-DX=Revision 4.10 
##DATA TYPE=MASS SPECTRUM
##SAMPLE DESCRIPTION=Exported from NIST MS Search
##NAMES=HP
##CAS NAME=Acetamide, N-[3-(acetylethylamino)propyl]-n-pentyl-
##MOLFORM=C14H28N2O2
##CAS REGISTRY NO=39160-03-7
##MP= -300
##BP= -300
##MW= 256
##$RETENTION INDEX=0
##$CONDENSED SPECTRUM=NO
##NPOINTS= 92
##XYDATA=(XY..XY) 1 
    53         13
    54         37
    55         81
    56        307
    57        125
    58        953
    59         48
    60         13
    61          4
    66          6
    67         15
    68         57
    69         87
    70        250
    71        103
    72        486
    73         85
    74         11
    75          6
    81          4
    82         15
    83         35
    84        999
    85        120
    86        214
    87        184
    88         76
    89         21
    90         13
    96          8
    97         17
    98         83
    99         28
   100        521
   101        214
   102         30
   103         13
   108          8
   109         30
   110          8
   111         15
   112         92
   113         61
   114        673
   115         70
   116          8
   124          4
   125         17
   126        868
   127        125
   128        554
   129         61
   130         87
   131         17
   132          4
   139          4
   140         15
   141          8
   142         43
   143         81
   144         11
   153          6
   154         26
   155         13
   156        171
   157        171
   158         17
   159         11
   168          8
   169         15
   170        186
   171         41
   172         13
   173          8
   184          8
   185         15
   186          8
   198          4
   199         48
   200          6
   201          4
   212         17
   213        785
   214        105
   215         15
   216          6
   254          6
   255         19
   256        190
   257         61
   258         19
   259          8