##TITLE=Library Entry 2139
##JCAMP-DX=Revision 4.10 
##DATA TYPE=MASS SPECTRUM
##SAMPLE DESCRIPTION=Exported from NIST MS Search
##NAMES=HP
##CAS NAME=1-Propene, 3-(ethenyloxy)-
##MOLFORM=C5H8O
##CAS REGISTRY NO=3917-15-5
##MP= -300
##BP= -300
##MW= 84
##$RETENTION INDEX=864
##$CONDENSED SPECTRUM=NO
##NPOINTS= 47
##XYDATA=(XY..XY) 1 
    13          3
    14         16
    15         55
    16          1
    17          1
    18          3
    19          2
    24          1
    25          5
    26         43
    27        134
    28         64
    29        102
    30          8
    31         43
    32          2
    36          2
    37         18
    38         33
    39        400
    40         42
    41        999
    42        105
    43        108
    44         68
    45         14
    50          2
    51          2
    52          1
    53         10
    54          8
    55        228
    56        140
    57         43
    58          7
    59          2
    65          2
    66          5
    67          2
    68          1
    69         34
    70          2
    81          1
    82          6
    83         50
    84        108
    85          7