##TITLE=Library Entry 19493
##JCAMP-DX=Revision 4.10 
##DATA TYPE=MASS SPECTRUM
##SAMPLE DESCRIPTION=J. SHAW, BORRISTON RESEARCH, ROCKVILLE, MD, USA
##NAMES=HP
##CAS NAME=2-Butanone, 3,3-dimethyl-1-(methylsulfonyl)-, O-[(methylamino)car
bonyl]oxime
##MOLFORM=C9H18N2O4S
##CAS REGISTRY NO=39184-59-3
##MP= -300
##BP= -300
##MW= 250
##$RETENTION INDEX=0
##$CONDENSED SPECTRUM=NO
##NPOINTS= 144
##XYDATA=(XY..XY) 1 
    12          6
    13          5
    14         20
    15        538
    16         25
    17        126
    18        530
    19          3
    20          1
    25          1
    26         15
    27        179
    28        312
    29        454
    30        138
    31         56
    32         30
    33          4
    34          5
    35          2
    36          2
    37          4
    38         14
    39        205
    40         80
    41        894
    43        158
    44         85
    45         31
    46         13
    47         10
    48         15
    49          5
    50          8
    51         15
    52         11
    53         66
    54         41
    55        999
    56        273
    57        640
    58        515
    59         35
    60          6
    61          4
    62          4
    63         57
    64         19
    65         42
    66         13
    67         83
    68         39
    69         31
    70         16
    71         19
    72         30
    73          8
    74          8
    75         11
    76         27
    77          9
    79        121
    80         34
    81        359
    82         74
    83        636
    84        197
    85         11
    86          3
    87          3
    88          3
    89          1
    90          2
    91          3
    92          1
    93          4
    94         28
    95         22
    96        143
    97         77
    98        161
    99         17
   100         24
   101         30
   102          2
   103          1
   104          5
   105          4
   106          3
   107          4
   108          1
   109          3
   110          3
   111          4
   113        857
   114        202
   115         16
   116          2
   117          1
   118          1
   120        113
   121          7
   122          7
   123          2
   125          1
   126          1
   127          2
   128          1
   129          1
   130          3
   131          1
   132          1
   133          1
   135         40
   136         19
   137          3
   138          3
   139          1
   141          1
   143          1
   145          1
   146          1
   147          1
   149          9
   151        149
   152         15
   153          8
   154          1
   160         14
   161          7
   162         25
   163          4
   164          3
   165          1
   167          1
   176        109
   177         20
   178         33
   179          3
   180          2
   185          1
   193        125
   194         12
   195          7