##TITLE=Library Entry 59105
##JCAMP-DX=Revision 4.10 
##DATA TYPE=MASS SPECTRUM
##SAMPLE DESCRIPTION=V.Zaikin,Topchiev Inst.Petrochem.Synth.,Moscow
##NAMES=HP
##CAS NAME=Benzeneacetic acid, 2-pentyl ester
##MOLFORM=C13H18O2
##CAS REGISTRY NO=39180-01-3
##MP= -300
##BP= -300
##MW= 206
##$RETENTION INDEX=0
##$CONDENSED SPECTRUM=NO
##NPOINTS= 74
##XYDATA=(XY..XY) 1 
    26          5
    27         38
    28         15
    29         49
    30          1
    31          1
    36          4
    37          1
    38          5
    39         57
    40          8
    41         84
    42         27
    43        534
    44         15
    45          8
    50          8
    51         20
    52          8
    53          8
    54          2
    55         68
    56          4
    61          1
    62          7
    63         28
    64         10
    65        120
    66          8
    67          2
    69          7
    70         67
    71        430
    72         25
    73          2
    74          2
    75          2
    76          2
    77         17
    78          4
    79          7
    86          1
    87          3
    89         48
    90         42
    91        999
    92        360
    93         26
    94          1
   105          4
   106          2
   107          3
   115         18
   116          1
   117          2
   118         15
   119        152
   120         14
   121          1
   133          1
   135          2
   136         34
   137        170
   138         16
   139          2
   156          1
   162          2
   163         20
   164          2
   191          3
   193          1
   206         44
   207          9
   208          2