##TITLE=Library Entry 61406
##JCAMP-DX=Revision 4.10 
##DATA TYPE=MASS SPECTRUM
##SAMPLE DESCRIPTION=A.A.Kutin, Moscow, Russia
##NAMES=HP
##CAS NAME=1,3,4-Thiadiazol-2-amine, 5-(3-methylbenzyl)-
##MOLFORM=C10H11N3S
##CAS REGISTRY NO=39181-46-9
##MP= -300
##BP= -300
##MW= 205
##$RETENTION INDEX=0
##$CONDENSED SPECTRUM=NO
##NPOINTS= 146
##XYDATA=(XY..XY) 1 
    33          7
    34          6
    36          1
    37          6
    38         23
    39        137
    40         18
    41         39
    42         39
    43         27
    44         13
    45         48
    46          8
    47         25
    48          3
    50         59
    51        113
    52         29
    53         10
    54          5
    55          4
    56          1
    58         61
    59        165
    60        213
    61         19
    62         35
    63         73
    65        288
    66         14
    67          1
    69         21
    70          4
    71          9
    72          9
    74        124
    75         32
    76         32
    77        102
    78         44
    79         20
    80          1
    81          1
    82          1
    83          0
    84          2
    85          3
    86          6
    87          5
    89         56
    91        999
    92         58
    93          4
    94          0
    95          1
    96          0
    97          1
    98          1
    99          1
   100          1
   101          8
   102         29
   103         55
   104         70
   105         18
   106          3
   108          1
   109          2
   110          2
   111          2
   114        490
   115         75
   116         37
   117         18
   118          5
   119          2
   121          9
   122         18
   123         14
   124          2
   125          1
   127         25
   128        161
   129         32
   130         85
   131         17
   132         13
   133          3
   134          6
   135         13
   136          8
   137          1
   138          0
   139          0
   141          0
   142          0
   143          1
   144          1
   145          8
   146          9
   147          9
   148          8
   149          7
   150          1
   151          0
   152          0
   153          0
   155          1
   156          0
   157          0
   158          0
   159          0
   160          2
   161          4
   162         36
   163         34
   164          5
   165          2
   166          0
   167          0
   168          0
   170          0
   171          0
   172          5
   174          3
   175          0
   176          0
   177          0
   178          3
   179          0
   180          0
   181          0
   185          0
   188         51
   189          8
   190          8
   191          1
   192          0
   200          1
   202         57
   204        301
   205        478
   206         67
   207         22
   208          2
   209          0