##TITLE=Library Entry 757
##JCAMP-DX=Revision 4.10 
##DATA TYPE=MASS SPECTRUM
##SAMPLE DESCRIPTION=Chemical Concepts
##NAMES=HP
##CAS NAME=2-Decenedioic acid, diethyl ester
##MOLFORM=C14H24O4
##CAS REGISTRY NO=39182-61-1
##MP= -300
##BP= -300
##MW= 256
##$RETENTION INDEX=0
##$CONDENSED SPECTRUM=NO
##NPOINTS= 152
##XYDATA=(XY..XY) 1 
    25          3
    26         49
    27        434
    28        111
    29        999
    30         29
    31         45
    32         10
    35          0
    37          2
    38          9
    39        265
    40         89
    41        523
    42        149
    43        234
    44         15
    45        141
    46          4
    47          3
    49          0
    50          6
    51         25
    52         14
    53        214
    54        134
    55        539
    56         49
    57        113
    58         10
    59         22
    60         99
    61         64
    62          2
    63          4
    64          2
    65         32
    66         34
    67        299
    68        271
    69        294
    70         73
    71         81
    72          5
    73        188
    74         13
    75          2
    76          0
    77         31
    78         14
    79        117
    80         66
    81        446
    82        167
    83         75
    84         30
    85         56
    86        159
    87         33
    88        128
    89         13
    90          1
    91         40
    92         32
    93        119
    94        326
    95        458
    96         59
    97         85
    98         23
    99        124
   100         19
   101        103
   102          9
   103          4
   104          4
   105          9
   106          3
   107        118
   108        213
   109        224
   110         41
   111         15
   112         10
   113         27
   114        169
   115         48
   116          5
   117         15
   118         35
   119        322
   120         49
   121         29
   122         59
   123         46
   124          6
   125         20
   126          6
   127         45
   128         31
   129         13
   130          4
   131          2
   132          1
   133          3
   134          4
   135         50
   136        558
   137        346
   138         46
   139         12
   140          6
   141         15
   142          9
   143         13
   144          1
   145          2
   146         15
   147          5
   148          1
   149          2
   151          1
   153         17
   154         37
   155         11
   156          3
   157          1
   158          2
   159          2
   162          0
   163         16
   164        421
   165        104
   166         16
   167          3
   168          9
   169         10
   170          1
   175          0
   180          0
   181          4
   182        199
   183        172
   184         26
   185          1
   192          3
   193          0
   209          1
   210         99
   211        170
   212         20
   213          1