##TITLE=Library Entry 28945
##JCAMP-DX=Revision 4.10 
##DATA TYPE=MASS SPECTRUM
##SAMPLE DESCRIPTION=J. SHAW, BORRISTON RESEARCH, ROCKVILLE, MD, USA
##NAMES=HP
##CAS NAME=2-Butanone, 3,3-dimethyl-1-(methylsulfinyl)-, O-[(methylamino)car
bonyl]oxime
##MOLFORM=C9H18N2O3S
##CAS REGISTRY NO=39184-27-5
##MP= -300
##BP= -300
##MW= 234
##$RETENTION INDEX=0
##$CONDENSED SPECTRUM=NO
##NPOINTS= 123
##XYDATA=(XY..XY) 1 
    12          8
    13          6
    15        110
    16          7
    17         23
    18         98
    19          2
    26         17
    27        184
    28        100
    29        453
    30        132
    31         65
    32          7
    33          9
    34         10
    35         11
    36          3
    37          4
    38         16
    39        193
    40         61
    41        398
    42        345
    43        119
    44         87
    45         80
    46         33
    47         45
    48         29
    49         10
    50          8
    51         14
    52         10
    53         55
    54         26
    55        367
    56        355
    58        999
    59         32
    60         13
    61         63
    62         15
    63        160
    64        149
    65         36
    66         14
    67         54
    68         28
    69         40
    70         18
    71         43
    72         10
    73         14
    74         10
    75         10
    76         16
    77         10
    78         18
    79          9
    80         10
    81         49
    82         34
    83        378
    84         58
    85         16
    86          8
    87         10
    88          6
    89          3
    90          1
    91          1
    93          1
    94          5
    95          4
    96         27
    97         62
    98         30
    99         22
   100          8
   101          2
   103         17
   104         81
   105          6
   106          4
   107          2
   109          1
   110          1
   111          1
   112          3
   114        737
   115         78
   116          5
   120          2
   121          4
   122          1
   123          1
   126          1
   127          2
   128          2
   129          3
   130          2
   132          6
   133          1
   135          1
   142          2
   143          2
   144          4
   145          3
   146         14
   147          1
   149          2
   152          1
   160        184
   161         19
   162         18
   163          2
   164          1
   172          2
   177        213
   178         20
   179         11
   180          1