##TITLE=Library Entry 1261
##JCAMP-DX=Revision 4.10 
##DATA TYPE=MASS SPECTRUM
##SAMPLE DESCRIPTION=Japan AIST/NIMC Database- Spectrum MS-NW-1360
##NAMES=HP
##CAS NAME=N-Isobutyl-sec-butylamine
##MOLFORM=C8H19N
##CAS REGISTRY NO=39190-88-0
##MP= -300
##BP= -300
##MW= 129
##$RETENTION INDEX=843
##$CONDENSED SPECTRUM=NO
##NPOINTS= 53
##XYDATA=(XY..XY) 1 
    14          1
    15         13
    17          1
    26          4
    27         66
    28         76
    29        184
    30        999
    31         13
    32          8
    38          2
    39         51
    40          6
    41        184
    42         43
    43         22
    44        530
    45         13
    50          1
    51          2
    52          1
    53          7
    54          7
    55         65
    56         58
    57        244
    58        195
    59          7
    67          2
    68          5
    69          3
    70         17
    71          4
    72         57
    73          3
    81          1
    82          3
    83          1
    84         20
    85          3
    86        655
    87         38
    98          7
    99          1
   100        671
   101         47
   102          1
   112          2
   114         74
   115          6
   128         12
   129         13
   130          1