##TITLE=Library Entry 91694
##JCAMP-DX=Revision 4.10 
##DATA TYPE=MASS SPECTRUM
##SAMPLE DESCRIPTION=Richard Turcotte. Direction des laboratoires d'expertis
es et d'analyses alimentaires, Quebec, Canada.
##NAMES=HP
##CAS NAME=Thiofanox
##MOLFORM=C9H18N2O2S
##CAS REGISTRY NO=39196-18-4
##MP= -300
##BP= -300
##MW= 218
##$RETENTION INDEX=1277
##$CONDENSED SPECTRUM=NO
##NPOINTS= 244
##XYDATA=(XY..XY) 1 
    40         69
    41        823
    42        341
    43        371
    44         29
    45        176
    46        106
    47        147
    48         48
    49         20
    50         19
    51         34
    52         22
    53         83
    54         36
    55        881
    56        130
    57        826
    58        130
    59         50
    60         36
    61        837
    62        189
    63         56
    64         19
    65         38
    66         27
    67        110
    68        115
    69         41
    70         28
    71         21
    72         54
    73        202
    74         26
    75          7
    76          4
    77         10
    78         18
    79         29
    80         22
    81         39
    82         70
    83        551
    84        279
    85         27
    86         20
    87        150
    88         97
    89         60
    90          7
    91          2
    92          1
    93          2
    94         11
    95          4
    96         61
    97         30
    98         76
    99        189
   100        153
   101         16
   102          3
   103          6
   104         11
   105          3
   106          1
   107          1
   108          1
   109          1
   110          4
   111          4
   112          8
   113         24
   114         25
   115        999
   116         70
   117         11
   118          1
   119          1
   120          1
   121          1
   122          1
   123          1
   125          1
   126          1
   127          3
   128          6
   129          5
   130         95
   131         10
   132          7
   133          1
   134          1
   135          1
   136          1
   137          1
   138          1
   139          1
   140          1
   141          1
   142          1
   143          5
   144         83
   145        124
   146         25
   147          9
   148          1
   149          1
   150          1
   151          1
   152          1
   153          1
   155          1
   156          1
   157          1
   158          1
   159          1
   160          1
   161        642
   162         60
   163         35
   164          2
   165          1
   168          1
   169          1
   170          1
   171          1
   172          1
   173          1
   175          1
   177          1
   178          1
   179          1
   182          1
   183          1
   184          1
   185          1
   186          1
   187          1
   188          1
   189          1
   190          1
   193          1
   194          1
   195          1
   197          1
   199          1
   200          1
   201          1
   202          1
   203          1
   205          1
   206          1
   207          1
   208          1
   211          1
   215          1
   216          1
   217          1
   218          1
   219          1
   220          1
   224          1
   225          1
   226          1
   228          1
   230          1
   233          1
   235          1
   246          1
   247          1
   251          1
   252          1
   253          1
   259          1
   260          1
   262          1
   263          1
   265          1
   266          1
   268          1
   269          4
   270          1
   272          1
   273          1
   274          1
   276          1
   277          1
   279          1
   281          1
   283          1
   284          1
   291          1
   292          1
   294          1
   295          1
   303          1
   306          1
   313          1
   314          1
   316          1
   322          1
   324          1
   327          1
   329          1
   332          1
   340          1
   342          1
   343          1
   346          1
   352          1
   354          1
   355          1
   365          1
   368          1
   369          1
   381          1
   385          1
   394          1
   396          1
   397          1
   399          1
   400          1
   405          1
   412          1
   413          1
   420          1
   437          1
   438          1
   447          1
   452          1
   456          1
   460          1
   461          1
   468          1
   482          1
   488          1
   506          1
   510          1
   529          1
   537          1
   545          1
   548          1