##TITLE=Library Entry 69393
##JCAMP-DX=Revision 4.10 
##DATA TYPE=MASS SPECTRUM
##SAMPLE DESCRIPTION=V.A.Korolev, Moscow, Russia
##NAMES=HP
##CAS NAME=2H-Pyrazole-3-carbaldehyde
##MOLFORM=C4H4N2O
##CAS REGISTRY NO=3920-50-1
##MP= -300
##BP= -300
##MW= 96
##$RETENTION INDEX=0
##$CONDENSED SPECTRUM=NO
##NPOINTS= 35
##XYDATA=(XY..XY) 1 
    28         78
    29        189
    36         10
    37        139
    38        212
    39        324
    40        276
    41        152
    42         45
    43          5
    44          2
    45          1
    48         11
    49         48
    50        110
    51         95
    52         60
    53         48
    54         18
    55          5
    57          1
    63          1
    64          7
    65         13
    66        208
    67        364
    68        395
    69        196
    70          2
    78          2
    79          2
    95        497
    96        999
    97         55
    98          3