##TITLE=Library Entry 22142
##JCAMP-DX=Revision 4.10 
##DATA TYPE=MASS SPECTRUM
##SAMPLE DESCRIPTION=A.A.Kutin, Moscow, Russia
##NAMES=HP
##CAS NAME=1H-Pyrazole, 1,5-dimethyl-4-nitro-
##MOLFORM=C5H7N3O2
##CAS REGISTRY NO=3920-42-1
##MP= -300
##BP= -300
##MW= 141
##$RETENTION INDEX=0
##$CONDENSED SPECTRUM=NO
##NPOINTS= 62
##XYDATA=(XY..XY) 1 
    33          1
    34         16
    36          2
    37         46
    38         78
    39        168
    40        305
    41        123
    42        891
    43        392
    44         80
    45          5
    46         21
    48          5
    50        103
    51        179
    52        253
    53         81
    54        121
    56        999
    57        236
    58         10
    62          1
    63         11
    64         21
    65         28
    66         73
    67        136
    68         60
    69         43
    70         24
    71         17
    72          1
    76          5
    77         15
    78          5
    79         13
    80         12
    81         15
    82         18
    83         80
    84        157
    85          8
    91          4
    93          6
    94         21
    95         12
    96         47
    97         11
   105          9
   108          0
   109          4
   111        516
   112         40
   120          2
   124        646
   125         61
   126          4
   139          1
   141        573
   142         36
   143          2