##TITLE=Library Entry 71844
##JCAMP-DX=Revision 4.10 
##DATA TYPE=MASS SPECTRUM
##SAMPLE DESCRIPTION=Chemical Concepts
##NAMES=HP
##CAS NAME=2(3H)-Furanone, 5-butyldihydro-4-methyl-
##MOLFORM=C9H16O2
##CAS REGISTRY NO=39212-23-2
##MP= -300
##BP= -300
##MW= 156
##$RETENTION INDEX=1302
##$CONDENSED SPECTRUM=NO
##NPOINTS= 84
##XYDATA=(XY..XY) 1 
    25          0
    26         12
    27        223
    28          8
    29        130
    30          3
    31          8
    36          0
    37          4
    38         11
    39        188
    40         35
    41        466
    42        462
    43        514
    44         80
    45         95
    46          2
    50          5
    51         13
    52          4
    53         30
    54         14
    55        126
    56        149
    57        184
    58         23
    59          8
    60          5
    61          0
    62          0
    63          1
    65          4
    66          1
    67         20
    68         40
    69        351
    70        165
    71        433
    72         25
    73          6
    74          0
    77          3
    78          0
    79          4
    80          0
    81         23
    82          2
    83         13
    84          5
    85         95
    86         21
    87        198
    88         10
    89          0
    91          0
    93          0
    94          0
    95         16
    96         95
    97         17
    98         13
    99        999
   100         65
   101          9
   109          1
   110          2
   111          3
   112          1
   113         11
   114         15
   115          1
   123          3
   125          1
   127          1
   128         21
   129          1
   138         13
   139          3
   140          0
   141          4
   155          3
   156          5
   157          3