##TITLE=Library Entry 21296
##JCAMP-DX=Revision 4.10 
##DATA TYPE=MASS SPECTRUM
##SAMPLE DESCRIPTION=A. A. POLYAKOVA MOSCOW LOMONOSOV STATE UNIV., MOSCOW, U
SSR
##NAMES=HP
##CAS NAME=Heptane, 1,1,1,7-tetrachloro-
##MOLFORM=C7H12Cl4
##CAS REGISTRY NO=3922-36-9
##MP= -300
##BP= -300
##MW= 236
##$RETENTION INDEX=0
##$CONDENSED SPECTRUM=NO
##NPOINTS= 95
##XYDATA=(XY..XY) 1 
    14          5
    15          1
    26         19
    27        423
    28         66
    29        265
    30          9
    35         24
    36         61
    37         29
    38         72
    39        292
    41        316
    42        250
    43        146
    49        111
    50         11
    51         73
    53         81
    54         41
    55        999
    56         60
    61         71
    62         28
    63        131
    64         14
    65         64
    66         23
    67         84
    68        522
    69        100
    70         11
    73         22
    75         88
    76         39
    77         46
    78         13
    79         23
    81         26
    82          8
    83         49
    84          8
    85         24
    87         49
    88         12
    89         22
    90         11
    91         77
    92         11
    93         47
    95         10
    96        137
    97         11
    98         59
    99         11
   100         11
   101         33
   102         48
   103         63
   104        785
   105         64
   106        215
   107         14
   109         70
   110         14
   111         44
   113         15
   115          9
   117         62
   119         30
   121          7
   122         28
   123         30
   124         20
   125         20
   127          2
   129        134
   130          5
   131         39
   132          2
   136          1
   137          4
   138          5
   139          2
   140          2
   144          1
   146          1
   148          0
   151          0
   159          0
   165         65
   167         40
   168          3
   201          8
   203          8