##TITLE=Library Entry 92836
##JCAMP-DX=Revision 4.10 
##DATA TYPE=MASS SPECTRUM
##SAMPLE DESCRIPTION=Chemical Concepts
##NAMES=HP
##CAS NAME=2-Amino-5-propyl-1,3,4-thiadiazole
##MOLFORM=C5H9N3S
##CAS REGISTRY NO=39223-04-6
##MP= -300
##BP= -300
##MW= 143
##$RETENTION INDEX=0
##$CONDENSED SPECTRUM=NO
##NPOINTS= 60
##XYDATA=(XY..XY) 1 
    34         24
    35          7
    36         17
    37         27
    38         40
    39        215
    40        242
    41        270
    42        151
    43        297
    44         96
    45        189
    46         37
    47         91
    48         13
    49         10
    50         19
    51         22
    52         21
    53         34
    54         53
    55         52
    56         26
    57         50
    58        122
    59        245
    60        323
    62         33
    63          7
    64         19
    65          7
    66          6
    67          9
    68         16
    69         33
    70         51
    71         34
    72         27
    74        415
    75         44
    76         16
    77          8
    81          7
    82          9
    84         15
    85         11
    86         13
    87         48
    98          5
   100          9
   101         51
   102          7
   112          5
   115        999
   117         40
   128        146
   130         13
   142         28
   143        107
   144          9