##TITLE=Library Entry 30830
##JCAMP-DX=Revision 4.10 
##DATA TYPE=MASS SPECTRUM
##SAMPLE DESCRIPTION=Klyuev Nikolay, RAS, A.N. Severtzov Institute of Ecolog
y and Evolution
##NAMES=HP
##CAS NAME=2-Imidazolidinone, 4,5-dihydroxy-1,3-dimethyl-
##MOLFORM=C5H10N2O3
##CAS REGISTRY NO=3923-79-3
##MP= -300
##BP= -300
##MW= 146
##$RETENTION INDEX=0
##$CONDENSED SPECTRUM=NO
##NPOINTS= 62
##XYDATA=(XY..XY) 1 
    25          2
    26          6
    27         18
    28        101
    29         37
    30        181
    31         44
    32         78
    33          2
    38          1
    39          3
    40          3
    41         24
    42        419
    43         99
    44         44
    46          1
    50          1
    51          1
    53          1
    54          7
    55          3
    56         18
    57         10
    58        111
    59        136
    60        999
    61         32
    63          3
    64          3
    70         12
    71          5
    72         39
    73          6
    74          1
    79          1
    83          3
    86          1
    87          4
    89          3
    90          6
    91          4
    98          2
    99         10
   100          4
   101          1
   110          3
   111          1
   112          1
   117          2
   118          3
   124          2
   126          4
   127          8
   128        101
   129         25
   130          2
   144          3
   145          3
   146         75
   147         16
   148          1