##TITLE=Library Entry 79532
##JCAMP-DX=Revision 4.10 
##DATA TYPE=MASS SPECTRUM
##SAMPLE DESCRIPTION=ASES Database, Dalian Institute, P.R. China
##NAMES=HP
##CAS NAME=Benzenecarbothioic acid,S-propyl ester
##MOLFORM=C10H12OS
##CAS REGISTRY NO=39251-01-9
##MP= -300
##BP= -300
##MW= 180
##$RETENTION INDEX=0
##$CONDENSED SPECTRUM=NO
##NPOINTS= 10
##XYDATA=(XY..XY) 1 
    45         18
    61         15
    77        404
    91         47
   105        999
   121          2
   138          1
   180         77
   181          9
   182          5