##TITLE=Library Entry 90255
##JCAMP-DX=Revision 4.10 
##DATA TYPE=MASS SPECTRUM
##SAMPLE DESCRIPTION=Zaikin V.G., TIPS RAS, Moscow, Russia
##NAMES=HP
##CAS NAME=2-Furancarboxylic acid, nonyl ester
##MOLFORM=C14H22O3
##CAS REGISTRY NO=39251-89-3
##MP= -300
##BP= -300
##MW= 238
##$RETENTION INDEX=0
##$CONDENSED SPECTRUM=NO
##NPOINTS= 45
##XYDATA=(XY..XY) 1 
    26          3
    27         12
    28          8
    29         22
    36          4
    38          5
    39         41
    40          5
    41         65
    42         26
    43         63
    44          4
    53          6
    54         12
    55         91
    56         86
    57         31
    66          3
    67         17
    68         25
    69         81
    70         73
    71         14
    79          3
    81          6
    82         14
    83         49
    84         46
    85          7
    95        585
    96         38
    97         55
    98         40
    99          3
   110          7
   112        516
   113        999
   114         73
   115          9
   123          6
   126         32
   127          3
   153          4
   238         82
   239         14