##TITLE=Library Entry 68503
##JCAMP-DX=Revision 4.10 
##DATA TYPE=MASS SPECTRUM
##SAMPLE DESCRIPTION=V.G. Zaikin, TIPS RAS, Moscow, Russia
##NAMES=HP
##CAS NAME=2-Furancarboxylic acid, cyclohexyl ester
##MOLFORM=C11H14O3
##CAS REGISTRY NO=39251-91-7
##MP= -300
##BP= -300
##MW= 194
##$RETENTION INDEX=0
##$CONDENSED SPECTRUM=NO
##NPOINTS= 51
##XYDATA=(XY..XY) 1 
    26         15
    27         98
    28         10
    29         49
    30          4
    31          6
    37         31
    38         88
    39        362
    40         31
    41        221
    42         39
    43         31
    44         29
    45          9
    49          4
    50         13
    51         25
    52         13
    53         59
    54        181
    55        197
    56         17
    57          8
    65         11
    66         25
    67        442
    68         49
    69         11
    77         13
    79         25
    80          7
    81         73
    82        303
    83         61
    84         15
    94          8
    95        999
    96         62
    97          6
    98          4
    99         62
   110         25
   112        187
   113        884
   114         58
   115          8
   123         11
   193          3
   194         18
   195          3