##TITLE=Library Entry 50572
##JCAMP-DX=Revision 4.10 
##DATA TYPE=MASS SPECTRUM
##SAMPLE DESCRIPTION=Chuck Anderson, Aldrich Chemical Co.
##NAMES=HP
##CAS NAME=Furfuryl hexanoate
##MOLFORM=C11H16O3
##CAS REGISTRY NO=39252-02-3
##MP= -300
##BP= -300
##MW= 196
##$RETENTION INDEX=1368
##$CONDENSED SPECTRUM=NO
##NPOINTS= 63
##XYDATA=(XY..XY) 1 
    15          1
    18          0
    26          4
    27         54
    28          7
    29         34
    30          0
    31          0
    37          1
    38          4
    39         38
    40          5
    41         56
    42         25
    43        117
    44          6
    45          2
    50          7
    51         18
    52         83
    53         97
    54          6
    55         26
    56          3
    57          2
    60          1
    66          0
    67          2
    68          3
    69         39
    70         16
    71         79
    72          4
    73         11
    75          0
    79          3
    80         86
    81        999
    82        116
    83          8
    89          2
    94          2
    95         17
    96          4
    97         72
    98        322
    99        100
   100          6
   107          2
   109         10
   110          0
   115          8
   117          1
   121          0
   123         14
   124          0
   136          5
   137          0
   167         11
   168          0
   196         71
   197          8
   198          0