##TITLE=Library Entry 50577
##JCAMP-DX=Revision 4.10 
##DATA TYPE=MASS SPECTRUM
##SAMPLE DESCRIPTION=TNO Volatile Compounds in Food - Chemical Concepts
##NAMES=HP
##CAS NAME=Octanoic acid, 2-furanylmethyl ester
##MOLFORM=C13H20O3
##CAS REGISTRY NO=39252-03-4
##MP= -300
##BP= -300
##MW= 224
##$RETENTION INDEX=1543
##$CONDENSED SPECTRUM=NO
##NPOINTS= 88
##XYDATA=(XY..XY) 1 
    26          8
    27        146
    28          5
    29        100
    30          2
    31          3
    32          2
    37          2
    38          7
    39         59
    40          1
    41        139
    42         44
    43        122
    44          7
    45          4
    50          8
    51         21
    52         90
    53        126
    54         10
    55         91
    56         12
    57        191
    58          8
    59          5
    60          5
    61          1
    65          1
    66          1
    67          9
    68          4
    69         18
    70         12
    71          7
    73          2
    74          0
    77          1
    79          3
    80         87
    81        999
    82        237
    83         54
    84          8
    85          3
    87          3
    89          1
    93          0
    94          4
    95         13
    96          5
    97         57
    98        310
    99         19
   100          2
   101          3
   107          5
   108          1
   109          7
   110          2
   111          1
   113          0
   121          1
   122          3
   123          4
   124          1
   125         32
   126          3
   127         53
   128          5
   137          7
   138          1
   140          1
   143          7
   144          1
   145          1
   151         12
   152          1
   153          1
   164          2
   167         16
   168          2
   181          5
   182          1
   195          2
   224         64
   225         10
   226          1