##TITLE=Library Entry 90256
##JCAMP-DX=Revision 4.10 
##DATA TYPE=MASS SPECTRUM
##SAMPLE DESCRIPTION=V.G. Zaikin, TIPS RAS, Moscow, Russia
##NAMES=HP
##CAS NAME=2-Furancarboxylic acid, decyl ester
##MOLFORM=C15H24O3
##CAS REGISTRY NO=39251-90-6
##MP= -300
##BP= -300
##MW= 252
##$RETENTION INDEX=0
##$CONDENSED SPECTRUM=NO
##NPOINTS= 57
##XYDATA=(XY..XY) 1 
    26         22
    27        173
    28         24
    29        251
    30          8
    31          6
    36          6
    37         27
    38         71
    39        389
    40         38
    41        455
    42        131
    43        349
    44         59
    45         11
    50          6
    51         17
    52         11
    53         59
    54         51
    55        329
    56        221
    57        152
    58          7
    65         11
    66         23
    67         81
    68        115
    69        189
    70        169
    71         35
    77          6
    79         11
    80          3
    81         18
    82         29
    83        109
    84         76
    85         15
    94          6
    95        864
    96         72
    97         69
    98         35
    99          3
   109          3
   110         11
   111         21
   112        491
   113        999
   114         83
   115          8
   140         29
   141          3
   252         21
   253          3