##TITLE=Library Entry 39046
##JCAMP-DX=Revision 4.10 
##DATA TYPE=MASS SPECTRUM
##SAMPLE DESCRIPTION=V.Zaikin,Inst.Petrochem.Synth.,RAS,Moscow
##NAMES=HP
##CAS NAME=m-Toluic acid, 2-tetrahydrofurylmethyl ester
##MOLFORM=C13H16O3
##CAS REGISTRY NO=39252-19-2
##MP= -300
##BP= -300
##MW= 220
##$RETENTION INDEX=0
##$CONDENSED SPECTRUM=NO
##NPOINTS= 77
##XYDATA=(XY..XY) 1 
    25          2
    26          9
    27         60
    28          5
    29         30
    30          6
    39         88
    40         15
    41        103
    42         50
    43        270
    44          8
    50         26
    51         43
    52         14
    53         10
    54          5
    55         26
    56         17
    57         12
    59          5
    62         14
    63         43
    64         13
    65        104
    66          7
    67          3
    69          6
    70         51
    71        999
    72         39
    73          4
    74          3
    75          3
    76          4
    77         34
    78          6
    79         15
    80          2
    81          3
    82          3
    83          9
    84        410
    85         27
    86          3
    87          3
    89         33
    90         37
    91        344
    92         39
    93          5
    95          4
   101          2
   102          8
   103          4
   104          3
   105        105
   106         13
   107          7
   108          3
   113          3
   118         12
   119        384
   120         37
   121          4
   130          9
   131          2
   134          3
   135         17
   136         58
   137         19
   138          2
   147          2
   149          6
   150          3
   151          7
   152          5