##TITLE=Library Entry 76016
##JCAMP-DX=Revision 4.10 
##DATA TYPE=MASS SPECTRUM
##SAMPLE DESCRIPTION=NIST Mass Spectrometry Data Center, 2010
##NAMES=HP
##CAS NAME=Pentanoic acid, 2-methyl-, ethyl ester
##MOLFORM=C8H16O2
##CAS REGISTRY NO=39255-32-8
##MP= -300
##BP= -300
##MW= 144
##$RETENTION INDEX=941
##$CONDENSED SPECTRUM=NO
##NPOINTS= 77
##XYDATA=(XY..XY) 1 
    14          1
    15          6
    19          1
    25          1
    26         16
    27        148
    28         45
    29        256
    30         16
    31         11
    37          2
    38          7
    39        116
    40         21
    41        244
    42        105
    43        687
    44         31
    45         85
    46          3
    47          5
    50          4
    51          7
    52          4
    53         25
    54          8
    55        166
    56         94
    57         33
    58          6
    59         22
    60          4
    61          1
    62          1
    63          2
    64          1
    65          4
    66          1
    67          7
    68          6
    69         57
    70         52
    71        578
    72         33
    73        147
    74        803
    75         67
    76          6
    77          1
    79          1
    80          1
    81          2
    82          1
    83         11
    84         11
    85          2
    86          1
    87        178
    88         13
    89          2
    96          1
    97          5
    98          7
    99        272
   100         19
   101         76
   102        999
   103         59
   104          6
   114          1
   115        138
   116         15
   117         19
   118          1
   129         15
   130          1
   144          2