##TITLE=Library Entry 68493
##JCAMP-DX=Revision 4.10 
##DATA TYPE=MASS SPECTRUM
##SAMPLE DESCRIPTION=V.G. Zaikin, TIPS RAS, Moscow, Russia
##NAMES=HP
##CAS NAME=2-Furancarboxylic acid, octyl ester
##MOLFORM=C13H20O3
##CAS REGISTRY NO=39251-88-2
##MP= -300
##BP= -300
##MW= 224
##$RETENTION INDEX=0
##$CONDENSED SPECTRUM=NO
##NPOINTS= 57
##XYDATA=(XY..XY) 1 
    25          9
    26         35
    27        197
    28         24
    29        271
    30          3
    31          3
    36         15
    37         57
    38        147
    39        565
    40         55
    41        388
    42        145
    43        235
    44         64
    45         16
    47          3
    49          3
    50         13
    51         29
    52         18
    53         39
    54         28
    55        218
    56        182
    57         79
    58          6
    61          4
    63          6
    65          8
    66         18
    67         52
    68         81
    69        148
    70        119
    71         12
    77          6
    79          8
    80          2
    81         11
    82         11
    83         81
    84         65
    85          6
    93          3
    95        999
    96         68
    97         19
   110          8
   111          6
   112        521
   113        739
   114         45
   115          3
   224         19
   225          2