##TITLE=Library Entry 28706
##JCAMP-DX=Revision 4.10 
##DATA TYPE=MASS SPECTRUM
##SAMPLE DESCRIPTION=CARL DJERASSI DEPT OF CHEM STANFORD UNIV STANFORD CALIF
 94305
##NAMES=HP
##CAS NAME=8-Hydroxychlorpromazine
##MOLFORM=C17H19ClN2OS
##CAS REGISTRY NO=3926-67-8
##MP= -300
##BP= -300
##MW= 334
##$RETENTION INDEX=0
##$CONDENSED SPECTRUM=NO
##NPOINTS= 89
##XYDATA=(XY..XY) 1 
    41         25
    42         60
    43         30
    44         40
    45         10
    50         20
    51         25
    52         25
    53          5
    55         10
    56         20
    57         30
    58        999
    59         40
    63         10
    65          5
    67          5
    68          5
    69         15
    70         35
    71         20
    72         25
    73          5
    74          5
    75          5
    76          5
    77         20
    78         90
    79         10
    81          5
    82          5
    83          5
    84         35
    85         80
    86        280
    87         15
    95          5
    97          5
   108          5
   140         10
   141          5
   149          5
   152          5
   153          5
   158          5
   166          5
   167          5
   169          5
   171          5
   184          5
   185         10
   187          5
   188          5
   195          5
   196          5
   200          5
   201          5
   212          5
   214          5
   216          5
   219          5
   220          5
   228          5
   229          5
   230         15
   231          5
   232          5
   234          5
   241          5
   248         25
   249         20
   250         10
   251          5
   254          5
   256          5
   262         10
   263         10
   264          5
   265          5
   275          5
   276          5
   288         20
   289         20
   290         10
   291          5
   334        120
   335         20
   336         40
   337          5