##TITLE=Library Entry 70964
##JCAMP-DX=Revision 4.10 
##DATA TYPE=MASS SPECTRUM
##SAMPLE DESCRIPTION=Chemical Concepts
##NAMES=HP
##CAS NAME=Cyclooctanone, 2-bromo-
##MOLFORM=C8H13BrO
##CAS REGISTRY NO=39261-18-2
##MP= -300
##BP= -300
##MW= 204
##$RETENTION INDEX=0
##$CONDENSED SPECTRUM=NO
##NPOINTS= 108
##XYDATA=(XY..XY) 1 
    26         22
    27        223
    29         92
    30          1
    31          2
    34          1
    36          0
    37          3
    38         11
    39        165
    40         34
    41        314
    42        250
    43         71
    44          3
    45          2
    46          3
    47          7
    48          2
    49          1
    50          8
    51         15
    52          7
    53         50
    54         59
    55        781
    56         64
    57         38
    58          4
    59          2
    61          0
    62          1
    63          3
    64          0
    65          8
    66          8
    67         72
    68         38
    69        122
    70         79
    71         11
    72          1
    73          1
    74          2
    75          1
    76          0
    77          6
    78          3
    79         50
    80         32
    81        123
    82         28
    83         98
    84         26
    85          3
    91          5
    92          3
    93          4
    94          1
    95         16
    96          7
    97         87
    98        999
    99         65
   100          3
   104          0
   105          2
   106         12
   107         40
   108         11
   109          3
   111          8
   112          0
   119          7
   120          5
   121          7
   122          5
   123          1
   124          2
   125         48
   126          9
   127          0
   132          4
   133          3
   134          7
   135          6
   136          3
   137          3
   147          0
   148          2
   149          1
   150          2
   151          0
   158          4
   159          0
   160         19
   161         13
   162         16
   163         11
   164          1
   175          1
   176          1
   177          0
   178          1
   204          8
   205          0
   206          9
   207          0