##TITLE=Library Entry 86488
##JCAMP-DX=Revision 4.10 
##DATA TYPE=MASS SPECTRUM
##SAMPLE DESCRIPTION=Japan AIST/NIMC Database- Spectrum MS-IW-4840
##NAMES=HP
##CAS NAME=(-)-10-Camphorsulfonyl chloride
##MOLFORM=C10H15ClO3S
##CAS REGISTRY NO=39262-22-1
##MP= -300
##BP= -300
##MW= 250
##$RETENTION INDEX=0
##$CONDENSED SPECTRUM=NO
##NPOINTS= 120
##XYDATA=(XY..XY) 1 
    15          1
    26          2
    27         43
    28         13
    29         32
    32          2
    34          1
    35          3
    36         38
    37          1
    38         11
    39         78
    40         22
    41        177
    42         12
    43        104
    44          4
    45          3
    46          1
    48         28
    50          5
    51         19
    52         17
    53         91
    54         27
    55        129
    56          8
    57         38
    58          3
    59          5
    60          2
    61          2
    62          1
    63          6
    64        102
    65         31
    66         12
    67        290
    68         43
    69        104
    70          6
    71          2
    74          1
    75          5
    76          2
    77         58
    78         12
    79        112
    80         19
    81        526
    82         56
    83         26
    84          2
    89          2
    91         65
    92         10
    93        234
    94         36
    95        113
    96         10
    97         23
    98          1
   101          1
   103          8
   104          1
   105         19
   106         14
   107        180
   108        135
   109        999
   110         91
   111          4
   113          1
   114          3
   115          9
   116          2
   117          7
   118          1
   119          3
   120          1
   121         20
   122         12
   123        456
   124         45
   125          3
   129          4
   131          2
   133         87
   134          9
   135         12
   136          1
   137          3
   138          2
   139          2
   141          1
   142          6
   143          4
   144          3
   145          1
   148          1
   149          4
   150         23
   151        610
   152         74
   153          6
   167          4
   171          4
   173          1
   182          1
   184          2
   185          2
   186         19
   187          2
   188          6
   193          5
   194          1
   195          2
   215          1
   250          1
   251          1