##TITLE=Library Entry 39619
##JCAMP-DX=Revision 4.10 
##DATA TYPE=MASS SPECTRUM
##SAMPLE DESCRIPTION=AAFS Toxicology Section MS DB Committee, U. Alberta, Ca
nada
##NAMES=HP
##CAS NAME=Sotalol
##MOLFORM=C12H20N2O3S
##CAS REGISTRY NO=3930-20-9
##MP= -300
##BP= -300
##MW= 272
##$RETENTION INDEX=0
##$CONDENSED SPECTRUM=NO
##NPOINTS= 126
##XYDATA=(XY..XY) 1 
     6          0
    30        242
    31          5
    37          1
    38          3
    39         24
    40          6
    41         48
    42         17
    43         80
    44          7
    45          2
    46          1
    48          2
    49          1
    50          3
    51          9
    52          8
    53          5
    54          5
    55          5
    56         26
    57         15
    58          8
    59          1
    60          1
    61          1
    62          2
    63         12
    64         14
    65         46
    66         37
    67          5
    68          3
    69          3
    70         52
    71         28
    72        999
    73         51
    74          2
    75          1
    76          3
    77         35
    78         25
    79         32
    80          4
    81          3
    82          1
    83          1
    84          1
    85          1
    86          1
    87          1
    88          1
    89          7
    90          6
    91         19
    92         35
    93         17
    94         33
    95          3
    96          1
   102          1
   103          1
   104         12
   105         28
   106         87
   107          9
   108          2
   109          1
   113          1
   115          1
   116          6
   117          5
   118         17
   119          7
   120         27
   121         35
   122         52
   123          4
   124          1
   128          1
   130          1
   131         16
   132         16
   133         20
   134          5
   135          1
   138          2
   145          4
   146          1
   159          5
   160          4
   161          1
   173          4
   174          3
   175         31
   176          4
   177          1
   184         16
   185         20
   186          2
   187          1
   197          2
   198          6
   199          8
   200         17
   201          2
   202          1
   211          1
   212          1
   213          2
   214          1
   239         11
   240          1
   241          1
   242          1
   252          1
   253          9
   254         12
   255          3
   256          2
   257          1
   272         11
   273          1
   274          1