##TITLE=Library Entry 90598
##JCAMP-DX=Revision 4.10 
##DATA TYPE=MASS SPECTRUM
##SAMPLE DESCRIPTION=Japan AIST/NIMC Database- Spectrum MS-NW-7270
##NAMES=HP
##CAS NAME=Pyrimidine, 2,4-dichloro-
##MOLFORM=C4H2Cl2N2
##CAS REGISTRY NO=3934-20-1
##MP= -300
##BP= -300
##MW= 148
##$RETENTION INDEX=0
##$CONDENSED SPECTRUM=NO
##NPOINTS= 80
##XYDATA=(XY..XY) 1 
    12          5
    13          1
    14          3
    24         11
    25         30
    26         97
    27         16
    28         19
    29          1
    35         35
    36         38
    37         22
    38         49
    39         21
    40         11
    41          2
    42          2
    43          6
    44          3
    47         59
    48          4
    49         18
    50         35
    51        278
    52        246
    53         99
    54          3
    56          2
    59          7
    60        190
    61         51
    62        207
    63         18
    64         50
    65          2
    66          2
    67          3
    68          1
    71          1
    72          3
    73         13
    74          7
    75          8
    76         18
    77         41
    78         13
    80          1
    82          1
    85         17
    86        323
    87         54
    88        108
    89         17
    91          2
    94          1
    95         12
    96          1
   102          4
   104          2
   105          1
   111          1
   112          1
   113        999
   114         52
   115        321
   116         17
   120          6
   121          4
   122          3
   123          3
   125          1
   130          9
   132          3
   147          3
   148        850
   149         48
   150        546
   151         30
   152         89
   153          5