##TITLE=Library Entry 2645
##JCAMP-DX=Revision 4.10 
##DATA TYPE=MASS SPECTRUM
##SAMPLE DESCRIPTION=Japan AIST/NIMC Database- Spectrum MS-NW-6724
##NAMES=HP
##CAS NAME=1,9-Nonanediol
##MOLFORM=C9H20O2
##CAS REGISTRY NO=3937-56-2
##MP= -300
##BP= -300
##MW= 160
##$RETENTION INDEX=1416
##$CONDENSED SPECTRUM=NO
##NPOINTS= 84
##XYDATA=(XY..XY) 1 
    14          2
    15         24
    16          1
    17          3
    18         10
    26         16
    27        302
    28         91
    29        356
    30         12
    31        779
    32          9
    33          3
    37          2
    38          8
    39        254
    40         55
    41        999
    42        317
    43        334
    44         95
    45         86
    46          3
    49          4
    50          6
    51         15
    52          8
    53         94
    54        409
    55        850
    56        246
    57        207
    58         29
    59         17
    60          2
    61          5
    62          1
    63          3
    65         12
    66         63
    67        604
    68        596
    69        324
    70        123
    71         81
    72         20
    73         32
    74          4
    77          7
    78          2
    79         25
    80         14
    81        402
    82        532
    83        167
    84         74
    85         75
    86         14
    87          4
    91          2
    93          6
    94         11
    95        231
    96        283
    97         36
    98         10
    99         39
   100          5
   101          1
   109         21
   110          3
   111          2
   112         36
   113          8
   114          7
   115          1
   123          9
   124         22
   125          2
   126          1
   130          2
   141          2
   142          1
   159          1