##TITLE=Library Entry 21080
##JCAMP-DX=Revision 4.10 
##DATA TYPE=MASS SPECTRUM
##SAMPLE DESCRIPTION=Exported from NIST MS Search
##NAMES=HP
##CAS NAME=Cyclohexanemethanol, 4-methyl-, trans-
##MOLFORM=C8H16O
##CAS REGISTRY NO=3937-49-3
##MP= -300
##BP= -300
##MW= 128
##$RETENTION INDEX=0
##$CONDENSED SPECTRUM=NO
##NPOINTS= 41
##XYDATA=(XY..XY) 1 
    15         18
    26         11
    27        141
    29        158
    30          6
    31         81
    38          6
    39        111
    40         19
    41        228
    42         32
    43         96
    45          5
    50          5
    51         10
    52          5
    53         37
    54         73
    55        999
    56         63
    57         37
    65          6
    66          8
    67         84
    68        123
    69         72
    70          9
    77          7
    79         11
    80          8
    81        182
    82        124
    83         25
    93          8
    95        150
    96         44
    97        308
    98         25
   109          8
   110         47
   111          5