##TITLE=Library Entry 24854
##JCAMP-DX=Revision 4.10 
##DATA TYPE=MASS SPECTRUM
##SAMPLE DESCRIPTION=Japan AIST/NIMC Database- Spectrum MS-IW- 867
##NAMES=HP
##CAS NAME=Propanoic acid, 2,2-dimethyl-, ethyl ester
##MOLFORM=C7H14O2
##CAS REGISTRY NO=3938-95-2
##MP= -300
##BP= -300
##MW= 130
##$RETENTION INDEX=774
##$CONDENSED SPECTRUM=NO
##NPOINTS= 47
##XYDATA=(XY..XY) 1 
    15          5
    18          1
    19          1
    26          3
    27         28
    28         11
    29        179
    30          5
    31          3
    38          1
    39         23
    40          6
    41        211
    42         15
    43         14
    44          1
    45         14
    47         11
    53          2
    54          1
    55         15
    56        296
    57        999
    58         51
    59         51
    60          2
    69          9
    70          4
    71          4
    73          4
    75         89
    76          3
    83          1
    85        116
    86          8
    87         53
    88          9
    99          1
   100          1
   101          2
   102          1
   103          4
   115         18
   116          2
   130         73
   131         15
   132          1