##TITLE=Library Entry 67142
##JCAMP-DX=Revision 4.10 
##DATA TYPE=MASS SPECTRUM
##SAMPLE DESCRIPTION=NIST Mass Spectrometry Data Center
##NAMES=HP
##CAS NAME=(1R,3aS,4R,7R,8aR)-1,4-Dimethyl-1,2,3,3a,4,7,8,8a-octahydro-4,7-e
thanoazulene
##MOLFORM=C14H22
##CAS REGISTRY NO=394217-22-2
##MP= -300
##BP= -300
##MW= 190
##$RETENTION INDEX=1434
##$CONDENSED SPECTRUM=NO
##NPOINTS= 39
##XYDATA=(XY..XY) 1 
    29         27
    39         70
    40         10
    42         11
    50          7
    53         65
    54         23
    55         85
    65         65
    66         20
    67         88
    68          9
    77        177
    78         46
    79        525
    80        104
    81        165
    82         14
    93        318
    94        999
    95        178
    96         16
   107        147
   108         74
   109         22
   121         13
   122         16
   134         49
   135         42
   147         49
   148         89
   149         18
   161        226
   162         38
   175        137
   176         19
   189          7
   190        100
   191         14