##TITLE=Library Entry 16862
##JCAMP-DX=Revision 4.10 
##DATA TYPE=MASS SPECTRUM
##SAMPLE DESCRIPTION=Exported from NIST MS Search
##NAMES=HP
##CAS NAME=2-Propanol, 1-(1-methylethoxy)-
##MOLFORM=C6H14O2
##CAS REGISTRY NO=3944-36-3
##MP= -300
##BP= -300
##MW= 118
##$RETENTION INDEX=814
##$CONDENSED SPECTRUM=NO
##NPOINTS= 78
##XYDATA=(XY..XY) 1 
    12          1
    13          3
    14         11
    15         71
    16          4
    17         26
    18        102
    19         24
    25          1
    26         11
    27        111
    28         40
    29         77
    30          4
    31        167
    32          5
    33         19
    37          3
    38          6
    39         55
    40         11
    41        191
    42         87
    43        859
    44         65
    45        999
    46         31
    47          9
    50          1
    51          3
    52          1
    53          1
    54          1
    55         28
    56          5
    57         41
    58        112
    59        449
    60         55
    61         80
    62          3
    63          1
    65          1
    67          1
    68          1
    69          9
    70          5
    71          6
    72         10
    73        309
    74         64
    75        176
    76          9
    77          8
    78          1
    79          1
    81          1
    83          3
    84          1
    85          7
    86          5
    87         77
    88         21
    89         17
    90          1
    91          1
    92          1
    97          1
    98          1
    99          3
   100         23
   101         35
   102          3
   103         46
   104          5
   116          2
   117          9
   118          2