##TITLE=Library Entry 13811
##JCAMP-DX=Revision 4.10 
##DATA TYPE=MASS SPECTRUM
##SAMPLE DESCRIPTION=NIST Mass Spectrometry Data Center
##NAMES=HP
##CAS NAME=Cyperadione
##MOLFORM=C15H24O2
##CAS REGISTRY NO=394656-12-3
##MP= -300
##BP= -300
##MW= 236
##$RETENTION INDEX=1845
##$CONDENSED SPECTRUM=NO
##NPOINTS= 129
##XYDATA=(XY..XY) 1 
    26          2
    27         32
    29         36
    30          1
    31          2
    36          1
    37          1
    38          4
    39        114
    40         28
    41        327
    42         32
    43        999
    44         16
    45         20
    46          1
    50          6
    51         28
    52         15
    53        144
    54         30
    55        293
    58         17
    59         14
    61          2
    62          2
    63         14
    64          8
    65         87
    66         33
    67        390
    68         98
    69        227
    76          9
    77        171
    78         29
    79        281
    80         60
    81        388
    82        134
    83         98
    89          7
    90          3
    91        210
    92         38
    93        299
    94        117
    95        386
    96        117
    97         27
   101          4
   102          4
   103         13
   104          8
   105        180
   106         71
   107        620
   108        176
   109        452
   110        172
   111        110
   115         32
   116          5
   118          4
   119        189
   120        208
   121        506
   122        178
   123        527
   124        128
   125         77
   128         18
   130          8
   131         12
   133        109
   134        190
   135        461
   136        279
   137        307
   138         46
   139         49
   141         18
   142         12
   145         46
   146         12
   147        113
   148         18
   149        107
   150        297
   151        121
   152         29
   153         43
   156         34
   157         27
   159         23
   160         31
   161        205
   162         30
   163        173
   164         31
   165         91
   166         56
   167         27
   171         23
   172         18
   173          8
   174          5
   175         87
   176         24
   177         15
   178        179
   179        686
   180        123
   181         91
   185         10
   186          7
   190         15
   192          4
   193        188
   194         31
   195         13
   207         56
   208         24
   221        914
   222        145
   223         22
   236        505
   237         85
   238          8