##TITLE=Library Entry 20094
##JCAMP-DX=Revision 4.10 
##DATA TYPE=MASS SPECTRUM
##SAMPLE DESCRIPTION=R.T.HOLMAN,UNIVERSITY OF MINNESOTA
##NAMES=HP
##CAS NAME=11-Eicosenoic acid, methyl ester
##MOLFORM=C21H40O2
##CAS REGISTRY NO=3946-08-5
##MP= -300
##BP= -300
##MW= 324
##$RETENTION INDEX=2297
##$CONDENSED SPECTRUM=NO
##NPOINTS= 143
##XYDATA=(XY..XY) 1 
    39        110
    40         20
    41        720
    42        140
    43        630
    44         30
    45         30
    53         80
    54        240
    55        999
    56        270
    57        390
    58         30
    59        150
    65         20
    66         20
    67        320
    68        210
    69        730
    70        210
    71        150
    72         10
    73         50
    74        570
    75        100
    77         20
    78         10
    79         70
    80         40
    81        280
    82        210
    83        560
    84        390
    85        100
    86         10
    87        380
    88         40
    91         30
    92         10
    93         40
    94         50
    95        230
    96        370
    97        460
    98        320
    99         50
   100         10
   101         70
   102         10
   105         20
   107         30
   108         40
   109        130
   110        200
   111        220
   112         80
   113         30
   114         40
   115         70
   116         10
   119         30
   120         10
   121         50
   122         20
   123        130
   124        110
   125        120
   126         30
   127         30
   128         60
   129         60
   130         20
   133         20
   134         30
   135         40
   136         20
   137         80
   138         90
   139         90
   140         20
   141         70
   142         20
   143         70
   144         10
   147         20
   148         20
   149         30
   150         10
   151         60
   152         80
   153         50
   154         10
   155         10
   157         20
   161         20
   163         20
   165         40
   166         40
   167         30
   168         10
   169         10
   171         20
   175         10
   177         10
   179         30
   180         30
   181         20
   183         10
   185         20
   189         10
   192         10
   193         20
   194         50
   195         20
   197         20
   199         20
   207         20
   208        110
   209         30
   211         10
   213         10
   221         20
   222         30
   223         10
   227         10
   235         20
   236         20
   241         10
   242         10
   248         40
   249         30
   250        140
   251         30
   263         20
   264         20
   274         30
   275         10
   281         10
   292        520
   293        230
   294         40
   324         90
   325         20