##TITLE=Library Entry 44874
##JCAMP-DX=Revision 4.10 
##DATA TYPE=MASS SPECTRUM
##SAMPLE DESCRIPTION=Japan AIST/NIMC Database- Spectrum MS-IW- 924
##NAMES=HP
##CAS NAME=Suberic acid monomethyl ester
##MOLFORM=C9H16O4
##CAS REGISTRY NO=3946-32-5
##MP= -300
##BP= -300
##MW= 188
##$RETENTION INDEX=0
##$CONDENSED SPECTRUM=NO
##NPOINTS= 113
##XYDATA=(XY..XY) 1 
    14          2
    15         82
    16          1
    17          2
    18          7
    26          6
    27         84
    28         55
    29         90
    30          4
    31         39
    32          6
    33          3
    36          3
    38          2
    39         66
    40         15
    41        269
    42         67
    43        426
    44         27
    45         97
    46          3
    47          1
    50          2
    51          4
    52          2
    53         21
    54         25
    55        413
    56         57
    57         47
    58         10
    59        201
    60        109
    61          8
    63          1
    65          5
    66          6
    67         51
    68        144
    69        530
    70         40
    71         18
    72          8
    73         84
    74        999
    75         68
    76          6
    77          3
    78          5
    79         13
    80          2
    81         26
    82        101
    83        205
    84         83
    85         24
    86          6
    87        238
    88         34
    89          2
    91          2
    92          5
    93         15
    94          9
    95         10
    96         40
    97        521
    98         35
    99         16
   100         49
   101         42
   102          3
   107          1
   108          1
   109         13
   110        187
   111        151
   112         18
   113         25
   114         73
   115         69
   116          7
   120          6
   121          3
   123          1
   125          1
   126          3
   127         20
   128         32
   129        181
   130         14
   131          1
   137         14
   138        705
   139         93
   140          9
   141          3
   142         52
   143          8
   144          1
   146          1
   152          1
   155          2
   156          3
   157        255
   158         22
   159          2
   170          5
   171         30
   172          3
   189          2