##TITLE=Library Entry 109597
##JCAMP-DX=Revision 4.10 
##DATA TYPE=MASS SPECTRUM
##SAMPLE DESCRIPTION=Div. of Experiment Therapeutics WRAIR, WRAMC, Washingto
n DC 20307
##NAMES=HP
##CAS NAME=Bis-[1,3]-oxazino[6,5-f:5',6'-H]quinoline,3,6-bis(4-chlorobenzyl)
-10-trifluoromethyl-3,4,5,6(2H,7H)-tetrahydro-
##MOLFORM=C28H22Cl2F3N3O2
##CAS REGISTRY NO=39478-67-6
##MP= -300
##BP= -300
##MW= 559
##$RETENTION INDEX=0
##$CONDENSED SPECTRUM=NO
##NPOINTS= 156
##XYDATA=(XY..XY) 1 
    41         56
    42         79
    43          6
    44         23
    47          2
    49         12
    50         33
    51         44
    52         13
    53          8
    55          1
    57          4
    58         11
    59          1
    61          9
    62          6
    63        115
    64         18
    65         21
    66          5
    67          4
    69          7
    73         26
    74          6
    75         56
    76         15
    77         16
    78          4
    84          8
    85          6
    86          8
    87          8
    89        135
    90         48
    91         24
    94          5
    95          4
    97          2
    99         36
   101         22
   102          5
   103          1
   104          3
   106          8
   107          1
   111          8
   112          3
   113          5
   114          4
   115         21
   116          7
   117          7
   118          3
   119          1
   123          6
   125        999
   127        358
   128         19
   134          1
   135          1
   138          8
   139          8
   140          7
   141          3
   142          3
   145         18
   146         13
   147          3
   151          4
   152          5
   153         47
   154        115
   155         26
   156         29
   157          4
   159          2
   163          4
   165         61
   166          8
   168          5
   171          1
   173          4
   174          6
   176          9
   177          5
   178          3
   182          2
   183          2
   184          1
   185          9
   191          1
   192          1
   193          6
   194          4
   196          2
   197          4
   199          1
   202          1
   205          6
   206          2
   208          3
   212          1
   213         42
   214          5
   222          4
   225          7
   226          1
   227          1
   234          3
   240          6
   241        126
   242         19
   243          1
   251          1
   253          6
   254         10
   255          7
   261          2
   262          3
   263          3
   264          4
   266          7
   267          5
   269          8
   278          4
   279          6
   280          1
   281         63
   282          7
   295         13
   366          1
   375          2
   376          1
   377          2
   387          2
   388          1
   390          3
   391          3
   394         44
   395         19
   396          9
   397          3
   405         25
   406         99
   407         32
   408         38
   409          8
   434          1
   504          1
   506          6
   507          2
   508          1
   559         18
   560          8
   561         13
   563          2