##TITLE=Library Entry 75917
##JCAMP-DX=Revision 4.10 
##DATA TYPE=MASS SPECTRUM
##SAMPLE DESCRIPTION=Chemical Concepts
##NAMES=HP
##CAS NAME=3-Cyclobutene-1,2-dione, 3-phenyl-
##MOLFORM=C10H6O2
##CAS REGISTRY NO=3947-97-5
##MP= -300
##BP= -300
##MW= 158
##$RETENTION INDEX=0
##$CONDENSED SPECTRUM=NO
##NPOINTS= 85
##XYDATA=(XY..XY) 1 
    25          3
    26         11
    27         12
    28         17
    29          2
    32          0
    36          2
    37         22
    38         28
    39         50
    40          2
    41          5
    42          0
    43          7
    48          1
    49         21
    50        139
    51        155
    52         65
    53          7
    55          6
    56          2
    57          9
    58          0
    60          3
    61         21
    62         37
    63         75
    64          5
    65          7
    67          1
    68          0
    69          4
    70          2
    71          4
    72          0
    73         14
    74         81
    75         68
    76        145
    77         13
    78          1
    79          0
    80          0
    81          2
    82          0
    83          2
    84          2
    85          4
    86          7
    87         15
    88          2
    89          1
    95          1
    96          1
    97          3
    98         12
    99          4
   100          2
   101         18
   102        999
   103         94
   104          5
   105          1
   107          2
   108          0
   109          0
   111          2
   112          0
   113          0
   119          1
   123          1
   124          0
   125          1
   126          0
   129          3
   130         63
   131          7
   132          0
   133          0
   137          0
   158        129
   159         16
   160          1
   161          0