##TITLE=Library Entry 54467
##JCAMP-DX=Revision 4.10 
##DATA TYPE=MASS SPECTRUM
##SAMPLE DESCRIPTION=Drug Lab
##NAMES=HP
##CAS NAME=Indole, 5-methoxy-3-(2-(1-pyrrolidinyl)ethyl)-
##MOLFORM=C15H20N2O
##CAS REGISTRY NO=3949-14-2
##MP= -300
##BP= -300
##MW= 244
##$RETENTION INDEX=0
##$CONDENSED SPECTRUM=NO
##NPOINTS= 88
##XYDATA=(XY..XY) 1 
    41          5
    42         50
    43          3
    50          1
    51          3
    52          2
    53          3
    54          3
    55         32
    56          9
    57          1
    62          1
    63          5
    64          2
    65          2
    67          1
    68          1
    69          1
    70          1
    74          1
    75          2
    76          3
    77          9
    78          3
    79          1
    80          2
    82          9
    84        999
    85         62
    86          2
    87          1
    88          1
    89         13
    90         12
    91          3
    96          1
   100          1
   101          2
   102          6
   103          9
   104          4
   105          1
   114          2
   115          8
   116          9
   117         38
   118          5
   119          1
   127          1
   128          5
   129          4
   130         28
   131         12
   132          3
   140          1
   141          1
   142          3
   143          9
   144          9
   145         35
   146          6
   147          1
   155          1
   156          1
   157          1
   158          9
   159         16
   160         55
   161          7
   170          1
   171          1
   172          3
   173          8
   174         18
   175          2
   186          1
   199          1
   207          1
   214          1
   227          1
   238          1
   240          2
   241          3
   242          4
   243          2
   244         76
   245         13
   246          1