##TITLE=Library Entry 13608
##JCAMP-DX=Revision 4.10 
##DATA TYPE=MASS SPECTRUM
##SAMPLE DESCRIPTION=A.A.Kutin, Moscow, Russia
##NAMES=HP
##CAS NAME=Acetamide, N-[4-nitro-2-(trifluoromethyl)phenyl]-
##MOLFORM=C9H7F3N2O3
##CAS REGISTRY NO=395-68-6
##MP= -300
##BP= -300
##MW= 248
##$RETENTION INDEX=0
##$CONDENSED SPECTRUM=NO
##NPOINTS= 152
##XYDATA=(XY..XY) 1 
    33          1
    36          1
    37          8
    38         18
    39         14
    40         13
    41         13
    43        999
    44         37
    45          3
    46          7
    47          1
    50         15
    51         16
    52         25
    53          8
    54          2
    55          2
    56          3
    57          8
    58          1
    60          0
    61         11
    62         26
    63         77
    64         15
    65          8
    66          5
    67          1
    68          4
    69         13
    70          4
    71          1
    72          0
    73          2
    74         11
    75         26
    76          6
    77          6
    78          6
    79          3
    80          4
    81         16
    82          5
    83          7
    84          1
    85          1
    87          8
    88         14
    89          7
    90          7
    91          5
    92          2
    93          4
    94          6
    95         10
    96          2
    97          1
    98          1
    99          5
   100          6
   101          6
   102          2
   103          1
   104          1
   105          4
   106          4
   107          3
   108          6
   109          5
   110          2
   111          3
   112         11
   113         23
   114         12
   115          2
   116          1
   118          0
   119          2
   120         21
   121          3
   122          1
   123          1
   124          0
   125          5
   126          5
   127          5
   128         26
   129          3
   130          1
   131          5
   132          8
   133         10
   134          1
   135          0
   137          0
   138          4
   139         21
   140         27
   141         15
   142          2
   143          2
   144          2
   145          1
   147          1
   148          0
   149          0
   151          0
   152          1
   153          3
   154          2
   156         53
   157          5
   158          3
   159          8
   160         55
   161         12
   162          1
   167          3
   168          1
   170          1
   171          1
   173          0
   174          2
   176         99
   177          7
   178          0
   181          1
   182          1
   183          3
   184          0
   186          3
   187          5
   188          1
   190         22
   191          2
   199          2
   201          0
   202          1
   203          2
   206        268
   207         19
   208          1
   209          0
   213          4
   214          0
   218          0
   229         12
   230          2
   232          1
   248         47
   249          5