##TITLE=Library Entry 109326
##JCAMP-DX=Revision 4.10 
##DATA TYPE=MASS SPECTRUM
##SAMPLE DESCRIPTION=NIST Mass Spectrometry Data Center
##NAMES=HP
##CAS NAME=4-Fluoromandelic acid
##MOLFORM=C8H7FO3
##CAS REGISTRY NO=395-33-5
##MP= -300
##BP= -300
##MW= 170
##$RETENTION INDEX=0
##$CONDENSED SPECTRUM=NO
##NPOINTS= 84
##XYDATA=(XY..XY) 1 
    26          2
    27          6
    29         38
    30          2
    31          7
    33          1
    37          5
    38         11
    39         20
    44          9
    45         45
    46          3
    47          1
    48          3
    49          6
    50         55
    51         87
    52         10
    53          6
    54          2
    55          1
    56          4
    57         32
    58          1
    59          1
    60          1
    61         10
    62         19
    63         21
    64          2
    65          2
    66          2
    67          1
    68         14
    69         27
    70         30
    71          9
    72          1
    73          3
    74         29
    75        109
    76         14
    77        282
    78         20
    79          2
    80          4
    81         17
    82          4
    83          3
    85          3
    86          3
    87          2
    88          2
    89          3
    90          1
    92          3
    93          5
    94         14
    95        249
    96         89
    97        616
    98         42
   103          1
   105          6
   106          3
   107         41
   108         46
   109          7
   113          1
   121          1
   123        104
   124         19
   125        999
   126         80
   127          5
   128          1
   133          1
   136          3
   139          1
   141          1
   153          2
   162          2
   170         45
   171          4