##TITLE=Library Entry 5171
##JCAMP-DX=Revision 4.10 
##DATA TYPE=MASS SPECTRUM
##SAMPLE DESCRIPTION=DC-9-11
##NAMES=HP
##CAS NAME=3-Pyridinecarboxylic acid, 1,6-dihydro-4-hydroxy-2-methyl-6-oxo-,
 ethyl ester
##MOLFORM=C9H11NO4
##CAS REGISTRY NO=3950-10-5
##MP= -300
##BP= -300
##MW= 197
##$RETENTION INDEX=0
##$CONDENSED SPECTRUM=NO
##NPOINTS= 104
##XYDATA=(XY..XY) 1 
    41        370
    42        999
    43        320
    44        100
    45        170
    46         20
    50         60
    51        150
    52        190
    53        190
    54        190
    55        270
    56         70
    57        130
    58         30
    59         30
    60         60
    61         20
    62         20
    63         30
    64         30
    65         40
    66        100
    67        400
    68        280
    69        570
    70         50
    71        150
    72        100
    73        150
    74         30
    75         10
    76         20
    77        110
    78        180
    79         60
    80         40
    81        160
    82        100
    83        200
    84        330
    85        100
    86         20
    87         30
    91         50
    92         20
    93         60
    94         40
    95        420
    96         70
    97        120
    98         50
    99         30
   100         10
   101         40
   102         10
   103         10
   104         20
   105         20
   106         10
   107         30
   108         20
   109         50
   110        120
   111         60
   112         30
   113         20
   114         10
   115         30
   116         10
   117         10
   118         20
   119         10
   120         10
   121         30
   122         60
   123        920
   124         90
   125         70
   126         30
   127         20
   128         40
   129         50
   130         20
   131         20
   133         10
   135         20
   136         20
   137         30
   138         20
   139         20
   140         20
   141         10
   143         20
   144         20
   145         10
   149         30
   150         10
   151        860
   152        320
   153         50
   179         10
   197        500
   198         90