##TITLE=Library Entry 24129
##JCAMP-DX=Revision 4.10 
##DATA TYPE=MASS SPECTRUM
##SAMPLE DESCRIPTION=Exported from NIST MS Search
##NAMES=HP
##CAS NAME=1,2-Nonadecanediol
##MOLFORM=C19H40O2
##CAS REGISTRY NO=39516-65-9
##MP= -300
##BP= -300
##MW= 300
##$RETENTION INDEX=0
##$CONDENSED SPECTRUM=NO
##NPOINTS= 204
##XYDATA=(XY..XY) 1 
    30         58
    31         81
    32         43
    34         17
    35         30
    36         25
    37         17
    38         30
    39        204
    40         51
    41        765
    42        209
    43        984
    44        301
    45        119
    49         25
    51         38
    52         25
    53         89
    54        153
    55        867
    56        382
    57        999
    58        158
    59        147
    60        109
    61        114
    62         20
    63         17
    64         20
    65         40
    66         81
    67        377
    68        301
    69        765
    70        316
    71        579
    72         61
    73         86
    74         30
    75         17
    76         20
    77         45
    78         40
    79        102
    80         61
    81        382
    82        510
    83        800
    84        229
    85        428
    86         51
    87         43
    90         58
    91         17
    92         51
    93         51
    94        313
    95        387
    96        790
    97        178
    98        165
    99         30
   100         17
   101         20
   102         51
   103         17
   104         45
   105         17
   106         43
   107         30
   108        170
   109        158
   110        489
   111        188
   112        112
   113         30
   114         81
   115         43
   116         33
   117         17
   118         43
   119         20
   120         51
   121         66
   122        170
   123        178
   124        382
   125        109
   126         94
   127         33
   128         51
   129         17
   130         17
   132         17
   134         58
   135         30
   136         96
   137        109
   138        204
   139         68
   140         71
   141         20
   142         17
   143         17
   144         51
   146         20
   149         71
   150         20
   151         61
   152         71
   153        122
   154         61
   155         51
   157         40
   158         20
   160         20
   162         25
   163         30
   164         25
   165         45
   166         76
   167         45
   168         51
   169         17
   170         25
   176         17
   177         17
   178         25
   179         43
   180         63
   181         40
   182         30
   184         20
   193         17
   194         40
   195         61
   196         30
   197         20
   199         20
   200         20
   206         20
   207         30
   208         20
   209         20
   210         20
   211         20
   212         20
   220         20
   221         40
   222         20
   223         30
   224         20
   234         17
   235         30
   236         17
   237         30
   238         17
   239         17
   240         51
   247         10
   248         10
   249         10
   250         51
   251         25
   252         10
   253         17
   254         10
   255         30
   256         12
   257         10
   258         10
   259         10
   260         10
   261         10
   262         10
   263         10
   264         10
   265         45
   266         12
   267         35
   268         86
   269        459
   270        102
   271         15
   272         15
   273         10
   274         10
   275         12
   278         10
   280         10
   282         25
   283         10
   284         20
   285         10
   286         12
   287         12
   288         10
   293         10
   294         10
   295         10
   298         17
   299         12
   300         12