##TITLE=Library Entry 85900
##JCAMP-DX=Revision 4.10 
##DATA TYPE=MASS SPECTRUM
##SAMPLE DESCRIPTION=Chemical Concepts
##NAMES=HP
##CAS NAME=Spiro[4.5]dec-6-en-8-one, 1,7-dimethyl-4-(1-methylethyl)-
##MOLFORM=C15H24O
##CAS REGISTRY NO=39510-36-6
##MP= -300
##BP= -300
##MW= 220
##$RETENTION INDEX=1668
##$CONDENSED SPECTRUM=NO
##NPOINTS= 145
##XYDATA=(XY..XY) 1 
    26          7
    27        133
    29        116
    30          2
    31          5
    33          2
    34          3
    38          6
    39        286
    40         40
    41        642
    42         85
    43        307
    44         58
    45         14
    50         22
    51         90
    52         52
    53        342
    54        280
    55        545
    56        125
    57        241
    58         22
    59         16
    60         17
    61          5
    62          7
    63         29
    64          9
    65        151
    66         48
    67        358
    68         88
    69        591
    70        152
    71        113
    72         21
    73          9
    74          4
    75          7
    76         19
    77        358
    78         94
    79        474
    80        148
    81        468
    82        957
    83        233
    84         44
    85         42
    86          9
    87          8
    89         10
    90          8
    91        420
    92         94
    93        590
    94        194
    95        350
    96        134
    97         88
    98         34
    99         19
   100          5
   101          9
   102          9
   103         46
   104         35
   105        173
   106         72
   107        416
   108        433
   109        999
   110        152
   111         61
   112         34
   113         13
   114          3
   115         36
   116          8
   117         35
   118         12
   119         85
   120         43
   121        431
   122        204
   123        260
   124         78
   125         21
   126          4
   127          8
   128          9
   129         13
   130          3
   131         18
   132         13
   133         43
   134         38
   135        590
   136        408
   137        112
   138         66
   139         19
   140          3
   141         21
   142          9
   143         10
   144          4
   145         20
   146          3
   147         11
   148         37
   149        182
   150        128
   151         53
   152         35
   153          7
   154          7
   155         10
   156          1
   157          0
   158          5
   159         23
   160          5
   161         38
   162         11
   163         35
   164         37
   165         20
   167          5
   169          4
   171          2
   172          1
   174          2
   175         13
   176         31
   177        132
   178         25
   179          7
   205          8
   206          0
   219          3
   220         51
   221          7