##TITLE=Library Entry 4732
##JCAMP-DX=Revision 4.10 
##DATA TYPE=MASS SPECTRUM
##SAMPLE DESCRIPTION=NIST Mass Spectrometry Data Center, 1994
##NAMES=HP
##CAS NAME=4-(para-Chlorophenyl)-4-hydroxypiperidine
##MOLFORM=C11H14ClNO
##CAS REGISTRY NO=39512-49-7
##MP= -300
##BP= -300
##MW= 211
##$RETENTION INDEX=0
##$CONDENSED SPECTRUM=NO
##NPOINTS= 137
##XYDATA=(XY..XY) 1 
    15         63
    17          9
    18         37
    26         15
    27        133
    28        511
    29        336
    30        513
    35          7
    36          4
    37          7
    38         17
    39         76
    40         16
    41         82
    42        999
    43        452
    44        364
    45          3
    46          3
    49          7
    50        120
    51        139
    52         22
    53         46
    54         24
    55         82
    56        657
    57        613
    58         54
    59          3
    60         37
    61         10
    62         19
    63         64
    64         17
    65         40
    66          5
    67          5
    68         56
    69          7
    70         27
    71         11
    72         14
    73         25
    74         41
    75        207
    76         62
    77        134
    78         22
    79          7
    80         37
    81         30
    82        148
    83          9
    84         14
    85         24
    86         13
    87         16
    88          8
    89         64
    90         22
    91         70
    92          8
    96          3
    97          5
    98         29
    99         50
   100         18
   101         65
   102         49
   103         32
   104         12
   105          8
   111        181
   112         77
   113         70
   114         34
   115         54
   116         17
   117          9
   118         10
   125         79
   126         20
   127         69
   128         57
   129        119
   130         47
   131         44
   132         10
   133         14
   136         13
   137         21
   138         31
   139        196
   140         41
   141         61
   142         10
   143          8
   149         13
   150          4
   151         21
   152          7
   153         12
   154         65
   155         18
   156         27
   157         14
   158        156
   159         21
   163          4
   164         77
   165         31
   166         63
   167         23
   168         13
   169          6
   177          4
   178         15
   180          8
   182         14
   183         32
   184          9
   185          9
   189         24
   190         11
   191         16
   192        178
   193        382
   194        107
   195        134
   196         23
   210         30
   211        104
   212         24
   213         34
   214          5