##TITLE=Library Entry 69954
##JCAMP-DX=Revision 4.10 
##DATA TYPE=MASS SPECTRUM
##SAMPLE DESCRIPTION=ACCUSTANDARD Chemicals / NIST MS Data Center.
##NAMES=HP
##CAS NAME=Fenpropathrin
##MOLFORM=C22H23NO3
##CAS REGISTRY NO=39515-41-8
##MP= -300
##BP= -300
##MW= 349
##$RETENTION INDEX=2495
##$CONDENSED SPECTRUM=NO
##NPOINTS= 162
##XYDATA=(XY..XY) 1 
    15          7
    17          0
    27        149
    29        175
    30          5
    36          2
    39        223
    40         56
    41        378
    42          2
    43        446
    44         20
    45          7
    50         59
    51        195
    52         27
    53         88
    54          7
    55        785
    56         49
    57        163
    58         12
    59         39
    60          2
    61          6
    62         26
    63         45
    64         29
    65         55
    66         21
    67         91
    68         20
    69        151
    70         19
    71          8
    73          3
    74         13
    75         27
    76         65
    77        209
    78         24
    79         36
    80         13
    81         56
    82          3
    83        247
    84         91
    85         18
    86          3
    87         10
    88         35
    89         23
    91         13
    92         10
    93          8
    94         16
    95         80
    96          3
    97        999
    98         80
    99         10
   101          4
   102          9
   103         22
   104          7
   105          6
   109         14
   110          5
   111         10
   112          4
   113         42
   114         58
   115         87
   116         27
   117          3
   119          1
   123         44
   125        315
   126         32
   127         29
   128         11
   129          2
   130          2
   131          4
   132          3
   139         25
   140         32
   141        171
   142         21
   143          3
   144          2
   150          7
   151         35
   152        105
   153         67
   154         17
   155          4
   156          2
   163          4
   164          5
   165          3
   166          5
   167         15
   168         34
   169         26
   170          6
   176          2
   177         11
   178         20
   179          2
   180        157
   181        550
   182         80
   183          7
   190         13
   191          4
   192          2
   193          4
   194          3
   195          4
   197         19
   198         16
   199          3
   206         38
   207         47
   208        175
   209        142
   210         45
   211          7
   212          1
   219         10
   220          4
   221          3
   222          2
   223          8
   224          3
   225          6
   247          4
   248          3
   249          3
   261          3
   262          3
   263          4
   265        197
   266         37
   267          7
   279          2
   288          3
   289          2
   290          2
   291          2
   303          7
   304         12
   305          7
   306          3
   307          1
   331          1
   334         20
   335          4
   349         67
   350         16
   351          1