##TITLE=Library Entry 82394
##JCAMP-DX=Revision 4.10 
##DATA TYPE=MASS SPECTRUM
##SAMPLE DESCRIPTION=ORMSBG,10(10)913(1975); D. F. GLENN
##NAMES=HP
##CAS NAME=Methanone, cyclopropyl-4-pyridinyl-
##MOLFORM=C9H9NO
##CAS REGISTRY NO=39512-48-6
##MP= -300
##BP= -300
##MW= 147
##$RETENTION INDEX=0
##$CONDENSED SPECTRUM=NO
##NPOINTS= 51
##XYDATA=(XY..XY) 1 
    37         29
    38         61
    39        355
    40         48
    41        613
    42         34
    43         14
    44          5
    45          5
    49         24
    50        223
    51        726
    52         87
    53         32
    54          5
    55         16
    61         10
    62         23
    63         47
    64         24
    65         29
    66          6
    67          6
    68         15
    69        903
    70         40
    73          6
    74         11
    75         23
    76         27
    77         42
    78        806
    79        201
    80         14
    89         14
    90         19
    91         44
    92          8
   104         45
   105         10
   106        999
   107         69
   108          5
   117         31
   118         66
   119         47
   120          6
   121          9
   146         87
   147        613
   148         63