##TITLE=Library Entry 15871
##JCAMP-DX=Revision 4.10 
##DATA TYPE=MASS SPECTRUM
##SAMPLE DESCRIPTION=NIST Mass Spectrometry Data Center, 1990.
##NAMES=HP
##CAS NAME=n-Amyl-n-butyl amine
##MOLFORM=C9H21N
##CAS REGISTRY NO=39536-61-3
##MP= -300
##BP= -300
##MW= 143
##$RETENTION INDEX=1046
##$CONDENSED SPECTRUM=NO
##NPOINTS= 43
##XYDATA=(XY..XY) 1 
    14          5
    15          8
    17          3
    18         15
    26          8
    27         95
    28        102
    29        165
    30        296
    31          9
    32          2
    39         46
    40         19
    41        185
    42         75
    43        221
    44        999
    45         25
    53         10
    54         11
    55         34
    56         64
    57         72
    58         10
    67          6
    68          9
    69         11
    70         38
    71         14
    72         12
    73          4
    84         42
    86        363
    87         27
    98         33
   100        223
   101         16
   112          8
   114          4
   126          5
   142         11
   143         52
   144          7