##TITLE=Library Entry 80446
##JCAMP-DX=Revision 4.10 
##DATA TYPE=MASS SPECTRUM
##SAMPLE DESCRIPTION=D.HENNEBERG, MAX-PLANCK INSTITUTE, MULHEIM, WEST GERMAN
Y
##NAMES=HP
##CAS NAME=Carbamimidothioic acid, N-benzoyl-N'-[(phenylamino)carbonyl]-, me
thyl ester
##MOLFORM=C16H15N3O2S
##CAS REGISTRY NO=39536-11-3
##MP= -300
##BP= -300
##MW= 313
##$RETENTION INDEX=0
##$CONDENSED SPECTRUM=NO
##NPOINTS= 156
##XYDATA=(XY..XY) 1 
    26         12
    27         32
    28         14
    29         13
    30          1
    31         23
    32          2
    33          1
    34          0
    36          1
    37         24
    38         44
    39         59
    40         10
    41         19
    42          6
    43         18
    45         24
    46          9
    47         38
    48         22
    49         11
    50         62
    51        178
    52         25
    53          3
    54          1
    55          0
    57          0
    58          0
    59          1
    60          6
    61          7
    62         14
    63         44
    64        107
    65         41
    66         14
    67          1
    68          0
    69         35
    70          3
    71          0
    72          2
    73          6
    74         24
    75         18
    76         27
    77        500
    78         35
    79          3
    80          0
    82          0
    86          2
    87          2
    88          2
    89          8
    90         11
    91        163
    92         24
    93        569
    94         40
    95          1
    97          0
    99          0
   102          1
   103          9
   104          9
   105        999
   106         84
   107          5
   108          0
   109          1
   115          0
   116          0
   117         14
   118          3
   119        350
   120         32
   121          4
   122          1
   123          0
   129          1
   130          1
   131          0
   132          0
   133          0
   134          1
   135          0
   136          0
   137          0
   139          0
   143          0
   144          0
   145          1
   146          1
   147         41
   148          8
   149          0
   150          0
   151          0
   152          3
   153          0
   160          2
   161          7
   162          1
   163          0
   164          0
   165         14
   166         15
   167          1
   168          1
   174          0
   175          3
   176          0
   177          1
   178          0
   179         18
   180          2
   181          1
   189          0
   190          0
   191          0
   192          2
   193         23
   194        116
   195         14
   196          6
   197          1
   198          0
   205          0
   207          0
   208          0
   211          0
   212          5
   213          0
   219          1
   220          1
   221         14
   222          1
   223          0
   233          0
   238          0
   239          0
   251          1
   258          0
   266          2
   267          0
   280          0
   283          0
   293          0
   310          0
   311          0
   313         18
   314          3
   315          1