##TITLE=Library Entry 7197
##JCAMP-DX=Revision 4.10 
##DATA TYPE=MASS SPECTRUM
##SAMPLE DESCRIPTION=D.HENNEBERG, MAX-PLANCK INSTITUTE, MULHEIM, WEST GERMAN
Y
##NAMES=HP
##CAS NAME=5-Undecene, 8-methyl-, (E)-
##MOLFORM=C12H24
##CAS REGISTRY NO=39546-85-5
##MP= -300
##BP= -300
##MW= 168
##$RETENTION INDEX=0
##$CONDENSED SPECTRUM=NO
##NPOINTS= 60
##XYDATA=(XY..XY) 1 
    21          2
    25          1
    26          5
    27        107
    29        151
    31          2
    33          0
    34          1
    39         99
    40         16
    41        339
    42         78
    43        999
    44          8
    48          1
    49          2
    50          2
    52          7
    53         37
    54         84
    55        653
    56        429
    57         70
    58          3
    63          2
    64          1
    65         13
    66          7
    67         58
    68         22
    69        273
    70        388
    71        297
    72         18
    75          1
    77          6
    78          1
    79          9
    81         32
    82         13
    83         77
    84        189
    85         58
    86          1
    91          4
    93          2
    95         10
    96         13
    97         79
    98         91
    99         10
   112          3
   113          1
   117          1
   123          2
   124          6
   126          6
   140          3
   168         45
   169          7