##TITLE=Library Entry 25593
##JCAMP-DX=Revision 4.10 
##DATA TYPE=MASS SPECTRUM
##SAMPLE DESCRIPTION=Japan AIST/NIMC Database- Spectrum MS-NW-1190
##NAMES=HP
##CAS NAME=4-Piperidinecarboxamide
##MOLFORM=C6H12N2O
##CAS REGISTRY NO=39546-32-2
##MP= -300
##BP= -300
##MW= 128
##$RETENTION INDEX=0
##$CONDENSED SPECTRUM=NO
##NPOINTS= 66
##XYDATA=(XY..XY) 1 
    14          3
    15         13
    16          4
    17          4
    18          1
    26          9
    27         78
    28         67
    29        109
    30        145
    31          2
    37          2
    38          5
    39         53
    40          8
    41         38
    42        121
    43         90
    44         74
    45          4
    46          2
    50          6
    51          9
    52          9
    53         32
    54         31
    55        240
    56        258
    57        999
    58         38
    59          5
    60          2
    65          4
    66          1
    67         16
    68         27
    69         24
    70         26
    71          4
    72        282
    73         31
    74          1
    78          1
    79          1
    80         17
    81          4
    82        135
    83         65
    84        137
    85         41
    86         15
    87          2
    94          1
    96          1
    98          6
    99          6
   100         37
   101          2
   109          2
   110          5
   111          9
   112          3
   113         10
   127          5
   128        136
   129         10