##TITLE=Library Entry 3629
##JCAMP-DX=Revision 4.10 
##DATA TYPE=MASS SPECTRUM
##SAMPLE DESCRIPTION=S. D. ISAEV, KIEV POLYTECH. INST., KIEV, USSR
##NAMES=HP
##CAS NAME=Adamantanone azine
##MOLFORM=C20H28N2
##CAS REGISTRY NO=39555-34-5
##MP= -300
##BP= -300
##MW= 296
##$RETENTION INDEX=0
##$CONDENSED SPECTRUM=NO
##NPOINTS= 61
##XYDATA=(XY..XY) 1 
    39        330
    41        999
    42        110
    43        210
    53        410
    54        350
    55        570
    56        230
    57         80
    65        280
    66        210
    67        720
    68        170
    69        120
    70        210
    71         80
    77        810
    78        280
    79        950
    80        550
    81        540
    82        190
    91        720
    92        420
    93        660
    94        270
    95        120
   104         80
   105        230
   106        480
   107        230
   108        130
   117         80
   118         70
   119        120
   120        120
   121        200
   131        110
   132         80
   133         70
   134        110
   135        110
   148        340
   149        280
   150        480
   151         70
   163         90
   175        300
   176        100
   188         80
   190         80
   215         80
   216         80
   228        110
   239        260
   253        180
   254         70
   255        140
   295         80
   296        640
   297        150