##TITLE=Library Entry 35914
##JCAMP-DX=Revision 4.10 
##DATA TYPE=MASS SPECTRUM
##SAMPLE DESCRIPTION=R.W.ROESKY FRANKFURT UNIV., FRANKFURT, GERMANY, F.R.G.
##NAMES=HP
##CAS NAME=Thioimidodiphosphoryl chloride fluoride (ClfP(O)NHP(S)F2), methyl
-
##MOLFORM=CH3ClF3NOP2S
##CAS REGISTRY NO=39564-21-1
##MP= -300
##BP= -300
##MW= 231
##$RETENTION INDEX=0
##$CONDENSED SPECTRUM=NO
##NPOINTS= 24
##XYDATA=(XY..XY) 1 
    29         60
    32          0
    35         20
    36         70
    45         20
    46         80
    47        180
    50         90
    60         40
    61         50
    63         50
    66         50
    69        999
    78         80
    82         30
    85        140
    98         70
   101        880
   110        140
   114        100
   130        880
   199         80
   231        110
   233         40