##TITLE=Library Entry 79706
##JCAMP-DX=Revision 4.10 
##DATA TYPE=MASS SPECTRUM
##SAMPLE DESCRIPTION=A.A.Kutin, Moscow, Russia
##NAMES=HP
##CAS NAME=Cyclopropane, 1,1-dibenzoyl-2-phenyl-
##MOLFORM=C23H18O2
##CAS REGISTRY NO=39568-04-2
##MP= -300
##BP= -300
##MW= 326
##$RETENTION INDEX=0
##$CONDENSED SPECTRUM=NO
##NPOINTS= 68
##XYDATA=(XY..XY) 1 
    36         16
    38          3
    39         28
    41          1
    42         15
    43          3
    44         12
    50         33
    51        141
    52         16
    53         14
    55          3
    57          1
    63         26
    65         26
    69         13
    73          7
    74         14
    75         23
    77        704
    78         67
    79         20
    81         13
    89         34
    91         38
    96          3
   103         17
   105        999
   106         82
   115        127
   116         22
   129         14
   131         13
   133          0
   143         25
   152         18
   157         24
   165         31
   167         63
   178         25
   179         13
   180         21
   189         20
   191         19
   192         20
   193         31
   202         36
   203         63
   204         25
   205         25
   207         39
   208          1
   209          6
   216          4
   220         31
   221        171
   222         30
   231         34
   235         28
   247         27
   249         14
   281          4
   282         15
   307         17
   308         20
   325         92
   326        167
   327         41