##TITLE=Library Entry 72730
##JCAMP-DX=Revision 4.10 
##DATA TYPE=MASS SPECTRUM
##SAMPLE DESCRIPTION=Japan AIST/NIMC Database- Spectrum MS-NW-6275
##NAMES=HP
##CAS NAME=2-Thiazolamine, 5-[(4-nitrophenyl)sulfonyl]-
##MOLFORM=C9H7N3O4S2
##CAS REGISTRY NO=39565-05-4
##MP= -300
##BP= -300
##MW= 285
##$RETENTION INDEX=0
##$CONDENSED SPECTRUM=NO
##NPOINTS= 193
##XYDATA=(XY..XY) 1 
    13          1
    14          1
    16          3
    26          2
    27         11
    28         57
    29          4
    30         34
    32          3
    33          4
    34          1
    36          1
    37          7
    38         16
    39         22
    40          6
    41          3
    42          6
    43         12
    44         19
    45         89
    46          7
    47          6
    48          8
    49          4
    50        139
    51         24
    52          7
    53         10
    54          9
    55        274
    56          9
    57        254
    58         16
    59         19
    60         91
    61          9
    62         18
    63         35
    64         24
    65          9
    66          4
    67          1
    68          2
    69         19
    70         24
    71         86
    72        153
    73         16
    74         49
    75         81
    76         91
    77         16
    78          3
    79          3
    80          2
    81          5
    82         11
    83          7
    84          4
    85          1
    86          3
    87          5
    88          4
    89         24
    90          4
    91          2
    92         17
    93          6
    94          2
    95          7
    96          7
    97          3
    98         58
    99        999
   100         68
   101         55
   102          5
   103          3
   104         10
   105          5
   106          5
   107          3
   108          4
   109          4
   110          2
   112          2
   113          1
   114          1
   115         61
   116          4
   117          6
   118          3
   119          2
   120          4
   121         12
   122         15
   123          5
   124          5
   125          4
   126          1
   127          1
   128          3
   129          2
   130          2
   131          6
   132          6
   133         15
   134          7
   135          3
   136          3
   137          5
   138          1
   139          4
   140          3
   141          3
   142          3
   143          1
   144          1
   146          2
   147         14
   148          9
   149          9
   150          3
   151          2
   152          3
   153          1
   154          1
   155          4
   158          2
   159          1
   161          1
   162          2
   163         15
   164          5
   165          4
   166          3
   167          2
   169          1
   170          6
   171          3
   172          2
   173          1
   174          4
   175         26
   176          6
   177          4
   178          2
   179         11
   180          2
   181          3
   182          1
   186          3
   187          1
   188          1
   189          1
   190          1
   191         15
   192          3
   193          2
   194          2
   195          1
   198          2
   204          3
   205          4
   206          1
   207          2
   208          1
   209          1
   211          1
   218          1
   220          1
   221         27
   222          5
   223          3
   224          1
   225          1
   226          1
   230          1
   239          3
   241          1
   253         19
   254          5
   255          6
   256          1
   257          1
   269          2
   284          1
   285        744
   286        104
   287         82
   288         13
   289          3