##TITLE=Library Entry 34594
##JCAMP-DX=Revision 4.10 
##DATA TYPE=MASS SPECTRUM
##SAMPLE DESCRIPTION=Chuck Anderson, Aldrich Chemical Co.
##NAMES=HP
##CAS NAME=5,6-Dihydro-2-iso-propenyl-4,4,6-trimethyl-(4H)-1,3-oxazine
##MOLFORM=C10H17NO
##CAS REGISTRY NO=39575-65-0
##MP= -300
##BP= -300
##MW= 167
##$RETENTION INDEX=0
##$CONDENSED SPECTRUM=NO
##NPOINTS= 51
##XYDATA=(XY..XY) 1 
    15          9
    18          0
    26          2
    27         27
    28         23
    29         29
    30          2
    31          0
    38          4
    39         93
    40         39
    41        327
    42         61
    43         49
    44          3
    45          0
    51          0
    52          1
    53          8
    54          4
    55         26
    56         37
    57          8
    58          6
    67          8
    68         60
    69        999
    70         56
    71          6
    81          1
    82         44
    83         23
    84         24
    85         28
    96         33
    97         52
    98          7
   108         16
   109          0
   110         88
   111          9
   124         11
   125          5
   126         13
   139          3
   152         90
   153          9
   166         16
   167        275
   168         30
   169          0