##TITLE=Library Entry 59840
##JCAMP-DX=Revision 4.10 
##DATA TYPE=MASS SPECTRUM
##SAMPLE DESCRIPTION=A.A.Kutin, Moscow, Russia
##NAMES=HP
##CAS NAME=Thiophene-3-ol, 2,3-dihydro-, 4-methylbenzenesulfonate, 1,1-dioxi
de
##MOLFORM=C11H12O5S2
##CAS REGISTRY NO=39582-96-2
##MP= -300
##BP= -300
##MW= 288
##$RETENTION INDEX=0
##$CONDENSED SPECTRUM=NO
##NPOINTS= 119
##XYDATA=(XY..XY) 1 
    33          1
    34          0
    35          0
    37          3
    39        144
    41         55
    42         35
    43         25
    45         33
    46          7
    48         35
    50         68
    51         91
    52         63
    53        115
    54          9
    55          7
    57          8
    58          7
    59          6
    61         16
    62         35
    63         97
    65        364
    66         16
    68         28
    69         12
    71         15
    72          4
    73          5
    74          9
    75         10
    77         81
    79         61
    80         11
    81          1
    82          1
    83          1
    84          4
    85          7
    86          8
    87         12
    89        128
    91        999
    92        124
    93          7
    95          2
    97          1
    99          3
   100          2
   101          1
   102          1
   103          1
   104          2
   105          7
   107        119
   108         67
   109          4
   110          2
   111          2
   112          0
   113          0
   115          3
   117         40
   118          3
   119          2
   121          3
   122          1
   123          1
   124          0
   125          0
   127          2
   128          4
   129          2
   130          2
   131          5
   133         13
   134          1
   135          0
   137          0
   139         14
   140          1
   141          2
   142          5
   143          3
   144          1
   145          2
   146          0
   147          0
   151          0
   153          4
   155        312
   156         28
   157          8
   158          1
   159          1
   160          0
   168          0
   169          1
   171         83
   172        134
   173         11
   174          4
   175          0
   176          0
   177          0
   181          0
   206          3
   207          0
   221          0
   223         21
   224          4
   225          1
   240          0
   270          0
   287          5
   288          8
   289          1
   290          1