##TITLE=Library Entry 53556
##JCAMP-DX=Revision 4.10 
##DATA TYPE=MASS SPECTRUM
##SAMPLE DESCRIPTION=A.Pleshkova, Nesmeyanov Inst.Org.Elem.Cpds, Moscow
##NAMES=HP
##CAS NAME=1-Ethoxy-2,2,3-trimethylaziridine(sin)
##MOLFORM=C7H15NO
##CAS REGISTRY NO=39582-55-3
##MP= -300
##BP= -300
##MW= 129
##$RETENTION INDEX=0
##$CONDENSED SPECTRUM=NO
##NPOINTS= 40
##XYDATA=(XY..XY) 1 
    29        290
    30         40
    31         30
    39        130
    40         40
    41        470
    42        730
    43        320
    44        140
    45         60
    46         18
    55        220
    56         60
    57        110
    58        150
    59         40
    60         50
    61         18
    67         20
    68        140
    69        190
    70        390
    71         60
    72         21
    73         80
    74         17
    82         30
    83         30
    84        999
    85         70
    86        150
    87         22
   100         20
   101        410
   102         20
   114        160
   115         15
   129        100
   130          8
   131          1