##TITLE=Library Entry 18544
##JCAMP-DX=Revision 4.10 
##DATA TYPE=MASS SPECTRUM
##SAMPLE DESCRIPTION=Chemical Concepts
##NAMES=HP
##CAS NAME=1,4-Cyclohexadiene-1-carboxylic acid, 3,6-dioxo-, methyl ester
##MOLFORM=C8H6O4
##CAS REGISTRY NO=3958-79-0
##MP= -300
##BP= -300
##MW= 166
##$RETENTION INDEX=0
##$CONDENSED SPECTRUM=NO
##NPOINTS= 79
##XYDATA=(XY..XY) 1 
    25         69
    26        238
    27         33
    28         51
    29         94
    30         23
    31         22
    36         10
    37         36
    38         24
    39         50
    40         23
    41         15
    42         10
    43         51
    44         14
    45         11
    48          8
    49         44
    50        132
    51        223
    52         99
    53        999
    54        463
    55         64
    56         12
    57          9
    58         17
    59        173
    60         13
    61         32
    62         29
    63         22
    64         16
    65          8
    66         11
    67          9
    68         13
    69         45
    71          4
    73          6
    74          6
    77         17
    78         12
    79        398
    80         87
    81         21
    82        548
    83         30
    84          7
    85         12
    86          5
    91          3
    92          6
    94          6
    95         41
    96          5
    97          6
   106          7
   107        442
   108        173
   109         23
   110         31
   112         38
   113          7
   122          5
   123         64
   124          5
   134          7
   135        657
   136        788
   137         91
   138         19
   140         51
   141          7
   151         29
   166        712
   167         72
   168          7