##TITLE=Library Entry 48181
##JCAMP-DX=Revision 4.10 
##DATA TYPE=MASS SPECTRUM
##SAMPLE DESCRIPTION=NIST Mass Spectrometry Data Center, 1990.
##NAMES=HP
##CAS NAME=2-Nitrobenzyl bromide
##MOLFORM=C7H6BrNO2
##CAS REGISTRY NO=3958-60-9
##MP= -300
##BP= -300
##MW= 215
##$RETENTION INDEX=0
##$CONDENSED SPECTRUM=NO
##NPOINTS= 93
##XYDATA=(XY..XY) 1 
    13          1
    15          2
    16          2
    18          1
    25          3
    26         22
    27         41
    28         55
    29         40
    30        154
    31          2
    32          6
    37         43
    38         98
    39        212
    40         35
    41         11
    42          3
    43         13
    44          6
    45          6
    46         17
    48          3
    49         26
    50        167
    51        278
    52        101
    53         47
    54          7
    55          3
    59          2
    60         11
    61         60
    62        183
    63        444
    64        178
    65        440
    66         35
    67          2
    68          3
    69          1
    73          8
    74         38
    75         40
    76         68
    77        270
    78        999
    79        100
    80        111
    81         33
    82          4
    84          6
    85         21
    86         39
    87         30
    88          4
    89        662
    90        411
    91        101
    92        652
    93         54
    94          3
    95          3
   102          1
   103          2
   105        163
   106         62
   108        282
   109         20
   117          7
   118         22
   119         44
   120          7
   121          4
   136        509
   137         45
   138          2
   141          2
   143          8
   144          1
   145          8
   155          1
   156          2
   157          2
   158          2
   168          2
   169         20
   170          4
   171         18
   172          3
   173          2
   215          5
   217          5