##TITLE=Library Entry 82440
##JCAMP-DX=Revision 4.10 
##DATA TYPE=MASS SPECTRUM
##SAMPLE DESCRIPTION=NIST Mass Spectrometry Data Center
##NAMES=HP
##CAS NAME=p-Bromobenzylamine
##MOLFORM=C7H8BrN
##CAS REGISTRY NO=3959-07-7
##MP= -300
##BP= -300
##MW= 185
##$RETENTION INDEX=0
##$CONDENSED SPECTRUM=NO
##NPOINTS= 64
##XYDATA=(XY..XY) 1 
    27          7
    28         25
    29         23
    30        110
    37          7
    38         16
    39         23
    40          3
    41          4
    49         11
    50        111
    51        103
    52        100
    54         12
    61         12
    62         26
    63         61
    64         11
    65          5
    73         13
    74         57
    75         69
    76         64
    77        239
    78        123
    79        129
    80         12
    81          4
    85          4
    86          6
    87          6
    88          3
    89         87
    90         57
    91          7
    92          3
    93          3
   102          6
   103         11
   104         73
   105         36
   106        999
   107         79
   108          3
   117          4
   119          4
   129          3
   131          3
   155         13
   156         11
   157         53
   158         15
   159         35
   169         41
   170          4
   171         36
   172          3
   182         12
   183          6
   184        215
   185         73
   186        201
   187         63
   188          3