##TITLE=Library Entry 100304
##JCAMP-DX=Revision 4.10 
##DATA TYPE=MASS SPECTRUM
##SAMPLE DESCRIPTION=Mark Whitten, Florida Museum of Natural History, U. of
 Florida
##NAMES=HP
##CAS NAME=6-(p-Tolyl)-2-methyl-2-heptenol, trans-
##MOLFORM=C15H22O
##CAS REGISTRY NO=39599-18-3
##MP= -300
##BP= -300
##MW= 218
##$RETENTION INDEX=0
##$CONDENSED SPECTRUM=NO
##NPOINTS= 108
##XYDATA=(XY..XY) 1 
    41        278
    43        294
    44         13
    45         15
    50          9
    51         42
    52         16
    53         85
    54         10
    55        115
    56         18
    57         47
    58          8
    63         23
    64          9
    65         87
    66         16
    67         64
    68         28
    69         40
    70         14
    71         35
    72          4
    75          5
    77        170
    78         47
    79        148
    80         22
    81         51
    82          9
    83         26
    84         28
    85          6
    89         17
    91        354
    92         74
    93        234
    94        112
    95         47
    96          7
    97         22
    98         11
    99         22
   101          4
   102         14
   103         62
   104         40
   105        362
   106         51
   107         67
   108         23
   109         15
   110          7
   111         11
   115         99
   116         29
   117        171
   118         67
   119        999
   120        185
   121        181
   122         52
   123         12
   126         11
   127          8
   128         26
   129         32
   130         14
   131        130
   132        617
   133        108
   134         75
   135         70
   136          8
   137          4
   140          8
   141         10
   142          9
   143         55
   144         20
   145        155
   146         32
   147         18
   148          5
   149          5
   152          6
   153          7
   156         15
   157         69
   158         60
   159         47
   160         11
   161         17
   162          6
   163          6
   171         15
   172          7
   173          9
   185         29
   186          5
   187         25
   189          9
   200         94
   201         17
   202         21
   203          8
   218         59
   219         10