##TITLE=Library Entry 1341
##JCAMP-DX=Revision 4.10 
##DATA TYPE=MASS SPECTRUM
##SAMPLE DESCRIPTION=NIST Mass Spectrometry Data Center, 1994
##NAMES=HP
##CAS NAME=2-Ethoxyphenethylamine
##MOLFORM=C10H15NO
##CAS REGISTRY NO=39590-27-7
##MP= -300
##BP= -300
##MW= 165
##$RETENTION INDEX=0
##$CONDENSED SPECTRUM=NO
##NPOINTS= 72
##XYDATA=(XY..XY) 1 
    14          3
    15          4
    16          1
    17          1
    18          3
    26          9
    27         57
    28         59
    29          1
    30        999
    31         15
    32          2
    38          8
    39         53
    40          6
    41         10
    42         10
    43         14
    44          4
    45          2
    50         17
    51         50
    52         31
    53         27
    54          4
    55          6
    58          2
    61          1
    62          7
    63         26
    64         10
    65         38
    66          6
    67          2
    68          1
    74          3
    75          4
    77        160
    78         66
    79         77
    80         24
    81          3
    87          1
    89         28
    90         25
    91        131
    92         16
    93          4
    94          3
   103          3
   104          3
   105          6
   106          3
   107        151
   108        266
   109         18
   110          1
   115          3
   116          1
   117          7
   118         10
   119         12
   120          8
   121          5
   133          5
   134          3
   135         44
   136        412
   137         39
   138          2
   165         31
   166          3