##TITLE=Library Entry 49734
##JCAMP-DX=Revision 4.10 
##DATA TYPE=MASS SPECTRUM
##SAMPLE DESCRIPTION=D.HENNEBERG, MAX-PLANCK INSTITUTE, MULHEIM, WEST GERMAN
Y
##NAMES=HP
##CAS NAME=2,5-Heptadiene, (E,E)-
##MOLFORM=C7H12
##CAS REGISTRY NO=39619-60-8
##MP= -300
##BP= -300
##MW= 96
##$RETENTION INDEX=708
##$CONDENSED SPECTRUM=NO
##NPOINTS= 63
##XYDATA=(XY..XY) 1 
    21          2
    25          3
    27        408
    28         49
    29        268
    30          7
    32          1
    33          1
    35          6
    37         21
    38         51
    39        567
    40         77
    41        590
    42         46
    43         16
    45          7
    46         19
    47         12
    48          1
    49          5
    50         39
    51         82
    52         41
    53        442
    54        227
    55        401
    56         40
    57          1
    59          0
    60          2
    61          4
    62         11
    63         27
    64          3
    65         76
    66         59
    67        230
    68         91
    69         18
    70          2
    71          2
    73          2
    74          4
    75         11
    77         94
    78         20
    79        261
    80         42
    81        999
    82         62
    83          1
    84          1
    85          2
    86          0
    89          1
    91         17
    92          0
    93         10
    94          7
    95         32
    96        410
    97         28