##TITLE=Library Entry 64439
##JCAMP-DX=Revision 4.10 
##DATA TYPE=MASS SPECTRUM
##SAMPLE DESCRIPTION=A.A.Kutin, Moscow, Russia
##NAMES=HP
##CAS NAME=Penta-2,4-dienoic acid, 2-acetyl-5-(benzyl)methylamino-, ethyl es
ter
##MOLFORM=C17H21NO3
##CAS REGISTRY NO=39619-47-1
##MP= -300
##BP= -300
##MW= 287
##$RETENTION INDEX=0
##$CONDENSED SPECTRUM=NO
##NPOINTS= 210
##XYDATA=(XY..XY) 1 
    30          7
    31          2
    32         32
    37          0
    38          3
    39         50
    40          5
    41         26
    42        107
    43        207
    44         11
    45          5
    46          0
    49          0
    50          6
    51         22
    52         11
    53         27
    54          6
    55         11
    56          3
    57          5
    58          2
    59          0
    60          0
    61          0
    62          2
    63         15
    64          7
    65        134
    66         11
    67          7
    68          5
    69          4
    70          2
    71          2
    72          0
    74          1
    75          1
    76          2
    77         11
    78         14
    79         11
    80         32
    81         11
    82         11
    83          6
    84          2
    85          1
    86          0
    87          0
    89         22
    91        999
    92         87
    93          9
    94         28
    95         26
    96          5
    97          6
    98          1
    99          1
   100          0
   101          0
   102          2
   103          2
   104          4
   105          3
   106          4
   107          4
   108         31
   109         10
   110          3
   111          1
   112          3
   113          0
   115          6
   116          2
   117          4
   118         16
   119          4
   120         15
   121         14
   122         14
   123          4
   124          8
   125          6
   126          5
   127         14
   128          9
   129          8
   130          4
   131          4
   132         18
   133          3
   134          1
   135          2
   136         42
   137          5
   138          5
   139         29
   140          3
   141          4
   142          1
   143          3
   144          8
   145          1
   146          4
   147          1
   148          0
   149          1
   150         46
   151          5
   152         10
   153          3
   154         14
   155         11
   156          7
   157         28
   158         51
   159          6
   160          5
   161          1
   162          0
   163          0
   164          1
   165          0
   166          4
   167        208
   168         27
   169          6
   170         40
   171         10
   172         13
   173          2
   174          0
   175          1
   176          0
   178          0
   179          0
   180          4
   181          1
   182          1
   183          1
   184          3
   185          3
   186          1
   187          0
   188          0
   189          0
   192          0
   194          0
   195          1
   196         10
   197          4
   198         23
   199          6
   200         10
   201          2
   202          1
   203          1
   204          0
   205          0
   207          0
   208          0
   209          0
   210          0
   212         28
   213         13
   214         14
   215          5
   216          7
   217          2
   218          0
   221          0
   222          1
   223          0
   224          1
   225          0
   226          5
   227          1
   228          0
   229          0
   230          1
   231          0
   238          0
   239          0
   240         11
   241          3
   242         59
   243         11
   244         75
   245         13
   246          1
   254          0
   255          0
   256          0
   258         15
   259          2
   260          0
   270          0
   272          8
   273          2
   274          0
   283          0
   284          0
   286          6
   287        288
   288         55
   289          7
   290          0