##TITLE=Library Entry 21679
##JCAMP-DX=Revision 4.10 
##DATA TYPE=MASS SPECTRUM
##SAMPLE DESCRIPTION=Chemical Concepts
##NAMES=HP
##CAS NAME=2,13-Dioxabicyclo[12.2.2]octadeca-14,16,17-triene-15,18-dicarboxy
lic acid
##MOLFORM=C18H24O6
##CAS REGISTRY NO=39622-69-0
##MP= -300
##BP= -300
##MW= 336
##$RETENTION INDEX=0
##$CONDENSED SPECTRUM=NO
##NPOINTS= 295
##XYDATA=(XY..XY) 1 
    26         15
    27        157
    29        320
    30         12
    31         14
    34          3
    35          4
    36         22
    37         13
    38         22
    39        160
    40         44
    41        798
    42        139
    43        300
    44         67
    45         40
    46          5
    47          2
    48          4
    49          8
    50         62
    51         86
    52         50
    53        126
    54         71
    55        999
    56        101
    57        120
    58         14
    59          8
    60         30
    61         13
    62         22
    63         48
    64         12
    65         28
    66         18
    67        151
    68         90
    69        362
    70         50
    71         49
    72          5
    73         27
    74         17
    75         10
    76         20
    77         69
    78        211
    79        104
    80         28
    81        204
    82         80
    83        193
    84         38
    85         17
    86          4
    87         10
    88          5
    89          6
    90         20
    91         33
    92         12
    93         26
    94         27
    95        137
    96         49
    97         94
    98         28
    99         14
   100          6
   101          8
   102          4
   103          8
   104          8
   105         16
   106         11
   107         83
   108         39
   109         50
   110         17
   111         11
   112          9
   113          6
   114          3
   115          7
   116          4
   117          7
   118         37
   119         13
   120         13
   121         24
   122         13
   123         43
   124          8
   125         10
   126          6
   127          7
   128         10
   129         18
   130          3
   131          8
   132          3
   133         13
   134         32
   135         61
   136        340
   137        209
   138         38
   139         11
   140          3
   141         12
   142          4
   143          5
   144          3
   145          9
   146         11
   147         14
   148         12
   149         47
   150         12
   151          9
   152         10
   153          5
   154         13
   155         10
   156          3
   157          6
   158          3
   159          5
   160          6
   161         14
   162         91
   163        112
   164         33
   165         29
   166          6
   167          7
   168          2
   169          4
   170          1
   171          5
   172          3
   173          7
   174          3
   175         13
   176         10
   177          7
   178         12
   179         19
   180        808
   181        268
   182         72
   183         17
   184          6
   185         17
   186          8
   187          6
   188          5
   189         14
   190         11
   191          7
   192          3
   193         13
   194          8
   195          3
   196          7
   197         11
   198        425
   199         87
   200         17
   201         11
   202          7
   203          8
   204          9
   205          8
   206         10
   207         22
   208          6
   209          1
   210          3
   211          4
   212          2
   213         19
   214          6
   215          8
   216         12
   217         13
   218         11
   219         11
   220          7
   221          7
   222          2
   223          4
   224          0
   225          0
   226          2
   227          5
   228          3
   229          6
   230          6
   231          6
   232          8
   233          7
   234         18
   235          5
   236          4
   237          3
   238          1
   239          5
   240          0
   241          4
   242          4
   243          7
   244          6
   245         12
   246          4
   247          7
   248          5
   249          2
   250          4
   251          0
   252          0
   253          2
   254          4
   255          4
   256          5
   257          4
   258          2
   259          2
   260          1
   261          5
   262          2
   263          3
   264          2
   265          2
   266          1
   267          1
   268          1
   269          3
   270         13
   271          9
   272         42
   273         12
   274          7
   275          4
   276          3
   278          1
   279          1
   280          0
   281          0
   282          7
   283         11
   284          4
   285          1
   286          1
   287          3
   288          1
   289          0
   290          5
   291          0
   292          1
   293          0
   296          0
   297          0
   298          1
   299         13
   300        112
   301         38
   302          8
   303          4
   304          1
   305          0
   306          0
   307          0
   308          0
   309          0
   310          0
   311          0
   312          0
   313          0
   314          0
   315          0
   316          0
   317          3
   318         63
   319         16
   320          3
   334          0
   335          0
   336        232
   337         58
   338         10
   339          0