##TITLE=Library Entry 62324
##JCAMP-DX=Revision 4.10 
##DATA TYPE=MASS SPECTRUM
##SAMPLE DESCRIPTION=Chemical Concepts
##NAMES=HP
##CAS NAME=1-o-Tolylprop-2-en-1-one
##MOLFORM=C10H10O
##CAS REGISTRY NO=39627-60-6
##MP= -300
##BP= -300
##MW= 146
##$RETENTION INDEX=0
##$CONDENSED SPECTRUM=NO
##NPOINTS= 44
##XYDATA=(XY..XY) 1 
    72         17
    73          9
    74         39
    75         22
    76         14
    77        103
    78         29
    79         14
    84          2
    85         11
    86         18
    87         15
    88          3
    89        116
    90         43
    91        999
    92        108
    93         72
    94          6
   102         10
   103         84
   104         37
   105         52
   106         15
   115        114
   116         47
   117        175
   118         24
   119        495
   120         56
   121         23
   125          3
   127         90
   128         55
   129         62
   130        111
   131        409
   132         42
   133          4
   144          4
   145        299
   146        565
   147         64
   148         17