##TITLE=Library Entry 72604
##JCAMP-DX=Revision 4.10 
##DATA TYPE=MASS SPECTRUM
##SAMPLE DESCRIPTION=Chemical Concepts
##NAMES=HP
##CAS NAME=2,5-Methano-2H-thiopyrano[3,2-b]furan, hexahydro-
##MOLFORM=C8H12OS
##CAS REGISTRY NO=39637-12-2
##MP= -300
##BP= -300
##MW= 156
##$RETENTION INDEX=0
##$CONDENSED SPECTRUM=NO
##NPOINTS= 75
##XYDATA=(XY..XY) 1 
    26         46
    27        526
    29        336
    30         18
    31         32
    35         24
    36         29
    38         49
    39        635
    40         90
    41        663
    42         72
    43        181
    44        518
    45        617
    46         36
    47        108
    50         31
    51         72
    52         36
    53        211
    54        105
    55        205
    56         33
    57         58
    58        104
    59        143
    60        101
    61         73
    65        266
    66         90
    67        255
    68        254
    69         97
    71        110
    72        105
    73        208
    74        132
    77        143
    78         58
    79        318
    80         52
    81        173
    82         55
    83         31
    84         54
    85        197
    86         54
    87         67
    88         38
    91         81
    93         83
    94        112
    95        108
    96         35
    97        355
    98         44
    99        999
   100        161
   101         56
   108         31
   109         34
   110         36
   111        117
   112        757
   113         80
   114         39
   122         88
   123         32
   127         42
   128         68
   138         31
   156        821
   157         84
   158         39