##TITLE=Library Entry 114506
##JCAMP-DX=Revision 4.10 
##DATA TYPE=MASS SPECTRUM
##SAMPLE DESCRIPTION=S.M.A.HAI PHARM. RES. DIV., CSIR., KARACHI, PAKISTAN
##NAMES=HP
##CAS NAME=1,3,4-Oxadiazol-2(3H)-one, 5-ethoxy-3-ethyl-
##MOLFORM=C6H10N2O3
##CAS REGISTRY NO=39636-01-6
##MP= -300
##BP= -300
##MW= 158
##$RETENTION INDEX=0
##$CONDENSED SPECTRUM=NO
##NPOINTS= 29
##XYDATA=(XY..XY) 1 
    15        185
    27        670
    29        886
    30        231
    31         22
    32         15
    40         30
    41         56
    42        181
    43         87
    44        121
    45        227
    46         53
    55         25
    56        106
    57        303
    58        481
    59         20
    70         27
    71        204
    73         30
    85         68
   102        196
   113         35
   115        250
   130        999
   131         60
   158        409
   159         32