##TITLE=Library Entry 54220
##JCAMP-DX=Revision 4.10 
##DATA TYPE=MASS SPECTRUM
##SAMPLE DESCRIPTION=Chemical Concepts
##NAMES=HP
##CAS NAME=Piperidine, 1-(2-aminobenzoyl)-
##MOLFORM=C12H16N2O
##CAS REGISTRY NO=39630-25-6
##MP= -300
##BP= -300
##MW= 204
##$RETENTION INDEX=0
##$CONDENSED SPECTRUM=NO
##NPOINTS= 72
##XYDATA=(XY..XY) 1 
    26          5
    27         30
    28         45
    29         25
    30         18
    37          2
    38         11
    39         83
    40          9
    41         57
    42         44
    43         10
    44          6
    46          3
    50          6
    51         10
    52         24
    53          9
    54         12
    55         27
    56         36
    57         10
    60          2
    62          5
    63         26
    64         32
    65        288
    66         40
    67          8
    68          3
    69          7
    70          4
    74          2
    75          3
    76          5
    77          8
    78          3
    79          2
    80          2
    82          6
    83          9
    84        999
    85         64
    86         14
    88          2
    89          2
    90          8
    91         29
    92        333
    93         85
    94          6
   105          4
   106          2
   118          6
   119         63
   120        962
   121         84
   122          6
   132          2
   136          5
   146          2
   147          6
   149          4
   161          2
   187          2
   188         13
   189          2
   202          5
   203        137
   204        273
   205         37
   206          3