##TITLE=Library Entry 16771
##JCAMP-DX=Revision 4.10 
##DATA TYPE=MASS SPECTRUM
##SAMPLE DESCRIPTION=NIST Mass Spectrometry Data Center, 1990.
##NAMES=HP
##CAS NAME=Bis(2-chloroisopropyl) ether
##MOLFORM=C6H12Cl2O
##CAS REGISTRY NO=39638-32-9
##MP= -300
##BP= -300
##MW= 170
##$RETENTION INDEX=1061
##$CONDENSED SPECTRUM=NO
##NPOINTS= 42
##XYDATA=(XY..XY) 1 
    15         33
    26         23
    27         82
    29         55
    31         25
    36          6
    37          7
    38         19
    39        144
    40          6
    41        588
    42         70
    43         99
    44          6
    45        999
    46         22
    47          7
    48          6
    49         82
    50          7
    51         26
    57         33
    58         30
    59         11
    61          7
    63          9
    71         13
    76         19
    77        150
    78         12
    79        101
    80          4
    81         16
    89          8
    93         11
    95          4
   107         17
   109          6
   121        210
   122         13
   123         70
   134          4