##TITLE=Library Entry 31469
##JCAMP-DX=Revision 4.10 
##DATA TYPE=MASS SPECTRUM
##SAMPLE DESCRIPTION=Japan AIST/NIMC Database- Spectrum MS-NW-8066
##NAMES=HP
##CAS NAME=Phenol, 4,4'-sulfonylbis[2,6-dibromo-
##MOLFORM=C12H6Br4O4S
##CAS REGISTRY NO=39635-79-5
##MP= -300
##BP= -300
##MW= 562
##$RETENTION INDEX=0
##$CONDENSED SPECTRUM=NO
##NPOINTS= 280
##XYDATA=(XY..XY) 1 
    17          2
    18          7
    25          3
    26          8
    27          4
    28         48
    29         20
    32          6
    36          3
    37         65
    38         60
    39         87
    40          4
    41          5
    42          3
    43          5
    44          9
    45         38
    48         17
    49         12
    50         95
    51         68
    52          8
    53        488
    54         18
    55          8
    57          6
    58          3
    60         11
    61        269
    62        999
    63        828
    64         77
    65         17
    66         33
    67          5
    69         69
    70          8
    71          5
    73         17
    74         90
    75         33
    76          8
    77         26
    78         10
    79         83
    80        113
    81         53
    82        153
    83         14
    84         10
    85         25
    86         11
    87         15
    88          4
    89         19
    90        538
    91        611
    92         77
    93         45
    94         18
    95         23
    96          5
    97          5
    98         24
    99         26
   100          9
   101          5
   102          9
   103          9
   104          5
   105          9
   106          8
   107         17
   108          4
   109         11
   110         13
   111         44
   112          9
   113          7
   115          8
   116         23
   117         86
   118         22
   119         76
   120          7
   121          6
   122         13
   123         23
   124         58
   125         47
   126         27
   127          5
   128          7
   129         28
   130         19
   131         74
   132         12
   133         42
   134          5
   135          9
   138         14
   139         20
   140         39
   141        211
   142        111
   143        218
   144         68
   145         24
   146          4
   147          8
   149          8
   151          4
   152          6
   153         26
   154         10
   155         10
   156         21
   157         48
   158         18
   159         40
   160         13
   161         24
   162         18
   163         21
   164         17
   165          5
   167          3
   168          4
   169        136
   170        321
   171        200
   172        320
   173         54
   174         10
   175         22
   176          3
   177          4
   179          3
   185         54
   186         12
   187         70
   188         30
   189         28
   190         71
   191         17
   192         54
   193          7
   194          4
   195          6
   196          4
   197         11
   198          3
   199          8
   201          5
   202         15
   203         13
   204         26
   205         12
   206         11
   207          4
   209          6
   210          6
   211         15
   212          7
   213          5
   217          7
   218          6
   219         71
   220         23
   221        131
   222         26
   223        124
   224         10
   225         57
   226          3
   231         10
   232         12
   233         37
   234         16
   235         34
   236          4
   237         14
   239         11
   241          8
   243          3
   248         12
   249         87
   250        110
   251        207
   252        134
   253         86
   254         39
   255          8
   257          3
   260          4
   261          4
   262          7
   263          4
   264          4
   265         94
   266        164
   267        187
   268        310
   269        113
   270        158
   271         24
   273          7
   277          9
   278          5
   279          9
   280          8
   281         11
   282         16
   283         18
   284         14
   285         10
   286          4
   297        230
   298        101
   299        463
   300        196
   301        252
   302        105
   303         16
   304          6
   310          3
   311         26
   312          9
   313         88
   314         10
   315         97
   316          9
   317         38
   318          3
   330          4
   332          5
   335          3
   340         13
   341          6
   342         28
   343          7
   344         13
   345          3
   356          8
   357          3
   358         17
   359          5
   360         11
   361          3
   393          5
   395          4
   406          3
   418          3
   420          9
   421          6
   422         11
   423          5
   424          6
   484          8
   485          5
   486         22
   487          8
   488         23
   489          5
   490          8
   498          5
   500         16
   501          3
   502         24
   503          4
   504         15
   506          4
   562         35
   564        141
   566        201
   567         30
   568        141
   570         36
   571          3