##TITLE=Library Entry 11627
##JCAMP-DX=Revision 4.10 
##DATA TYPE=MASS SPECTRUM
##SAMPLE DESCRIPTION=Chemical Concepts
##NAMES=HP
##CAS NAME=2,5-Methano-2H-thiopyrano[3,2-b]furan-8-ol, hexahydro-, acetate,
 4-oxide, (2.alpha.,3a.beta.,4.alpha.,5.alpha.,7a.beta.,8R*)-
##MOLFORM=C10H14O4S
##CAS REGISTRY NO=39636-94-7
##MP= -300
##BP= -300
##MW= 230
##$RETENTION INDEX=0
##$CONDENSED SPECTRUM=NO
##NPOINTS= 144
##XYDATA=(XY..XY) 1 
    26          5
    27        102
    28         26
    29         88
    30          3
    31         18
    33          1
    34          1
    35          4
    37          2
    38          6
    39        113
    40         22
    41        119
    42         31
    43        999
    44         50
    45         57
    46          5
    47         18
    48          6
    49          4
    50          7
    51         20
    52         10
    53         69
    54         24
    55        106
    56         10
    57         71
    58         11
    59         22
    60         10
    61         12
    62          2
    63         22
    64          3
    65         33
    66         27
    67         75
    68         24
    69         39
    70         17
    71         21
    72          6
    73         17
    74          4
    75         10
    76         14
    77         55
    78         20
    79         76
    80         23
    81        121
    82         25
    83         83
    84         22
    85         26
    86         11
    87         21
    88          6
    89         15
    90          4
    91         60
    92         24
    93         75
    94         56
    95         74
    96         18
    97         54
    98         13
    99         45
   100          7
   101          6
   102          6
   103         32
   104         13
   105         10
   106          2
   107         16
   108          5
   109         22
   110         14
   111         22
   112          7
   113         23
   114          7
   115         11
   116          2
   117          2
   118          4
   119         21
   120         21
   121        269
   122         68
   123         18
   124         12
   125         28
   126         12
   127         11
   128          4
   129          3
   131          5
   132          5
   133          1
   134          1
   135          5
   136          2
   137         13
   138          8
   139         85
   140         16
   141         14
   142          9
   143          6
   144          2
   145          1
   149          2
   151          3
   152          8
   153         17
   154          7
   155          2
   163          2
   164          2
   170         99
   171         86
   172         15
   173          5
   174          0
   181         51
   182          7
   183          1
   187          2
   188         52
   189          6
   190          3
   213         10
   214          4
   215          1
   230        130
   231         26
   232         12
   233          1