##TITLE=Library Entry 66233
##JCAMP-DX=Revision 4.10 
##DATA TYPE=MASS SPECTRUM
##SAMPLE DESCRIPTION=Japan AIST/NIMC Database- Spectrum MS-NW-8434
##NAMES=HP
##CAS NAME=Ethyl 6-methylpyridine-2-carboxylate
##MOLFORM=C9H11NO2
##CAS REGISTRY NO=39640-51-2
##MP= -300
##BP= -300
##MW= 165
##$RETENTION INDEX=0
##$CONDENSED SPECTRUM=NO
##NPOINTS= 58
##XYDATA=(XY..XY) 1 
    14          1
    15          6
    17          1
    26          8
    27         42
    28         15
    29         79
    30          2
    31          3
    37          5
    38         13
    39         99
    40         11
    41         13
    42          5
    43          5
    44          2
    45          4
    46          1
    49          1
    50         14
    51         17
    52         14
    53          9
    54          3
    61          1
    62          4
    63         21
    64         32
    65        209
    66         84
    67          9
    75          1
    76          3
    77          6
    78         12
    79         12
    80          3
    81          1
    90          3
    91         22
    92        333
    93        999
    94         78
    95          3
   105          2
   106          4
   107          3
   108          1
   119          1
   120         79
   121        137
   122         11
   123          2
   138          1
   150          1
   165          7
   166          6