##TITLE=Library Entry 50545
##JCAMP-DX=Revision 4.10 
##DATA TYPE=MASS SPECTRUM
##SAMPLE DESCRIPTION=S.A. Rang et al., IR & MS of Unsatd. Hydrocarbons, 1977
##NAMES=HP
##CAS NAME=Cyclohexene,1-hexyl-
##MOLFORM=C12H22
##CAS REGISTRY NO=3964-66-7
##MP= -300
##BP= -300
##MW= 166
##$RETENTION INDEX=1244
##$CONDENSED SPECTRUM=NO
##NPOINTS= 101
##XYDATA=(XY..XY) 1 
    15          2
    16          0
    25          1
    26          8
    27        126
    28         49
    29        138
    30          3
    31          4
    37          1
    38          2
    39        104
    40         21
    41        366
    42         36
    43        125
    44         16
    45          6
    50          3
    51          2
    52         12
    53        100
    54        100
    55        246
    56         25
    57         54
    58          6
    59          3
    62          0
    63          2
    64          1
    65         39
    66         40
    67        575
    68        163
    69         54
    70          8
    71          8
    72          3
    73          2
    74          0
    75          2
    76          1
    77         67
    78         17
    79        146
    80         75
    81        999
    82        303
    83         54
    84          8
    85          6
    86          0
    87          0
    88          0
    89          1
    90          0
    91         38
    92          6
    93         50
    94         21
    95        271
    96        600
    97        134
    98          9
    99          3
   100          2
   102          0
   103          1
   104          1
   105          3
   106          0
   107          6
   108          9
   109        180
   110         27
   111          3
   112          1
   113          1
   114          1
   115          1
   116          0
   117          1
   119          0
   121          1
   122          0
   123         11
   124         10
   125          1
   126          0
   127          1
   135          0
   136          0
   137          6
   138          8
   139          1
   151          1
   164          1
   166        184
   167         21
   168          1