##TITLE=Library Entry 100635
##JCAMP-DX=Revision 4.10 
##DATA TYPE=MASS SPECTRUM
##SAMPLE DESCRIPTION=NIST Mass Spectrometry Data Center, 1994
##NAMES=HP
##CAS NAME=N-(2-Aminophenyl)piperidine
##MOLFORM=C11H16N2
##CAS REGISTRY NO=39643-31-7
##MP= -300
##BP= -300
##MW= 176
##$RETENTION INDEX=0
##$CONDENSED SPECTRUM=NO
##NPOINTS= 96
##XYDATA=(XY..XY) 1 
    15         26
    17          4
    18          8
    26         24
    27        149
    28        194
    29         80
    30         30
    37          4
    38         28
    39        210
    40         35
    41        167
    42         55
    43          9
    44          8
    50         25
    51         72
    52         88
    53         58
    54         34
    55         36
    56         30
    57          6
    60          8
    61          3
    62          8
    63         41
    64         40
    65        243
    66         69
    67         28
    69          4
    70         16
    73          6
    74          5
    75          8
    76         21
    77         58
    78         45
    79         26
    80         58
    81         13
    82          8
    83          4
    84        102
    85          7
    88          7
    89          6
    90         11
    91         56
    92        180
    93         66
    94         47
    95          3
   102          4
   103          9
   104         23
   105         18
   106         51
   107         95
   108        160
   109         12
   115          2
   116         10
   117         18
   118          2
   119        999
   120        111
   121         68
   122          6
   128          3
   130        142
   131         44
   132         61
   133         61
   134         11
   135         20
   143          7
   144         15
   145         16
   146          7
   147        190
   148         22
   156          1
   158         18
   159          8
   160          3
   161          7
   171          4
   172          3
   173          4
   175        239
   176        443
   177         60
   178          3