##TITLE=Library Entry 8720
##JCAMP-DX=Revision 4.10 
##DATA TYPE=MASS SPECTRUM
##SAMPLE DESCRIPTION=NIST Mass Spectrometry Data Center, 2012
##NAMES=HP
##CAS NAME=1-Nitro-2-pentyloxybenzene
##MOLFORM=C11H15NO3
##CAS REGISTRY NO=39645-91-5
##MP= -300
##BP= -300
##MW= 209
##$RETENTION INDEX=0
##$CONDENSED SPECTRUM=NO
##NPOINTS= 85
##XYDATA=(XY..XY) 1 
    26         17
    27        212
    28         62
    29        327
    30         72
    31          5
    37          6
    38         42
    39        273
    40         35
    41        501
    42        249
    43        999
    44         49
    45          5
    46          2
    50         60
    51        114
    52         68
    53        104
    54         16
    55        480
    56         23
    61          4
    62         23
    63        171
    64        131
    65        167
    66         28
    67         20
    68          8
    69        370
    70        907
    71        181
    72          9
    74         15
    75         16
    76         35
    77         48
    78        101
    79         39
    81        151
    82          8
    83          1
    89          4
    90          3
    91         18
    92         88
    93         72
    94         80
    95         20
   102          1
   103          3
   104          3
   105          5
   106        123
   107         15
   109        405
   110         30
   122        133
   123        242
   124         44
   125          5
   131          3
   132          2
   133          6
   134          3
   136          2
   137          1
   138          3
   139        840
   140         88
   141         29
   144          1
   145          1
   146          3
   147          2
   152          1
   160          1
   164          1
   174          1
   193          1
   209         83
   210         10
   211          1