##TITLE=Library Entry 67551
##JCAMP-DX=Revision 4.10 
##DATA TYPE=MASS SPECTRUM
##SAMPLE DESCRIPTION=A.A.Kutin, Moscow, Russia
##NAMES=HP
##CAS NAME=Oxamide, N,N'-bis(3-pyridyl)-
##MOLFORM=C12H10N4O2
##CAS REGISTRY NO=39642-61-0
##MP= -300
##BP= -300
##MW= 242
##$RETENTION INDEX=0
##$CONDENSED SPECTRUM=NO
##NPOINTS= 104
##XYDATA=(XY..XY) 1 
    33          3
    34          2
    35          0
    37         49
    38        161
    39        400
    40        140
    41         74
    42          8
    43         10
    44         51
    45          5
    46          3
    47          2
    48          1
    50         91
    51        408
    52         79
    53         12
    54          7
    55          3
    56          1
    57          2
    58          0
    60          1
    61          2
    62          3
    63         17
    64         47
    65         71
    66        109
    67        210
    68         15
    69          2
    70          1
    71          1
    73          0
    75          7
    76         14
    78        693
    79         47
    80          3
    82          0
    83          1
    84          0
    85          0
    89          1
    90          1
    92         58
    94        999
    95         50
    96          2
    97          0
   102          0
   103          2
   104          2
   105          5
   106          8
   107          1
   109          0
   110          0
   112          0
   115          0
   116          0
   117          1
   121        595
   122         65
   123          6
   124          0
   125          0
   126          0
   129          0
   131          2
   132          0
   136          0
   137          3
   143          0
   146          0
   147          1
   148          0
   149          1
   164          1
   166          6
   167          0
   168          0
   169          0
   170          4
   171          1
   172          0
   186         45
   187          4
   195          0
   197          2
   198          1
   199          0
   200          0
   213         26
   214          9
   215          1
   231          0
   242        736
   243         96
   244          9
   245          0