##TITLE=Library Entry 60185
##JCAMP-DX=Revision 4.10 
##DATA TYPE=MASS SPECTRUM
##SAMPLE DESCRIPTION=NIST Mass Spectrometry Data Center, 1994
##NAMES=HP
##CAS NAME=3-Chloro-4-methylbenzyl alcohol
##MOLFORM=C8H9ClO
##CAS REGISTRY NO=39652-32-9
##MP= -300
##BP= -300
##MW= 156
##$RETENTION INDEX=0
##$CONDENSED SPECTRUM=NO
##NPOINTS= 106
##XYDATA=(XY..XY) 1 
    12          4
    14         10
    15         43
    16          4
    17          6
    18          8
    19          7
    26         33
    27        101
    28         13
    29        158
    30         21
    31        106
    35          6
    36         10
    37         36
    38         84
    39        285
    40         34
    41         44
    42          8
    43         27
    44         14
    45         25
    46         15
    47          9
    48          6
    49         32
    50        157
    51        239
    52         42
    53         42
    54          4
    55         18
    59         33
    60         42
    61         53
    62        133
    63        302
    64         61
    65        253
    66         26
    67          5
    68          3
    72         10
    73         69
    74         66
    75         98
    76          3
    77        689
    78         98
    79          9
    84         12
    85         26
    86         43
    87         42
    88          9
    89        232
    90          3
    91        999
    92        117
    93        639
    94         50
    96          3
    97         13
    98         11
    99         70
   100          9
   101         31
   102         36
   103        115
   104         25
   105          9
   111         22
   112         20
   113        136
   114         14
   115         43
   116          3
   119         76
   120         64
   121        462
   122         45
   123          8
   124          3
   125        116
   126          3
   127        210
   128         18
   129         59
   130          6
   137          3
   138         20
   139         75
   140          3
   141        195
   142         21
   143         63
   144          6
   153         41
   154         18
   155         81
   156        496
   157         67
   158        176
   159         15