##TITLE=Library Entry 5157
##JCAMP-DX=Revision 4.10 
##DATA TYPE=MASS SPECTRUM
##SAMPLE DESCRIPTION=Div. of Experiment Therapeutics WRAIR, WRAMC, Washingto
n DC 20307
##NAMES=HP
##CAS NAME=cis-1-Methyl-2,6-diphenyl-4-piperidone
##MOLFORM=C18H19NO
##CAS REGISTRY NO=39653-65-1
##MP= -300
##BP= -300
##MW= 265
##$RETENTION INDEX=0
##$CONDENSED SPECTRUM=NO
##NPOINTS= 86
##XYDATA=(XY..XY) 1 
    42        999
    43         49
    44          4
    47          2
    49          8
    50         53
    51        212
    52         55
    53         18
    54         28
    55         58
    56         15
    57          2
    58          7
    62         10
    63         54
    64          3
    65         63
    66          5
    68          3
    74          9
    75         14
    76         20
    77        358
    78        248
    79         27
    80          2
    82          8
    84         52
    85          0
    86          3
    87          2
    89         49
    91        211
    92         11
    94          4
    97          0
   101          4
   102         17
   103        217
   104        509
   105         59
   106          1
   107          4
   110          3
   115         20
   116         19
   118        587
   120        522
   121         43
   122          5
   127          4
   128          2
   129          5
   131        212
   132         60
   133         21
   134          4
   144         15
   146         98
   147          9
   152          3
   158          4
   159          3
   160         10
   165          5
   166          1
   167          1
   168          1
   174          3
   178          2
   179          2
   186          2
   188        139
   189         15
   190          0
   207          7
   208         12
   220          2
   222         14
   223          3
   250          0
   264         11
   265        203
   266         61
   267         10