##TITLE=Library Entry 29304
##JCAMP-DX=Revision 4.10 
##DATA TYPE=MASS SPECTRUM
##SAMPLE DESCRIPTION=Darrick Lee, Cayman Chemical, Ann Arbor, MI
##NAMES=HP
##CAS NAME=4-methoxy DMT
##MOLFORM=C13H18N2O
##CAS REGISTRY NO=3965-97-7
##MP= -300
##BP= -300
##MW= 218
##$RETENTION INDEX=0
##$CONDENSED SPECTRUM=NO
##NPOINTS= 104
##XYDATA=(XY..XY) 1 
    40          1
    41          4
    42         45
    43         11
    44          3
    45          1
    50          5
    51         11
    52          5
    53          2
    54          1
    55          1
    56          6
    58        999
    59         39
    60          1
    61          1
    62          7
    63         20
    64          5
    65          5
    66          1
    67          1
    68          1
    70          1
    72          1
    73          1
    74          5
    75          8
    76         10
    77         28
    78          8
    79          3
    80          1
    84          1
    85          1
    86          2
    87          4
    88          5
    89         26
    90         18
    91          6
    92          2
    93          1
    94          1
    98          1
    99          1
   100          2
   101          7
   102         20
   103         32
   104          8
   105          2
   106          1
   113          3
   114          4
   115         17
   116         12
   117         33
   118          7
   119          1
   127          2
   128         17
   129         22
   130         79
   131         16
   132          9
   133          2
   140          3
   141          2
   142          3
   143          7
   144          7
   145          6
   146         10
   147          2
   154          1
   155          2
   156          2
   157          5
   158         10
   159         25
   160         37
   161          6
   162          1
   169          1
   170          1
   171          3
   172          5
   173          9
   174         14
   175          1
   185          2
   186          1
   187          1
   188          1
   199          1
   201          1
   202          2
   215          1
   216          2
   218         88
   219         13
   220          1