##TITLE=Library Entry 18026
##JCAMP-DX=Revision 4.10 
##DATA TYPE=MASS SPECTRUM
##SAMPLE DESCRIPTION=NIST Mass Spectrometry Data Center, 1994
##NAMES=HP
##CAS NAME=4,5-Dichloro-1,3-dioxolan-2-one
##MOLFORM=C3H2Cl2O3
##CAS REGISTRY NO=3967-55-3
##MP= -300
##BP= -300
##MW= 156
##$RETENTION INDEX=0
##$CONDENSED SPECTRUM=NO
##NPOINTS= 70
##XYDATA=(XY..XY) 1 
    12         20
    13         57
    14         96
    16         14
    17          1
    18          1
    24          7
    25         33
    26         72
    27          1
    28        143
    29        727
    30         30
    32          5
    35         97
    36         39
    37         32
    38         11
    40         11
    41         51
    42         60
    43          5
    44         77
    45         10
    46          5
    47        112
    48        739
    49        999
    50        241
    51        318
    52          3
    56         16
    58          6
    59          4
    60         28
    61         33
    62         13
    63         48
    64          5
    65         13
    66          2
    72          0
    73          2
    77        528
    78         35
    79        171
    80          3
    83         68
    84         86
    85         44
    86         63
    87          8
    88          9
    92         92
    93          4
    94         29
    95          3
    96          5
    97          1
    98          3
   100          0
   112         23
   114         16
   116          2
   121         98
   122          8
   123         34
   124          1
   156          2
   158          2