##TITLE=Library Entry 57083
##JCAMP-DX=Revision 4.10 
##DATA TYPE=MASS SPECTRUM
##SAMPLE DESCRIPTION=Japan AIST/NIMC Database- Spectrum MS-IW-3679
##NAMES=HP
##CAS NAME=4-Chloro-1,3-dioxolan-2-one
##MOLFORM=C3H3ClO3
##CAS REGISTRY NO=3967-54-2
##MP= -300
##BP= -300
##MW= 122
##$RETENTION INDEX=0
##$CONDENSED SPECTRUM=NO
##NPOINTS= 81
##XYDATA=(XY..XY) 1 
    12          5
    13         15
    14         85
    15        491
    16         11
    24          1
    25          9
    26         45
    27         65
    28        114
    29        711
    30        189
    31         59
    32          8
    35         46
    36         46
    37         15
    38         17
    39          3
    40          4
    41         20
    42        156
    43        934
    44        184
    45         33
    46          2
    47         24
    48        269
    49        370
    50        909
    51        130
    52        350
    53          4
    55          3
    56          8
    57          5
    58        330
    59         17
    60          8
    61         15
    62         22
    63        106
    64          8
    65         38
    66          1
    67          2
    68          1
    69          5
    71          2
    73         32
    75          1
    76         28
    77         19
    78        192
    79         13
    80         59
    81          3
    82          1
    83          7
    84          1
    85          5
    86         14
    87        999
    88         95
    89         10
    91          2
    92          4
    93         12
    94         16
    95          8
    96          8
    97          1
   105          1
   107          3
   109          1
   120          1
   121          4
   122         36
   123          6
   124         11
   125          2