##TITLE=Library Entry 73392
##JCAMP-DX=Revision 4.10 
##DATA TYPE=MASS SPECTRUM
##SAMPLE DESCRIPTION=A.A.Kutin, Moscow, Russia
##NAMES=HP
##CAS NAME=2-Morpholinoethyl 4-methoxysalicylate
##MOLFORM=C14H19NO5
##CAS REGISTRY NO=39682-72-9
##MP= -300
##BP= -300
##MW= 281
##$RETENTION INDEX=0
##$CONDENSED SPECTRUM=NO
##NPOINTS= 107
##XYDATA=(XY..XY) 1 
    34          6
    35         29
    37         13
    39         45
    40         87
    41         98
    42        235
    43        213
    44        114
    45         57
    46          2
    50         13
    51         33
    52         37
    53         33
    54         39
    55        107
    56        156
    57         33
    58         13
    59          4
    60         17
    61          4
    62          7
    63         22
    64          9
    65         27
    66          5
    67          8
    68         13
    69         33
    70         57
    71         11
    72         18
    73          7
    74          4
    77          9
    78          4
    79         29
    80         20
    81          7
    82          9
    83         23
    84         18
    85         15
    86         13
    87          3
    91         12
    92          8
    93          7
    94          7
    95         28
    96          8
    97         13
    98         88
    99         11
   100        999
   101         60
   102          6
   103          4
   104          2
   105          2
   107         22
   108         38
   109          8
   110          6
   111         13
   112         16
   113        294
   114         32
   115          6
   117          3
   119          2
   120          5
   121          4
   122         21
   123          8
   124          3
   126          3
   127          2
   128          3
   129          3
   130         22
   131          2
   132          2
   135          3
   136          4
   137          4
   139          3
   141          2
   149          3
   150         39
   151        142
   152         14
   153          3
   154          1
   167          1
   168          4
   169          2
   171          0
   178          0
   192          0
   194          3
   195          5
   279          1
   281         23
   282          3