##TITLE=Library Entry 65192
##JCAMP-DX=Revision 4.10 
##DATA TYPE=MASS SPECTRUM
##SAMPLE DESCRIPTION=Japan AIST/NIMC Database- Spectrum MS-IW-2820
##NAMES=HP
##CAS NAME=Benzene, (2-methylbutyl)-
##MOLFORM=C11H16
##CAS REGISTRY NO=3968-85-2
##MP= -300
##BP= -300
##MW= 148
##$RETENTION INDEX=1104
##$CONDENSED SPECTRUM=NO
##NPOINTS= 58
##XYDATA=(XY..XY) 1 
    26          1
    27         16
    28          3
    29         70
    30          1
    38          3
    39         37
    40          3
    41        109
    42          5
    43          2
    50          8
    51         26
    52          7
    53          6
    55          9
    56         20
    57        245
    58         11
    62          4
    63         15
    64          6
    65         70
    66          4
    70          5
    74          2
    75          3
    76          3
    77         25
    78         15
    79          8
    86          1
    87          1
    89         13
    90          8
    91        734
    92        999
    93         79
    94          3
   102          3
   103          9
   104          7
   105         18
   106          3
   115         19
   116          6
   117         16
   118          5
   119         22
   120          2
   127          1
   128          3
   129          2
   131          3
   133          2
   148        356
   149         43
   150          2