##TITLE=Library Entry 57269
##JCAMP-DX=Revision 4.10 
##DATA TYPE=MASS SPECTRUM
##SAMPLE DESCRIPTION=F. TURECEK,HEYROVSKY INST PHYS CHEM & ELECTROCHEM,PRAGU
E,CZECH
##NAMES=HP
##CAS NAME=1,6-Anhydro-2,3-dideoxy-.beta.-D-threo-hexopyranose
##MOLFORM=C6H10O3
##CAS REGISTRY NO=39682-47-8
##MP= -300
##BP= -300
##MW= 130
##$RETENTION INDEX=0
##$CONDENSED SPECTRUM=NO
##NPOINTS= 43
##XYDATA=(XY..XY) 1 
    38         27
    39        213
    40         43
    41        367
    42        160
    43        457
    44        247
    45        110
    47        233
    50         15
    51         30
    53         60
    54         47
    55        290
    56        700
    57        560
    58        133
    59         40
    61         26
    65         23
    66         32
    67         28
    69        117
    70         20
    73        117
    81         37
    82         27
    83        115
    84         87
    85         14
    86         70
    87        999
    88         50
    89         17
    95         11
    97         10
   101         23
   102         37
   112          7
   115          6
   129          5
   130          9
   131          7