##TITLE=Library Entry 83598
##JCAMP-DX=Revision 4.10 
##DATA TYPE=MASS SPECTRUM
##SAMPLE DESCRIPTION=NIST Mass Spectrometry Data Center, 1990.
##NAMES=HP
##CAS NAME=2-Methyl-1-phenyl-1-butanol
##MOLFORM=C11H16O
##CAS REGISTRY NO=3968-86-3
##MP= -300
##BP= -300
##MW= 164
##$RETENTION INDEX=0
##$CONDENSED SPECTRUM=NO
##NPOINTS= 57
##XYDATA=(XY..XY) 1 
    26          5
    27         46
    28          3
    29         53
    31          4
    38          8
    39         73
    40         10
    41         56
    42          4
    43         20
    50         34
    51        110
    52         29
    53         36
    55         21
    56          5
    57         31
    62         12
    63         41
    64         16
    65         57
    66          5
    67         14
    68         14
    74         11
    75         13
    77        312
    78         80
    79        536
    80         36
    89         23
    91        214
    92         22
   102         11
   103         20
   104         21
   105         85
   106         11
   107        999
   108         78
   109          6
   115         93
   116         50
   117         79
   118         12
   127         10
   128         25
   129         41
   130         10
   131        245
   132         24
   145         18
   146        128
   147         15
   164         49
   165          6