##TITLE=Library Entry 76713
##JCAMP-DX=Revision 4.10 
##DATA TYPE=MASS SPECTRUM
##SAMPLE DESCRIPTION=Exported from NIST MS Search
##NAMES=HP
##CAS NAME=O2,2'-Anhydro-5-methyluridine, 2TMS derivative
##MOLFORM=C16H28N2O5Si2
##CAS REGISTRY NO=39687-18-8
##MP= -300
##BP= -300
##MW= 384
##$RETENTION INDEX=0
##$CONDENSED SPECTRUM=NO
##NPOINTS= 68
##XYDATA=(XY..XY) 1 
    81         57
    82         34
    89         37
   100         57
   101         57
   103        999
   104        120
   105         57
   110         46
   111         23
   116         28
   117         48
   128         80
   131         48
   132         69
   133         20
   141         63
   142         20
   143         48
   147         74
   148         34
   149         20
   151        252
   152         28
   155         57
   156         46
   157         34
   169        100
   170         77
   171         51
   182         28
   183         28
   189        178
   190         28
   191         23
   197         14
   198         28
   199         17
   217        344
   218         74
   219         71
   223        114
   224         74
   225         20
   243         66
   244         17
   245          8
   253         86
   254         17
   259        488
   260        114
   261         51
   262         14
   281          5
   282          2
   296         11
   297         17
   298          2
   299          2
   325         20
   326          5
   365         17
   366          2
   369         43
   370         14
   384        103
   385         28
   386         17