##TITLE=Library Entry 29914
##JCAMP-DX=Revision 4.10 
##DATA TYPE=MASS SPECTRUM
##SAMPLE DESCRIPTION=Japan AIST/NIMC Database- Spectrum MS-NW-9722
##NAMES=HP
##CAS NAME=Methyl isocyanoacetate
##MOLFORM=C4H5NO2
##CAS REGISTRY NO=39687-95-1
##MP= -300
##BP= -300
##MW= 99
##$RETENTION INDEX=0
##$CONDENSED SPECTRUM=NO
##NPOINTS= 46
##XYDATA=(XY..XY) 1 
    12          5
    13          8
    14         23
    15        332
    16          4
    26          9
    27         43
    28        165
    29         82
    30         26
    31         54
    32         21
    33          1
    34          1
    38         31
    39         55
    40        419
    41         45
    42         77
    43          8
    44         11
    45         11
    50          1
    51          2
    52          5
    53          2
    54        434
    55         17
    56          5
    58         15
    59        999
    60         28
    61          5
    67         21
    68        325
    69         20
    70          5
    72         11
    73          5
    74          1
    96         31
    97         15
    98          1
    99         14
   100          7
   101          3