##TITLE=Library Entry 74228
##JCAMP-DX=Revision 4.10 
##DATA TYPE=MASS SPECTRUM
##SAMPLE DESCRIPTION=Institute of Organic Chemistry, Novosibirsk, USSR 1988
##NAMES=HP
##CAS NAME=Methyl 3,4-di-O-acetyl-2-acetamido-2,6-dideoxy-.alpha.-D-glucopyr
anoside
##MOLFORM=C13H21NO7
##CAS REGISTRY NO=39686-91-4
##MP= -300
##BP= -300
##MW= 303
##$RETENTION INDEX=0
##$CONDENSED SPECTRUM=NO
##NPOINTS= 71
##XYDATA=(XY..XY) 1 
    55         33
    56         24
    57         99
    58         89
    59        339
    60        149
    61         29
    68         11
    69         24
    70         42
    71         55
    72         85
    73         55
    74         33
    81         16
    82        129
    83        179
    84         85
    85         29
    86         16
    87         24
    88         72
    96         99
    97         39
    98         79
    99        139
   100        119
   101        999
   102         11
   109         11
   110         46
   111         20
   112         42
   113         51
   114        164
   115         42
   116         29
   123         72
   124         55
   125         38
   126         33
   128         20
   130        129
   139         29
   140         29
   141        119
   142         79
   143        299
   144         39
   152         51
   153          9
   154          3
   155          4
   156         99
   157         39
   158         20
   168          7
   169          3
   170         11
   183        119
   184        109
   185         10
   199         11
   200         20
   201          2
   211          3
   212          1
   243         24
   244         38
   273         11
   304          2