##TITLE=Library Entry 7144
##JCAMP-DX=Revision 4.10 
##DATA TYPE=MASS SPECTRUM
##SAMPLE DESCRIPTION=R.SELF FOOD RESEARCH INSTITUTE, NORWICH, UK
##NAMES=HP
##CAS NAME=Nonanoic acid, 9-(nonyloxy)-, methyl ester
##MOLFORM=C19H38O3
##CAS REGISTRY NO=39692-47-2
##MP= -300
##BP= -300
##MW= 314
##$RETENTION INDEX=0
##$CONDENSED SPECTRUM=NO
##NPOINTS= 116
##XYDATA=(XY..XY) 1 
    26         18
    27        167
    28        100
    29        416
    30          3
    31         31
    33          3
    38          3
    39         98
    40         18
    41        877
    42        268
    43        999
    44         45
    45         92
    50          4
    51          2
    52          2
    53         30
    54         93
    55        999
    56        310
    57        583
    58         20
    59        224
    60          5
    65          5
    66          7
    67        168
    68        165
    69        756
    70        186
    71        464
    72         23
    73         43
    74        588
    75         80
    76          4
    77          3
    78          2
    79         21
    80         15
    81        133
    82        106
    83        207
    84        115
    85        298
    86         16
    87        516
    88         40
    89          4
    91          3
    92          2
    93         26
    94         62
    95        133
    96        241
    97        380
    98         80
    99          9
   100          4
   101         89
   102         15
   109         80
   110        143
   111         89
   112         19
   113         18
   114         15
   115         62
   116          9
   119          6
   120         32
   121         94
   122          9
   123         28
   124         11
   125         10
   126         13
   127         89
   128         27
   129        175
   130         12
   137         33
   138        485
   139        479
   140         41
   141         27
   142         23
   143        152
   144         11
   155        588
   156        107
   157        206
   158         27
   159          4
   169         17
   170        152
   171        179
   172        359
   173         80
   174          6
   187        350
   188         31
   189         47
   190          6
   201         27
   202          4
   241          9
   242          2
   254          2
   282          5
   283         41
   284          9
   314         10
   315          6