##TITLE=Library Entry 30034
##JCAMP-DX=Revision 4.10 
##DATA TYPE=MASS SPECTRUM
##SAMPLE DESCRIPTION=T.Sasaki ET.AL.J.Chrom.,842,341(1999)
##NAMES=HP
##CAS NAME=N-(2-Amino-2-methylpropionyl)-2-amino-2-methylpropionic acid
##MOLFORM=C8H16N2O3
##CAS REGISTRY NO=39692-70-1
##MP= -300
##BP= -300
##MW= 188
##$RETENTION INDEX=0
##$CONDENSED SPECTRUM=NO
##NPOINTS= 31
##XYDATA=(XY..XY) 1 
    39         40
    41        154
    42        269
    43         94
    56          7
    58        873
    59        999
    60         19
    69         28
    70        199
    71         12
    73         40
    74         17
    84         56
    86         94
    87        110
   100         35
   102        516
   103         29
   115        405
   116        317
   126         10
   127         51
   128         84
   144        201
   156         20
   158         11
   160         62
   170         40
   171         19
   188         34