##TITLE=Library Entry 12371
##JCAMP-DX=Revision 4.10 
##DATA TYPE=MASS SPECTRUM
##SAMPLE DESCRIPTION=H. Luftmann, Org. Chem. Inst., Westfalisch Wilhelms Uni
v., Munster, Germany
##NAMES=HP
##CAS NAME=D-Mannitol, 1,2:3,4:5,6-tris-O-(1-methylethylidene)-
##MOLFORM=C15H26O6
##CAS REGISTRY NO=3969-59-3
##MP= -300
##BP= -300
##MW= 302
##$RETENTION INDEX=0
##$CONDENSED SPECTRUM=NO
##NPOINTS= 50
##XYDATA=(XY..XY) 1 
    41        100
    42         60
    43        999
    44         30
    45         10
    54         10
    55        100
    56         10
    57        200
    58         20
    59        250
    60         10
    61         20
    68         20
    69         80
    70         10
    71         50
    72        120
    73        100
    74         10
    81         40
    82         10
    83        120
    84         10
    85        200
    86         10
    97         50
    98         10
    99         20
   100         20
   101        600
   102         20
   103         10
   111        130
   112         10
   113         40
   114         10
   115         20
   143        750
   144         50
   145         10
   169        170
   170         10
   171         30
   201         20
   202         10
   229         20
   287        530
   288         60
   289         10