##TITLE=Library Entry 57560
##JCAMP-DX=Revision 4.10 
##DATA TYPE=MASS SPECTRUM
##SAMPLE DESCRIPTION=Div. of Experiment Therapeutics WRAIR, WRAMC, Washingto
n DC 20307
##NAMES=HP
##CAS NAME=4-Isoxazolidinamine, N-(5-chlorosalicylidene)-3-oxo-
##MOLFORM=C10H9ClN2O3
##CAS REGISTRY NO=3970-03-4
##MP= -300
##BP= -300
##MW= 240
##$RETENTION INDEX=0
##$CONDENSED SPECTRUM=NO
##NPOINTS= 112
##XYDATA=(XY..XY) 1 
    41         15
    42         22
    43         37
    44         16
    45          1
    49          9
    50         59
    51         89
    52         23
    53         29
    54         20
    55        200
    56         21
    57         13
    58         69
    59         26
    60         13
    61         18
    62         29
    63         79
    64         20
    65         33
    66          8
    67          8
    70         22
    72          7
    73         49
    74         47
    75        169
    76         48
    77        161
    78         22
    79          8
    84         38
    85         31
    86         63
    87        999
    88         39
    89         29
    90         29
    91         48
    92         11
    93          3
    97          6
    98         11
    99         63
   100         36
   101         23
   102         28
   103         10
   104         88
   105         55
   106          7
   107          7
   110         20
   111        132
   112        192
   113         62
   114         64
   115          7
   116          6
   117         33
   118         19
   119          7
   120          6
   124          6
   125         50
   126         20
   127         62
   128         18
   129         17
   132         33
   133         19
   136         19
   137          7
   138         49
   139        144
   140        128
   141        127
   142         43
   143         27
   145          1
   146         26
   152         62
   153         79
   154        143
   155        190
   156        114
   157         58
   158         25
   164         14
   165         18
   166        440
   167        105
   168        158
   169         34
   170          6
   171         10
   179         13
   180         73
   181         22
   182         47
   183         11
   184          8
   196          6
   208          5
   223         16
   225          5
   240        446
   241         70
   242        147
   243         21