##TITLE=Library Entry 16703
##JCAMP-DX=Revision 4.10 
##DATA TYPE=MASS SPECTRUM
##SAMPLE DESCRIPTION=NIST Mass Spectrometry Data Center
##NAMES=HP
##CAS NAME=.beta.-Methoxyethoxymethyl chloride
##MOLFORM=C4H9ClO2
##CAS REGISTRY NO=3970-21-6
##MP= -300
##BP= -300
##MW= 124
##$RETENTION INDEX=0
##$CONDENSED SPECTRUM=NO
##NPOINTS= 44
##XYDATA=(XY..XY) 1 
    11          4
    12          4
    13          6
    14         26
    15        140
    17          5
    18          2
    19          6
    25          3
    26         51
    27        110
    28        117
    29        518
    30         39
    31        219
    33         14
    35         11
    36          9
    37          6
    39          4
    41          8
    42         36
    43        156
    44        103
    45        999
    46         24
    47         10
    49        170
    50          6
    51         69
    57         22
    58        216
    59        369
    60        139
    61         10
    63         15
    73          6
    79         45
    81         12
    88         76
    89        113
    90          6
    93         10
    95          7