##TITLE=Library Entry 29955
##JCAMP-DX=Revision 4.10 
##DATA TYPE=MASS SPECTRUM
##SAMPLE DESCRIPTION=CHEMICAL SAMPLES COMPANY
##NAMES=HP
##CAS NAME=3-Pentanol, 2,2-dimethyl-
##MOLFORM=C7H16O
##CAS REGISTRY NO=3970-62-5
##MP= -300
##BP= -300
##MW= 116
##$RETENTION INDEX=814
##$CONDENSED SPECTRUM=NO
##NPOINTS= 67
##XYDATA=(XY..XY) 1 
    12          0
    13          4
    14         12
    15         82
    16          3
    17          2
    18          7
    19          6
    25          1
    26         24
    27        235
    28         63
    29        334
    30         16
    31        282
    32          7
    33          1
    36          0
    37          5
    38         13
    39        174
    40         28
    41        536
    42         39
    43        175
    44         14
    45        268
    46          6
    47          1
    50          6
    51         11
    52          4
    53          2
    54          5
    55         86
    56        202
    57        649
    58        294
    59        999
    60         36
    61          5
    63          2
    65          4
    66          2
    67         10
    68          3
    69        151
    70         16
    71         21
    72          7
    73          2
    77          1
    79          1
    81          2
    83         25
    84          3
    85          6
    86          2
    87        310
    88         17
    89          0
    98          1
    99          1
   101         26
   102          2
   115          1
   116          0