##TITLE=Library Entry 20427
##JCAMP-DX=Revision 4.10 
##DATA TYPE=MASS SPECTRUM
##SAMPLE DESCRIPTION=F.M.TRENT RES. DIV., U.S. IND. CHEM. CO., CINCINNATI, U
SA
##NAMES=HP
##CAS NAME=Octanedioic acid, 2-ethyl-
##MOLFORM=C10H18O4
##CAS REGISTRY NO=3971-33-3
##MP= -300
##BP= -300
##MW= 202
##$RETENTION INDEX=0
##$CONDENSED SPECTRUM=NO
##NPOINTS= 90
##XYDATA=(XY..XY) 1 
    27        160
    28         50
    29        193
    30         11
    31         32
    37         10
    39        175
    40         36
    41        520
    42        153
    43        322
    44         43
    45        242
    46         11
    51         10
    52         17
    53         11
    54         72
    55        999
    56        187
    57        173
    58         32
    59         89
    60         21
    65         15
    66         10
    67        108
    68         91
    69        528
    70        355
    71        114
    72         32
    73        943
    74         53
    75         11
    77         17
    79         37
    80         11
    81        113
    82         72
    83        270
    84        176
    85         49
    86         21
    87        102
    88        716
    89         38
    91         11
    94         26
    95         32
    96         79
    98        599
    99        268
   100         72
   101        126
   102        142
   103         15
   107         15
   109         55
   110         66
   111         72
   112        106
   113         46
   114         30
   115         40
   116         17
   120         21
   121         13
   122         24
   123         28
   124        102
   125         17
   126         28
   127        144
   128         53
   136        125
   137        276
   138         64
   139         15
   140         13
   141         19
   142         86
   143         11
   151         11
   155         11
   156         83
   157         26
   158         14
   166        223
   167         28