##TITLE=Library Entry 12694
##JCAMP-DX=Revision 4.10 
##DATA TYPE=MASS SPECTRUM
##SAMPLE DESCRIPTION=Chemical Concepts
##NAMES=HP
##CAS NAME=d-Lyxofuranose, tetraacetate
##MOLFORM=C13H18O9
##CAS REGISTRY NO=39727-26-9
##MP= -300
##BP= -300
##MW= 318
##$RETENTION INDEX=0
##$CONDENSED SPECTRUM=NO
##NPOINTS= 121
##XYDATA=(XY..XY) 1 
    25          1
    26          5
    27          0
    28         51
    29         33
    31          8
    34          1
    35          1
    37          1
    38          3
    39         19
    41          7
    42         30
    43        999
    44         25
    45         45
    47          1
    49          0
    50          1
    51          1
    52          2
    53          3
    54          1
    55          6
    56          1
    57          2
    58          2
    60         27
    61          9
    62          1
    66          1
    67         11
    68         34
    69         32
    70          3
    71          8
    73         18
    74          1
    75          1
    79          0
    81          3
    82          0
    83          4
    84          4
    85         18
    86         31
    87          2
    89          0
    91          0
    92          0
    95          1
    96         13
    97         70
    98          8
    99          1
   100          5
   101         12
   102          6
   103         48
   104          1
   106          1
   107          0
   109          0
   111          2
   113          9
   114         70
   115         34
   116          7
   117          0
   123          1
   124          0
   125          0
   126          1
   127          8
   128         17
   129          2
   130          0
   131          3
   132          1
   135          1
   137          1
   139         42
   140          5
   141          0
   142          2
   143         56
   144          5
   145         41
   146          3
   149          1
   155          1
   156        101
   157         20
   158          2
   160          0
   161          1
   166          1
   170          2
   172          0
   173          8
   174          1
   184          1
   187          5
   191          1
   198         21
   199          1
   201          0
   203          7
   204          1
   205          1
   207          0
   213          1
   216          3
   228          1
   245         11
   249          0
   259         13
   260          1
   287          0
   292          1
   303          0