##TITLE=Library Entry 59367
##JCAMP-DX=Revision 4.10 
##DATA TYPE=MASS SPECTRUM
##SAMPLE DESCRIPTION=V.Zaikin,Topchiev Inst.Petrochem.Synth.,Moscow
##NAMES=HP
##CAS NAME=Benzeneacetic acid, heptyl ester
##MOLFORM=C15H22O2
##CAS REGISTRY NO=39736-25-9
##MP= -300
##BP= -300
##MW= 234
##$RETENTION INDEX=1733
##$CONDENSED SPECTRUM=NO
##NPOINTS= 78
##XYDATA=(XY..XY) 1 
    27         38
    28         42
    29        108
    31          3
    36          4
    37          6
    38         11
    39        152
    40         21
    41        318
    42         68
    43        320
    44         25
    45          7
    49          5
    50         25
    51         45
    52         14
    53         23
    54          5
    55        137
    56         56
    57        677
    58         33
    59          2
    61          3
    62         20
    63         64
    64         20
    65        195
    66         13
    67         13
    68          9
    69         30
    70         29
    71         17
    74          3
    75          5
    76          3
    77         13
    78          4
    79          6
    81          5
    82          3
    83         10
    85          4
    86          5
    87          3
    89         65
    90         62
    91        999
    92        222
    93         14
    94          4
    95          3
    96          3
    97          7
    98         36
    99          3
   104          2
   105          6
   106          2
   107          3
   113          3
   115          2
   118         22
   119         23
   121          3
   135          4
   136        233
   137         93
   138          6
   139          3
   143         65
   144          9
   164          2
   234          9
   235          3