##TITLE=Library Entry 16972
##JCAMP-DX=Revision 4.10 
##DATA TYPE=MASS SPECTRUM
##SAMPLE DESCRIPTION=J.VOTH UNIV. OF CALIF, DAVIS, CALIFORNIA, 95616, USA
##NAMES=HP
##CAS NAME=2-Propanol, 1-[(1-methyl-2-propynyl)oxy]-
##MOLFORM=C7H12O2
##CAS REGISTRY NO=3973-21-5
##MP= -300
##BP= -300
##MW= 128
##$RETENTION INDEX=0
##$CONDENSED SPECTRUM=NO
##NPOINTS= 81
##XYDATA=(XY..XY) 1 
     2          3
    12          2
    13          5
    14         23
    15        114
    16          5
    17          2
    18          7
    19         38
    24          1
    25          6
    26         45
    27        324
    28         48
    29        130
    30         10
    31        144
    32          2
    33          1
    36          0
    37          9
    38         29
    39        142
    40         14
    41         52
    42         28
    43        154
    44         19
    45        999
    46         23
    47          2
    48          0
    49         11
    50         40
    51         60
    52         35
    53        543
    54        248
    55         57
    56         10
    57         16
    58         28
    59         79
    60          3
    61         22
    62          0
    63          0
    65          1
    66         22
    67          5
    68          2
    69         63
    70          4
    71         18
    72          1
    73          0
    74          2
    75        151
    76          5
    77          1
    79          1
    80          0
    81          1
    82          0
    83         29
    84          2
    85          1
    86          0
    87          2
    95          3
    96          0
    97          5
    98          0
   101          0
   109          0
   111          0
   113          4
   114          0
   127          0
   128          0
   129          0