##TITLE=Library Entry 22141
##JCAMP-DX=Revision 4.10 
##DATA TYPE=MASS SPECTRUM
##SAMPLE DESCRIPTION=NIST Mass Spectrometry Data Center
##NAMES=HP
##CAS NAME=1-Amino-4-(2-hydroxyethyl)piperazine
##MOLFORM=C6H15N3O
##CAS REGISTRY NO=3973-70-4
##MP= -300
##BP= -300
##MW= 145
##$RETENTION INDEX=0
##$CONDENSED SPECTRUM=NO
##NPOINTS= 84
##XYDATA=(XY..XY) 1 
    15         73
    16          7
    17          9
    18         25
    19         15
    25          1
    26         29
    27        176
    28        193
    29        196
    30        250
    31         96
    32          4
    33          1
    34          1
    38          2
    39         21
    40         25
    41        186
    42        957
    43        330
    44        517
    45        206
    46          8
    49          4
    51          3
    52         11
    53          8
    54        122
    55        132
    56        999
    57        231
    58        754
    59         46
    60          5
    61          4
    66          1
    67          7
    68         40
    69         34
    70        496
    71        102
    72        151
    73         60
    74        138
    75          6
    80          5
    81         11
    82         25
    83         34
    84         74
    85        324
    86        275
    87         21
    88         54
    89          9
    94          1
    95          5
    96          5
    97        182
    98        203
    99        126
   100        211
   101         30
   102          9
   103          3
   109          2
   110          4
   111         17
   112         17
   113          5
   114        946
   115        161
   116          9
   125          1
   126          2
   127         87
   128         87
   129        324
   130         28
   131          1
   145        240
   146         20
   147          1