##TITLE=Library Entry 35270
##JCAMP-DX=Revision 4.10 
##DATA TYPE=MASS SPECTRUM
##SAMPLE DESCRIPTION=Japan AIST/NIMC Database- Spectrum MS-IW-5162
##NAMES=HP
##CAS NAME=2,3,5-Trimethyl-2,3,5-hexanetricarbonitrile
##MOLFORM=C12H17N3
##CAS REGISTRY NO=3974-79-6
##MP= -300
##BP= -300
##MW= 203
##$RETENTION INDEX=0
##$CONDENSED SPECTRUM=NO
##NPOINTS= 74
##XYDATA=(XY..XY) 1 
    15          6
    26          2
    27         26
    28          7
    29          3
    30          2
    37          2
    38          4
    39         59
    40         17
    41        174
    42         73
    43          5
    50          2
    51          9
    52         23
    53         29
    54         56
    55         40
    56          7
    57          2
    61          1
    63          2
    64          7
    65         14
    66         23
    67         32
    68        450
    69        999
    70         55
    71          1
    76          2
    77          8
    78          9
    79          8
    80         12
    81         26
    82        144
    83         37
    84          2
    91          8
    92          5
    93         11
    94         21
    95         59
    96          9
   103          1
   104          1
   105          3
   106          3
   107         22
   108        210
   109         25
   110          2
   118          1
   119          4
   120          6
   121          9
   122          7
   133          1
   134          5
   135        144
   136         32
   137          2
   147          1
   148          1
   161         11
   162          1
   172          2
   177          1
   188         18
   189          2
   203          8
   204          4