##TITLE=Library Entry 11466
##JCAMP-DX=Revision 4.10 
##DATA TYPE=MASS SPECTRUM
##SAMPLE DESCRIPTION=V.Zaikin,Topchiev Inst.Petrochem.Synth.,Moscow
##NAMES=HP
##CAS NAME=Trichloroaetic acid isopropyl ester
##MOLFORM=C5H7Cl3O2
##CAS REGISTRY NO=3974-99-0
##MP= -300
##BP= -300
##MW= 204
##$RETENTION INDEX=995
##$CONDENSED SPECTRUM=NO
##NPOINTS= 112
##XYDATA=(XY..XY) 1 
    25          2
    26         14
    27        108
    28          9
    29         15
    31          3
    35         14
    36         73
    37          6
    38         24
    39         78
    40         19
    41        230
    42         68
    43        999
    44          8
    45          9
    47         41
    48          4
    49         14
    50         11
    51         16
    52         28
    53          7
    58          3
    59        115
    60          4
    61          3
    62          4
    63         15
    64          3
    65         12
    66          1
    73          1
    74          1
    75          2
    76          3
    77         11
    78          8
    79         54
    80          4
    81          1
    82        102
    83         29
    84         66
    85         20
    86         11
    87          3
    89          8
    90          3
    91        125
    92         10
    93          2
    97          2
    99          8
   101          5
   107          5
   109          2
   110         71
   111          9
   112         46
   113          6
   114          8
   115          2
   117        683
   118          7
   119        656
   120          6
   121        174
   122          2
   123         18
   125          4
   126         28
   127         81
   128         10
   129         52
   130          3
   131          9
   141          2
   143          1
   145         20
   146          2
   147         19
   148          2
   149          6
   154          1
   155          6
   156          1
   157          4
   161         85
   162          3
   163         81
   164          3
   165         26
   166          1
   167          3
   169         22
   170          1
   171         14
   173          2
   175          2
   177          2
   189        271
   190         12
   191        262
   192         12
   193         77
   194          4
   195          8
   203          6
   205          6
   207          2