##TITLE=Library Entry 18445
##JCAMP-DX=Revision 4.10 
##DATA TYPE=MASS SPECTRUM
##SAMPLE DESCRIPTION=Div. of Experiment Therapeutics WRAIR, WRAMC, Washingto
n DC 20307
##NAMES=HP
##CAS NAME=2-Hydroxy-6-methyl-3-nitropyridine
##MOLFORM=C6H6N2O3
##CAS REGISTRY NO=39745-39-6
##MP= -300
##BP= -300
##MW= 154
##$RETENTION INDEX=0
##$CONDENSED SPECTRUM=NO
##NPOINTS= 43
##XYDATA=(XY..XY) 1 
    41         56
    42        111
    43         60
    44         26
    45         39
    46         72
    47          5
    49         40
    50        125
    51        220
    52        423
    53        999
    54         83
    55         21
    61         31
    62          5
    63        206
    64        102
    65         80
    66        174
    67        114
    68        141
    69         34
    70         10
    73         12
    75         11
    76          8
    78         55
    80        237
    81         35
    90         57
    91          5
    96        329
    97         15
    99         43
   101          6
   108         53
   114          7
   124         37
   126         57
   128          7
   154        328
   155         22