##TITLE=Library Entry 28042
##JCAMP-DX=Revision 4.10 
##DATA TYPE=MASS SPECTRUM
##SAMPLE DESCRIPTION=Div. of Experiment Therapeutics WRAIR, WRAMC, Washingto
n DC 20307
##NAMES=HP
##CAS NAME=N-[Dimethylaminomethyl]aziridine
##MOLFORM=C5H12N2
##CAS REGISTRY NO=3974-91-2
##MP= -300
##BP= -300
##MW= 100
##$RETENTION INDEX=0
##$CONDENSED SPECTRUM=NO
##NPOINTS= 42
##XYDATA=(XY..XY) 1 
    41         26
    42        241
    43         56
    44        257
    45        132
    46          7
    47          3
    48          0
    49          1
    51          0
    52          1
    54          9
    55         13
    56         85
    57         44
    58        999
    59         49
    60          2
    61          4
    63          0
    68          2
    69          5
    70         35
    71         82
    72        161
    73         19
    74          5
    77          0
    81          0
    82          2
    83         11
    84         16
    85         47
    86         38
    87          7
    88         16
    89          2
    98          1
    99         16
   100         68
   101          6
   102          2