##TITLE=Library Entry 69653
##JCAMP-DX=Revision 4.10 
##DATA TYPE=MASS SPECTRUM
##SAMPLE DESCRIPTION=Chemical Concepts
##NAMES=HP
##CAS NAME=3a,7a-Epoxy-1H-inden-4(5H)-one, tetrahydro-
##MOLFORM=C9H12O2
##CAS REGISTRY NO=39746-31-1
##MP= -300
##BP= -300
##MW= 152
##$RETENTION INDEX=0
##$CONDENSED SPECTRUM=NO
##NPOINTS= 86
##XYDATA=(XY..XY) 1 
    26         73
    27        361
    28        201
    29         83
    30          2
    31         17
    37          7
    38         31
    39        345
    40        174
    41        341
    42        156
    43        130
    44         11
    45          7
    46          3
    47          4
    50         37
    51         75
    52         57
    53        179
    54        127
    55        315
    56         66
    57         37
    58         10
    61          3
    62          8
    63         24
    64          7
    65         50
    66         51
    67        216
    68        187
    69        144
    70         36
    71         11
    74          7
    75          7
    76          4
    77         61
    78         33
    79        191
    80         39
    81         82
    82         61
    83         51
    84         38
    85          7
    91         22
    92          8
    93         17
    94         19
    95        105
    96        263
    97        999
    98        100
    99         11
   105          9
   106         16
   107         34
   108         24
   109         45
   110         35
   111         47
   112          6
   113          2
   117          4
   118          3
   119          3
   121          5
   122         10
   123         34
   124        112
   125         13
   126          5
   133          5
   134         26
   135         26
   136          9
   137         79
   138          7
   151          1
   152        110
   153         12
   154          2