##TITLE=Library Entry 51982
##JCAMP-DX=Revision 4.10 
##DATA TYPE=MASS SPECTRUM
##SAMPLE DESCRIPTION=V.A.KOPTYUG, ATLAS OF MASS SPECTRA OF ORGANIC COMPOUNDS
##NAMES=HP
##CAS NAME=1-Hydroxy-2,2,4,5,5-pentamethyl-3-imidazoline
##MOLFORM=C8H16N2O
##CAS REGISTRY NO=39753-73-6
##MP= -300
##BP= -300
##MW= 156
##$RETENTION INDEX=0
##$CONDENSED SPECTRUM=NO
##NPOINTS= 72
##XYDATA=(XY..XY) 1 
    35          1
    36         10
    37          2
    38          5
    39         62
    40         17
    41        137
    42        612
    43         18
    44          6
    45          3
    46          2
    47          3
    48          5
    49          4
    50          1
    51          4
    52          4
    53         15
    54         10
    55         24
    56        134
    57          9
    58          9
    59         16
    60          2
    69         43
    70          7
    71          2
    72          2
    73          5
    74          5
    77          1
    79          2
    80          2
    81          5
    82         88
    83        999
    84         87
    85          4
    87          2
    91          1
    93          1
    94          5
    95          4
    96          5
    97          4
    98         41
    99          5
   100        110
   101          7
   106          1
   107          7
   108         21
   109         25
   110         45
   111          4
   120          2
   123         15
   124         23
   125         30
   126         17
   127          1
   139         37
   140          4
   141        121
   142         11
   143          1
   155          4
   156        181
   157         19
   158          1