##TITLE=Library Entry 83042
##JCAMP-DX=Revision 4.10 
##DATA TYPE=MASS SPECTRUM
##SAMPLE DESCRIPTION=J.M. Halket, Trace Anal. Unit (TAU), London, UK
##NAMES=HP
##CAS NAME=Indole-2,3-dione, 5-methoxy-
##MOLFORM=C9H7NO3
##CAS REGISTRY NO=39755-95-8
##MP= -300
##BP= -300
##MW= 177
##$RETENTION INDEX=0
##$CONDENSED SPECTRUM=NO
##NPOINTS= 73
##XYDATA=(XY..XY) 1 
    36          5
    37         38
    38         41
    39         47
    40         12
    41          9
    42          3
    43          8
    45          8
    46         13
    48          2
    49         17
    50         81
    51        184
    52        229
    53        125
    54         28
    55          6
    56          2
    57          1
    60          8
    61         53
    62         98
    63        154
    64         35
    65         39
    66         13
    67          6
    68          3
    69          2
    70          1
    72          1
    73         11
    74         33
    75         39
    76         28
    77         55
    78         81
    79        169
    80        112
    81          7
    86          2
    87          6
    88         10
    89          9
    90         25
    91         16
    92         18
    93          6
    94          4
   103          2
   106        999
   107         76
   108          5
   116          1
   117          3
   118          3
   119          4
   120         52
   121        321
   122         27
   123          2
   134         86
   135          8
   136          2
   146          2
   149        629
   150         52
   151          5
   175          2
   177        360
   178         35
   179          5