##TITLE=Library Entry 69975
##JCAMP-DX=Revision 4.10 
##DATA TYPE=MASS SPECTRUM
##SAMPLE DESCRIPTION=ATLAS OF MASS SPECTRA OF ORGANIC COMPOUNDS, V. A. KOPTY
UG, ED.
##NAMES=HP
##CAS NAME=1H-Pyrazole, 4,5-dihydro-3,5,5-trimethyl-
##MOLFORM=C6H12N2
##CAS REGISTRY NO=3975-85-7
##MP= -300
##BP= -300
##MW= 112
##$RETENTION INDEX=910
##$CONDENSED SPECTRUM=NO
##NPOINTS= 34
##XYDATA=(XY..XY) 1 
    26         15
    27         82
    28        157
    29         62
    30         51
    38          9
    39        103
    40         22
    41        115
    42        140
    43         31
    44          4
    51         10
    52          6
    53         24
    54         31
    55         31
    56        419
    57         35
    58          6
    67         14
    68          7
    69          5
    70         40
    80          6
    81         11
    83         19
    95         17
    96         13
    97        999
    98         62
   111          5
   112        235
   113         24