##TITLE=Library Entry 86949
##JCAMP-DX=Revision 4.10 
##DATA TYPE=MASS SPECTRUM
##SAMPLE DESCRIPTION=V.A.KOPTYUG, ATLAS OF MASS SPECTRA OF ORGANIC COMPOUNDS
##NAMES=HP
##CAS NAME=2,2,4,5,5-Pentamethyl-3-imidazoline-1-oxyl
##MOLFORM=C8H15N2O
##CAS REGISTRY NO=39753-74-7
##MP= -300
##BP= -300
##MW= 155
##$RETENTION INDEX=0
##$CONDENSED SPECTRUM=NO
##NPOINTS= 69
##XYDATA=(XY..XY) 1 
    31          7
    32        171
    36         17
    37          6
    38         16
    39        257
    40         71
    41        791
    42        937
    43         45
    44         53
    47          5
    48          8
    49          5
    51          8
    52         17
    53         71
    54         43
    55         66
    56         36
    57         32
    58         55
    59         12
    64          6
    65         13
    66         17
    67         61
    68         53
    69        924
    70         64
    71          7
    73          8
    78          6
    80          8
    82         82
    83        717
    84        137
    85          7
    93          7
    94         11
    95         46
    96         13
    97         22
    98         40
    99         46
   100         15
   101          7
   105          5
   106          5
   108         28
   109         30
   110        999
   111         80
   112          7
   122          7
   123         12
   124         99
   125        919
   126         94
   127          7
   131          7
   139         17
   140         71
   141         43
   142          7
   149          5
   155         95
   156         57
   157         10