##TITLE=Library Entry 72732
##JCAMP-DX=Revision 4.10 
##DATA TYPE=MASS SPECTRUM
##SAMPLE DESCRIPTION=Chemical Concepts
##NAMES=HP
##CAS NAME=Pregn-9(11)-en-18-oic acid, 3,3-[1,2-ethanediylbis(oxy)]-20-hydro
xy-, .gamma.-lactone, (5.alpha.,20R)-
##MOLFORM=C23H32O4
##CAS REGISTRY NO=39766-62-6
##MP= -300
##BP= -300
##MW= 372
##$RETENTION INDEX=0
##$CONDENSED SPECTRUM=NO
##NPOINTS= 132
##XYDATA=(XY..XY) 1 
    27         64
    29         91
    39         68
    41        224
    42         63
    43        205
    44        122
    45        221
    53         60
    55        312
    56         45
    57         92
    60         51
    65         43
    67         89
    68         26
    69         98
    70         26
    71         57
    73         43
    77         79
    78         25
    79        115
    81        100
    82         22
    83         39
    84         23
    85         22
    86         80
    87         98
    91        140
    92         22
    93         60
    95         57
    97         27
    99        999
   100         72
   101         76
   105         91
   107         36
   109         29
   112        198
   113         22
   115         55
   116         22
   117         72
   119         50
   121         29
   122         27
   123         29
   124         37
   125        219
   126         25
   128         48
   129         74
   130         24
   131         59
   133         26
   141         52
   142         33
   143         61
   145         49
   153         29
   154         39
   155         72
   156         21
   157         41
   159         30
   161         26
   166         42
   167         65
   168        219
   169         56
   170         22
   171         31
   173         29
   179         21
   181         29
   183         33
   185         30
   187         26
   189         29
   193         23
   195         26
   197         37
   199         29
   201         22
   205         23
   207         32
   209         73
   210         23
   211         37
   212         22
   213         28
   223         24
   225         22
   227         24
   229         22
   239         21
   241         21
   243         37
   249         64
   250         25
   255        104
   256         31
   257         40
   258         56
   259         22
   267         33
   270         21
   271         23
   272         33
   273         69
   274         22
   284         39
   285         22
   286         22
   295        391
   296        109
   297         26
   310         27
   311         21
   313        228
   314         57
   315         24
   328         21
   329         22
   357        106
   358         32
   372        233
   373         70
   374         21