##TITLE=Library Entry 107159
##JCAMP-DX=Revision 4.10 
##DATA TYPE=MASS SPECTRUM
##SAMPLE DESCRIPTION=Div. of Experiment Therapeutics WRAIR, WRAMC, Washingto
n DC 20307
##NAMES=HP
##CAS NAME=4'Trifluoromethylphenyl-4-fluorobenzhydrol
##MOLFORM=C14H10F4O
##CAS REGISTRY NO=39768-86-0
##MP= -300
##BP= -300
##MW= 270
##$RETENTION INDEX=0
##$CONDENSED SPECTRUM=NO
##NPOINTS= 117
##XYDATA=(XY..XY) 1 
    41         11
    42          7
    43          5
    45          5
    47         18
    48         10
    49         12
    50         52
    51          9
    52          7
    53          6
    55          3
    57         30
    62         11
    63         21
    68         13
    69         42
    70         20
    71          4
    73          4
    74         24
    75        119
    76         26
    77        114
    78         25
    80          8
    81         19
    82          9
    83         15
    84         11
    85         10
    86          7
    87          9
    88         15
    89          1
    91         36
    92          6
    93         10
    94         29
    95        295
    96        339
    97        466
    98         31
    99         12
   100         23
   101          7
   104          2
   105         83
   106         12
   107         20
   108          7
   109         12
   110          1
   113          1
   115          1
   116         20
   119          8
   120          8
   123        999
   124        215
   125        372
   126         50
   127        150
   128         11
   131          1
   133         10
   143          3
   144         12
   145        223
   146         27
   147         14
   150          1
   151         10
   152         19
   153          6
   155          1
   157          9
   161          6
   163          6
   167         12
   169          5
   170         26
   171         16
   173        958
   174         93
   175         53
   176          1
   181         20
   182         14
   183        107
   184         36
   185          6
   193          3
   199         19
   200          9
   201        126
   202         18
   212          4
   213          3
   219         11
   221         11
   232         15
   233         21
   234          5
   241          5
   249         14
   250         21
   251         98
   252         23
   253         53
   254          8
   267          5
   268         70
   269        163
   270        488
   271         73
   272          5