##TITLE=Library Entry 23531
##JCAMP-DX=Revision 4.10 
##DATA TYPE=MASS SPECTRUM
##SAMPLE DESCRIPTION=NIST Mass Spectrometry Data Center, 1990.
##NAMES=HP
##CAS NAME=2-Hexene, 5,5-dimethyl-, (Z)-
##MOLFORM=C8H16
##CAS REGISTRY NO=39761-61-0
##MP= -300
##BP= -300
##MW= 112
##$RETENTION INDEX=724
##$CONDENSED SPECTRUM=NO
##NPOINTS= 31
##XYDATA=(XY..XY) 1 
    14         42
    15         45
    16         17
    26         22
    27        182
    28         13
    29        199
    38         28
    39        287
    40         51
    41        578
    42         42
    43         25
    50         29
    51         50
    52         22
    53         96
    54         33
    55        365
    56        164
    57        999
    58         42
    65         23
    67         39
    69         85
    70         37
    77         26
    79         34
    81         26
    97        159
   112        161