##TITLE=Library Entry 69862
##JCAMP-DX=Revision 4.10 
##DATA TYPE=MASS SPECTRUM
##SAMPLE DESCRIPTION=W.Buchmann ET AL. 48th ASMS
##NAMES=HP
##CAS NAME=2,4,4,6,6,8,8-Heptamethyl-2-nonene
##MOLFORM=C16H32
##CAS REGISTRY NO=39761-73-4
##MP= -300
##BP= -300
##MW= 224
##$RETENTION INDEX=0
##$CONDENSED SPECTRUM=NO
##NPOINTS= 72
##XYDATA=(XY..XY) 1 
    52         11
    53         27
    54         14
    55        273
    56         44
    57        165
    58         14
    59          7
    61          4
    65         15
    66          6
    67         35
    68         15
    69        173
    70         20
    71         17
    72          4
    77         15
    78          7
    79         30
    80          6
    81         52
    82         15
    83         27
    88         10
    89          5
    91         15
    92          4
    93          7
    95         26
    96         54
    97        999
    98         83
   102          5
   105          5
   106          5
   107          5
   109         11
   110         13
   111         99
   112         63
   113         13
   116          5
   117         13
   118          8
   119         13
   121          5
   125          5
   126          8
   128          5
   129          8
   131          5
   140          5
   145          5
   152          5
   155          5
   159          7
   160          4
   161          4
   162          4
   166          4
   173          3
   175          6
   188          3
   189          3
   193          3
   206          3
   208          3
   222          4
   223          6
   224        100
   225         19