##TITLE=Library Entry 72468
##JCAMP-DX=Revision 4.10 
##DATA TYPE=MASS SPECTRUM
##SAMPLE DESCRIPTION=Chemical Concepts
##NAMES=HP
##CAS NAME=Pregn-9(11)-ene-3,12-dione, 18,20-bis(acetyloxy)-, cyclic 3-(1,2-
ethanediyl acetal), (5.alpha.,20R)-
##MOLFORM=C27H38O7
##CAS REGISTRY NO=39766-65-9
##MP= -300
##BP= -300
##MW= 474
##$RETENTION INDEX=0
##$CONDENSED SPECTRUM=NO
##NPOINTS= 416
##XYDATA=(XY..XY) 1 
    25          0
    26          1
    27          8
    28         14
    29         16
    30          2
    31          2
    36          1
    37          0
    38          0
    39          7
    40          2
    41         32
    42         34
    43        436
    44         17
    45         17
    46          0
    50          1
    51          2
    52          2
    53         15
    54          3
    55        117
    56          7
    57          8
    58          1
    59          1
    60          3
    61          2
    63          1
    64          1
    65         10
    66          4
    67         25
    68          6
    69         14
    70          2
    71          6
    72          1
    73         11
    74          1
    75          1
    76          0
    77         23
    78          6
    79         43
    80          6
    81         36
    82          5
    83          7
    84          2
    85          4
    86        210
    87         51
    88          3
    89          2
    90          1
    91         50
    92          9
    93         26
    94          6
    95         22
    96          3
    97          7
    98          2
    99        999
   100         60
   101          8
   102          2
   103          6
   104          4
   105         35
   106         10
   107         26
   108          5
   109         10
   110          3
   111          5
   112         23
   113          7
   114          1
   115         14
   116          6
   117         17
   118          5
   119         19
   120          8
   121         18
   122          4
   123         12
   124          3
   125        516
   126         37
   127         11
   128         13
   129         20
   130          7
   131         20
   132          6
   133         19
   134          9
   135         18
   136          3
   137          7
   138          1
   139          4
   140          1
   141         14
   142          9
   143         16
   144          7
   145         24
   146          8
   147         16
   148          5
   149          7
   150          2
   151          4
   152          3
   153          7
   154          5
   155         16
   156          6
   157         23
   158         12
   159         26
   160          7
   161         19
   162          4
   163          5
   164          2
   165          6
   166          4
   167         12
   168          9
   169         19
   170          6
   171         19
   172         10
   173        124
   174         20
   175         11
   176          2
   177          5
   178          2
   179          8
   180          3
   181          9
   182          4
   183         10
   184          5
   185         15
   186         19
   187         20
   188          6
   189         14
   190          2
   191          3
   192          2
   193          3
   194          2
   195          5
   196          2
   197         12
   198          5
   199         17
   200         12
   201         19
   202          5
   203         16
   204          8
   205         11
   206          4
   207          8
   208          3
   209          8
   210          4
   211         17
   212          7
   213         16
   214          6
   215          9
   216          4
   217          7
   218          3
   219          6
   220         13
   222          7
   223          3
   225         15
   226          7
   227         18
   228         12
   229         12
   230          4
   231          5
   232          1
   233          5
   234          2
   235          4
   236          2
   237          8
   238          5
   239         22
   240         12
   241         13
   242          6
   243         22
   244          7
   245          4
   246          3
   247          5
   248         47
   249         14
   250          4
   251          6
   252          5
   253         13
   254          5
   255         11
   256          5
   257         10
   258          7
   259          6
   260          3
   261          2
   262          3
   263         30
   264          9
   265          9
   266          4
   267         11
   268          7
   269         11
   270          6
   271         11
   272          6
   273          8
   274          5
   275          4
   276          2
   277          6
   278          3
   279         53
   280         17
   281         24
   282         10
   283         12
   284         10
   285         10
   286          8
   287         98
   288         32
   289          6
   290          2
   291          3
   292          6
   293          6
   294          4
   295         10
   296          7
   297         42
   298         19
   299         17
   300          8
   301          6
   302          5
   303          7
   304          3
   305          2
   306          1
   307          1
   308          2
   309         13
   310         28
   311         26
   312         31
   313         24
   314         12
   315         29
   316          9
   317          4
   318          2
   319          2
   321          3
   322          2
   323          7
   324          7
   325         69
   326         39
   327         62
   328         35
   329         16
   330          6
   331          2
   332          4
   333          2
   334          3
   335          3
   336          5
   337          4
   338          3
   339         22
   340         51
   341        199
   342         70
   343         27
   344         11
   345          5
   346          2
   347         29
   348          7
   349          1
   350          1
   351          1
   352          4
   353          9
   354         77
   355         51
   356         15
   357         26
   358          9
   359          7
   360          4
   361          5
   362          6
   363          4
   364          2
   365          1
   366          1
   367          1
   368          3
   369          3
   370         23
   371         55
   372        140
   373         63
   374         12
   375          2
   376          0
   377          0
   378          0
   379          0
   380          0
   381          0
   382          1
   383          1
   384          5
   385          3
   386          7
   387         12
   388          5
   389          3
   390          1
   391          0
   392          0
   393          0
   394          0
   395          0
   396          3
   397          1
   398          1
   399          3
   400          9
   401         11
   402          6
   403          3
   404          2
   405          1
   406          0
   407          0
   408          0
   409          0
   410          1
   411          1
   412          3
   413          4
   414        168
   415         63
   416         20
   417          5
   418          1
   419          0
   420          0
   421          0
   422          0
   424          0
   426          0
   428          2
   429          3
   430         11
   431         69
   432         37
   433          9
   434          2
   435          0
   442          0
   443          0
   444          6
   445          2
   446          3
   447          1
   448          0
   454          0
   455          0
   456          0
   457          0
   458          0
   459          4
   472          3
   473          8
   474        265
   475         89
   476         28
   477          4