##TITLE=Library Entry 69835
##JCAMP-DX=Revision 4.10 
##DATA TYPE=MASS SPECTRUM
##SAMPLE DESCRIPTION=NIST Mass Spectrometry Data Center, 1990.
##NAMES=HP
##CAS NAME=Z-3,4,4-Trimethyl-2-pentene
##MOLFORM=C8H16
##CAS REGISTRY NO=39761-64-3
##MP= -300
##BP= -300
##MW= 112
##$RETENTION INDEX=754
##$CONDENSED SPECTRUM=NO
##NPOINTS= 38
##XYDATA=(XY..XY) 1 
    15         27
    26         12
    27         95
    28         46
    29         83
    39        206
    40         37
    41        341
    42         27
    43         73
    44          9
    50         25
    51         53
    52         24
    53        113
    54          9
    55        911
    56         79
    57        229
    58         12
    63         11
    65         30
    66         13
    67         66
    68         11
    69        308
    70         28
    77         34
    78          9
    79         58
    80         11
    81         48
    83         11
    95         11
    97        999
    98         79
   112        262
   113         25