##TITLE=Library Entry 37174
##JCAMP-DX=Revision 4.10 
##DATA TYPE=MASS SPECTRUM
##SAMPLE DESCRIPTION=A.A.Kutin, Moscow, Russia
##NAMES=HP
##CAS NAME=Piperidin-4-ol, 1,2,5-trimethyl-4-(2,4-dimethylphenyl)-
##MOLFORM=C16H25NO
##CAS REGISTRY NO=39764-35-7
##MP= -300
##BP= -300
##MW= 247
##$RETENTION INDEX=0
##$CONDENSED SPECTRUM=NO
##NPOINTS= 123
##XYDATA=(XY..XY) 1 
    34          0
    39         57
    40         44
    41        113
    42        385
    43        151
    44        139
    50          3
    51         17
    52          6
    53         23
    54         13
    55         53
    56        172
    57        197
    58        176
    59          3
    63         10
    65         37
    67         11
    68         16
    70        999
    71        184
    72         65
    74          7
    75          3
    77         90
    78         32
    79         78
    80          6
    81          8
    82         15
    83          7
    84        128
    85         24
    86          4
    88         10
    89         11
    91         82
    92          8
    93          3
    94          2
    96          5
    98        112
    99         34
   100          6
   102         15
   103         57
   104         30
   105        146
   106         23
   107          9
   108          2
   110          3
   112          2
   113          1
   114          5
   115         37
   116         15
   117         13
   118          6
   119         28
   120          3
   121          0
   122          2
   124         22
   126         13
   127         11
   128         25
   129         18
   130          7
   131         14
   133        196
   134         16
   135          4
   139          3
   140          6
   141         14
   142         12
   143         11
   145         23
   146          8
   147          9
   148          5
   149          8
   152          2
   153          1
   154          3
   155          2
   156          1
   157         11
   158          5
   159          8
   161         16
   162          8
   163          0
   167          0
   172          3
   173          3
   174          4
   175         16
   176          1
   183          0
   186          2
   188          0
   190          3
   198          1
   200          0
   205         20
   206          2
   212          1
   214         28
   215          4
   228          2
   229          6
   230          6
   232        298
   233         49
   234          4
   246          6
   247         81
   248         14
   249          1