##TITLE=Library Entry 9611
##JCAMP-DX=Revision 4.10 
##DATA TYPE=MASS SPECTRUM
##SAMPLE DESCRIPTION=A.A.Kutin, Moscow, Russia
##NAMES=HP
##CAS NAME=1,2-Oxaphospholan-3-ol, 2-ethoxy-3,5,5-trimethyl-, 2-oxide, cis-
##MOLFORM=C8H17O4P
##CAS REGISTRY NO=39770-54-2
##MP= -300
##BP= -300
##MW= 208
##$RETENTION INDEX=0
##$CONDENSED SPECTRUM=NO
##NPOINTS= 135
##XYDATA=(XY..XY) 1 
    33          1
    34          1
    35          2
    36          1
    37          2
    38          4
    39         76
    40         27
    41        133
    42         41
    43        999
    44         32
    45         24
    46          2
    47         37
    48          4
    49          3
    50          3
    51          4
    52          2
    53         18
    54          6
    55         46
    56         43
    57         42
    58        198
    59        103
    60          5
    61         17
    62          1
    63          3
    65        119
    66          5
    67         70
    68          6
    69         14
    70          2
    71          4
    72          1
    73          2
    74          0
    75          0
    77          4
    78          1
    79         14
    80         15
    81         57
    82        366
    83        196
    85        286
    86         19
    87          3
    88          2
    89         18
    90          1
    91          4
    92          4
    93         93
    94          3
    95          2
    96         12
    97         90
    98         30
    99        220
   100         20
   101         60
   102          3
   103          2
   104          1
   105         11
   106          6
   107          6
   108          2
   110        275
   111         43
   112          3
   113          1
   114          0
   115          0
   116          2
   117          1
   118          1
   119          4
   120          1
   121          5
   122          6
   123         22
   124         48
   125          7
   127        248
   128          6
   129          4
   130          1
   131          1
   133         11
   134          2
   135         31
   137        145
   138          8
   139          6
   140          0
   141          0
   143          0
   145          2
   147          5
   148          1
   149          3
   150         15
   151         20
   152         11
   153         21
   154          1
   155          0
   157          0
   159          0
   161          2
   162          1
   163         12
   165        179
   166         26
   167          3
   168          0
   171          0
   175          1
   177          0
   178          0
   179          0
   181          0
   185          0
   189          0
   190          0
   191          1
   193         54
   194          4
   195          0