##TITLE=Library Entry 109003
##JCAMP-DX=Revision 4.10 
##DATA TYPE=MASS SPECTRUM
##SAMPLE DESCRIPTION=Japan AIST/NIMC Database- Spectrum MS-NW-7802
##NAMES=HP
##CAS NAME=2-Amino-4-hydroxy-6-methylpyrimidine
##MOLFORM=C5H7N3O
##CAS REGISTRY NO=3977-29-5
##MP= -300
##BP= -300
##MW= 125
##$RETENTION INDEX=0
##$CONDENSED SPECTRUM=NO
##NPOINTS= 71
##XYDATA=(XY..XY) 1 
    12          2
    13          7
    14         14
    15         35
    16          5
    24          1
    25          8
    26         42
    27         95
    28        195
    29         30
    30          8
    31          2
    36          3
    37         26
    38         58
    39        146
    40         92
    41         96
    42        382
    43        592
    44         63
    45          1
    49          1
    50          6
    51         28
    52         68
    53         59
    54        116
    55         95
    56         58
    57          3
    58          1
    62          4
    63          5
    64          9
    65         12
    66         37
    67         71
    68        200
    69         73
    70         18
    71          2
    76          2
    77          3
    78          1
    79          3
    80          5
    81          6
    82         28
    83         54
    84        423
    85         22
    86         28
    87          1
    92          4
    93          7
    95          3
    96        259
    97        374
    98         25
    99          1
   107          1
   108         33
   109         27
   110         12
   111          1
   124          4
   125        999
   126         76
   127          5