##TITLE=Library Entry 76701
##JCAMP-DX=Revision 4.10 
##DATA TYPE=MASS SPECTRUM
##SAMPLE DESCRIPTION=A.A.Kutin, Moscow, Russia
##NAMES=HP
##CAS NAME=Pyridine, 2-bromo-6-phenyl-
##MOLFORM=C11H8BrN
##CAS REGISTRY NO=39774-26-0
##MP= -300
##BP= -300
##MW= 233
##$RETENTION INDEX=0
##$CONDENSED SPECTRUM=NO
##NPOINTS= 106
##XYDATA=(XY..XY) 1 
    33          5
    34         15
    36          8
    37          9
    38         27
    39         61
    40        166
    41         21
    42          7
    43         24
    44         61
    45          3
    47          2
    48          2
    50         91
    51        118
    52         90
    53          4
    55         13
    56          5
    57         18
    59          1
    60         10
    61          6
    62         13
    63         33
    64         24
    65          7
    67          2
    68          1
    69          8
    70          8
    71         11
    72          5
    73          8
    74         24
    75         50
    76        193
    77        161
    79          9
    80          5
    81          9
    82         10
    83          9
    84          4
    85          5
    87          4
    88          3
    89          3
    90          1
    91          2
    93          3
    94          2
    95          5
    96          7
    97          7
    99         11
   100          9
   101         15
   103        999
   104         96
   105         13
   106         22
   107          2
   109          2
   112          3
   113          1
   116          3
   117         38
   118         43
   119          4
   122          3
   123         10
   125          2
   126         10
   127         14
   128        117
   129         16
   130          2
   132          8
   143          1
   144          1
   145          1
   147          1
   149          5
   153          1
   155         10
   161          1
   171          2
   173          1
   185          3
   187          1
   194          1
   204          0
   206          1
   207         38
   209         42
   210          2
   218          1
   230          3
   231          4
   232         14
   233        526
   235        546
   236         52
   237          2