##TITLE=Library Entry 42438
##JCAMP-DX=Revision 4.10 
##DATA TYPE=MASS SPECTRUM
##SAMPLE DESCRIPTION=P.VOUROS BAYLOR COLLEGE OF MEDICINE, HOUSTON, TEXAS, US
A
##NAMES=HP
##CAS NAME=Methandriol, 2TMS derivative
##MOLFORM=C26H48O2Si2
##CAS REGISTRY NO=39780-59-1
##MP= -300
##BP= -300
##MW= 448
##$RETENTION INDEX=2732
##$CONDENSED SPECTRUM=NO
##NPOINTS= 120
##XYDATA=(XY..XY) 1 
    41         38
    43         66
    44         11
    45         61
    47         22
    53         11
    55         66
    59         33
    61         27
    67         61
    68         11
    69         25
    73        999
    74         94
    75        472
    76         33
    77         44
    79         77
    81         94
    91        111
    92         16
    93         88
    94         11
    95         50
    96          5
   101         16
   103         16
   105        111
   106         22
   107         72
   108         11
   109         22
   115         77
   116         16
   117         83
   118         22
   119         88
   120         22
   121         33
   122          5
   129        227
   130         77
   131        138
   132         27
   133         50
   134         11
   135         16
   141         16
   142         16
   143        555
   144        172
   145        105
   146         22
   147         38
   155         33
   156         16
   157         66
   158         44
   159         94
   160         22
   161         22
   162          5
   169         50
   170         16
   171         44
   172         22
   173         77
   174         16
   175         11
   181         11
   182         11
   183         22
   184         16
   185        133
   186         38
   187         27
   188         11
   189          5
   197         61
   198         27
   199         27
   200         16
   211        150
   212         50
   213        205
   214         38
   215         11
   225         22
   226        138
   227        222
   228         55
   229         44
   230         11
   253        527
   254        100
   255         11
   268        505
   269        122
   270         13
   287         11
   301         15
   302          5
   303         12
   304          5
   315          5
   316         38
   317         15
   318          4
   343        172
   344         50
   345         11
   358        116
   359         38
   360          9
   433         33
   434         10
   435          5
   448         31
   449         12
   450          3