##TITLE=Library Entry 45330
##JCAMP-DX=Revision 4.10 
##DATA TYPE=MASS SPECTRUM
##SAMPLE DESCRIPTION=Exported from NIST MS Search
##NAMES=HP
##CAS NAME=3-Methylcyclohexanol, (Z)-, TMS derivative
##MOLFORM=C10H22OSi
##CAS REGISTRY NO=39789-15-6
##MP= -300
##BP= -300
##MW= 186
##$RETENTION INDEX=0
##$CONDENSED SPECTRUM=NO
##NPOINTS= 19
##XYDATA=(XY..XY) 1 
    73        432
    74         52
    75        999
    76         78
    77         44
    79         22
    81         82
    95        123
    96        223
   127          3
   129        171
   130         22
   143        320
   144         63
   145         14
   171        253
   172         26
   173          7
   186         78