##TITLE=Library Entry 8670
##JCAMP-DX=Revision 4.10 
##DATA TYPE=MASS SPECTRUM
##SAMPLE DESCRIPTION=CARL DJERASSI DEPT OF CHEM STANFORD UNIV STANFORD CALIF
 94305
##NAMES=HP
##CAS NAME=Butane, 1-(ethenyloxy)-3-methyl-
##MOLFORM=C7H14O
##CAS REGISTRY NO=39782-38-2
##MP= -300
##BP= -300
##MW= 114
##$RETENTION INDEX=0
##$CONDENSED SPECTRUM=NO
##NPOINTS= 20
##XYDATA=(XY..XY) 1 
    41        207
    42         89
    43        999
    44        108
    45         29
    51          9
    52          9
    53         29
    54          9
    55        217
    56         19
    57         49
    58          9
    69         19
    70        277
    71        197
    72          9
    81          9
    99         29
   114         49