##TITLE=Library Entry 83401
##JCAMP-DX=Revision 4.10 
##DATA TYPE=MASS SPECTRUM
##SAMPLE DESCRIPTION=Japan AIST/NIMC Database- Spectrum MS-IW-6143
##NAMES=HP
##CAS NAME=L-Tyrosine, N-[(1,1-dimethylethoxy)carbonyl]-
##MOLFORM=C14H19NO5
##CAS REGISTRY NO=3978-80-1
##MP= -300
##BP= -300
##MW= 281
##$RETENTION INDEX=0
##$CONDENSED SPECTRUM=NO
##NPOINTS= 99
##XYDATA=(XY..XY) 1 
    15          2
    16          3
    17          1
    18          3
    26          3
    27         18
    28         29
    29         31
    30          1
    31         17
    37          2
    38          5
    39         52
    40         11
    41        177
    42          8
    43         11
    44        180
    45          3
    46          1
    49          1
    50          8
    51         11
    52          6
    53         14
    54          4
    55         42
    56        102
    57        160
    58          7
    59         94
    60          3
    61          1
    62          2
    63          3
    64          1
    65          5
    66          1
    67          1
    68          2
    73          2
    74         13
    75          2
    77         34
    78          8
    79          9
    80          2
    81          2
    89          2
    90          3
    91         11
    92          1
    94          7
    95          2
   101          4
   105          2
   106          3
   107        999
   108         97
   109          6
   116          1
   118          3
   119         12
   120          3
   121          1
   123          3
   130          1
   133          1
   134          4
   135          9
   136         32
   137          3
   144          2
   147          4
   148          1
   162          8
   163          9
   164        173
   165         18
   166          2
   178          1
   179          6
   180         26
   181          7
   182          2
   188          1
   207         15
   208         25
   209          3
   220         30
   221          4
   222          1
   225         87
   226         11
   227          1
   263          1
   266          1
   281         16
   282          3