##TITLE=Library Entry 97061
##JCAMP-DX=Revision 4.10 
##DATA TYPE=MASS SPECTRUM
##SAMPLE DESCRIPTION=D.HENNEBERG, MAX-PLANCK INSTITUTE, MULHEIM, WEST GERMAN
Y
##NAMES=HP
##CAS NAME=2-Dodecanol, TMS derivative
##MOLFORM=C15H34OSi
##CAS REGISTRY NO=39789-27-0
##MP= -300
##BP= -300
##MW= 258
##$RETENTION INDEX=0
##$CONDENSED SPECTRUM=NO
##NPOINTS= 76
##XYDATA=(XY..XY) 1 
    25          2
    26         29
    27         30
    28         24
    29         42
    30          5
    31          6
    32          3
    37          3
    39         28
    41        114
    42         17
    43        101
    44         52
    45         47
    46         11
    47         32
    48          3
    52          2
    53         12
    54          9
    55         97
    56         28
    57         40
    58         17
    59         20
    60          8
    61         39
    67         10
    68          5
    69         40
    70         27
    71         23
    72         15
    73        496
    74         60
    75        488
    76         28
    77          6
    79          4
    81          1
    82          7
    83         32
    84          7
    85         15
    87          4
    91          1
    93          4
    94          2
    95          5
    96         11
    97         33
    98          3
    99          9
   101         11
   103         21
   111          6
   115          5
   116          8
   117        999
   118         91
   119         39
   129         26
   131          1
   135          3
   157          4
   165          4
   167          5
   168          6
   169          0
   170          1
   173          3
   207          8
   229          5
   243         45
   244          5