##TITLE=Library Entry 41487
##JCAMP-DX=Revision 4.10 
##DATA TYPE=MASS SPECTRUM
##SAMPLE DESCRIPTION=D.HENNEBERG, MAX-PLANCK INSTITUTE, MULHEIM, WEST GERMAN
Y
##NAMES=HP
##CAS NAME=6-Dodecanol, TMS derivative
##MOLFORM=C15H34OSi
##CAS REGISTRY NO=39789-30-5
##MP= -300
##BP= -300
##MW= 258
##$RETENTION INDEX=0
##$CONDENSED SPECTRUM=NO
##NPOINTS= 98
##XYDATA=(XY..XY) 1 
    24          1
    26         10
    27         82
    29        120
    30          8
    31          7
    33          1
    37          0
    38          1
    39         23
    41        185
    42         51
    43        130
    45        105
    46          4
    47         62
    48          5
    49          1
    50          4
    51          1
    52          5
    53          9
    54         12
    55        279
    56         89
    57         52
    58         25
    59         66
    60          5
    61         89
    62          2
    63          2
    65          4
    66          0
    67         10
    68          4
    69        111
    70         55
    71         19
    72         16
    73        999
    74        118
    75        684
    76         49
    77         24
    78          0
    81          9
    82         17
    83        117
    84         12
    85         17
    86          6
    87          8
    89          6
    91         30
    92          2
    93          3
    95          2
    96         10
    97         83
    98          7
    99         10
   101         47
   102          5
   103        247
   104         24
   105          4
   110          2
   113          1
   115         22
   116         10
   117          1
   119          1
   123          1
   126          0
   129         28
   130          6
   131          2
   139          0
   141          0
   143          7
   144          2
   147          2
   148          1
   157          7
   168          0
   172          3
   173        639
   174        111
   175         29
   186          0
   187        484
   188         76
   189         21
   190          1
   199          0
   200          0
   227          1