##TITLE=Library Entry 70849
##JCAMP-DX=Revision 4.10 
##DATA TYPE=MASS SPECTRUM
##SAMPLE DESCRIPTION=LAC, NIDDK, NIH, Bethesda, MD 20892
##NAMES=HP
##CAS NAME=2,3-2H-4-Methyl-imidazole-2-one
##MOLFORM=C4H6N2O
##CAS REGISTRY NO=39799-77-4
##MP= -300
##BP= -300
##MW= 98
##$RETENTION INDEX=0
##$CONDENSED SPECTRUM=NO
##NPOINTS= 34
##XYDATA=(XY..XY) 1 
    41        136
    42        825
    43        169
    44         21
    45          6
    46          1
    47          1
    52         20
    53         17
    54         25
    55         28
    56        105
    57          8
    58          9
    59          1
    60          1
    66          1
    67          6
    68         30
    69        254
    70         50
    71          2
    74          3
    75          2
    78          1
    79          4
    81         17
    82          1
    83         23
    84          2
    97        144
    98        999
    99        118
   100          6