##TITLE=Library Entry 21779
##JCAMP-DX=Revision 4.10 
##DATA TYPE=MASS SPECTRUM
##SAMPLE DESCRIPTION=P.A. Leclercq, Lab. Instrum. Anal., Eindhoven Univ. Tec
hnol., Netherlands
##NAMES=HP
##CAS NAME=2H-1,3,2-Oxazaphosphorin-2-amine, N,3-bis(2-chloroethyl)tetrahydr
o-4-hydroperoxy-, P-oxide
##MOLFORM=C7H15Cl2N2O4P
##CAS REGISTRY NO=39800-28-7
##MP= -300
##BP= -300
##MW= 292
##$RETENTION INDEX=0
##$CONDENSED SPECTRUM=NO
##NPOINTS= 56
##XYDATA=(XY..XY) 1 
    14         77
    15        111
    26         55
    27        536
    28        212
    29        121
    30        352
    31         28
    40         43
    41         75
    42        254
    43         89
    44        130
    46         39
    47        159
    48         33
    49        141
    51         50
    55        999
    56        101
    62         70
    63        252
    64         40
    65        125
    76         62
    78         74
    79         56
    80        108
    84         89
    90        105
    92        158
    94        122
   106        137
   110        200
   123         84
   124        131
   132         79
   135        153
   142        105
   163        111
   171        209
   172        679
   173         92
   174        219
   185        158
   186        121
   187         71
   225        864
   226         72
   227        288
   233        228
   234         12
   235        130
   239        147
   240         11
   241         52