##TITLE=Library Entry 5080
##JCAMP-DX=Revision 4.10 
##DATA TYPE=MASS SPECTRUM
##SAMPLE DESCRIPTION=V.A.Korolev, Moscow, Russia
##NAMES=HP
##CAS NAME=4-Ethynyl-1-methylpyrazole
##MOLFORM=C6H6N2
##CAS REGISTRY NO=39806-89-8
##MP= -300
##BP= -300
##MW= 106
##$RETENTION INDEX=0
##$CONDENSED SPECTRUM=NO
##NPOINTS= 39
##XYDATA=(XY..XY) 1 
    35          2
    36        136
    37        757
    38        614
    39        200
    40        136
    41        176
    42        999
    43         43
    47          2
    48         50
    49        310
    50        713
    51        588
    52        482
    53         67
    54          5
    55          1
    56          2
    60         18
    61         98
    62        188
    63        207
    64        393
    65         72
    74          5
    75         65
    76         73
    77         32
    78        150
    79         24
    84          2
    89          2
    90          2
   103          2
   104          3
   105        144
   106        944
   107         60