##TITLE=Library Entry 35033
##JCAMP-DX=Revision 4.10 
##DATA TYPE=MASS SPECTRUM
##SAMPLE DESCRIPTION=NIST Mass Spectrometry Data Center, 1990.
##NAMES=HP
##CAS NAME=7-Tetradecanol
##MOLFORM=C14H30O
##CAS REGISTRY NO=3981-79-1
##MP= -300
##BP= -300
##MW= 214
##$RETENTION INDEX=1666
##$CONDENSED SPECTRUM=NO
##NPOINTS= 77
##XYDATA=(XY..XY) 1 
    14          5
    16          3
    18          5
    27        112
    28        131
    29        222
    30          6
    31         17
    32         36
    39        130
    41        602
    42        136
    43        490
    44         69
    45         19
    50          2
    51          9
    52          8
    53         76
    54        162
    55        975
    56        327
    57        383
    58         49
    59         17
    65         21
    66         20
    67        149
    68        100
    69        999
    70        306
    71        127
    72         12
    73          3
    77         14
    78          3
    79         24
    80          7
    81         69
    82         83
    83        312
    84        138
    85         64
    86         12
    91          5
    93          2
    95         22
    96         61
    97        641
    98         99
    99         12
   100          5
   109          5
   110         30
   111        218
   112         42
   113         20
   114         14
   115        139
   116         10
   124          7
   125         27
   126         14
   127         11
   128         10
   129        110
   130          9
   138          3
   139          7
   140          5
   141          3
   142          2
   153          2
   154          2
   168          7
   196         72
   197         11