##TITLE=Library Entry 25854
##JCAMP-DX=Revision 4.10 
##DATA TYPE=MASS SPECTRUM
##SAMPLE DESCRIPTION=Chemical Concepts
##NAMES=HP
##CAS NAME=Heptanoic acid, 3-oxo-, methyl ester
##MOLFORM=C8H14O3
##CAS REGISTRY NO=39815-78-6
##MP= -300
##BP= -300
##MW= 158
##$RETENTION INDEX=0
##$CONDENSED SPECTRUM=NO
##NPOINTS= 77
##XYDATA=(XY..XY) 1 
    35          6
    37          5
    38         10
    39        160
    40         61
    41        560
    42        228
    43        546
    44        224
    45         20
    50         11
    51         15
    52          5
    53         29
    54         11
    55        177
    56        181
    57        999
    58         71
    59        380
    60          9
    61          3
    65          5
    66          3
    67         13
    68          6
    69        353
    70         22
    71         18
    72          2
    73         10
    74        327
    75         13
    76          2
    77          4
    78          1
    79          9
    80          5
    81          8
    82          4
    83         26
    84        506
    85        730
    86         64
    87         11
    88         85
    89          3
    91          1
    95          1
    96          3
    97         71
    98         22
    99          2
   100          6
   101        316
   102         14
   103          2
   104          0
   108          1
   111         13
   112          1
   115          3
   116        375
   117         26
   118          3
   119          1
   125          2
   126          2
   127         29
   128          2
   129         76
   130          4
   131         13
   133          1
   140          4
   143         24
   158         45