##TITLE=Library Entry 32350
##JCAMP-DX=Revision 4.10 
##DATA TYPE=MASS SPECTRUM
##SAMPLE DESCRIPTION=Chemical Concepts
##NAMES=HP
##CAS NAME=Cyclopentene,3-methoxy-
##MOLFORM=C6H10O
##CAS REGISTRY NO=39819-74-4
##MP= -300
##BP= -300
##MW= 98
##$RETENTION INDEX=0
##$CONDENSED SPECTRUM=NO
##NPOINTS= 55
##XYDATA=(XY..XY) 1 
    22          2
    24          2
    26         56
    27        386
    28         78
    29        172
    30         56
    31        134
    36         15
    37         68
    38        144
    39        757
    40        233
    41        526
    42         53
    43         67
    44         14
    45         47
    49         19
    50         41
    51         65
    52         44
    53        143
    54         45
    55        349
    56         13
    57         27
    58         23
    60          4
    61         42
    62         57
    63         74
    64         22
    65        351
    66        483
    67        999
    68         86
    69         43
    71         41
    72         39
    73          3
    75          3
    77          2
    79         14
    80          3
    81         15
    82         29
    83        134
    84          8
    91          2
    95          7
    96         26
    97        747
    98        428
    99         33