##TITLE=Library Entry 81632
##JCAMP-DX=Revision 4.10 
##DATA TYPE=MASS SPECTRUM
##SAMPLE DESCRIPTION=RP-234-1
##NAMES=HP
##CAS NAME=4-Oxazolecarboxylic acid, 2-phenyl-, ethyl ester
##MOLFORM=C12H11NO3
##CAS REGISTRY NO=39819-39-1
##MP= -300
##BP= -300
##MW= 217
##$RETENTION INDEX=0
##$CONDENSED SPECTRUM=NO
##NPOINTS= 38
##XYDATA=(XY..XY) 1 
    26         17
    27         89
    28         34
    29        138
    38         17
    39        100
    49         38
    50         98
    51          8
    61         12
    62         51
    63        149
    64         25
    75         21
    76         42
    77        247
    78         25
    86         57
    87         17
    88         47
    89        226
    90         68
   105        999
   106        106
   107          8
   114         29
   115         36
   116        145
   117         27
   143         36
   144         49
   161         17
   172        106
   173         15
   189        282
   190         47
   217        260
   218         55