##TITLE=Library Entry 26632
##JCAMP-DX=Revision 4.10 
##DATA TYPE=MASS SPECTRUM
##SAMPLE DESCRIPTION=JIM LAWLESS AMES RESEARCH CTR NASA MOFFETT FIELD, CALIF
 94035
##NAMES=HP
##CAS NAME=Glycine, N-(trifluoroacetyl)-, 1-methylpropyl ester
##MOLFORM=C8H12F3NO3
##CAS REGISTRY NO=39825-51-9
##MP= -300
##BP= -300
##MW= 227
##$RETENTION INDEX=0
##$CONDENSED SPECTRUM=NO
##NPOINTS= 75
##XYDATA=(XY..XY) 1 
    40         15
    41        677
    42         48
    43         39
    44         18
    45         49
    46         10
    49          6
    50         22
    51         19
    52          5
    53         24
    54         10
    55        105
    56        291
    57        999
    58         85
    59         26
    60          3
    62          4
    63         14
    64          3
    65          4
    66          2
    68          2
    69        147
    72          3
    73         58
    74         23
    75          2
    76          7
    77          0
    78         51
    79          5
    81          2
    82          3
    83          1
    85          1
    86          0
    96          1
    97         19
    98          5
   102         38
   103          0
   104          1
   106          7
   107          4
   109          2
   110          0
   112          2
   113          0
   119          0
   124          8
   125          7
   126        808
   127        543
   128         26
   129          3
   131          1
   141          1
   148          1
   149          3
   150          0
   152         12
   153          6
   154        502
   155         24
   156          3
   167          0
   168          0
   170          2
   172          9
   177          2
   182          2
   198          8