##TITLE=Library Entry 80245
##JCAMP-DX=Revision 4.10 
##DATA TYPE=MASS SPECTRUM
##SAMPLE DESCRIPTION=CARL DJERASSI DEPT OF CHEM STANFORD UNIV STANFORD CALIF
 94305
##NAMES=HP
##CAS NAME=Benzenepentanoic acid, .gamma.-bromo-.delta.-oxo-
##MOLFORM=C11H11BrO3
##CAS REGISTRY NO=39826-14-7
##MP= -300
##BP= -300
##MW= 270
##$RETENTION INDEX=0
##$CONDENSED SPECTRUM=NO
##NPOINTS= 33
##XYDATA=(XY..XY) 1 
    41         50
    42         60
    43         50
    44         30
    45        220
    50        100
    51        260
    52         20
    55         50
    56         20
    57         30
    63         20
    74         30
    75         20
    76         20
    77        450
    78         30
    79        400
    80        890
    81        410
    82        860
    83         30
    85        130
   105        999
   106         80
   115         20
   117         10
   120         10
   122         10
   131         20
   145         10
   146         20
   173         70