##TITLE=Library Entry 36413
##JCAMP-DX=Revision 4.10 
##DATA TYPE=MASS SPECTRUM
##SAMPLE DESCRIPTION=A.SELVA POLYTECHNIC OF MILAN, INST. OF CHEM., MILAN, IT
ALY
##NAMES=HP
##CAS NAME=2H-1-Benzopyran-7-ol, 3,4-dihydro-5-methoxy-2-phenyl-
##MOLFORM=C16H16O3
##CAS REGISTRY NO=39828-25-6
##MP= -300
##BP= -300
##MW= 256
##$RETENTION INDEX=0
##$CONDENSED SPECTRUM=NO
##NPOINTS= 99
##XYDATA=(XY..XY) 1 
    39        480
    40         80
    41        340
    42         80
    43        450
    44         60
    45        100
    50        100
    51        370
    52        200
    53        240
    54         60
    55        240
    56         20
    57         40
    58         60
    59        140
    60         20
    62         20
    63        160
    64        100
    65        300
    66        120
    67        100
    68         60
    69        999
    70         40
    71         40
    72         20
    73         20
    74         40
    75         40
    76         60
    77        400
    78        280
    79        140
    80         60
    81        180
    82         20
    83         20
    89         80
    90         20
    91        520
    92         70
    93         70
    94         60
    95        140
    96        120
    97         20
   101         20
   102         40
   103        200
   104        280
   105         80
   106         20
   107        100
   108         40
   109        120
   110         40
   111        140
   115        160
   116        100
   117        320
   118         40
   119         40
   120         20
   121         40
   122         30
   123         80
   124        460
   125         40
   126         20
   135        140
   136         20
   137         20
   138         30
   149         20
   150         20
   151        100
   152        590
   153        140
   154         20
   163         30
   164         40
   165        140
   166         30
   175         20
   176         20
   177         60
   178         20
   179         20
   191         30
   223         20
   225         40
   239         40
   241         20
   255         30
   256        250
   257         50