##TITLE=Library Entry 49802
##JCAMP-DX=Revision 4.10 
##DATA TYPE=MASS SPECTRUM
##SAMPLE DESCRIPTION=S.A. Rang et al., IR & MS of Unsatd. Hydrocarbons, 1977
##NAMES=HP
##CAS NAME=Cyclohexene, 3-(1-methylethyl)-
##MOLFORM=C9H16
##CAS REGISTRY NO=3983-08-2
##MP= -300
##BP= -300
##MW= 124
##$RETENTION INDEX=924
##$CONDENSED SPECTRUM=NO
##NPOINTS= 87
##XYDATA=(XY..XY) 1 
    15          4
    16          0
    24          0
    25          0
    26          8
    27        146
    28         14
    29         59
    37          2
    38          6
    39        164
    40         28
    41        305
    42         28
    43        108
    45          2
    46          1
    47          0
    49          0
    50          9
    51         36
    52         25
    53        134
    54         59
    55        123
    56         16
    57         25
    58          2
    59          1
    60          0
    61          0
    62          1
    63          7
    64          2
    65         41
    66         39
    67        248
    68         56
    69         48
    70         23
    71          5
    72          0
    73          0
    74          0
    75          3
    76          1
    77         89
    78         26
    79        256
    80        172
    81        999
    82        217
    83         31
    84          3
    85          3
    86          1
    87          3
    88          0
    89          0
    90          0
    91         26
    92          4
    93         11
    94          4
    95         48
    96         23
    97         67
    98          7
    99          3
   104          1
   105          5
   106          1
   107         10
   108          1
   109        123
   110         20
   111          2
   112          2
   113          1
   119          0
   120          0
   121          1
   122          5
   123         14
   124        153
   125         19
   126          2