##TITLE=Library Entry 86789
##JCAMP-DX=Revision 4.10 
##DATA TYPE=MASS SPECTRUM
##SAMPLE DESCRIPTION=J.E. WILKINSON S-CUBED, SAN DIEGO, CA.
##NAMES=HP
##CAS NAME=O,O-Dimethyl O-(2,4,5-trichloro)phenyl phosphate
##MOLFORM=C8H8Cl3O4P
##CAS REGISTRY NO=3983-45-7
##MP= -300
##BP= -300
##MW= 304
##$RETENTION INDEX=1827
##$CONDENSED SPECTRUM=NO
##NPOINTS= 92
##XYDATA=(XY..XY) 1 
    45          2
    47        137
    48          9
    49         17
    50         13
    51          0
    53          8
    60          2
    61         48
    62         95
    63         29
    65          2
    66          2
    71          1
    72         22
    73         35
    74         44
    75          6
    77          4
    78          1
    79        280
    80          0
    81          1
    83         27
    84         10
    85         19
    86          0
    87          2
    93         83
    95         10
    96         76
    97        154
    98         12
    99         44
   100          0
   107         49
   108         30
   109        999
   110         25
   111         14
   113          8
   115          0
   119          0
   131          4
   132          6
   133          9
   134          2
   135          1
   143          7
   144          1
   145          4
   146          0
   147          0
   148          0
   157          3
   159          1
   160          0
   161          0
   167         76
   168          0
   169         71
   171         17
   175          4
   177          2
   179          0
   181          0
   192          0
   194          0
   195         15
   196         18
   197         13
   198         15
   199          3
   200          1
   207          0
   209          0
   234          2
   254         36
   256         20
   258          3
   260          0
   269        504
   270         40
   271        326
   272         20
   273         48
   274          0
   304         33
   305          0
   306         32
   307          0
   308          5