##TITLE=Library Entry 50452
##JCAMP-DX=Revision 4.10 
##DATA TYPE=MASS SPECTRUM
##SAMPLE DESCRIPTION=S.A. Rang et al., IR & MS of Unsatd. Hydrocarbons, 1977
##NAMES=HP
##CAS NAME=Cyclohexene,1-(2-methylpropyl)-
##MOLFORM=C10H18
##CAS REGISTRY NO=3983-03-7
##MP= -300
##BP= -300
##MW= 138
##$RETENTION INDEX=1003
##$CONDENSED SPECTRUM=NO
##NPOINTS= 87
##XYDATA=(XY..XY) 1 
    25          1
    26         10
    27        222
    28         11
    29        120
    37          2
    38          7
    39        234
    40         45
    41        572
    42         38
    43        228
    44         11
    45          2
    46          0
    50          8
    51         43
    52         36
    53        198
    54        114
    55        331
    56         48
    57        132
    58          8
    59          1
    60          0
    61          0
    62          1
    63          9
    64          3
    65         78
    66         51
    67        782
    68        180
    69         45
    70         10
    71          3
    72          0
    73          1
    74          0
    75          4
    76          2
    77        168
    78         31
    79        252
    80        120
    81        999
    82        695
    83         50
    84          3
    85          1
    86          0
    89          2
    90          1
    91         78
    92         11
    93         96
    94         66
    95        956
    96        331
    97         30
    98          3
    99          3
   100          0
   101          0
   102          0
   103          3
   104          1
   105          6
   106          1
   107          7
   108          2
   109         16
   110         11
   111          1
   115          2
   116          0
   117          2
   121          2
   122          1
   123         72
   124          7
   136          1
   137          5
   138        313
   139         32
   140          1