##TITLE=Library Entry 50374
##JCAMP-DX=Revision 4.10 
##DATA TYPE=MASS SPECTRUM
##SAMPLE DESCRIPTION=S.A. Rang et al., IR & MS of Unsatd. Hydrocarbons, 1977
##NAMES=HP
##CAS NAME=Cyclohexene,3-propyl-
##MOLFORM=C9H16
##CAS REGISTRY NO=3983-06-0
##MP= -300
##BP= -300
##MW= 124
##$RETENTION INDEX=944
##$CONDENSED SPECTRUM=NO
##NPOINTS= 88
##XYDATA=(XY..XY) 1 
    15          3
    16          0
    24          0
    25          0
    26          6
    27        108
    28          7
    29         55
    30          1
    31          3
    37          1
    38          4
    39        155
    40         24
    41        257
    42         24
    43         29
    44          1
    45          1
    49          0
    50          6
    51         29
    52         17
    53        121
    54        115
    55        142
    56         11
    57         13
    58          2
    59          0
    60          0
    61          0
    62          1
    63          6
    64          1
    65         41
    66         29
    67        290
    68        101
    69         26
    70         26
    71          6
    72          0
    73          0
    74          0
    75          2
    76          1
    77         70
    78         16
    79        202
    80         65
    81        999
    82        421
    83         45
    84          7
    85          1
    86          1
    87          1
    88          0
    89          1
    90          0
    91         29
    92          3
    93         24
    94          8
    95        202
    96         81
    97         70
    98          8
    99          3
   100          0
   105          1
   106          0
   107          4
   108          0
   109         21
   110          5
   111          8
   112          3
   118          0
   119          0
   120          1
   121          1
   122          5
   123         11
   124        135
   125         12
   126          0