##TITLE=Library Entry 50375
##JCAMP-DX=Revision 4.10 
##DATA TYPE=MASS SPECTRUM
##SAMPLE DESCRIPTION=S.A. Rang et al., IR & MS of Unsatd. Hydrocarbons, 1977
##NAMES=HP
##CAS NAME=Cyclohexene,3-butyl-
##MOLFORM=C10H18
##CAS REGISTRY NO=3983-07-1
##MP= -300
##BP= -300
##MW= 138
##$RETENTION INDEX=1041
##$CONDENSED SPECTRUM=NO
##NPOINTS= 91
##XYDATA=(XY..XY) 1 
    25          1
    26         13
    27        142
    28         46
    29        117
    30          3
    31          3
    37          0
    38          3
    39        149
    40         20
    41        308
    42         18
    43         43
    44          5
    45          2
    50          5
    51         20
    52         15
    53        136
    54        108
    55        171
    56         15
    57         19
    58          5
    59          0
    60          1
    63          4
    64          1
    65         38
    66         34
    67        328
    68        118
    69         30
    70         38
    71          4
    72          0
    73          0
    74          0
    75          2
    76          0
    77         74
    78         16
    79        202
    80         67
    81        999
    82        332
    83         47
    84          8
    85          4
    86          0
    89          1
    90          0
    91         27
    92          2
    93         30
    94         12
    95        159
    96        291
    97        124
    98         12
    99          2
   100          0
   101          2
   102          0
   103          1
   104          0
   105          2
   106          1
   107          8
   108          2
   109         34
   110         17
   111         11
   112          2
   113          2
   114          0
   115          0
   121          1
   122          0
   123          4
   124          2
   125          3
   126          1
   134          1
   135          1
   136          6
   137         12
   138        119
   139         12
   140          2