##TITLE=Library Entry 97604
##JCAMP-DX=Revision 4.10 
##DATA TYPE=MASS SPECTRUM
##SAMPLE DESCRIPTION=M.-J.Bobenrieth ET AL,Org.Mass Spectr.,24,963(1989)
##NAMES=HP
##CAS NAME=Benzene, 1-(chloromethyl)-3-ethenyl-
##MOLFORM=C9H9Cl
##CAS REGISTRY NO=39833-65-3
##MP= -300
##BP= -300
##MW= 152
##$RETENTION INDEX=0
##$CONDENSED SPECTRUM=NO
##NPOINTS= 15
##XYDATA=(XY..XY) 1 
    39        122
    50         49
    51         78
    58         44
    63         87
    65         60
    89         51
    91        141
   102         23
   115        277
   116         72
   117        999
   118        105
   152        347
   154        112