##TITLE=Library Entry 6489
##JCAMP-DX=Revision 4.10 
##DATA TYPE=MASS SPECTRUM
##SAMPLE DESCRIPTION=J.VOTH UNIV. OF CALIFORNIA, DAVIS, CALIFORNIA, 95616, U
SA
##NAMES=HP
##CAS NAME=p-Dioxane, 2,5-dimethyl-3-methylene-
##MOLFORM=C7H12O2
##CAS REGISTRY NO=3984-21-2
##MP= -300
##BP= -300
##MW= 128
##$RETENTION INDEX=0
##$CONDENSED SPECTRUM=NO
##NPOINTS= 68
##XYDATA=(XY..XY) 1 
    12          4
    13         13
    14         84
    15        206
    16          6
    17          4
    18         15
    19          7
    25          4
    26         65
    27        319
    28        111
    29        201
    30         18
    31        107
    32          0
    37          8
    38         20
    39        272
    40         52
    41        314
    42        631
    43        999
    44         32
    45        111
    46          2
    47          1
    49          2
    50         12
    51         20
    52          5
    53        120
    54        276
    55        144
    56         24
    57         48
    58         53
    59         67
    60          2
    61          3
    65          1
    67         14
    68          1
    69         23
    70         42
    71         56
    72          4
    73         22
    74          1
    75          2
    81          2
    83         19
    84         10
    85         14
    86         16
    87         79
    88          4
    95          9
    99          5
   100          2
   101         70
   102          4
   113        167
   114         14
   115          1
   127         10
   128        112
   129          9