##TITLE=Library Entry 5675
##JCAMP-DX=Revision 4.10 
##DATA TYPE=MASS SPECTRUM
##SAMPLE DESCRIPTION=J.VOTH UNIV. OF CALIFORNIA, DAVIS, CALIFORNIA, 95616, U
SA
##NAMES=HP
##CAS NAME=p-Dioxane, methylene-
##MOLFORM=C5H8O2
##CAS REGISTRY NO=3984-19-8
##MP= -300
##BP= -300
##MW= 100
##$RETENTION INDEX=0
##$CONDENSED SPECTRUM=NO
##NPOINTS= 49
##XYDATA=(XY..XY) 1 
    12         17
    13         48
    14        191
    15        237
    16         10
    17          3
    18          4
    19         16
    24          4
    25          2
    26        183
    27        328
    28        595
    29        465
    30         49
    31        113
    32          0
    36          2
    37         25
    38         66
    39        351
    40        665
    41        141
    42        300
    43        999
    44        204
    45        178
    46          4
    52          2
    53         13
    54          5
    55         60
    56         36
    57         24
    58         16
    59          1
    69         20
    70         10
    71         29
    72         23
    73        214
    74          7
    81          2
    85          2
    98         17
    99        163
   100        452
   101         27
   102          2