##TITLE=Library Entry 98615
##JCAMP-DX=Revision 4.10 
##DATA TYPE=MASS SPECTRUM
##SAMPLE DESCRIPTION=Chemical Concepts
##NAMES=HP
##CAS NAME=Coumarin, 2-thio-
##MOLFORM=C9H6OS
##CAS REGISTRY NO=3986-98-9
##MP= -300
##BP= -300
##MW= 162
##$RETENTION INDEX=0
##$CONDENSED SPECTRUM=NO
##NPOINTS= 93
##XYDATA=(XY..XY) 1 
    26          3
    27          6
    29          0
    37          5
    38         13
    39         32
    40          3
    42          0
    43          0
    44          0
    45         21
    47          0
    49          2
    50         32
    51         41
    52          5
    53          5
    54          8
    55          0
    57          6
    58          6
    59          2
    60          0
    61          9
    62         22
    63         59
    64         10
    65          2
    66          8
    67         44
    68          2
    69         46
    70          3
    71          3
    72          1
    73          3
    74         22
    75         20
    76         14
    77         11
    78          0
    79          0
    80          0
    81         31
    82         18
    83          1
    84          4
    85          3
    86          4
    87          5
    88          2
    89        110
    90        153
    91         10
    92          0
    93         15
    94          2
    95          8
    96          0
    97          0
    98          3
    99          0
   100          0
   101         17
   102         19
   103          1
   104          0
   105          2
   106          4
   107          3
   108         29
   109          2
   110          1
   117          1
   118        999
   119         84
   120          4
   121          0
   129          0
   130          1
   131          0
   132          3
   133         18
   134         15
   135          1
   136          0
   144          1
   146          0
   161         23
   162        646
   163         65
   164         31
   165          2