##TITLE=Library Entry 60762
##JCAMP-DX=Revision 4.10 
##DATA TYPE=MASS SPECTRUM
##SAMPLE DESCRIPTION=Chemical Concepts
##NAMES=HP
##CAS NAME=2-Oxa-7-thiatricyclo[4.4.0.0(3,8)]decan-4-ol, 4-methylbenzenesulf
onate, stereoisomer (1-.alpha., 3-.alpha., 4-.beta., 6-.alpha., 8-.alpha.)-
##MOLFORM=C15H18O4S2
##CAS REGISTRY NO=39869-30-2
##MP= -300
##BP= -300
##MW= 326
##$RETENTION INDEX=0
##$CONDENSED SPECTRUM=NO
##NPOINTS= 196
##XYDATA=(XY..XY) 1 
    26         15
    27        238
    29        246
    30          9
    31         76
    33          3
    34          7
    35         26
    36          7
    37         11
    38         29
    39        353
    40         64
    41        552
    42         60
    43        161
    44         61
    45        368
    46         22
    47        184
    48         15
    49         41
    50         41
    51        112
    52         43
    53        216
    54         59
    55        279
    56         42
    57        116
    58         57
    59        124
    60         39
    61         69
    62         22
    63         89
    64         31
    65        466
    66         96
    67        327
    68         64
    69        118
    70         39
    71        114
    72         38
    73        151
    74         25
    75         41
    76         19
    77        199
    78         65
    79        339
    80         60
    81        521
    82        118
    83         95
    84         78
    85        237
    86         73
    87        225
    88         23
    89         98
    90         49
    91        999
    92        130
    93        113
    94         90
    95        132
    96         22
    97        837
    98        115
    99        306
   100         41
   101         62
   102         11
   103         47
   104         13
   105         18
   106          5
   107        168
   108         40
   109         85
   110        209
   111        187
   112         72
   113        554
   114         65
   115        149
   116         17
   117         13
   118          6
   119        382
   120         84
   121        215
   122         33
   123         53
   124         24
   125        175
   126         65
   127        190
   128         28
   129         32
   130          6
   131          9
   132          2
   133          4
   134          5
   135         66
   136         41
   137        128
   138         24
   139         36
   140          7
   141         17
   142         10
   143        109
   144         18
   145          7
   146          2
   147          4
   148          4
   149         11
   150          6
   151          4
   152          4
   153        321
   154        681
   155        339
   156         93
   157         30
   158          5
   159          2
   160          2
   161          3
   162          3
   163          4
   164          0
   165          3
   166          1
   167          2
   168          2
   169          3
   170          5
   171        307
   172         56
   173         26
   174          6
   175          4
   176          0
   177          4
   178          3
   179          2
   185          3
   186          1
   187          3
   188          6
   189          4
   190          4
   191          2
   192          2
   193          1
   194          0
   197          4
   198          2
   199          3
   200          1
   201          0
   202          0
   203          2
   204          3
   205          7
   206          4
   207          2
   217          0
   218          1
   219          1
   220          5
   221          2
   222          1
   223          1
   224          0
   225          0
   226          0
   227          1
   234          3
   235          1
   236          2
   250          3
   293          2
   297          3
   324          1
   325          1
   326        465
   327        113
   328         64
   329         32