##TITLE=Library Entry 7749
##JCAMP-DX=Revision 4.10 
##DATA TYPE=MASS SPECTRUM
##SAMPLE DESCRIPTION=Div. of Experiment Therapeutics WRAIR, WRAMC, Washingto
n DC 20307
##NAMES=HP
##CAS NAME=Cholesteryl disulfide
##MOLFORM=C54H90S2
##CAS REGISTRY NO=39879-87-3
##MP= -300
##BP= -300
##MW= 802
##$RETENTION INDEX=0
##$CONDENSED SPECTRUM=NO
##NPOINTS= 150
##XYDATA=(XY..XY) 1 
    41        450
    43        999
    44         40
    45          7
    47         28
    49         60
    51         26
    53         61
    55        633
    57        691
    58         20
    64         22
    65         34
    67        342
    69        473
    71        296
    73         21
    77        100
    79        296
    81        523
    83        245
    84         44
    85         45
    86         22
    87         13
    91        313
    93        353
    95        456
    97        160
    98          5
    99         45
   101         59
   103         32
   105        309
   107        239
   109        287
   111        131
   112          7
   113         48
   115         72
   117        104
   119        167
   120         28
   121        201
   123        141
   125         76
   126          5
   127         48
   128         13
   129         65
   131        105
   133        168
   135        211
   137        103
   138         18
   139         38
   140         47
   141         35
   143         86
   145        215
   147        285
   149        170
   151         73
   152         26
   153         27
   154         27
   155         16
   157         79
   159        203
   161        242
   162         17
   163         78
   165         48
   167         22
   171         44
   173         75
   175         95
   176          8
   177         36
   179         54
   181          7
   183          6
   185         44
   187         48
   188          6
   189         36
   190          7
   191         33
   193         76
   194          7
   197         13
   198          6
   199         22
   201         43
   203         22
   205         31
   207         18
   208          7
   212         15
   213         66
   215         78
   217         34
   219         36
   227          5
   228         16
   229         24
   230         23
   231         12
   233         39
   235          5
   241         13
   243         30
   245         12
   247        127
   248         46
   249         14
   253          7
   255         57
   257         26
   259          8
   260         13
   261         28
   262         21
   273         12
   275        115
   276          6
   287         41
   289         83
   291          6
   301         75
   302         13
   327          6
   353         46
   354          5
   355          6
   367         52
   368        100
   369        365
   370        130
   371         10
   385         20
   387        119
   388         34
   398         29
   399          5
   400        174
   401         23
   402        371
   403        102
   404         32