##TITLE=Library Entry 44397
##JCAMP-DX=Revision 4.10 
##DATA TYPE=MASS SPECTRUM
##SAMPLE DESCRIPTION=NIST Mass Spectrometry Data Center, 2012
##NAMES=HP
##CAS NAME=Pregn-5-en-20-one, 3,17-bis[(trimethylsilyl)oxy]-, O-methyloxime,
 (3.beta.)-
##MOLFORM=C28H51NO3Si2
##CAS REGISTRY NO=39876-70-5
##MP= -300
##BP= -300
##MW= 505
##$RETENTION INDEX=0
##$CONDENSED SPECTRUM=NO
##NPOINTS= 378
##XYDATA=(XY..XY) 1 
    15          2
    25          1
    26          1
    27          3
    28          2
    29         13
    30          3
    31          4
    38          3
    39          9
    40         10
    41         53
    42         43
    43         81
    44         50
    45         63
    46          4
    47         20
    48          1
    49          1
    50          1
    51          1
    52          1
    53         13
    54          4
    55         85
    56          9
    57          9
    58         12
    59         55
    60          7
    61         21
    62          2
    63          2
    65          7
    66          3
    67         53
    68          9
    69         20
    70         33
    71          6
    72         27
    73        999
    74         98
    75        311
    76         23
    77         45
    78          9
    79         79
    80         13
    81         92
    82         15
    83         11
    84         28
    85          9
    86          8
    87          5
    88          3
    89         68
    90          8
    91        141
    92         22
    93        106
    94         24
    95         52
    96         13
    97          9
    98          6
    99         15
   100         25
   101         26
   102          4
   103         31
   104         13
   105        156
   106         27
   107         74
   108         21
   109         25
   110          9
   111          5
   112          5
   113         28
   114         66
   115         55
   116         39
   117         88
   118         31
   119        123
   120         36
   121         49
   122         13
   123          9
   124          6
   125          3
   126          8
   127         14
   128         31
   129        310
   130         59
   131        119
   132         40
   133        100
   134         29
   135         22
   136         14
   137          4
   138          6
   139          3
   140          4
   141         29
   142         74
   143        101
   144         56
   145        124
   146         34
   147         73
   148         18
   149         11
   150          7
   151          5
   152          6
   153          8
   154         22
   155         42
   156        306
   157        124
   158        221
   159         96
   160         29
   161         15
   162         10
   163          4
   164          4
   165          9
   166          6
   167         15
   168         18
   169         58
   170        119
   171         64
   172        136
   173         41
   174         17
   175         26
   176          5
   177          3
   178          4
   179          7
   180          6
   181         23
   182         22
   183         33
   184         35
   185         37
   186         21
   187         38
   188        230
   189         36
   190         14
   191          2
   192          3
   193          7
   194          6
   195         22
   196         15
   197         30
   198         18
   199         22
   200         35
   201         10
   202          5
   203          2
   204          2
   205          2
   206          3
   207          1
   208          6
   209         12
   210         10
   211         29
   212         10
   213         23
   214         10
   215          4
   216          2
   217          1
   218          2
   219          3
   220          3
   221         10
   222          7
   223         11
   224          8
   225         16
   226          9
   227          9
   228          7
   229          2
   230          4
   231          4
   232          2
   233          4
   234          3
   235          8
   236          6
   237         21
   238         10
   239         34
   240         13
   241          3
   242          2
   243          1
   244          1
   245          2
   246          1
   247          3
   248          3
   249          4
   250          4
   251         11
   252         17
   253         57
   254         15
   255          5
   256          2
   257          1
   258          1
   259          1
   260          1
   261          2
   262          3
   263          3
   264          4
   265          3
   266         22
   267          5
   268          2
   269          2
   270          7
   271          3
   272          1
   273          2
   274          1
   275          1
   276          1
   277         18
   278         13
   279          5
   280          4
   281          1
   282          1
   283          1
   284          2
   285          3
   286          6
   287          4
   288          2
   289          3
   290          1
   291          1
   292          4
   293          6
   294        119
   295         28
   296          5
   297          1
   298          2
   299          2
   300          1
   301          5
   302          2
   303          6
   304          7
   305          2
   306          1
   310         19
   311          6
   312          2
   313          2
   314          2
   315          1
   316          2
   317          4
   318          2
   319          1
   324          6
   325          9
   326          8
   327         18
   328          6
   329          8
   330          5
   331          1
   332          1
   339          1
   340          1
   341          8
   342         12
   343         10
   344          8
   345          9
   346          3
   347          1
   353          1
   354          2
   355          1
   356         77
   357         22
   358          7
   359          2
   360          6
   361          5
   362        162
   363         48
   364         12
   365          2
   366          1
   367          9
   368          9
   369          4
   370          3
   371          1
   372          1
   374          1
   376          1
   382          4
   383          4
   384        175
   385         56
   386         20
   387          5
   388          1
   400         66
   401         20
   402          6
   403          2
   404          1
   414          3
   415         16
   416          7
   417         24
   418         12
   419          5
   420          1
   430          1
   431          2
   432         28
   433         16
   434          6
   435          2
   444          1
   445          2
   446          3
   447          1
   457          1
   458          6
   459          3
   460          2
   461          1
   472          2
   473          4
   474        933
   475        368
   476        130
   477         30
   478          6
   479          1
   490         53
   491         21
   492          8
   493          2
   504          3
   505        118
   506         48
   507         18
   508          5
   509          1