##TITLE=Library Entry 16830
##JCAMP-DX=Revision 4.10 
##DATA TYPE=MASS SPECTRUM
##SAMPLE DESCRIPTION=S.YANAGIDA DEPT. CHEM., TEMPLE UNIV., PHILADELPHIA, PA.
, USA
##NAMES=HP
##CAS NAME=Methanamine, 1-methoxy-N-methyl-N-nitroso-
##MOLFORM=C3H8N2O2
##CAS REGISTRY NO=39885-14-8
##MP= -300
##BP= -300
##MW= 104
##$RETENTION INDEX=0
##$CONDENSED SPECTRUM=NO
##NPOINTS= 19
##XYDATA=(XY..XY) 1 
    29        130
    30        110
    31          8
    33          7
    40         20
    41         31
    42        295
    43        521
    44         18
    45        999
    46         18
    47          1
    55          3
    62          8
    67          7
    73        126
    75         10
   104         95
   105          3