##TITLE=Library Entry 6838
##JCAMP-DX=Revision 4.10 
##DATA TYPE=MASS SPECTRUM
##SAMPLE DESCRIPTION=J.E. SAAVEDRA, NCI-FREDERICK CANCER RES. FAC., MD., USA
##NAMES=HP
##CAS NAME=N-Nitroso-2-methyl-oxazolidine
##MOLFORM=C4H8N2O2
##CAS REGISTRY NO=39884-53-2
##MP= -300
##BP= -300
##MW= 116
##$RETENTION INDEX=0
##$CONDENSED SPECTRUM=NO
##NPOINTS= 46
##XYDATA=(XY..XY) 1 
    35         12
    36         24
    38         20
    39         45
    40        188
    41        268
    42        325
    43        999
    44        325
    45        350
    46         23
    47         17
    49         32
    50         17
    51         42
    52         14
    53         12
    54         47
    55        130
    56        260
    57         44
    58         43
    59         10
    61         19
    63         17
    69         20
    70         68
    71         31
    72        284
    73         25
    74         10
    77         11
    79         11
    80         19
    81         10
    82          7
    84         24
    85         26
    89         10
    90         13
    91         23
   101         29
   102          3
   115          6
   116        166
   117         12