##TITLE=Library Entry 96769
##JCAMP-DX=Revision 4.10 
##DATA TYPE=MASS SPECTRUM
##SAMPLE DESCRIPTION=AP-2124
##NAMES=HP
##CAS NAME=Thiophene, 2-(butylthio)-
##MOLFORM=C8H12S2
##CAS REGISTRY NO=3988-71-4
##MP= -300
##BP= -300
##MW= 172
##$RETENTION INDEX=1290
##$CONDENSED SPECTRUM=NO
##NPOINTS= 104
##XYDATA=(XY..XY) 1 
    13          0
    14          2
    15         18
    16          0
    24          0
    25          0
    26         19
    27        195
    28         34
    29        299
    30         12
    31          0
    32          3
    33          1
    34          2
    35          1
    36          0
    37          6
    38         36
    39        210
    40         15
    41        265
    42         11
    43          4
    44          4
    45        202
    46         13
    47         14
    48          0
    49          2
    50          9
    51         12
    52          4
    53         17
    54          3
    55         27
    56          6
    57        201
    58         43
    59         12
    60          5
    61          1
    62          0
    63          1
    64          3
    65          3
    66          1
    67          0
    68          2
    69          5
    70          1
    71          3
    72          2
    73          1
    76          6
    77          4
    78          2
    79          0
    80          0
    81         13
    82         31
    83          9
   103          1
   105          0
   108          0
   109          1
   110          1
   111          4
   112          1
   113          0
   114          6
   115         77
   116        999
   117         65
   118         83
   119          4
   120          2
   121          0
   122          0
   123          0
   124          0
   125          0
   127          1
   128          0
   129         27
   131          2
   132          0
   137          0
   138          0
   139          0
   140          0
   141          1
   142          0
   143          2
   144          0
   145          0
   155          0
   157          0
   171          0
   172        336
   173         34
   174         29
   175          2
   176          0