##TITLE=Library Entry 72061
##JCAMP-DX=Revision 4.10 
##DATA TYPE=MASS SPECTRUM
##SAMPLE DESCRIPTION=Japan AIST/NIMC Database- Spectrum MS-NW-8210
##NAMES=HP
##CAS NAME=N-Isopropyl-1-piperazineacetamide
##MOLFORM=C9H19N3O
##CAS REGISTRY NO=39890-42-1
##MP= -300
##BP= -300
##MW= 185
##$RETENTION INDEX=0
##$CONDENSED SPECTRUM=NO
##NPOINTS= 53
##XYDATA=(XY..XY) 1 
    15          8
    27          9
    28         35
    29         16
    30         25
    39          3
    40          1
    41         22
    42         56
    43         39
    44         84
    45          2
    49          1
    54          5
    55          8
    56        228
    57         29
    58         34
    59          4
    60          5
    68          7
    69         10
    70        126
    71         13
    72         33
    73          4
    82          3
    83          7
    84         30
    85         50
    86         11
    87          4
    97         21
    98          7
    99        999
   100         64
   101          6
   113          1
   116          2
   117         61
   118          4
   127          7
   128          1
   129         10
   142         14
   143        110
   144          9
   155          8
   156         15
   157          1
   168          7
   185         29
   186          9