##TITLE=Library Entry 72595
##JCAMP-DX=Revision 4.10 
##DATA TYPE=MASS SPECTRUM
##SAMPLE DESCRIPTION=Japan AIST/NIMC Database- Spectrum MS-IW-1222
##NAMES=HP
##CAS NAME=1-Pyrrolidinocarbonylmethyl piperazine
##MOLFORM=C10H19N3O
##CAS REGISTRY NO=39890-45-4
##MP= -300
##BP= -300
##MW= 197
##$RETENTION INDEX=0
##$CONDENSED SPECTRUM=NO
##NPOINTS= 70
##XYDATA=(XY..XY) 1 
    15          9
    27          8
    28         35
    29         16
    30         16
    39          4
    40          2
    41         20
    42         53
    43         34
    44         59
    45          1
    53          1
    54          6
    55         24
    56        189
    57         16
    58         22
    59          1
    67          1
    68          9
    69          9
    70        162
    71         19
    72         15
    81          1
    82          6
    83         15
    84         91
    85         84
    86          5
    95          1
    96          2
    97         36
    98         20
    99        999
   100         66
   101          1
   111         13
   112          9
   113         37
   114          5
   125          2
   126          1
   127          3
   128          8
   129        235
   130         17
   131          1
   137          1
   139          1
   140          1
   141         41
   142          4
   153          5
   154         41
   155        282
   156         26
   157          1
   167         46
   168         54
   169          6
   180         67
   181          8
   182          1
   195          1
   196          3
   197         68
   198         36
   199          4