##TITLE=Library Entry 61675
##JCAMP-DX=Revision 4.10 
##DATA TYPE=MASS SPECTRUM
##SAMPLE DESCRIPTION=J.T. CLERC, ORGANIC CHEM. LAB., ETH, ZURICH, SWITZ.
##NAMES=HP
##CAS NAME=3-Benzofurancarboxylic acid, 2,3-dihydro-
##MOLFORM=C9H8O3
##CAS REGISTRY NO=39891-55-9
##MP= -300
##BP= -300
##MW= 164
##$RETENTION INDEX=0
##$CONDENSED SPECTRUM=NO
##NPOINTS= 48
##XYDATA=(XY..XY) 1 
    26         15
    27         62
    28         31
    29         41
    37         15
    38         62
    39        208
    40         20
    41         93
    42         20
    43         72
    45         67
    49         41
    50         67
    51         31
    52         31
    53         10
    54         41
    55         10
    56         20
    61         20
    62         62
    63        151
    64         41
    65        208
    66         20
    67         15
    69         20
    70         10
    74         10
    75         10
    77         31
    78         10
    79         10
    81         20
    82         10
    83         10
    89        114
    90         67
    91        999
    92         98
   118         46
   119        791
   120         78
   123         15
   125          5
   164        239
   165         36