##TITLE=Library Entry 81078
##JCAMP-DX=Revision 4.10 
##DATA TYPE=MASS SPECTRUM
##SAMPLE DESCRIPTION=Chemical Concepts
##NAMES=HP
##CAS NAME=3-Benzofurancarboxaldehyde, 2,3-dihydro-3-methyl-
##MOLFORM=C10H10O2
##CAS REGISTRY NO=39891-60-6
##MP= -300
##BP= -300
##MW= 162
##$RETENTION INDEX=0
##$CONDENSED SPECTRUM=NO
##NPOINTS= 94
##XYDATA=(XY..XY) 1 
    25          1
    26         12
    27         83
    28         12
    29        112
    30          4
    31          3
    37         14
    38         31
    39        129
    40         12
    41         20
    42          3
    43         23
    44          3
    45          4
    49          6
    50         69
    51        137
    52         38
    53         37
    54          4
    55         19
    56          2
    57          3
    59          2
    60          3
    61         14
    62         40
    63         94
    64         24
    65         55
    66         12
    67          4
    68          2
    69          3
    70          2
    71          1
    72          1
    73          7
    74         21
    75         28
    76         23
    77        257
    78         64
    79        210
    80         17
    81          4
    82          2
    83          4
    84          2
    85          4
    86          7
    87          9
    88          5
    89         67
    90         51
    91         50
    92          7
    93          2
    94          6
    95          2
    96          1
    97          2
    98         11
    99          3
   101          6
   102         23
   103        120
   104         24
   105        999
   106         91
   107         11
   108          1
   113          1
   114          1
   115         18
   116          3
   117          1
   118         30
   119         11
   120          1
   121          2
   122          1
   125          1
   131         62
   132         21
   133        930
   134         96
   135         11
   136          2
   162        170
   163         20
   164          3