##TITLE=Library Entry 62652
##JCAMP-DX=Revision 4.10 
##DATA TYPE=MASS SPECTRUM
##SAMPLE DESCRIPTION=Chemical Concepts
##NAMES=HP
##CAS NAME=Butanoic acid, 4-bromo-2-[[(4-methylphenyl)sulfonyl]amino]-, ethy
l ester, (S)-
##MOLFORM=C13H18BrNO4S
##CAS REGISTRY NO=39897-12-6
##MP= -300
##BP= -300
##MW= 363
##$RETENTION INDEX=0
##$CONDENSED SPECTRUM=NO
##NPOINTS= 163
##XYDATA=(XY..XY) 1 
    26          5
    27         64
    28        108
    29         71
    30          8
    31          5
    33          3
    38          5
    39         76
    40          8
    41         40
    42          6
    43          6
    44          1
    45          7
    46          1
    48          1
    50         13
    51         31
    52         12
    53          7
    54         17
    55         12
    56         60
    57          7
    58          1
    59         12
    60          2
    61          1
    62         10
    63         48
    64         18
    65        237
    66         16
    67          6
    68          2
    69          3
    70          2
    71          2
    72          1
    73          2
    74          6
    75          4
    76          5
    77         20
    78          7
    79          9
    80          2
    81          1
    82          1
    83          4
    84          3
    85          2
    86          2
    87          4
    88         12
    89         65
    90         63
    91        999
    92        132
    93          8
    94          1
    95          2
    96          1
    97          1
    98          1
    99          0
   100          1
   101          1
   102          8
   103          2
   104          1
   105          6
   106          4
   107         13
   108          7
   109          9
   110          1
   111          3
   112          1
   113          1
   114          1
   115          1
   116          1
   117          3
   118          8
   119          3
   120          4
   121          3
   122          2
   123          4
   124          1
   125          1
   128          1
   129          1
   130          3
   131          3
   132          9
   133          6
   134          4
   135          1
   136         12
   137          2
   138          9
   139         38
   140          5
   141          2
   142          1
   143          1
   144          2
   145          1
   146          5
   147          3
   148          1
   149          6
   150          1
   155        749
   156         88
   157         58
   158          5
   159          1
   165          1
   166          1
   167          6
   168          1
   169          1
   170          1
   171          1
   172          1
   182          2
   183          1
   184          1
   210         12
   211          2
   212          2
   213          1
   214          0
   223          1
   224          1
   225          1
   226          2
   227          1
   228          1
   242          6
   243          1
   244          1
   256          6
   257          1
   258          0
   270          1
   283          1
   284          1
   290        445
   291         67
   292        436
   293         69
   294         30
   295          3
   296          1
   363          0
   364          0
   365          0
   366          0