##TITLE=Library Entry 21337
##JCAMP-DX=Revision 4.10 
##DATA TYPE=MASS SPECTRUM
##SAMPLE DESCRIPTION=CARL DJERASSI DEPT OF CHEM STANFORD UNIV STANFORD CALIF
 94305
##NAMES=HP
##CAS NAME=3-Hepten-2-one, 3-methyl-
##MOLFORM=C8H14O
##CAS REGISTRY NO=39899-08-6
##MP= -300
##BP= -300
##MW= 126
##$RETENTION INDEX=0
##$CONDENSED SPECTRUM=NO
##NPOINTS= 38
##XYDATA=(XY..XY) 1 
    41        400
    42         40
    43        790
    44         10
    45         10
    50         10
    51         20
    52         20
    53         60
    54         20
    55        999
    56         70
    57         10
    65         10
    66         10
    67         50
    68         10
    69        150
    70         20
    71         20
    72         30
    77         20
    79         10
    81         20
    82         10
    83        170
    84         10
    85         60
    93         20
    95         10
    97         70
    98         10
   109         10
   111        810
   112         60
   125         10
   126        760
   127         70