##TITLE=Library Entry 87967
##JCAMP-DX=Revision 4.10 
##DATA TYPE=MASS SPECTRUM
##SAMPLE DESCRIPTION=Chuck Anderson, Aldrich Chemical Co.
##NAMES=HP
##CAS NAME=Acetamide, N-(2-fluorophenyl)-
##MOLFORM=C8H8FNO
##CAS REGISTRY NO=399-31-5
##MP= -300
##BP= -300
##MW= 153
##$RETENTION INDEX=0
##$CONDENSED SPECTRUM=NO
##NPOINTS= 81
##XYDATA=(XY..XY) 1 
    13          0
    14          4
    15         28
    16          0
    17          0
    26          1
    27          3
    28          8
    29          1
    31          7
    32          0
    33          2
    37          3
    38          6
    39         11
    40          2
    41          8
    42          6
    43        154
    44          3
    45          2
    46          0
    49          2
    50          5
    51          6
    52          9
    53          0
    54          1
    55          0
    56          3
    57         39
    58          2
    59          0
    61          3
    62          3
    63         18
    64         24
    65          6
    66          0
    67          0
    68          2
    69          3
    70          2
    72          1
    74          2
    75         12
    76          1
    77          7
    78          1
    80          1
    81         11
    82          4
    83         86
    84         69
    85          5
    88          0
    89          2
    90          5
    91         47
    92          4
    93          0
    94          3
    95          6
    96          2
    97          0
   102          1
   108          1
   109          7
   110          2
   111        999
   112         45
   113          1
   122          1
   123          0
   124          4
   137          3
   138          3
   152          0
   153        132
   154          7
   155          0