##TITLE=Library Entry 85575
##JCAMP-DX=Revision 4.10 
##DATA TYPE=MASS SPECTRUM
##SAMPLE DESCRIPTION=NIST Mass Spectrometry Data Center, 1994
##NAMES=HP
##CAS NAME=Benzenamine, 4-(octyloxy)-
##MOLFORM=C14H23NO
##CAS REGISTRY NO=39905-45-8
##MP= -300
##BP= -300
##MW= 221
##$RETENTION INDEX=0
##$CONDENSED SPECTRUM=NO
##NPOINTS= 69
##XYDATA=(XY..XY) 1 
    12          0
    14          0
    15          5
    16          0
    17          1
    18          2
    26          8
    27        101
    28         47
    29        140
    30          7
    37          1
    38          5
    39         66
    40          1
    41        187
    42         27
    43        103
    44          4
    50          3
    51         10
    52         31
    53         75
    54         23
    55         43
    56          6
    57         23
    58          1
    61          0
    62          1
    63          8
    64          8
    65         47
    66          8
    67          5
    68          3
    69         13
    70          1
    71          6
    72          0
    77          6
    78          4
    80        148
    81         31
    82          5
    83          1
    90          1
    91          4
    92         26
    93          7
    94         18
    95          1
   104          0
   106          3
   108        153
   109        999
   110         74
   111          4
   118          0
   120          1
   122         12
   123          1
   135          3
   136          0
   149          1
   163          0
   221         79
   222         12
   223          0