##TITLE=Library Entry 20024
##JCAMP-DX=Revision 4.10 
##DATA TYPE=MASS SPECTRUM
##SAMPLE DESCRIPTION=NIST Mass Spectrometry Data Center, 1990.
##NAMES=HP
##CAS NAME=Methallylcyclohexane
##MOLFORM=C10H18
##CAS REGISTRY NO=3990-93-0
##MP= -300
##BP= -300
##MW= 138
##$RETENTION INDEX=0
##$CONDENSED SPECTRUM=NO
##NPOINTS= 40
##XYDATA=(XY..XY) 1 
    26         16
    27        174
    28         74
    29        161
    39        315
    40         63
    41        495
    42         32
    43         32
    50         15
    51         44
    52         26
    53        132
    54        153
    55        999
    56        126
    57        393
    58         18
    63         10
    65         44
    67        648
    68         58
    69         30
    70         10
    77         52
    78         12
    79         86
    80        266
    81        182
    82        537
    83        302
    84         18
    91         19
    93         12
    94          8
    95         58
    96         23
   123         23
   138         81
   139          9