##TITLE=Library Entry 86650
##JCAMP-DX=Revision 4.10 
##DATA TYPE=MASS SPECTRUM
##SAMPLE DESCRIPTION=Japan AIST/NIMC Database- Spectrum MS-IW- 740
##NAMES=HP
##CAS NAME=Benzenamine, 4-(hexyloxy)-
##MOLFORM=C12H19NO
##CAS REGISTRY NO=39905-57-2
##MP= -300
##BP= -300
##MW= 193
##$RETENTION INDEX=0
##$CONDENSED SPECTRUM=NO
##NPOINTS= 71
##XYDATA=(XY..XY) 1 
    26          1
    27         16
    28         15
    29         19
    30          1
    31          7
    38          1
    39         15
    40          1
    41         45
    42         22
    43         67
    44          3
    45          2
    47          1
    50          1
    51          2
    52          7
    53         18
    54          6
    55         33
    56         44
    57          9
    59          1
    60          3
    63          3
    64          3
    65         19
    66          3
    67          3
    68          2
    69         15
    70          2
    71          1
    72          1
    73          2
    75          1
    77          4
    78          1
    79          3
    80         55
    81         25
    82          6
    83          3
    84          4
    85          2
    91          3
    92         12
    93          4
    94         11
    95          2
   103          2
   106          6
   107          2
   108         99
   109        999
   110         73
   111          4
   120          1
   121          1
   122          8
   123          1
   135          2
   137          1
   151          2
   165          4
   166          1
   190          1
   193        292
   194         40
   195          3