##TITLE=Library Entry 85577
##JCAMP-DX=Revision 4.10 
##DATA TYPE=MASS SPECTRUM
##SAMPLE DESCRIPTION=NIST Mass Spectrometry Data Center, 1994
##NAMES=HP
##CAS NAME=p-Decyloxyaniline
##MOLFORM=C16H27NO
##CAS REGISTRY NO=39905-47-0
##MP= -300
##BP= -300
##MW= 249
##$RETENTION INDEX=0
##$CONDENSED SPECTRUM=NO
##NPOINTS= 65
##XYDATA=(XY..XY) 1 
     4          0
    15          1
    17          0
    18          3
    26          2
    27         52
    28         23
    29         98
    30          4
    39         39
    41        141
    42         21
    43         94
    44          3
    50          1
    51          4
    52         14
    53         41
    54         13
    55         53
    56          6
    57         24
    58          1
    62          1
    63          3
    64          4
    65         29
    66          4
    67          5
    68          2
    69         12
    70          1
    71          3
    77          5
    78          2
    80         92
    81         21
    82          4
    83          4
    85          2
    90          0
    91          3
    92         18
    93          6
    94         16
    95          1
    97          1
   106          2
   108        120
   109        999
   110         78
   111          5
   119          0
   120          1
   121          0
   122         12
   123          1
   135          3
   136          0
   149          1
   163          0
   177          1
   249         81
   250         15
   251          1