##TITLE=Library Entry 86116
##JCAMP-DX=Revision 4.10 
##DATA TYPE=MASS SPECTRUM
##SAMPLE DESCRIPTION=NIST Mass Spectrometry Data Center, 1994
##NAMES=HP
##CAS NAME=4-Pentyloxyaniline
##MOLFORM=C11H17NO
##CAS REGISTRY NO=39905-50-5
##MP= -300
##BP= -300
##MW= 179
##$RETENTION INDEX=0
##$CONDENSED SPECTRUM=NO
##NPOINTS= 70
##XYDATA=(XY..XY) 1 
    15          3
    24          2
    25          0
    26         13
    27         93
    28         44
    29         82
    30          7
    31          1
    32          1
    37          3
    38         10
    39         60
    40          9
    41         75
    42         16
    43         53
    44          2
    45          1
    47          0
    49          0
    50          6
    51         14
    52         47
    53         92
    54         27
    55         14
    56          2
    58          0
    60          1
    61          1
    62          4
    63         12
    64         15
    65         55
    66         10
    67          3
    68          5
    69          3
    70          1
    71          0
    76          1
    77          6
    78          4
    79          0
    80        197
    81         46
    82          8
    91          7
    92         30
    93          7
    94         15
    95          1
   104          0
   105          1
   106          5
   107          0
   108        201
   109        999
   110         73
   111          5
   120          1
   122          9
   123          1
   135          2
   149          1
   150          1
   179        142
   180         20
   181          1