##TITLE=Library Entry 65133
##JCAMP-DX=Revision 4.10 
##DATA TYPE=MASS SPECTRUM
##SAMPLE DESCRIPTION=NIST Mass Spectrometry Data Center, 1990.
##NAMES=HP
##CAS NAME=Benzene, (2-methylpentyl)-
##MOLFORM=C12H18
##CAS REGISTRY NO=39916-61-5
##MP= -300
##BP= -300
##MW= 162
##$RETENTION INDEX=1194
##$CONDENSED SPECTRUM=NO
##NPOINTS= 48
##XYDATA=(XY..XY) 1 
    14          9
    27         82
    28         42
    29         66
    32         12
    39        133
    40         19
    41        145
    42         12
    43        362
    44         15
    50         23
    51         73
    52         19
    53         19
    54         15
    55         64
    56          8
    62         11
    63         50
    65        219
    66         13
    69          8
    70         62
    71        155
    72          8
    74          8
    75          7
    76         11
    77         69
    78         42
    79         19
    89         44
    91        825
    92        999
    93         81
   102          9
   103         23
   104         24
   105         21
   115         55
   116         16
   117         48
   118         13
   119         10
   128          7
   162        191
   163         25