##TITLE=Library Entry 20056
##JCAMP-DX=Revision 4.10 
##DATA TYPE=MASS SPECTRUM
##SAMPLE DESCRIPTION=A. A. POLYAKOVA MOSCOW LOMONOSOV STATE UNIV., MOSCOW, U
SSR
##NAMES=HP
##CAS NAME=1-Heptene, 1,1,7-trichloro-
##MOLFORM=C7H11Cl3
##CAS REGISTRY NO=3993-94-0
##MP= -300
##BP= -300
##MW= 200
##$RETENTION INDEX=0
##$CONDENSED SPECTRUM=NO
##NPOINTS= 96
##XYDATA=(XY..XY) 1 
    26         39
    27        300
    28        206
    29        312
    30          7
    35         44
    36        214
    37         21
    38         73
    39        300
    41        270
    42        312
    43         27
    49        107
    50         26
    51        136
    52         21
    53         98
    54         45
    55        999
    56         56
    60         13
    61         47
    62         43
    63        128
    64         17
    65         81
    66         31
    67        124
    68        570
    69        167
    70         12
    72          3
    73         60
    74         13
    75        107
    76         44
    77         44
    78         16
    79         21
    81         36
    82          6
    83         77
    84          5
    85         80
    86          6
    87         81
    88         19
    89         43
    90         14
    91        368
    92         21
    93        128
    94          1
    96         47
    97          6
    98         28
    99         20
   100          9
   101         26
   102         29
   103         19
   104        410
   105         30
   106        107
   107         12
   109        282
   110         38
   111        256
   112         23
   113         43
   114         12
   117         26
   122         94
   123         27
   124         64
   125         19
   126          9
   129         47
   131          5
   135          1
   136          1
   137          1
   138          2
   140          1
   145          2
   147          2
   149          0
   151          0
   164          3
   165          0
   166          2
   167          0
   200        124
   202        122
   204         35