##TITLE=Library Entry 52961
##JCAMP-DX=Revision 4.10 
##DATA TYPE=MASS SPECTRUM
##SAMPLE DESCRIPTION=Exported from NIST MS Search
##NAMES=HP
##CAS NAME=Benzoic acid, 4-(tetrahydro-5,5,7,7-tetramethyl-2-oxopyrrolo[1,2-
b][1,2,4]oxadiazol-1(2H)-yl)-, ethyl ester
##MOLFORM=C18H24N2O4
##CAS REGISTRY NO=39931-32-3
##MP= -300
##BP= -300
##MW= 332
##$RETENTION INDEX=0
##$CONDENSED SPECTRUM=NO
##NPOINTS= 22
##XYDATA=(XY..XY) 1 
    58        190
    63        160
    65        140
    69        350
    83        999
    84        130
    85        120
    90        350
    98        999
   110        110
   118        200
   121        120
   126        260
   141        200
   146        729
   147        120
   163        230
   176        170
   191        190
   273        110
   288         50
   332         40