##TITLE=Library Entry 59634
##JCAMP-DX=Revision 4.10 
##DATA TYPE=MASS SPECTRUM
##SAMPLE DESCRIPTION=Div. of Experiment Therapeutics WRAIR, WRAMC, Washingto
n DC 20307
##NAMES=HP
##CAS NAME=8-Bromo-2'-O-P-toluenesulfonyladenosine cyclic 3',5'-phosphate
##MOLFORM=C17H17BrN5O8PS
##CAS REGISTRY NO=39947-15-4
##MP= -300
##BP= -300
##MW= 561
##$RETENTION INDEX=0
##$CONDENSED SPECTRUM=NO
##NPOINTS= 232
##XYDATA=(XY..XY) 1 
    41        112
    42        318
    43        194
    44        341
    45        253
    46          6
    47         41
    48        105
    49         64
    50        193
    51        286
    52        130
    53        351
    54        208
    55         71
    56         11
    57         23
    58         17
    59          7
    60          9
    61         38
    62        130
    63        377
    64        179
    65        856
    66        105
    67         59
    68         38
    69         88
    70         24
    71         26
    72          3
    73         11
    74         43
    75         33
    76         27
    77        381
    78         82
    79        456
    80        668
    81        457
    82        663
    83         30
    84         46
    85         26
    86         48
    87         21
    88          3
    89        157
    90        107
    91        999
    92        149
    93         32
    94         16
    95         31
    96        251
    97         56
    98         31
    99          7
   101          2
   102          0
   103          2
   104          5
   105         17
   106         56
   107        491
   108        275
   109         22
   110          3
   111          5
   112         10
   113          2
   114          2
   115          7
   116          2
   117         10
   118          5
   119         10
   120          3
   121         30
   122         18
   123        228
   124        139
   125         23
   126          8
   127          2
   128          3
   129          3
   130          1
   131         20
   132          3
   133         26
   134          7
   135         51
   136         10
   137          6
   138          1
   139         14
   140          3
   141          2
   142          5
   143          2
   144          6
   145          7
   146          9
   147          5
   148          5
   149          3
   150          2
   151         71
   152         12
   153          3
   154          5
   155        140
   156         17
   157         10
   158         12
   159         51
   160         12
   161         51
   162          7
   163          3
   164          1
   165          3
   166          0
   167          4
   169          8
   170          3
   171          7
   172        408
   173         65
   174         31
   175         11
   176          9
   177          6
   178          3
   179          0
   180          0
   181          1
   182          9
   183          1
   184          1
   185          7
   186         73
   187          8
   188         65
   189          4
   191          1
   192          2
   193          1
   196          3
   197          3
   198          6
   199          2
   200          1
   201          2
   202          1
   203          1
   204          3
   211          0
   212          1
   213        196
   214         31
   215        213
   216         28
   217          3
   218          1
   219          0
   220          0
   226          1
   228          1
   229          2
   230          2
   231          1
   238          5
   239          2
   240          6
   242          5
   244          1
   245          1
   246        120
   247         22
   248         13
   249          1
   251        110
   252         17
   253          8
   254          2
   256          0
   257          1
   264          0
   266          3
   267          1
   268          5
   269          1
   278          1
   280          1
   282          4
   283          0
   284          3
   292          4
   293          2
   294          5
   295          2
   304          0
   306          1
   308         16
   309          4
   310         12
   311          2
   326          0
   330         13
   331          2
   332         10
   333          3
   334          1
   346          3
   347          1
   348          0
   368          1
   370          1
   371          3
   372          1
   373          5
   374          4
   375          4
   376          1
   388          1
   390          1
   464          0
   465          0
   466          1