##TITLE=Library Entry 67291
##JCAMP-DX=Revision 4.10 
##DATA TYPE=MASS SPECTRUM
##SAMPLE DESCRIPTION=NIST Mass Spectrometry Data Center
##NAMES=HP
##CAS NAME=6-(.alpha.-Methylbutyryloxy)-3-tigloyloxytropane
##MOLFORM=C18H29NO4
##CAS REGISTRY NO=39972-72-0
##MP= -300
##BP= -300
##MW= 323
##$RETENTION INDEX=2475
##$CONDENSED SPECTRUM=NO
##NPOINTS= 98
##XYDATA=(XY..XY) 1 
    26          1
    27         15
    28          5
    29         37
    30          5
    38          1
    39         25
    40          5
    41         69
    42         83
    43         48
    44          9
    51          4
    53         27
    54         16
    55        142
    56         23
    57        112
    58          6
    65          7
    66          9
    67         43
    68         34
    70         12
    71         31
    72          3
    79         18
    80         23
    81         94
    82        100
    83        124
    84         17
    85         37
    86          6
    93         23
    94        999
    95        891
    96        144
    97         16
    98         34
    99          8
   107         25
   108         27
   109         17
   110         26
   111         10
   112         21
   113         12
   120         20
   121         93
   122        568
   123         49
   124         11
   125         20
   126          6
   127         12
   136         10
   138        116
   139         14
   140         15
   144          3
   149         10
   150          7
   155         12
   156         16
   169          3
   177          6
   180          4
   184          2
   188          4
   189          5
   194          5
   195         18
   206         11
   208          7
   209          4
   221          6
   222         37
   223         37
   224        160
   225         27
   238          6
   239         24
   240         59
   241          7
   243          1
   248          4
   263          3
   273          3
   281          3
   306         13
   307          3
   308         19
   309          3
   322          3
   323         78
   324         17
   325          3