##TITLE=Library Entry 902
##JCAMP-DX=Revision 4.10 
##DATA TYPE=MASS SPECTRUM
##SAMPLE DESCRIPTION=NIST Mass Spectrometry Data Center, 1994
##NAMES=HP
##CAS NAME=3,5-Dichlorobenzylamine
##MOLFORM=C7H7Cl2N
##CAS REGISTRY NO=39989-43-0
##MP= -300
##BP= -300
##MW= 175
##$RETENTION INDEX=0
##$CONDENSED SPECTRUM=NO
##NPOINTS= 106
##XYDATA=(XY..XY) 1 
    16          5
    17          9
    18          5
    25          3
    26          3
    28        651
    29        202
    30        999
    35         14
    36         14
    37         41
    38         47
    39         36
    40          3
    41          2
    42          1
    44          0
    47          7
    48          4
    49         29
    50        125
    51        106
    52        107
    53          7
    54         15
    55          2
    56          1
    57          1
    60         15
    61         32
    62         46
    63         50
    64          9
    65          6
    66          4
    70         33
    72         12
    73         64
    74        115
    75        161
    76         36
    77        112
    78         27
    79          3
    83          3
    84         30
    85         34
    86         26
    87         34
    88         14
    89         26
    90          2
    96          3
    97         14
    98          3
    99         11
   100          8
   101          5
   102         14
   103          2
   104         34
   105          8
   107          4
   108          6
   109         57
   110         22
   111        114
   112         26
   113         77
   114         10
   115         15
   116          1
   121          1
   123         34
   124          8
   125         13
   126          3
   133          5
   135          4
   136          3
   137          2
   138         14
   139          2
   140        625
   141         49
   142        191
   143         16
   145         17
   146         19
   147         37
   148         13
   149         20
   150          3
   151          3
   159         30
   160          3
   161         19
   163          3
   171          1
   172         12
   174        194
   175         58
   176        118
   177         33
   178         19
   179          5