##TITLE=Library Entry 70848
##JCAMP-DX=Revision 4.10 
##DATA TYPE=MASS SPECTRUM
##SAMPLE DESCRIPTION=Japan AIST/NIMC Database- Spectrum MS-NW-3563
##NAMES=HP
##CAS NAME=2,4-Dimethyl-2-oxazoline-4-methanol
##MOLFORM=C6H11NO2
##CAS REGISTRY NO=39986-37-3
##MP= -300
##BP= -300
##MW= 129
##$RETENTION INDEX=0
##$CONDENSED SPECTRUM=NO
##NPOINTS= 49
##XYDATA=(XY..XY) 1 
    14          5
    15         54
    18          1
    25          1
    26         14
    27         58
    28         22
    29        103
    30         10
    31         58
    32          1
    37          2
    38          6
    39         32
    40         16
    41         48
    42        646
    43        131
    44          7
    45          4
    46          1
    50          1
    51          2
    52          4
    53          2
    54          5
    55          7
    56         13
    57        260
    58         27
    59          2
    60          3
    66          3
    67          2
    68         12
    69          6
    70        150
    71         13
    72          3
    82         28
    83          2
    84         18
    85          1
    86          1
    97         17
    98        999
    99         62
   100          4
   114          2