##TITLE=Library Entry 82920
##JCAMP-DX=Revision 4.10 
##DATA TYPE=MASS SPECTRUM
##SAMPLE DESCRIPTION=Exported from NIST MS Search
##NAMES=HP
##CAS NAME=Pyridine, 3-ethyl-5-methyl-
##MOLFORM=C8H11N
##CAS REGISTRY NO=3999-78-8
##MP= -300
##BP= -300
##MW= 121
##$RETENTION INDEX=0
##$CONDENSED SPECTRUM=NO
##NPOINTS= 67
##XYDATA=(XY..XY) 1 
    29         20
    30          2
    31          1
    36          1
    37         22
    38         67
    39        290
    40         40
    41         68
    42         13
    43          7
    44          3
    45          4
    46          2
    49          6
    50         65
    51        130
    52         78
    53        110
    54         18
    55          4
    56          1
    57          1
    60          5
    61         10
    62         28
    63         68
    64         26
    65         92
    66         36
    67         15
    68          5
    73          2
    74         10
    75         14
    76         10
    77        220
    78         67
    79        175
    80         29
    81          4
    85          1
    86          2
    87          2
    88          2
    89          8
    90          5
    91         57
    92         47
    93        105
    94         25
    95          2
   102          1
   103          3
   104         20
   105         13
   106        999
   107        100
   108          5
   116          2
   117          7
   118         17
   119         15
   120        560
   121        830
   122         75
   123          3