##TITLE=Library Entry 22501
##JCAMP-DX=Revision 4.10 
##DATA TYPE=MASS SPECTRUM
##SAMPLE DESCRIPTION=NIST Mass Spectrometry Data Center
##NAMES=HP
##CAS NAME=Hexyl trifluoroacetate
##MOLFORM=C8H13F3O2
##CAS REGISTRY NO=400-61-3
##MP= -300
##BP= -300
##MW= 198
##$RETENTION INDEX=869
##$CONDENSED SPECTRUM=NO
##NPOINTS= 74
##XYDATA=(XY..XY) 1 
    15          5
    26         12
    27        160
    28         55
    29        206
    30          6
    31          7
    33          5
    36          1
    37          2
    38          7
    39        152
    40         34
    41        572
    42        393
    43        638
    44         27
    45          5
    46          1
    47         10
    50         20
    51         13
    52          4
    53         37
    54         57
    55        642
    56        999
    57        114
    58          4
    59          4
    60          1
    61          3
    62          1
    63          1
    64          1
    65          5
    66          2
    67         29
    68         13
    69        769
    70         26
    71          5
    77          2
    78         13
    79          2
    80          3
    81          2
    82          5
    83         18
    84         82
    85         73
    86          5
    87          1
    91          1
    93          1
    95          3
    97         43
    98          1
    99         59
   101          1
   111          1
   112          2
   113          2
   115          3
   125          2
   127          7
   128          1
   129         20
   130          2
   140          2
   141          6
   155         15
   156          1
   169          1