##TITLE=Library Entry 34771
##JCAMP-DX=Revision 4.10 
##DATA TYPE=MASS SPECTRUM
##SAMPLE DESCRIPTION=Exported from NIST MS Search
##NAMES=HP
##CAS NAME=Acetic acid, trifluoro-, 1-methylethenyl ester
##MOLFORM=C5H5F3O2
##CAS REGISTRY NO=400-39-5
##MP= -300
##BP= -300
##MW= 154
##$RETENTION INDEX=0
##$CONDENSED SPECTRUM=NO
##NPOINTS= 70
##XYDATA=(XY..XY) 1 
    13          2
    14         10
    15         49
    17          3
    18          9
    25          3
    26         14
    27         41
    28         74
    29         37
    31         20
    32         14
    36          4
    37         10
    38         14
    39         65
    40        124
    41         91
    42         48
    43        470
    44         43
    45         55
    47          7
    50         60
    51         29
    52          4
    53          8
    55         10
    57         10
    58        182
    59         27
    60         10
    63         10
    65          7
    67          7
    69        999
    70         14
    77         15
    78         10
    79         27
    80         12
    81          8
    82          3
    83         10
    85         15
    86          2
    91         11
    92          3
    93          4
    94          6
    97        312
    98          8
   103          3
   105         23
   106          3
   107          4
   109          3
   111          3
   113         12
   115          3
   117          2
   119          9
   120         10
   121          4
   123          3
   133          3
   135          2
   139          6
   154         51
   155          5