##TITLE=Library Entry 35345
##JCAMP-DX=Revision 4.10 
##DATA TYPE=MASS SPECTRUM
##SAMPLE DESCRIPTION=CARL DJERASSI DEPT OF CHEM STANFORD UNIV STANFORD CALIF
 94305
##NAMES=HP
##CAS NAME=2-Butene, 2-bromo-1,1,1,4,4,4-hexafluoro-
##MOLFORM=C4HBrF6
##CAS REGISTRY NO=400-41-9
##MP= -300
##BP= -300
##MW= 242
##$RETENTION INDEX=0
##$CONDENSED SPECTRUM=NO
##NPOINTS= 75
##XYDATA=(XY..XY) 1 
    31        250
    36         30
    37         20
    39         40
    41        150
    42         40
    43        210
    44        340
    45        120
    50         60
    51         40
    53         20
    54         10
    55        170
    56        120
    57        110
    58         10
    60         20
    61         10
    67         30
    68         20
    69        999
    70         30
    71         40
    73         30
    74         70
    75        620
    76         20
    77         10
    79         50
    81         40
    82         20
    83         50
    84         20
    85         20
    91         10
    93        160
    94         60
    95         30
    96         20
    97         20
    98         20
    99         10
   104         20
   105         10
   106         10
   107         10
   109         10
   111         20
   112         20
   113        280
   114         10
   123         10
   124         30
   125         10
   129         30
   131         20
   135         10
   143         20
   144        140
   145         10
   153         10
   155         10
   163         80
   173        260
   175        250
   191         10
   192         30
   194         20
   223         90
   225         90
   242        400
   243         20
   244        440
   245         20