##TITLE=Library Entry 24721
##JCAMP-DX=Revision 4.10 
##DATA TYPE=MASS SPECTRUM
##SAMPLE DESCRIPTION=NIST Mass Spectrometry Data Center
##NAMES=HP
##CAS NAME=Heptafluorobutyric acid, n-octadecyl ester
##MOLFORM=C22H37F7O2
##CAS REGISTRY NO=400-57-7
##MP= -300
##BP= -300
##MW= 466
##$RETENTION INDEX=2037
##$CONDENSED SPECTRUM=NO
##NPOINTS= 123
##XYDATA=(XY..XY) 1 
    26          2
    27         30
    28         10
    29        100
    30          3
    31          1
    33          1
    37          1
    39         42
    41        433
    42        127
    43        748
    44         28
    47          1
    50          3
    51          3
    52          2
    53         31
    54         85
    55        766
    56        328
    57        999
    58         46
    59          2
    61          1
    62          1
    63          1
    65          6
    66         10
    67        113
    68        136
    69        655
    70        294
    71        508
    72         27
    77          4
    78          2
    79         12
    80          6
    81         80
    82        305
    83        649
    84        227
    85        343
    86         22
    87          1
    91          2
    93          4
    94          3
    95         47
    96        161
    97        693
    98        165
    99         88
   100         22
   101          1
   107          1
   109         26
   110         78
   111        430
   112        122
   113         53
   114          4
   119         14
   122          1
   123         12
   124         50
   125        226
   126         84
   127         34
   128          3
   131          2
   136          1
   137          8
   138         34
   139         84
   140         57
   141         20
   142          2
   150          6
   151          2
   152         20
   153         36
   154         36
   155         13
   156          1
   159          1
   165          1
   166         13
   167         20
   169         87
   170          3
   180          8
   181         10
   182         14
   183          6
   184          1
   194          5
   195          6
   196          9
   197          7
   198          1
   199          1
   208          2
   209          3
   210          4
   211          1
   215          1
   222          2
   223          2
   224         23
   225          4
   249          1
   250          1
   252         50
   253         10
   254          1
   255          1
   279          2
   297         13
   298          3
   448          9
   449          2