##TITLE=Library Entry 8475
##JCAMP-DX=Revision 4.10 
##DATA TYPE=MASS SPECTRUM
##SAMPLE DESCRIPTION=NIST Mass Spectrometry Data Center
##NAMES=HP
##CAS NAME=Isopropyl trifluoroacetate
##MOLFORM=C5H7F3O2
##CAS REGISTRY NO=400-38-4
##MP= -300
##BP= -300
##MW= 156
##$RETENTION INDEX=529
##$CONDENSED SPECTRUM=NO
##NPOINTS= 44
##XYDATA=(XY..XY) 1 
    12          1
    13          3
    14         22
    15        118
    16          6
    18          2
    19          1
    20          1
    26         44
    27        336
    28         52
    29         65
    31         27
    33          2
    37         14
    38         35
    39        184
    41        477
    42        149
    43        999
    44         46
    45          9
    47        274
    48          6
    50         58
    51          4
    59          3
    61         14
    69        762
    70          8
    78         14
    87          1
    93          2
    94          1
    95          1
    97         23
    99          6
   113        142
   114          4
   115          2
   141        402
   142         17
   143          1
   155         10