##TITLE=Library Entry 72031
##JCAMP-DX=Revision 4.10 
##DATA TYPE=MASS SPECTRUM
##SAMPLE DESCRIPTION=NIST Mass Spectrometry Data Center
##NAMES=HP
##CAS NAME=Piperazinoacetic acid ethyl ester
##MOLFORM=C8H16N2O2
##CAS REGISTRY NO=40004-08-8
##MP= -300
##BP= -300
##MW= 172
##$RETENTION INDEX=0
##$CONDENSED SPECTRUM=NO
##NPOINTS= 62
##XYDATA=(XY..XY) 1 
    15         15
    18          1
    26          7
    27         46
    28         41
    29         90
    30         47
    31          8
    39          4
    40          6
    41         58
    42        231
    43         53
    44        105
    45          9
    49          5
    52          2
    53          1
    54         22
    55         23
    56        416
    57         85
    58         75
    59         28
    60         13
    61          7
    67          1
    68         13
    69         13
    70        193
    71         20
    72         14
    73          2
    74         20
    80          1
    81          2
    82          5
    83         14
    84         66
    85         22
    86         11
    87          1
    88         14
    95          1
    97         31
    98         12
    99        999
   100         73
   101          2
   102         25
   103          1
   114          7
   115          1
   116          4
   117          1
   126          1
   130        138
   131         10
   142          1
   143          4
   172         68
   173          8