##TITLE=Library Entry 72234
##JCAMP-DX=Revision 4.10 
##DATA TYPE=MASS SPECTRUM
##SAMPLE DESCRIPTION=Japan AIST/NIMC Database- Spectrum MS-NW-7431
##NAMES=HP
##CAS NAME=Cyclohexanol, 1-(aminomethyl)-
##MOLFORM=C7H15NO
##CAS REGISTRY NO=4000-72-0
##MP= -300
##BP= -300
##MW= 129
##$RETENTION INDEX=0
##$CONDENSED SPECTRUM=NO
##NPOINTS= 79
##XYDATA=(XY..XY) 1 
    14          1
    15         14
    16          1
    17          3
    18          9
    26          8
    27        105
    28         92
    29         89
    30        584
    31        365
    32        659
    33          9
    39         96
    40         17
    41        207
    42         59
    43        173
    44         23
    45         15
    46          5
    50          6
    51         13
    52          7
    53         73
    54         22
    55        268
    56         63
    57        133
    58         14
    59         11
    60          3
    62          1
    63          3
    64          1
    65         13
    66          9
    67         30
    68         36
    69         58
    70         80
    71         12
    72         77
    73         36
    74          1
    75          1
    77         17
    78          4
    79         85
    80         18
    81        887
    82         73
    83         34
    84          7
    85          2
    86        220
    87         12
    88          1
    91          6
    92          1
    93          8
    94          6
    95         10
    96          3
    97         26
    98        125
    99        999
   100         74
   101          5
   106          1
   108          1
   109          1
   110          5
   111          5
   112         39
   113          3
   128          2
   129         60
   130          6