##TITLE=Library Entry 62110
##JCAMP-DX=Revision 4.10 
##DATA TYPE=MASS SPECTRUM
##SAMPLE DESCRIPTION=Chemical Concepts
##NAMES=HP
##CAS NAME=Tetracyclo[7.1.0(1,6).0(4,9).0(8,10)]decane
##MOLFORM=C10H14
##CAS REGISTRY NO=40002-42-4
##MP= -300
##BP= -300
##MW= 134
##$RETENTION INDEX=0
##$CONDENSED SPECTRUM=NO
##NPOINTS= 82
##XYDATA=(XY..XY) 1 
    26         15
    27        172
    28         14
    29         43
    37          7
    38         26
    39        332
    40         52
    41        241
    42         14
    43         12
    44          4
    45          3
    49          3
    50         59
    51        170
    52         88
    53        136
    54         30
    55         52
    56         35
    57         10
    58         18
    59          4
    61          4
    62         18
    63         69
    64         31
    65        184
    66        529
    67        585
    68         61
    69         17
    70          4
    71          5
    73          5
    74         12
    75         25
    76         16
    77        495
    78        519
    79        919
    80        724
    81         63
    82         13
    83          4
    84          4
    85          4
    86          3
    87          6
    89         26
    90         19
    91        999
    92        872
    93        482
    94         49
    95         14
    96          3
    98          5
   100          6
   101          7
   102         15
   103         63
   104         44
   105        499
   106        346
   107         42
   108          8
   113          3
   115         40
   116         16
   117         47
   118         11
   119        321
   120         35
   121          7
   131          7
   132          4
   133         41
   134        959
   135        120
   136          6