##TITLE=Library Entry 98533
##JCAMP-DX=Revision 4.10 
##DATA TYPE=MASS SPECTRUM
##SAMPLE DESCRIPTION=Exported from NIST MS Search
##NAMES=HP
##CAS NAME=9,10-Secochola-5,7,10(19)-trien-24-al, 3-hydroxy-, (3.beta.,5Z,7E
)-
##MOLFORM=C24H36O2
##CAS REGISTRY NO=40013-88-5
##MP= -300
##BP= -300
##MW= 356
##$RETENTION INDEX=0
##$CONDENSED SPECTRUM=NO
##NPOINTS= 155
##XYDATA=(XY..XY) 1 
    50         63
    51         86
    52         43
    53        160
    54         73
    55        719
    57        466
    58        186
    59        633
    60        253
    61         60
    63         46
    65        113
    66         46
    67        453
    68        110
    69        366
    70        123
    71        200
    72         53
    73         93
    74         53
    75         60
    76         30
    77        243
    78         83
    79        423
    80        100
    81        493
    82        113
    83        193
    84         93
    85        166
    86         53
    87        190
    88         30
    89         50
    91        599
    92        190
    93        400
    94        133
    95        386
    96         86
    97        126
    98         46
    99         60
   100         30
   101         60
   102         30
   103        100
   104         60
   105        360
   106         93
   107        293
   108         90
   109        193
   110         60
   111         93
   112         40
   113         46
   115        146
   116         93
   117        386
   118        999
   119        453
   120        100
   121        166
   122         60
   123        100
   124         53
   125         63
   126         26
   127         60
   128        126
   129        210
   130        100
   131        276
   132         90
   133        220
   134         93
   135        233
   136        999
   137        190
   138         43
   139         30
   141        120
   142         83
   143        273
   144        110
   145        253
   146         70
   147        153
   148         53
   149        123
   150         40
   151         40
   152         40
   153         40
   154         26
   155         90
   156         73
   157        166
   158        210
   159        220
   160         66
   161        123
   162         43
   163         60
   164         40
   165         50
   167         53
   168         30
   169         93
   170         40
   171        113
   172         43
   173         93
   174         53
   175         70
   176        100
   177         70
   178         30
   179         30
   181         53
   182         26
   183         83
   184         30
   185         73
   186         26
   187         50
   189         40
   191         33
   195         30
   197         73
   198         26
   199         60
   201         40
   203         26
   209         26
   211         83
   212         26
   213         40
   215         30
   217         30
   225         30
   227         30
   229         30
   231         30
   253         80
   271         60
   297         30
   323         66
   338         30
   356        133
   357         50