##TITLE=Library Entry 81150
##JCAMP-DX=Revision 4.10 
##DATA TYPE=MASS SPECTRUM
##SAMPLE DESCRIPTION=NIST Mass Spectrometry Data Center
##NAMES=HP
##CAS NAME=2,5-Dimethylthiophenol
##MOLFORM=C8H10S
##CAS REGISTRY NO=4001-61-0
##MP= -300
##BP= -300
##MW= 138
##$RETENTION INDEX=1206
##$CONDENSED SPECTRUM=NO
##NPOINTS= 96
##XYDATA=(XY..XY) 1 
    15          3
    26          4
    27         27
    28          2
    29          1
    32          1
    33          4
    34          4
    35          1
    37          4
    38         11
    39         65
    40          5
    41         11
    45        103
    46          3
    47          8
    49          3
    50         32
    51         76
    52         22
    53         32
    54          3
    55          2
    57          5
    58         12
    59         19
    60          4
    61          9
    62         17
    63         45
    64          8
    65         48
    66          9
    67         20
    68         21
    69         49
    70          9
    71         15
    72          2
    73          3
    74         15
    75         15
    76         13
    77        173
    78        112
    79        106
    80          8
    81          7
    82         12
    83          9
    84          5
    85          6
    86          5
    87          5
    88          1
    89         19
    90          7
    91        118
    92         17
    93         40
    94          7
    95         11
    96          3
    97         36
    98         13
    99          3
   100          1
   101          3
   102         24
   103        166
   104         94
   105        999
   106         99
   107          5
   108          5
   109         12
   110          7
   111          9
   112          2
   117          1
   119          1
   121         53
   122         18
   123         74
   124          7
   125          3
   133          1
   134         20
   135         36
   136          8
   137         98
   138        902
   139         99
   140         47
   141          4