##TITLE=Library Entry 3849
##JCAMP-DX=Revision 4.10 
##DATA TYPE=MASS SPECTRUM
##SAMPLE DESCRIPTION=Chemical Concepts
##NAMES=HP
##CAS NAME=1H-Imidazole, 4,5-dihydro-2-(1-methylethyl)-
##MOLFORM=C6H12N2
##CAS REGISTRY NO=40029-86-5
##MP= -300
##BP= -300
##MW= 112
##$RETENTION INDEX=0
##$CONDENSED SPECTRUM=NO
##NPOINTS= 65
##XYDATA=(XY..XY) 1 
    24          1
    26         17
    27        129
    28        113
    29         26
    30         54
    31          0
    35          0
    36          0
    37          6
    38         11
    39        106
    40         43
    41        999
    42        253
    43        182
    44        112
    45          3
    46          0
    47          5
    48         22
    49          1
    50          2
    51          7
    52         14
    53         14
    54         80
    55         50
    56         77
    57          9
    58          1
    62          0
    63          0
    64          2
    65          4
    66          7
    67         26
    68        184
    69         96
    70         40
    75          0
    76          0
    77          0
    78          0
    79          0
    80          4
    81          8
    82         94
    83        578
    84         70
    85          2
    92          0
    93          3
    94          1
    95         68
    96         84
    97        802
    98         45
    99          1
   107          0
   109          6
   110          5
   111        265
   112        331
   113         18