##TITLE=Library Entry 79809
##JCAMP-DX=Revision 4.10 
##DATA TYPE=MASS SPECTRUM
##SAMPLE DESCRIPTION=Chemical Concepts
##NAMES=HP
##CAS NAME=Adenine, N-benzoyl-
##MOLFORM=C12H9N5O
##CAS REGISTRY NO=4005-49-6
##MP= -300
##BP= -300
##MW= 239
##$RETENTION INDEX=0
##$CONDENSED SPECTRUM=NO
##NPOINTS= 81
##XYDATA=(XY..XY) 1 
    25          1
    26          3
    27         24
    28        147
    29          4
    31          2
    34          1
    37          2
    38         16
    39         26
    40          8
    41          2
    42          1
    43          4
    44          2
    45          3
    49          3
    50         51
    51        167
    52         16
    53        104
    54         25
    55          4
    56          1
    57          1
    62          2
    63          4
    64          8
    65         15
    66         10
    67          5
    68          2
    69          1
    73          2
    74         14
    75         14
    76         27
    77        638
    78         49
    79          6
    80         22
    81          3
    91          3
    92         10
    93          3
   102          2
   103          3
   104          8
   105        999
   106         80
   107          8
   108          2
   119         14
   120          2
   122          1
   129          1
   130          1
   131          0
   134         19
   135          3
   141          1
   142          1
   150          0
   155          0
   156          1
   157          0
   161          1
   162          8
   163          1
   184          0
   185          1
   187          4
   209         14
   210        118
   211        223
   212         31
   213          2
   238         14
   239        304
   240         47
   241          4