##TITLE=Library Entry 25024
##JCAMP-DX=Revision 4.10 
##DATA TYPE=MASS SPECTRUM
##SAMPLE DESCRIPTION=Chemical Concepts
##NAMES=HP
##CAS NAME=Propanedioic acid, mono(1,1-dimethylethyl) ester
##MOLFORM=C7H12O4
##CAS REGISTRY NO=40052-13-9
##MP= -300
##BP= -300
##MW= 160
##$RETENTION INDEX=0
##$CONDENSED SPECTRUM=NO
##NPOINTS= 66
##XYDATA=(XY..XY) 1 
    26          9
    27         79
    28         62
    29        117
    30          6
    31         86
    36          2
    37          6
    38         12
    39        131
    40         30
    41        474
    42        100
    43        627
    44        431
    45         51
    46          2
    47          4
    49          3
    50         11
    51         11
    52          2
    53         14
    54          6
    55         73
    56        433
    57        999
    58         53
    59        900
    60         50
    61         17
    67          3
    69         17
    70          3
    71          7
    73          8
    77          2
    81          5
    82          3
    83         17
    84          7
    85          9
    86          5
    87        165
    88          8
    95          5
    96          2
    97          7
   101        136
   102          6
   103         18
   105         80
   106          2
   109          3
   111          4
   115         50
   116          4
   123          2
   125          2
   127          3
   133         26
   143         18
   145         51
   146          3
   159          2
   161          6