##TITLE=Library Entry 27211
##JCAMP-DX=Revision 4.10 
##DATA TYPE=MASS SPECTRUM
##SAMPLE DESCRIPTION=Div. of Experiment Therapeutics WRAIR, WRAMC, Washingto
n DC 20307
##NAMES=HP
##CAS NAME=Propionic acid 3,5-dichloro-2,6-dimethyl-4-pyridyl ester
##MOLFORM=C10H11Cl2NO2
##CAS REGISTRY NO=40067-28-5
##MP= -300
##BP= -300
##MW= 247
##$RETENTION INDEX=0
##$CONDENSED SPECTRUM=NO
##NPOINTS= 118
##XYDATA=(XY..XY) 1 
    41          8
    42         59
    43          8
    44          1
    45          3
    47          8
    49         19
    50         14
    51         33
    52         14
    53          7
    54          7
    55         16
    57        999
    58         18
    61         10
    62          8
    63         16
    64          4
    65         12
    66          5
    67         13
    69          3
    71          1
    72          3
    73         18
    74          5
    75         10
    76          5
    77          5
    78          2
    79          5
    80          5
    81          2
    82          1
    83          3
    84          5
    85         24
    86         11
    87         14
    88          9
    89          3
    90          7
    91          2
    92          6
    93          2
    96          1
    97          4
    98          1
    99          7
   100          2
   101          6
   102          1
   103          1
   105          6
   107          2
   109          2
   111          1
   112          1
   113          1
   114          1
   115          1
   116          0
   118          1
   120          3
   121         14
   123          9
   125          2
   126          2
   127          7
   128          6
   129          2
   130          1
   133          4
   135          3
   137          1
   139          0
   140          1
   148          1
   149          1
   151          0
   154          1
   156         15
   157          3
   158          5
   159          1
   161          2
   162          8
   163          2
   164          4
   165          1
   166          1
   170          0
   174          2
   176          1
   177          1
   183          1
   184          0
   190          6
   191        166
   192         78
   193        109
   194         50
   195         19
   196          8
   212          3
   214          1
   219          4
   220          1
   221          2
   222          0
   246          1
   247         46
   248         11
   249         32
   250          7
   251          4
   252          1