##TITLE=Library Entry 55249
##JCAMP-DX=Revision 4.10 
##DATA TYPE=MASS SPECTRUM
##SAMPLE DESCRIPTION=Div. of Experiment Therapeutics WRAIR, WRAMC, Washingto
n DC 20307
##NAMES=HP
##CAS NAME=1,3-Bis[5-chlorodifluoromethyl-1,2,4-oxadiazoyl]benzene
##MOLFORM=C12H4Cl2F4N4O2
##CAS REGISTRY NO=40067-71-8
##MP= -300
##BP= -300
##MW= 382
##$RETENTION INDEX=0
##$CONDENSED SPECTRUM=NO
##NPOINTS= 137
##XYDATA=(XY..XY) 1 
    41         39
    42         26
    43         19
    44          3
    45          4
    47         59
    48         11
    49        166
    50        343
    51        221
    52         71
    53         31
    54         30
    55          3
    57          8
    61         54
    62        224
    63        166
    64         91
    65         41
    66         26
    67          8
    68         21
    69         35
    73         15
    74         61
    75        180
    76        198
    77        159
    78         52
    79          4
    80         14
    84         57
    85        999
    87        581
    88        263
    89        175
    90        165
    91          5
    92         43
    93          3
    94         11
    96          3
    97         75
    98         11
    99         56
   100         36
   101         40
   102        103
   103          8
   104        142
   105         14
   106         46
   111         14
   112         14
   113         39
   114        127
   115         32
   116        164
   117         19
   118         89
   123          7
   124         13
   125         12
   126         24
   127         23
   128         26
   130         63
   131         24
   132          9
   139         15
   140         33
   141          9
   142          8
   143          3
   144        199
   145         18
   151         18
   152         16
   154         12
   156         18
   158         24
   160        120
   161         12
   163         14
   164          9
   166         11
   170         59
   171         28
   173          4
   174         15
   176          3
   177          7
   181          7
   184         13
   186         18
   187         14
   188          3
   190         39
   192         13
   206         37
   207          4
   208          3
   211          7
   225         17
   233         12
   239          3
   241         14
   249          3
   255         10
   257          8
   262          3
   268          3
   269         20
   271        293
   272         21
   273        107
   274         12
   297         99
   298         25
   299         26
   300         11
   317         29
   319         26
   347        141
   348         20
   349         47
   350          3
   363         19
   365         17
   381          3
   382        549
   383        100
   384        450
   385         63
   386         73
   387          8