##TITLE=Library Entry 81522
##JCAMP-DX=Revision 4.10 
##DATA TYPE=MASS SPECTRUM
##SAMPLE DESCRIPTION=NIST Mass Spectrometry Data Center
##NAMES=HP
##CAS NAME=Ethyl meta-tolylacetate
##MOLFORM=C11H14O2
##CAS REGISTRY NO=40061-55-0
##MP= -300
##BP= -300
##MW= 178
##$RETENTION INDEX=0
##$CONDENSED SPECTRUM=NO
##NPOINTS= 51
##XYDATA=(XY..XY) 1 
    15          2
    18          1
    26          2
    27         63
    28         11
    29        152
    30         10
    37          1
    38          9
    39         59
    40          6
    50         18
    51         57
    52         23
    53         21
    54          1
    55          1
    61          2
    62          9
    63         30
    64          6
    65         21
    66          4
    75          3
    77        139
    78         60
    79         92
    80          6
    86          1
    87          1
    89         11
    90          4
    91         33
    92          6
    93          3
   102         12
   103         77
   105        999
   106        104
   107          6
   119         13
   120          2
   121          3
   132          5
   133         11
   134          1
   149          1
   150          5
   178        177
   179         21
   180          2