##TITLE=Library Entry 39690
##JCAMP-DX=Revision 4.10 
##DATA TYPE=MASS SPECTRUM
##SAMPLE DESCRIPTION=Chemical Concepts
##NAMES=HP
##CAS NAME=2,7-Dioxatricyclo[4.4.0.0(3,8)]decan-4-amine, stereoisomer
##MOLFORM=C8H13NO2
##CAS REGISTRY NO=40076-28-6
##MP= -300
##BP= -300
##MW= 155
##$RETENTION INDEX=0
##$CONDENSED SPECTRUM=NO
##NPOINTS= 116
##XYDATA=(XY..XY) 1 
    26         17
    27        147
    28        137
    29        182
    30        149
    31         29
    36          4
    37          3
    38          8
    39        114
    40         24
    41        150
    42        147
    43        481
    44        470
    45         28
    46          6
    47          2
    48          2
    49          3
    50          9
    51         21
    52         15
    53         67
    54         58
    55        198
    56        110
    57         53
    58         42
    59         27
    60          9
    61          2
    62          2
    63          4
    64          2
    65         20
    66         29
    67         74
    68         48
    69         49
    70         56
    71         49
    72        999
    73         56
    74        177
    75          9
    76          2
    77         15
    78          6
    79         20
    80         28
    81         72
    82         83
    83        254
    84         69
    85         19
    86          9
    87          3
    88          1
    89          2
    90          1
    91          9
    92          3
    93          8
    94         26
    95         16
    96         17
    97         11
    98         24
    99          8
   100          3
   101          2
   102          4
   103          3
   104          2
   105          4
   106          2
   107         14
   108         26
   109         10
   110          9
   111         11
   112        121
   113         10
   114          2
   115          3
   116          1
   117          2
   118          2
   119          2
   120          3
   121          2
   122          2
   123          2
   124          3
   125          5
   126          8
   127          4
   128          2
   129          2
   133          1
   134          1
   135          2
   136          2
   137          4
   138         11
   139          3
   140          1
   141          2
   151          1
   152          2
   153          1
   154          2
   155         94
   156         10
   157          2