##TITLE=Library Entry 455
##JCAMP-DX=Revision 4.10 
##DATA TYPE=MASS SPECTRUM
##SAMPLE DESCRIPTION=Chemical Concepts
##NAMES=HP
##CAS NAME=2,7-Dioxatricyclo[4.4.0.0(3,8)]decan-4-one, oxime
##MOLFORM=C8H11NO3
##CAS REGISTRY NO=40076-29-7
##MP= -300
##BP= -300
##MW= 169
##$RETENTION INDEX=0
##$CONDENSED SPECTRUM=NO
##NPOINTS= 76
##XYDATA=(XY..XY) 1 
    26        135
    27        858
    28        398
    29        999
    30        118
    31        131
    37         32
    38         97
    39        834
    40        287
    41        920
    42        420
    43        331
    44        193
    45         30
    50         84
    51        188
    52        180
    53        613
    54        342
    55        637
    56        122
    57        229
    58         37
    63         34
    64         33
    65        129
    66        174
    67        652
    68        352
    69        164
    70        101
    71         65
    72         22
    73         17
    77        119
    78         70
    79        221
    80        362
    81        297
    82        117
    83        182
    84        148
    85         36
    87         30
    91         30
    92         29
    94        299
    95        156
    96        267
    97         81
    98         62
    99         21
   101         47
   104         27
   105         41
   106         75
   107         55
   108        102
   109         44
   110         34
   111         36
   112        157
   113         63
   114         18
   122        132
   123         63
   124        219
   125         60
   126         45
   140        221
   141         32
   152         85
   153          8
   169        527
   170         50