##TITLE=Library Entry 2841
##JCAMP-DX=Revision 4.10 
##DATA TYPE=MASS SPECTRUM
##SAMPLE DESCRIPTION=Chemical Concepts
##NAMES=HP
##CAS NAME=4-Azido-2,7-dioxatricyclo[4.4.0.0(3,8)]decane
##MOLFORM=C8H11N3O2
##CAS REGISTRY NO=40076-25-3
##MP= -300
##BP= -300
##MW= 181
##$RETENTION INDEX=0
##$CONDENSED SPECTRUM=NO
##NPOINTS= 107
##XYDATA=(XY..XY) 1 
    26         56
    27        446
    28        481
    29        492
    30         45
    31         77
    37         13
    38         34
    39        423
    40        101
    41        999
    42        229
    43        304
    44        104
    45         16
    46         22
    47          4
    49          9
    50         27
    51         53
    52         40
    53        229
    54        512
    55        695
    56        133
    57        150
    58         24
    59         13
    60          4
    61          4
    62          4
    63         10
    64          7
    65         63
    66         79
    67        437
    68        525
    69        613
    70        136
    71        173
    72         24
    73         10
    74          5
    75          6
    77         89
    78         21
    79        487
    80        406
    81        370
    82        241
    83        447
    84        162
    85         32
    86          3
    87          2
    91         42
    92         14
    93         91
    94        470
    95        162
    96        503
    97        310
    98         40
    99          7
   100          5
   103         33
   104          4
   105          4
   106         28
   107         30
   108         64
   109         90
   110         51
   111         13
   112          5
   114          9
   118          6
   119          2
   120          3
   121         28
   122         10
   123          6
   124        163
   125         37
   126         12
   134          4
   135          8
   136          5
   137         10
   138         25
   139         70
   140          6
   148          2
   149          2
   150          2
   151         14
   152         89
   153         45
   154          6
   165          4
   166          4
   167         42
   168          7
   180          4
   181        381
   182         37
   183          6