##TITLE=Library Entry 90807
##JCAMP-DX=Revision 4.10 
##DATA TYPE=MASS SPECTRUM
##SAMPLE DESCRIPTION=Exported from NIST MS Search
##NAMES=HP
##CAS NAME=Sydnone, 3,4-dimethyl-
##MOLFORM=C4H6N2O2
##CAS REGISTRY NO=4007-18-5
##MP= -300
##BP= -300
##MW= 114
##$RETENTION INDEX=0
##$CONDENSED SPECTRUM=NO
##NPOINTS= 14
##XYDATA=(XY..XY) 1 
    40        180
    41        320
    42         90
    43        220
    44        590
    45         50
    46        150
    47         10
    54         60
    55        140
    56        560
    57         30
   114        999
   115         50