##TITLE=Library Entry 20459
##JCAMP-DX=Revision 4.10 
##DATA TYPE=MASS SPECTRUM
##SAMPLE DESCRIPTION=Chemical Concepts
##NAMES=HP
##CAS NAME=1,3,2-Dioxaphospholane, 2-ethyl-4,5-dimethyl-
##MOLFORM=C6H13O2P
##CAS REGISTRY NO=40084-06-8
##MP= -300
##BP= -300
##MW= 148
##$RETENTION INDEX=0
##$CONDENSED SPECTRUM=NO
##NPOINTS= 79
##XYDATA=(XY..XY) 1 
    25          1
    26         19
    27        117
    28         25
    29        134
    30          3
    31          2
    33          1
    34          1
    37          0
    38          2
    39         46
    40          5
    41         81
    42          6
    43         85
    44          6
    45        121
    46          4
    47         82
    48         49
    49         25
    50          3
    51          4
    52          2
    53         24
    54         14
    55        999
    56        103
    57         29
    58         47
    59          7
    60        111
    61          8
    62          1
    63          1
    64          0
    65         71
    66          0
    67          0
    69          0
    70          0
    71          4
    72          2
    73          1
    74          1
    75         10
    76        324
    77         17
    78          4
    79          1
    80          0
    85          0
    86          3
    89          2
    91          8
    92          2
    93          2
    94          5
    95          1
    96          1
   101          1
   102          1
   103         10
   104        272
   105         15
   106          0
   111          1
   115          0
   117          2
   118          0
   119        254
   120         13
   121          1
   133          1
   147          0
   148        217
   149         15
   150          1