##TITLE=Library Entry 48787
##JCAMP-DX=Revision 4.10 
##DATA TYPE=MASS SPECTRUM
##SAMPLE DESCRIPTION=K. SEFERIADIS, DEP. BIOLOG. CHEM., IOANNINA UNIV., GREE
C
##NAMES=HP
##CAS NAME=1,3-cis,5-cis-Octatriene
##MOLFORM=C8H12
##CAS REGISTRY NO=40087-62-5
##MP= -300
##BP= -300
##MW= 108
##$RETENTION INDEX=879
##$CONDENSED SPECTRUM=NO
##NPOINTS= 24
##XYDATA=(XY..XY) 1 
    18         25
    26         61
    27        250
    29        150
    39        345
    40         60
    41        300
    42         76
    43        119
    51        155
    52         93
    53        176
    56         86
    57        150
    65        145
    66        173
    67        150
    77        560
    78        224
    79        999
    80        155
    91        290
    93        222
   108        557