##TITLE=Library Entry 48788
##JCAMP-DX=Revision 4.10 
##DATA TYPE=MASS SPECTRUM
##SAMPLE DESCRIPTION=Chemical Concepts
##NAMES=HP
##CAS NAME=1,3-Cyclohexadiene, 5-ethyl-
##MOLFORM=C8H12
##CAS REGISTRY NO=40085-08-3
##MP= -300
##BP= -300
##MW= 108
##$RETENTION INDEX=0
##$CONDENSED SPECTRUM=NO
##NPOINTS= 57
##XYDATA=(XY..XY) 1 
    26          8
    27         77
    29         26
    30          0
    37          3
    38         11
    39        100
    40         12
    41         38
    42          2
    43          1
    44          0
    45          0
    46          0
    49          2
    50         29
    51         79
    52         34
    53         33
    54          6
    55          3
    56          0
    61          2
    62          6
    63         19
    64          3
    65         37
    66         33
    67         10
    68          1
    73          1
    74          5
    75         12
    76          5
    77        319
    78        138
    79        999
    80         70
    81          4
    86          0
    87          0
    89          4
    90          1
    91        107
    92         11
    93         59
    94          4
    98          0
   102          1
   103          4
   104          1
   105          6
   106         13
   107          4
   108        185
   109         15
   110          0