##TITLE=Library Entry 49198
##JCAMP-DX=Revision 4.10 
##DATA TYPE=MASS SPECTRUM
##SAMPLE DESCRIPTION=K. SEFERIADIS, DEP. BIOLOG. CHEM., IOANNINA UNIV., GREE
C
##NAMES=HP
##CAS NAME=1,3-trans,5-cis-Octatriene
##MOLFORM=C8H12
##CAS REGISTRY NO=40087-61-4
##MP= -300
##BP= -300
##MW= 108
##$RETENTION INDEX=900
##$CONDENSED SPECTRUM=NO
##NPOINTS= 25
##XYDATA=(XY..XY) 1 
    26         27
    27        190
    29         41
    38         23
    39        312
    40         42
    41        220
    50         46
    51        120
    52         73
    53        125
    63         40
    65        133
    66        170
    77        480
    78        150
    79        999
    80        124
    91        400
    93        354
    94         24
   105         14
   107         17
   108        577
   109         48