##TITLE=Library Entry 715
##JCAMP-DX=Revision 4.10 
##DATA TYPE=MASS SPECTRUM
##SAMPLE DESCRIPTION=Exported from NIST MS Search
##NAMES=HP
##CAS NAME=Ethene, 1-chloro-2-ethoxy-1,2-difluoro-
##MOLFORM=C4H5ClF2O
##CAS REGISTRY NO=401-54-7
##MP= -300
##BP= -300
##MW= 142
##$RETENTION INDEX=0
##$CONDENSED SPECTRUM=NO
##NPOINTS= 87
##XYDATA=(XY..XY) 1 
    12          1
    13          1
    14          4
    15         11
    25          2
    26         38
    27        512
    28         62
    29        999
    30         23
    31         64
    32          3
    33          8
    35          3
    36          2
    37          1
    38          1
    39          5
    40          1
    41          1
    42          4
    43         18
    44          4
    45          9
    46          1
    47         62
    48          3
    49         21
    50         13
    51         15
    55          1
    57          2
    59         12
    60          2
    61          4
    62          5
    63          9
    64          2
    65          7
    66         89
    67         30
    68         30
    69         11
    71          1
    73          2
    74          1
    75          2
    76          1
    77         13
    78          7
    79         15
    80          4
    81          6
    82          4
    83          2
    84          2
    85         67
    91          2
    93          4
    94        159
    95         13
    96         52
    97         14
    98          3
    99         19
   100          2
   101          6
   102          1
   107          1
   111         10
   113         18
   114        605
   115         23
   116        200
   117         11
   119          2
   123          2
   125          1
   127          4
   128          1
   129          2
   141          8
   142        133
   143          9
   144         42
   145          2
   147          2