##TITLE=Library Entry 1356
##JCAMP-DX=Revision 4.10 
##DATA TYPE=MASS SPECTRUM
##SAMPLE DESCRIPTION=Chuck Anderson, Aldrich Chemical Co.
##NAMES=HP
##CAS NAME=3,5-Dinitrobenzotrifluoride
##MOLFORM=C7H3F3N2O4
##CAS REGISTRY NO=401-99-0
##MP= -300
##BP= -300
##MW= 236
##$RETENTION INDEX=0
##$CONDENSED SPECTRUM=NO
##NPOINTS= 106
##XYDATA=(XY..XY) 1 
    17          6
    18         22
    26          0
    28         19
    29         12
    30        999
    31         24
    32          5
    36          0
    37         21
    38         36
    39          9
    41          3
    44          4
    45          3
    46         39
    49          7
    50         80
    51         17
    52          8
    53         10
    56          7
    57         35
    61         29
    62         53
    63        171
    64         24
    65          7
    66          7
    68         14
    69        104
    70          4
    73         27
    74        224
    75        497
    76         38
    77          1
    79          5
    80         11
    81         29
    82         11
    83          8
    84          5
    85          3
    86          4
    87         13
    88         18
    89          7
    90          6
    91         11
    92         13
    93         51
    94        113
    95         12
    96          1
    99         33
   100          7
   101          7
   103          3
   104          8
   105          4
   106          9
   107         18
   108          5
   109          0
   110          8
   112         23
   113         19
   114          9
   117          2
   118         18
   119          8
   120         16
   122          3
   123         62
   124         13
   125        240
   126         31
   131          8
   132        122
   133         15
   139          0
   140         21
   141         19
   143        753
   144        401
   145         32
   147          0
   148         11
   158         17
   160        260
   161         18
   171         24
   176          7
   187          6
   190        112
   191          8
   206         43
   207          1
   217        113
   218          9
   220         18
   222          4
   236        390
   237         29
   238          3