##TITLE=Library Entry 78796
##JCAMP-DX=Revision 4.10 
##DATA TYPE=MASS SPECTRUM
##SAMPLE DESCRIPTION=A.A.Kutin, Moscow, Russia
##NAMES=HP
##CAS NAME=Propenhydrazide, 2-benzoylamino-3-(4-chlorophenyl)-
##MOLFORM=C16H14ClN3O2
##CAS REGISTRY NO=40108-53-0
##MP= -300
##BP= -300
##MW= 315
##$RETENTION INDEX=0
##$CONDENSED SPECTRUM=NO
##NPOINTS= 117
##XYDATA=(XY..XY) 1 
    33         20
    34          0
    35          1
    36          5
    37          3
    38          9
    39         30
    40         21
    41          7
    42          3
    43         11
    44         15
    45          3
    47          0
    50         51
    51        154
    52         10
    53          4
    54          0
    55          5
    57          7
    59          5
    61          3
    62         14
    63         34
    64          5
    65          7
    69          3
    70          1
    71          2
    72          0
    73          9
    74         13
    75         21
    77        598
    78         32
    79          2
    82          1
    83          2
    84          0
    85          2
    86          3
    87          7
    88          9
    89         83
    90         11
    91         10
    95          0
    97          2
    98          1
    99          5
   100          1
   101          7
   102          5
   103          5
   105        999
   106         48
   107          5
   108          1
   109          3
   111          3
   113          2
   114          5
   115          5
   116         20
   117         16
   119         28
   120          2
   121          4
   122          4
   123         10
   124         12
   125         19
   126          5
   127          5
   132          0
   134          0
   135          1
   136          4
   137          3
   138          4
   139          2
   140          1
   142          0
   144          0
   150          4
   151         25
   152         20
   153          8
   154          6
   155          1
   163          0
   164          0
   165          4
   166          2
   167          1
   178          2
   180          0
   193          0
   194          1
   210          0
   238          0
   249          0
   258          2
   267          2
   268          0
   283          6
   284        147
   285         28
   286         54
   287          9
   288          1
   297          3
   299          0
   315          8
   316          0
   317          2