##TITLE=Library Entry 13150
##JCAMP-DX=Revision 4.10 
##DATA TYPE=MASS SPECTRUM
##SAMPLE DESCRIPTION=Div. of Experiment Therapeutics WRAIR, WRAMC, Washingto
n DC 20307
##NAMES=HP
##CAS NAME=2,4-Diamino-6-methoxymethylpteridine
##MOLFORM=C8H10N6O
##CAS REGISTRY NO=40110-13-2
##MP= -300
##BP= -300
##MW= 206
##$RETENTION INDEX=0
##$CONDENSED SPECTRUM=NO
##NPOINTS= 100
##XYDATA=(XY..XY) 1 
    41         74
    42        115
    43        999
    45        346
    46          4
    51         22
    52         80
    53        187
    54         70
    55         43
    57         21
    58          1
    60          7
    62          0
    63          7
    64         26
    65         67
    66        103
    67         34
    68         64
    69         35
    70         13
    71         10
    73          5
    74          5
    76          2
    77         17
    78         13
    79         45
    80         56
    81         21
    82         12
    83          9
    84         14
    85          4
    87          1
    88          4
    89          3
    91         42
    92         42
    93         13
    94         28
    95         25
    96         12
    97          5
    99          3
   103          2
   104         23
   106        175
   107         34
   108         18
   109          8
   111         29
   112          0
   115          4
   117          6
   119          9
   120          8
   121         61
   122         23
   123          6
   124          0
   125          0
   129          0
   130          3
   131          8
   132          7
   133        265
   134        119
   135         48
   136          8
   137          3
   144          0
   145          1
   146         40
   147          4
   148         43
   149         12
   150          9
   158          9
   159         23
   160          6
   161          8
   162          3
   163         51
   164          8
   173         16
   175        497
   176        965
   177         64
   178          3
   188          1
   189          3
   190         10
   191          7
   203          1
   205         35
   206        429
   207         71
   208          2