##TITLE=Library Entry 24864
##JCAMP-DX=Revision 4.10 
##DATA TYPE=MASS SPECTRUM
##SAMPLE DESCRIPTION=NIST Mass Spectrometry Data Center, 1990.
##NAMES=HP
##CAS NAME=2,2,6,6-Tetramethylheptane
##MOLFORM=C11H24
##CAS REGISTRY NO=40117-45-1
##MP= -300
##BP= -300
##MW= 156
##$RETENTION INDEX=967
##$CONDENSED SPECTRUM=NO
##NPOINTS= 51
##XYDATA=(XY..XY) 1 
    14          8
    15          2
    16          4
    18          1
    27         45
    28         17
    29        107
    30          2
    39         83
    40         30
    41        381
    42         27
    43        215
    44         11
    45          1
    50          1
    51          6
    52          3
    53         29
    54          1
    55        163
    56        708
    57        999
    58         48
    59          1
    63          7
    65          4
    66          1
    67         12
    68          3
    69         34
    70          1
    71        231
    72         12
    77          3
    79          4
    81          4
    82          1
    83         10
    84          1
    85        262
    86         15
    91          1
    95          0
    97          6
    98         16
    99          8
   140          3
   141         28
   142          3
   156          1