##TITLE=Library Entry 80406
##JCAMP-DX=Revision 4.10 
##DATA TYPE=MASS SPECTRUM
##SAMPLE DESCRIPTION=LAC, NIDDK, NIH, Bethesda, MD 20892
##NAMES=HP
##CAS NAME=2,6-Dibromo-4-nitrophenyl-.beta.-phenylpropionate
##MOLFORM=C15H11Br2NO4
##CAS REGISTRY NO=40123-56-6
##MP= -300
##BP= -300
##MW= 427
##$RETENTION INDEX=0
##$CONDENSED SPECTRUM=NO
##NPOINTS= 113
##XYDATA=(XY..XY) 1 
    41         15
    42         12
    43         21
    44          1
    45          0
    46          1
    47          1
    48          0
    49          9
    50         35
    51        105
    52         26
    53         34
    54          3
    55         18
    56          1
    57          2
    60          2
    61         34
    62        114
    63         50
    64         10
    65        118
    66          9
    68          1
    69          2
    70          0
    71          0
    73          5
    74         24
    75         11
    76         17
    77        228
    78        100
    79        152
    80         11
    81          1
    82          2
    83          1
    84          5
    85          0
    86          4
    87          1
    88          1
    89         26
    90         38
    91        888
    92         95
    93          4
    95          0
    97          0
    98          0
   101          2
   102         19
   103        137
   104        112
   105        999
   106        131
   107          6
   109          0
   111          0
   115          1
   116          2
   117          2
   118          2
   119          1
   120          0
   121          1
   128          0
   129          4
   130          1
   131         25
   132         21
   133        848
   134        128
   135          8
   136          0
   139          3
   140          4
   141         36
   142          7
   143         31
   144          2
   150          0
   151          0
   152          2
   153          2
   154          0
   155          1
   157          3
   159          2
   165          0
   168          0
   169          3
   170          4
   171          3
   172          3
   185          1
   187          2
   211          0
   220          1
   221          1
   222          3
   223          2
   224          1
   225          0
   250          0
   251          0
   265          0
   267          1
   427          0
   429          0
   431          0