##TITLE=Library Entry 80398
##JCAMP-DX=Revision 4.10 
##DATA TYPE=MASS SPECTRUM
##SAMPLE DESCRIPTION=LAC, NIDDK, NIH, Bethesda, MD 20892
##NAMES=HP
##CAS NAME=3-Cyanophenyl-.beta.-phenylpropionate
##MOLFORM=C16H13NO2
##CAS REGISTRY NO=40123-39-5
##MP= -300
##BP= -300
##MW= 251
##$RETENTION INDEX=0
##$CONDENSED SPECTRUM=NO
##NPOINTS= 50
##XYDATA=(XY..XY) 1 
    41         15
    42          8
    43          0
    49          1
    50         29
    51         94
    52         22
    53         12
    54          1
    55         12
    61          2
    62         12
    63         59
    64         36
    65        102
    66          7
    74          6
    75         15
    76         16
    77        162
    78         63
    79        101
    80          6
    87          1
    88          1
    89         21
    90         50
    91        966
    92         66
    93          2
   101          1
   102         24
   103         93
   104         80
   105        999
   106         82
   107          3
   118          4
   119         12
   120          1
   131         22
   133        604
   134         53
   135          3
   180          1
   196          3
   208          0
   220          2
   251         16
   252          3