##TITLE=Library Entry 60896
##JCAMP-DX=Revision 4.10 
##DATA TYPE=MASS SPECTRUM
##SAMPLE DESCRIPTION=LAC, NIDDK, NIH, Bethesda, MD 20892
##NAMES=HP
##CAS NAME=2,4,6-trinitrophenyll-.beta.-phenylpropionate
##MOLFORM=C15H11N3O8
##CAS REGISTRY NO=40123-59-9
##MP= -300
##BP= -300
##MW= 361
##$RETENTION INDEX=0
##$CONDENSED SPECTRUM=NO
##NPOINTS= 77
##XYDATA=(XY..XY) 1 
    41         18
    42         12
    43          6
    44         23
    45         30
    46         43
    48          1
    49         18
    50        144
    51        120
    52         39
    53        157
    54         14
    55         19
    56          1
    60          5
    61         98
    62        305
    63        127
    64         40
    65         82
    66         40
    67         20
    68         12
    69         28
    70          8
    73          5
    74         16
    75         22
    76         32
    77        174
    78         98
    79        109
    80         74
    81          6
    83          2
    84          1
    89         23
    90         28
    91        999
    92         92
    93          5
    94          8
    95          2
   102         12
   103         80
   104        185
   105        808
   106         75
   107         50
   108         12
   119          4
   120         10
   121          1
   122          1
   123          1
   131         34
   133        295
   134         24
   136         14
   137          7
   149         44
   150         42
   151          5
   152         11
   153          1
   155         12
   166          4
   171         12
   183          1
   199         34
   200          1
   213         13
   229        172
   230         25
   231          2
   361          3