##TITLE=Library Entry 60979
##JCAMP-DX=Revision 4.10 
##DATA TYPE=MASS SPECTRUM
##SAMPLE DESCRIPTION=LAC, NIDDK, NIH, Bethesda, MD 20892
##NAMES=HP
##CAS NAME=3,5-Dichlorophenyl-.beta.-phenylpropionate
##MOLFORM=C15H12Cl2O2
##CAS REGISTRY NO=40123-45-3
##MP= -300
##BP= -300
##MW= 294
##$RETENTION INDEX=0
##$CONDENSED SPECTRUM=NO
##NPOINTS= 108
##XYDATA=(XY..XY) 1 
    41         26
    42         30
    43          7
    44          2
    45         53
    46          1
    47         10
    48          6
    49         28
    50         73
    51        162
    52         39
    53         32
    54          4
    55         20
    56          1
    57          2
    60         17
    61         44
    62         90
    63        240
    64         30
    65        139
    66         16
    67          4
    69          2
    71          4
    72         11
    73         74
    74         41
    75         45
    76         23
    77        237
    78        142
    79        126
    80          8
    81          7
    82          5
    83         14
    84         10
    85         12
    86          6
    87         10
    88          1
    89         35
    90         28
    91        999
    92         81
    93          3
    95          2
    96          4
    97         21
    98         45
    99        108
   100         21
   101         36
   102         24
   103        136
   104        304
   105        816
   106         74
   107         18
   108          3
   109         17
   110          3
   111          6
   112          0
   115          2
   117          1
   119          0
   125          1
   126         12
   127         10
   128          5
   129          3
   130          2
   131         49
   132         71
   133        476
   134         53
   135         43
   136          9
   137          7
   138          1
   139          1
   145          8
   147          5
   148          0
   149          4
   150        137
   151         15
   152          4
   153          1
   154          3
   161          8
   162        220
   163         22
   164        136
   165         12
   166         23
   167          2
   195          0
   259          0
   294         16
   295          2
   296         10
   297          1
   298          2