##TITLE=Library Entry 7503
##JCAMP-DX=Revision 4.10 
##DATA TYPE=MASS SPECTRUM
##SAMPLE DESCRIPTION=LAC, NIDDK, NIH, Bethesda, MD 20892
##NAMES=HP
##CAS NAME=22-Desoxycarpesterol
##MOLFORM=C37H54O3
##CAS REGISTRY NO=40129-53-1
##MP= -300
##BP= -300
##MW= 546
##$RETENTION INDEX=0
##$CONDENSED SPECTRUM=NO
##NPOINTS= 232
##XYDATA=(XY..XY) 1 
    41        191
    43        999
    44         37
    45         21
    47         19
    49          7
    51          3
    53         35
    55        305
    57        197
    59         28
    61         14
    63          2
    65         16
    67         87
    69        136
    71         71
    72          6
    73          4
    77         36
    79         62
    81         97
    83         77
    84          6
    85         63
    86          4
    88          7
    91         79
    93         99
    94         73
    95        222
    96          9
    97         55
    98          7
    99         10
   100          2
   101          5
   103          9
   105         99
   106         13
   107        104
   108         40
   109        142
   110         17
   111         19
   112          4
   113          8
   115         14
   116          3
   117         26
   119         52
   121        100
   122         17
   123         24
   124         12
   125         15
   127         14
   128          3
   129         19
   131         33
   133         52
   134         23
   135         45
   137         54
   138          6
   139          4
   141          9
   142          5
   143         14
   145         44
   146          6
   147         83
   148         19
   149         25
   150          5
   151          6
   152          3
   153         10
   154          4
   155         14
   157         21
   158          6
   159         25
   160          3
   161         36
   162         11
   163          9
   164          3
   165          6
   166          3
   167          4
   169          6
   171         17
   173         52
   174          6
   175         49
   176          9
   177          9
   178          3
   179          3
   181          3
   183          7
   185         14
   187         32
   188         19
   189         32
   190          6
   191          5
   193          2
   195          7
   197          8
   199         12
   201         16
   203         13
   204          2
   205          3
   209          3
   211          5
   213         15
   214          4
   215         12
   216          4
   217          3
   221          2
   223          4
   225          6
   227         14
   228          5
   229         15
   230          7
   231          3
   236          3
   237          3
   239          6
   241         13
   243         18
   244          4
   245          3
   247          2
   249          6
   253          4
   255          9
   256          9
   257         40
   258          9
   259          4
   265          6
   266          2
   267          4
   269          7
   270          2
   271          2
   273          5
   281          4
   283         32
   284          7
   285          3
   287          3
   288          3
   289          3
   290          3
   291          2
   295          2
   297          4
   299          4
   301          4
   302          4
   303          3
   309          3
   311          5
   315          3
   316          7
   317         11
   318          4
   325          3
   326          5
   327          4
   328          4
   329          4
   330          3
   339          2
   340          2
   341         10
   342          7
   343         18
   344          5
   355          3
   356         38
   357         28
   358          7
   367          2
   369          5
   370          2
   381          6
   382          5
   383         11
   384          4
   386          2
   395          7
   396          7
   397          3
   400          3
   407          2
   409         39
   410         36
   411          8
   412          2
   422          3
   423          7
   424        287
   425        106
   426         19
   428          3
   438          3
   439          3
   440         16
   441          8
   442          4
   455          4
   456          4
   457          3
   469          9
   470         12
   471          5
   482          5
   483          4
   484         40
   485         20
   486          6
   498          5
   499          2
   546          3