##TITLE=Library Entry 80400
##JCAMP-DX=Revision 4.10 
##DATA TYPE=MASS SPECTRUM
##SAMPLE DESCRIPTION=LAC, NIDDK, NIH, Bethesda, MD 20892
##NAMES=HP
##CAS NAME=2,4-Dibromophenyl-.beta.-phenylpropionate
##MOLFORM=C15H12Br2O2
##CAS REGISTRY NO=40123-47-5
##MP= -300
##BP= -300
##MW= 382
##$RETENTION INDEX=0
##$CONDENSED SPECTRUM=NO
##NPOINTS= 89
##XYDATA=(XY..XY) 1 
    41         11
    42          4
    43          0
    49          1
    50         18
    51         63
    52         14
    53         11
    54          1
    55         11
    61          7
    62         28
    63        105
    64         12
    65         77
    66          5
    73          1
    74         11
    75         14
    76          9
    77        130
    78         54
    79         92
    80          5
    84          0
    86          0
    87          0
    89         16
    91        909
    92         53
    93          2
   101          1
   102         11
   103         81
   104         93
   105        999
   106         59
   107          2
   115          1
   116          2
   117          6
   118          2
   119          6
   129          0
   131         59
   132        113
   133        710
   134         61
   135          4
   141          4
   142          6
   143          6
   144          6
   145          3
   152          2
   153          2
   154          2
   155          1
   156          1
   165          0
   167          1
   168          0
   170          4
   171          2
   172          4
   173          3
   175          1
   181          1
   182          0
   195          1
   196          0
   197          1
   199          0
   220          2
   221         10
   223         20
   225         10
   233          1
   235          2
   237          2
   250         61
   252        118
   254         62
   255          2
   261          0
   382          1
   384          3
   385          0
   386          1