##TITLE=Library Entry 72894
##JCAMP-DX=Revision 4.10 
##DATA TYPE=MASS SPECTRUM
##SAMPLE DESCRIPTION=Japan AIST/NIMC Database- Spectrum MS-NW-2779
##NAMES=HP
##CAS NAME=5-(4-Chlorobutyl)hydantoin
##MOLFORM=C7H11ClN2O2
##CAS REGISTRY NO=40126-55-4
##MP= -300
##BP= -300
##MW= 190
##$RETENTION INDEX=0
##$CONDENSED SPECTRUM=NO
##NPOINTS= 94
##XYDATA=(XY..XY) 1 
    14          1
    15         10
    16          1
    17          1
    18          3
    26          8
    27         68
    28        206
    29         65
    30         19
    32          2
    35          2
    36         14
    37          1
    38          5
    39         47
    40          9
    41         93
    42         28
    43        230
    44         54
    45         12
    49         13
    50          3
    51          6
    52          5
    53         14
    54         23
    55        153
    56        136
    57         32
    58          1
    61          1
    62          4
    63         12
    64          2
    65          5
    66          1
    67         25
    68          7
    69          6
    70         22
    71          9
    72         12
    75          5
    77          3
    78          2
    79          2
    80          3
    81          2
    82         20
    83         19
    84        196
    85         11
    86          1
    90          2
    91         43
    92          2
    93         13
    94          1
    96          2
    98          1
    99        168
   100        999
   101         43
   102          5
   104          2
   106          1
   107          2
   110          1
   112         33
   113         66
   114          4
   118          3
   119          8
   120          1
   121          2
   125          3
   126          3
   127          2
   139          1
   147          9
   148          1
   149          4
   150          1
   152          1
   154         25
   155        216
   156         17
   157          1
   162          1
   190         16
   191          2
   192          5