##TITLE=Library Entry 81088
##JCAMP-DX=Revision 4.10 
##DATA TYPE=MASS SPECTRUM
##SAMPLE DESCRIPTION=LAC, NIDDK, NIH, Bethesda, MD 20892
##NAMES=HP
##CAS NAME=3-Trifluoromethylphenyl-.beta.-phenylpropionate
##MOLFORM=C16H13F3O2
##CAS REGISTRY NO=40123-38-4
##MP= -300
##BP= -300
##MW= 294
##$RETENTION INDEX=0
##$CONDENSED SPECTRUM=NO
##NPOINTS= 141
##XYDATA=(XY..XY) 1 
    41          9
    42         13
    43          2
    45          4
    49          0
    50         20
    51         64
    52         15
    53         12
    54          1
    55         17
    56          1
    57         12
    61          1
    62         10
    63         71
    64         19
    65         96
    66          7
    67          0
    68          0
    69          6
    71          0
    74          5
    75         17
    76         11
    77        108
    78         53
    79         65
    80          4
    81          3
    83         37
    84          3
    85          0
    86          0
    87          2
    88          6
    89         24
    91        773
    92         53
    93          3
    94          1
    95          8
    96          0
    97          0
    99          2
   100          0
   101          1
   102         17
   103        105
   104        138
   105        999
   106         23
   107          6
   109          0
   112         10
   113         36
   114         34
   115          5
   117          4
   119          1
   121          0
   123          0
   125          6
   126          1
   127          1
   128          2
   129          7
   131         41
   133        876
   134         56
   135          4
   141         10
   143         47
   145         26
   146          1
   147          0
   150          6
   151          0
   152          2
   153          3
   154          2
   155          7
   156          1
   157          0
   159          1
   161         15
   162         26
   163          2
   165          1
   166          1
   167         10
   168          1
   169          1
   173          2
   177          1
   178          0
   179          0
   181          4
   182          1
   183          1
   185          0
   187          0
   190          1
   191          2
   194          0
   195          1
   196          0
   197          1
   199          0
   202          0
   203          1
   207          0
   209          0
   215          0
   217          0
   222          7
   223         27
   224          3
   225          0
   227          0
   235          1
   236          5
   237          8
   238          1
   239          0
   248          0
   250          2
   251          4
   252          0
   265          1
   274          7
   275         26
   276          5
   277          2
   278          0
   279          0
   293          3
   294         22
   295         11
   296          1