##TITLE=Library Entry 590
##JCAMP-DX=Revision 4.10 
##DATA TYPE=MASS SPECTRUM
##SAMPLE DESCRIPTION=UNION OIL CO. OF CALIFORNIA, BREA, CAL, USA
##NAMES=HP
##CAS NAME=Disulfide, ethyl 2-methylpropyl
##MOLFORM=C6H14S2
##CAS REGISTRY NO=40136-66-1
##MP= -300
##BP= -300
##MW= 150
##$RETENTION INDEX=1075
##$CONDENSED SPECTRUM=NO
##NPOINTS= 87
##XYDATA=(XY..XY) 1 
    27        517
    28         85
    29        999
    30         23
    31          1
    32          9
    33          8
    34         14
    35         78
    36          3
    37          8
    38          8
    39         46
    40          5
    41        218
    42         18
    43         64
    44         18
    45        140
    46         49
    47         41
    48          4
    49          3
    50          3
    51         11
    52          3
    53          8
    54          3
    55         27
    56         11
    57        293
    58         58
    59        105
    60        112
    61         79
    62         21
    63          5
    64         79
    65         31
    66        950
    67         15
    68         81
    69          3
    70          5
    71          7
    72          3
    73          7
    74          1
    75          4
    76          7
    77          9
    78         10
    79         97
    80          3
    81          8
    82          2
    83          2
    84          2
    85          2
    86          2
    87          2
    88          2
    89          2
    90          3
    91         64
    92         11
    93         54
    94        689
    95         20
    96         58
    97          3
    98          2
    99          2
   100          5
   101          8
   102          2
   103          2
   104          1
   105         22
   106         28
   107          8
   120          3
   122        716
   123         12
   124         49
   150        116
   151          2