##TITLE=Library Entry 49397
##JCAMP-DX=Revision 4.10 
##DATA TYPE=MASS SPECTRUM
##SAMPLE DESCRIPTION=H.J. MOECKEL & J. WEISS, HAHN-MEITNER-INST. BERLIN, W.
 G
##NAMES=HP
##CAS NAME=Methyl isopropyl disulphide
##MOLFORM=C4H10S2
##CAS REGISTRY NO=40136-65-0
##MP= -300
##BP= -300
##MW= 122
##$RETENTION INDEX=906
##$CONDENSED SPECTRUM=NO
##NPOINTS= 70
##XYDATA=(XY..XY) 1 
    15         29
    19          0
    25          1
    26         29
    27        374
    31         13
    33          3
    34          3
    35          2
    36          0
    37         10
    38         44
    39        176
    40         49
    41        607
    42         85
    43        724
    44         43
    45        154
    46         75
    47         86
    48          9
    49         10
    50          0
    51          0
    53          0
    56          0
    57          9
    58         40
    59         85
    60         14
    61          8
    62          0
    63         24
    64        103
    65         12
    66         10
    67          0
    68          0
    69          1
    70          0
    71          3
    72          1
    73         13
    74         28
    75          8
    76          4
    77          1
    78         18
    79        259
    80        999
    81         49
    82         85
    83          2
    84          2
    89          0
    90          0
    91          0
    92          0
    93          0
   106          0
   107          5
   109          0
   120          0
   121         45
   122        443
   123         31
   124         37
   125          2
   126          0