##TITLE=Library Entry 4386
##JCAMP-DX=Revision 4.10 
##DATA TYPE=MASS SPECTRUM
##SAMPLE DESCRIPTION=J.H.SUPPLE STATE UNIV. COLLEGE, FREDONIA, NEW YORK, USA
##NAMES=HP
##CAS NAME=8-Azabicyclo[3.2.1]octane-3-carbonitrile, 3-hydroxy-8-methyl-
##MOLFORM=C9H14N2O
##CAS REGISTRY NO=40131-43-9
##MP= -300
##BP= -300
##MW= 166
##$RETENTION INDEX=0
##$CONDENSED SPECTRUM=NO
##NPOINTS= 70
##XYDATA=(XY..XY) 1 
    12         90
    13          4
    14         18
    15        204
    17         13
    18         81
    26        140
    27        909
    28        272
    29        118
    30         72
    31          4
    32          4
    38         22
    39        245
    40         54
    41        327
    42        999
    43        118
    44         59
    50         18
    51         40
    52         31
    53         81
    54        150
    55        413
    56        154
    57        218
    58         27
    63          4
    64          9
    65         31
    66         22
    67        109
    68        177
    69         63
    70        113
    71         18
    77         22
    78          9
    79         18
    80         54
    81        636
    82        818
    83        500
    84         45
    94         63
    95         13
    96        600
    97        231
    98        131
    99          9
   108        163
   109         31
   110        109
   111         72
   112         45
   113         18
   119         18
   121         36
   124          9
   137         27
   138         36
   139        200
   140         27
   149        181
   150         18
   165          4
   166         81
   167          9