##TITLE=Library Entry 9745
##JCAMP-DX=Revision 4.10 
##DATA TYPE=MASS SPECTRUM
##SAMPLE DESCRIPTION=Exported from NIST MS Search
##NAMES=HP
##CAS NAME=7-Oxa-15,20,24,27-tetraazatetracyclo[13.9.6.2(8,11).1(2,6)]tritri
aconta-2,4,6(33),8,10,12,31-heptaene-14,26-dione, 20-acetyl-5-methoxy-, [s-(
Z)]-
##MOLFORM=C31H40N4O5
##CAS REGISTRY NO=40135-65-7
##MP= -300
##BP= -300
##MW= 548
##$RETENTION INDEX=0
##$CONDENSED SPECTRUM=NO
##NPOINTS= 304
##XYDATA=(XY..XY) 1 
    41        262
    42        324
    43        999
    44        295
    45         53
    46         17
    47          5
    49          8
    50         23
    51         38
    52         14
    53         23
    54         38
    55        141
    56        289
    57        103
    58         53
    59         20
    62          5
    63         23
    64         14
    65         35
    66         17
    67         38
    68         94
    69         85
    70        356
    71         76
    72         88
    73         23
    74          8
    75         20
    76         76
    77        112
    78         53
    79         38
    80         38
    81         38
    82         82
    83        141
    84        469
    85         67
    86         44
    87         17
    88          8
    89         70
    90         53
    91        106
    92         41
    93         26
    94         23
    95         38
    96         88
    97         67
    98        150
    99         41
   100        129
   101         56
   102        182
   103         97
   104         76
   105         67
   106         23
   107         35
   108         26
   109         47
   110        103
   111         41
   112         88
   113         76
   114         38
   115         53
   116         35
   117         76
   118         88
   119         94
   120         29
   121         70
   122         26
   123         23
   124         41
   125         23
   126          8
   127         17
   128         29
   129         53
   130         20
   131         44
   132         61
   133         56
   134         94
   135         41
   136         29
   137         23
   138         17
   139         59
   140         35
   141         23
   142         17
   143         47
   144         17
   145         23
   146         53
   147         82
   148         53
   149         26
   150          8
   151          5
   152         23
   153         67
   154         41
   155         53
   156         35
   157         47
   158         20
   159         26
   160         53
   161         20
   162          8
   163         17
   164         26
   165         47
   166         20
   167         53
   168         70
   169         82
   170         23
   171         11
   172          8
   179          2
   180          5
   181         23
   182          5
   183         20
   184          5
   192          2
   193         20
   194         11
   195         20
   196         47
   197         20
   198          5
   199          2
   204          2
   205         11
   206         26
   207         11
   208         20
   209         14
   210          5
   221          2
   222          5
   223         17
   224          5
   225         11
   226         20
   227          5
   228          5
   229         20
   230         53
   231         20
   232          5
   234         11
   235         17
   236         53
   237         70
   238         23
   239         85
   240         38
   241         17
   242          5
   248          5
   249         20
   250         35
   251         59
   252         64
   253         53
   254         29
   255         20
   256          2
   261          2
   262          8
   263         20
   264         76
   265         76
   266         94
   267         53
   268         20
   269          5
   274         17
   275          5
   276         20
   277         64
   278         88
   279        315
   280        194
   281         85
   282         41
   283         20
   284          5
   286         11
   287        295
   288         11
   289         23
   290         47
   291         82
   292         67
   293        112
   294         82
   295         35
   296          8
   297          5
   303          2
   304         11
   305         29
   306         82
   307         50
   308          5
   309          2
   317          2
   318         11
   319         23
   320         53
   321         23
   322          5
   323          2
   334          5
   335         17
   336         23
   337         35
   338          5
   339          2
   348          5
   349         23
   350          5
   351         17
   352          5
   362          5
   363         23
   364         20
   365          8
   378          5
   379         11
   380          5
   391          2
   392         17
   393         44
   394         20
   395          5
   404          5
   405         17
   406         35
   407          5
   408          2
   418         11
   419         17
   420         26
   421         11
   422          5
   432         14
   433         20
   434         29
   435          8
   447          5
   448         41
   449         11
   460          2
   461          5
   462         29
   463         29
   464         11
   465          2
   474          5
   475         20
   476         73
   477         44
   478         17
   479          5
   490          2
   491         17
   492         35
   493        118
   494         47
   495         17
   496          2
   503          8
   504         44
   505        206
   506         82
   507         23
   508          5
   519          5
   520         29
   521          2
   529          5
   530         17
   531          5
   532         11
   533          5
   546          2
   547         17
   548        112
   549         32
   550          5