##TITLE=Library Entry 74639
##JCAMP-DX=Revision 4.10 
##DATA TYPE=MASS SPECTRUM
##SAMPLE DESCRIPTION=Institute of Organic Chemistry, Novosibirsk, USSR 1988
##NAMES=HP
##CAS NAME=Methyl(methyl 2,3,4-tri-O-methyl-.alpha.-d-mannopyranoside)uronat
e
##MOLFORM=C11H20O7
##CAS REGISTRY NO=40147-18-0
##MP= -300
##BP= -300
##MW= 264
##$RETENTION INDEX=0
##$CONDENSED SPECTRUM=NO
##NPOINTS= 47
##XYDATA=(XY..XY) 1 
    41         21
    42         16
    43         19
    45        169
    55         11
    56         20
    57         19
    58          9
    59         42
    69         15
    73        159
    74         49
    75        259
    76          7
    77         43
    85        119
    87         21
    88        639
    89         99
    98         11
    99          7
   101        999
   102         52
   103         10
   111         11
   113          8
   114          3
   115          2
   116          8
   117         11
   119          6
   120          9
   129          9
   131         15
   133          2
   141         24
   142          3
   145         25
   157          4
   159          5
   163          6
   169          3
   173         14
   176          1
   201         35
   205         12
   233          0