##TITLE=Library Entry 16429
##JCAMP-DX=Revision 4.10 
##DATA TYPE=MASS SPECTRUM
##SAMPLE DESCRIPTION=R.E.Ardrey ET AL.Pharmaceutical Mass Spectra,L.,1985
##NAMES=HP
##CAS NAME=10-Hydroxydesmethylimipramine
##MOLFORM=C18H22N2O
##CAS REGISTRY NO=4014-82-8
##MP= -300
##BP= -300
##MW= 282
##$RETENTION INDEX=0
##$CONDENSED SPECTRUM=NO
##NPOINTS= 113
##XYDATA=(XY..XY) 1 
    27        120
    28         10
    29        110
    30        100
    31         50
    36         10
    39         80
    40         10
    41        100
    42        110
    43         80
    44        999
    45         50
    50         20
    51         50
    52         20
    53         20
    54         10
    55         40
    56         60
    57         80
    58         20
    63         30
    64         10
    65         40
    67         10
    68         10
    69         20
    70         60
    71        140
    72         40
    76         20
    77        110
    78         30
    79         10
    81         10
    89         40
    90         20
    91         70
    92         10
    93         20
    98         10
    99         10
   102         20
   103         10
   104         20
   105         10
   106         20
   107         10
   115         30
   116         10
   117         30
   118         50
   119         10
   127         10
   128         30
   129         10
   130         30
   131         10
   132         20
   133         10
   139         20
   140         20
   146         20
   151         20
   152         50
   153         20
   154         10
   164         10
   165         70
   166         30
   167         70
   168         10
   177         20
   178         60
   179         70
   180        310
   181         60
   182         50
   183         10
   190         20
   191         40
   192         60
   193        160
   194        200
   195         40
   196         10
   204         60
   205         30
   206        140
   207         40
   208         40
   209         30
   210         80
   211         70
   217         10
   218         50
   219         10
   220         60
   221         20
   222         40
   223         20
   224         30
   232         50
   233         20
   234         20
   236         10
   237         10
   250         20
   251         60
   252         10
   264         20
   282         20