##TITLE=Library Entry 7114
##JCAMP-DX=Revision 4.10 
##DATA TYPE=MASS SPECTRUM
##SAMPLE DESCRIPTION=Div. of Experiment Therapeutics WRAIR, WRAMC, Washingto
n DC 20307
##NAMES=HP
##CAS NAME=4,4-Ethylenedioxy-pentanenitrile
##MOLFORM=C7H11NO2
##CAS REGISTRY NO=40159-07-7
##MP= -300
##BP= -300
##MW= 141
##$RETENTION INDEX=0
##$CONDENSED SPECTRUM=NO
##NPOINTS= 90
##XYDATA=(XY..XY) 1 
    41        351
    42        329
    43        999
    44         93
    45        200
    46        113
    47         22
    48         27
    49         73
    50         37
    51        127
    52        149
    53        139
    54        291
    55        402
    56         67
    57         34
    58         27
    59         40
    60         13
    61         12
    62          6
    63          9
    64         12
    65         10
    66         16
    67         23
    68         49
    69         68
    70         31
    71         34
    72         12
    73         41
    74          6
    75         15
    76          8
    77          8
    78          9
    79         10
    80         20
    81         18
    82        243
    83         36
    84         22
    85         12
    86         26
    87        143
    88         10
    89          6
    90          1
    91          7
    92          2
    93          8
    94          9
    95         38
    96         68
    97         39
    98         67
    99         88
   100         12
   101         13
   102          2
   103          4
   104          1
   105          4
   106          1
   107          3
   108          1
   109          2
   110          5
   111          8
   112          8
   113         18
   114         12
   115         15
   116          2
   117          5
   118          1
   119          3
   120          1
   124          4
   125          1
   126         34
   127          7
   128          3
   132          0
   139          1
   140          4
   141         13
   142          1