##TITLE=Library Entry 68212
##JCAMP-DX=Revision 4.10 
##DATA TYPE=MASS SPECTRUM
##SAMPLE DESCRIPTION=K. Jacobson, LBC, NIDDK, NIH, Bethesda, MD 20892
##NAMES=HP
##CAS NAME=Imidazole, 5-[2-(aminocarbonyl)ethyl]-
##MOLFORM=C6H9N3O
##CAS REGISTRY NO=40160-23-4
##MP= -300
##BP= -300
##MW= 139
##$RETENTION INDEX=0
##$CONDENSED SPECTRUM=NO
##NPOINTS= 73
##XYDATA=(XY..XY) 1 
    41        124
    42         49
    43         21
    44         70
    45         31
    46          6
    47          5
    49          0
    50          3
    51          7
    52         25
    53         16
    54         90
    55         19
    56          8
    57          4
    58          2
    59         10
    60          3
    61          0
    62          0
    63          1
    64          3
    65          4
    66         22
    67         37
    68        134
    69         14
    70          2
    71          1
    72          5
    73          3
    74          2
    77          2
    78          7
    79          2
    80          1
    81        472
    82         28
    83          4
    84          9
    85          4
    92          1
    93         61
    94        223
    95        999
    96         94
    97          9
    98          0
    99          1
   100          2
   101          0
   105          0
   106          3
   107          1
   110          1
   111          1
   112          3
   113          2
   119          0
   120          2
   121         32
   122        124
   123         22
   124          4
   128          0
   129          0
   137          0
   138          1
   139        240
   140         44
   141         21
   142          1