##TITLE=Library Entry 69528
##JCAMP-DX=Revision 4.10 
##DATA TYPE=MASS SPECTRUM
##SAMPLE DESCRIPTION=Japan AIST/NIMC Database- Spectrum MS-NW-9994
##NAMES=HP
##CAS NAME=Ethyl 1-methyl-1,2,3,6-tetrahydro-4-pyridinecarboxylate
##MOLFORM=C9H15NO2
##CAS REGISTRY NO=40175-06-2
##MP= -300
##BP= -300
##MW= 169
##$RETENTION INDEX=0
##$CONDENSED SPECTRUM=NO
##NPOINTS= 91
##XYDATA=(XY..XY) 1 
    14          1
    15         20
    26          5
    27         57
    28         27
    29         40
    30         14
    31          9
    38          3
    39         26
    40          7
    41         40
    42        242
    43        153
    44         84
    45          9
    46          2
    47          3
    48         12
    50          4
    51         13
    52         12
    53         85
    54         16
    55         26
    56          7
    57         10
    58          4
    59          2
    60          1
    61          7
    62          3
    63          1
    65          9
    66          8
    67         27
    68         23
    69         35
    70         32
    71          9
    72          1
    73          1
    77          3
    78          7
    79         14
    80         21
    81         80
    82         22
    83          4
    84          8
    85          2
    91          1
    92          3
    93          7
    94        175
    95         29
    96        999
    97         79
    98        103
    99         41
   100          7
   101          1
   106          2
   108          3
   109          1
   110          9
   111          2
   112         25
   113          2
   114          1
   122         29
   123          7
   124        153
   125         12
   126         11
   127          7
   128          1
   138         33
   139          4
   140        320
   141         25
   142         14
   143          1
   154          4
   155          1
   166          3
   168         44
   169        133
   170         24
   171          9
   172          1