##TITLE=Library Entry 1438
##JCAMP-DX=Revision 4.10 
##DATA TYPE=MASS SPECTRUM
##SAMPLE DESCRIPTION=Chemical Concepts
##NAMES=HP
##CAS NAME=3,8-Bis(2,2-dimethoxyethyl)-2,7,12,18-tetramethylporphyrin-13,17-
dipropanoic acid, dimethyl ester
##MOLFORM=C40H50N4O8
##CAS REGISTRY NO=40176-54-3
##MP= -300
##BP= -300
##MW= 714
##$RETENTION INDEX=0
##$CONDENSED SPECTRUM=NO
##NPOINTS= 80
##XYDATA=(XY..XY) 1 
    29        773
    30         40
    31        999
    32        601
    33        280
    42         25
    44         34
    45         20
    46         18
    55         29
    56         18
    57         44
    69         23
    71         28
    75         66
    83         21
    85         19
    97         16
   101         25
   111          9
   272         13
   325         11
   417         13
   418          8
   430          8
   431         11
   445          8
   461          7
   491         13
   504         13
   519          9
   533         13
   534         16
   535          9
   547         16
   548         10
   549         10
   564         35
   565         36
   566         36
   577         69
   578         49
   579         25
   580         16
   590         22
   591         21
   592         24
   593         27
   594         26
   607         98
   608        158
   609         61
   610         26
   619         21
   620         57
   621         32
   622         39
   623         29
   624         15
   635         23
   636         37
   637         20
   639         92
   640        209
   641         92
   642         21
   650        482
   651        250
   652        121
   653         39
   654         36
   655         24
   668         28
   682        289
   683        165
   684         64
   685         22
   714        368
   715        168
   716         43