##TITLE=Library Entry 10428
##JCAMP-DX=Revision 4.10 
##DATA TYPE=MASS SPECTRUM
##SAMPLE DESCRIPTION=Exported from NIST MS Search
##NAMES=HP
##CAS NAME=Bicyclo[4.1.0]heptan-3-ol, 3,7,7-trimethyl-, [1S-(1.alpha.,3.alph
a.,6.alpha.)]-
##MOLFORM=C10H18O
##CAS REGISTRY NO=4017-79-2
##MP= -300
##BP= -300
##MW= 154
##$RETENTION INDEX=0
##$CONDENSED SPECTRUM=NO
##NPOINTS= 68
##XYDATA=(XY..XY) 1 
    15         33
    27        149
    29        116
    31         25
    39        116
    40         33
    41        364
    42         41
    43        999
    44         41
    45         33
    51         33
    52         25
    53        116
    54         58
    55        331
    56         58
    57         83
    58        281
    59         58
    61          8
    62         50
    63         25
    65         50
    66         25
    67        157
    68         74
    69        248
    70         91
    71        347
    72         41
    77        116
    78         33
    79        190
    80         91
    81        636
    82        132
    83        182
    84        107
    85        289
    86         25
    91         91
    92        124
    93        579
    94         83
    95        107
    96        744
    97        116
    98         91
    99         25
   105         41
   106         25
   107        132
   108         41
   109         17
   110         33
   111         99
   112         25
   119         33
   120         17
   121        471
   122         50
   125         33
   135          8
   136        529
   137         66
   139         91
   154         33