##TITLE=Library Entry 35730
##JCAMP-DX=Revision 4.10 
##DATA TYPE=MASS SPECTRUM
##SAMPLE DESCRIPTION=Dr. Jiri Zamecnik, DCIEM, North York, Canada, GP Librar
y
##NAMES=HP
##CAS NAME=Piperazine, 1-(2-furanylcarbonyl)-
##MOLFORM=C9H12N2O2
##CAS REGISTRY NO=40172-95-0
##MP= -300
##BP= -300
##MW= 180
##$RETENTION INDEX=0
##$CONDENSED SPECTRUM=NO
##NPOINTS= 27
##XYDATA=(XY..XY) 1 
    38        330
    42        262
    44        133
    55        117
    56        875
    57        197
    58        124
    68         78
    69        999
    70         60
    81         77
    85        259
    95        949
    96         59
   109         16
   110         11
   112         66
   124         11
   125         88
   126         21
   137         23
   138         58
   139          5
   151          6
   152          4
   180         40
   181          4