##TITLE=Library Entry 70447
##JCAMP-DX=Revision 4.10 
##DATA TYPE=MASS SPECTRUM
##SAMPLE DESCRIPTION=D.HENNEBERG, MAX-PLANCK INSTITUTE, MULHEIM, WEST GERMAN
Y
##NAMES=HP
##CAS NAME=Benzenemethanol, 3-fluoro-.alpha.-methyl-
##MOLFORM=C8H9FO
##CAS REGISTRY NO=402-63-1
##MP= -300
##BP= -300
##MW= 140
##$RETENTION INDEX=1049
##$CONDENSED SPECTRUM=NO
##NPOINTS= 102
##XYDATA=(XY..XY) 1 
    25          0
    26          8
    27         58
    28         17
    29         92
    30          2
    31         21
    33          6
    34          0
    35          0
    36          1
    37         10
    38         25
    39         70
    40          3
    41          3
    42         10
    43        546
    44         22
    45        104
    46          6
    47          3
    48          5
    49         14
    50        112
    51        130
    52         19
    53          6
    54          2
    55          6
    56          9
    57         55
    58          5
    59          9
    60         17
    61         23
    63         46
    64          6
    65         10
    66          3
    67          3
    68         32
    69         52
    70         59
    71         13
    72          3
    73         13
    74         46
    75        176
    76         29
    77        258
    78         29
    79          2
    80          3
    81         20
    82          2
    83         23
    84          4
    85          2
    86          5
    87          5
    88          2
    89          5
    90          2
    91         12
    92          7
    93         16
    94         29
    95        259
    96        335
    97        999
    98         64
    99          6
   100          2
   101         60
   102         14
   103         32
   104          4
   105         42
   106          4
   107         16
   108          4
   109         34
   110          5
   111          5
   113          1
   116          0
   118          1
   119          3
   120         27
   121         54
   122        113
   123        113
   124         17
   125        756
   126         57
   127          4
   138         12
   139         30
   140        153
   141         12
   142          1