##TITLE=Library Entry 68727
##JCAMP-DX=Revision 4.10 
##DATA TYPE=MASS SPECTRUM
##SAMPLE DESCRIPTION=Japan AIST/NIMC Database- Spectrum MS-NW- 999
##NAMES=HP
##CAS NAME=Benzene, 1-fluoro-3-nitro-
##MOLFORM=C6H4FNO2
##CAS REGISTRY NO=402-67-5
##MP= -300
##BP= -300
##MW= 141
##$RETENTION INDEX=1067
##$CONDENSED SPECTRUM=NO
##NPOINTS= 74
##XYDATA=(XY..XY) 1 
    16          1
    17          1
    18          3
    25          1
    26          4
    27          7
    28         39
    30        161
    31         19
    32          7
    33          2
    36          3
    37         21
    38         19
    39         22
    40          1
    41          1
    44          4
    45          8
    46          5
    48          2
    49         10
    50         87
    51         54
    52          5
    55          1
    56          8
    57         56
    58          3
    59          1
    60          2
    61         13
    62         17
    63         21
    64          6
    65          2
    68         45
    69         76
    70          5
    72          1
    73          9
    74         58
    75        467
    76         37
    77          8
    80          1
    81          9
    82          9
    83        145
    84         15
    85          1
    87          1
    88          1
    89          2
    91          2
    92          9
    93         15
    94         45
    95        999
    96         66
    97          2
   107          1
   108          1
   109          5
   110          5
   111         92
   112          6
   123          4
   125         13
   126          1
   138          3
   141        697
   142         50
   143          4