##TITLE=Library Entry 41594
##JCAMP-DX=Revision 4.10 
##DATA TYPE=MASS SPECTRUM
##SAMPLE DESCRIPTION=Institute of Organic Chemistry, Novosibirsk, USSR 1988
##NAMES=HP
##CAS NAME=Trimethyl(3,3-difluoro-2-propenyl)silane
##MOLFORM=C6H12F2Si
##CAS REGISTRY NO=40207-81-6
##MP= -300
##BP= -300
##MW= 150
##$RETENTION INDEX=0
##$CONDENSED SPECTRUM=NO
##NPOINTS= 7
##XYDATA=(XY..XY) 1 
    39        113
    58         20
    73        999
    74         91
    75         37
    77        120
   150         38