##TITLE=Library Entry 2934
##JCAMP-DX=Revision 4.10 
##DATA TYPE=MASS SPECTRUM
##SAMPLE DESCRIPTION=M.GIELEN FREE UNIV. OF BRUSSELS, BRUSSELS, BELGIUM
##NAMES=HP
##CAS NAME=Stannane, tributylcyclohexyl-
##MOLFORM=C18H38Sn
##CAS REGISTRY NO=40218-10-8
##MP= -300
##BP= -300
##MW= 374
##$RETENTION INDEX=0
##$CONDENSED SPECTRUM=NO
##NPOINTS= 184
##XYDATA=(XY..XY) 1 
    14          5
    15         10
    17         10
    18         40
    26         20
    27        340
    28        100
    29        600
    30         10
    32          5
    37          5
    38          5
    39        250
    40         20
    41        999
    42         50
    43        130
    44          5
    50          5
    51         10
    52          5
    53         80
    54         40
    55        910
    56         50
    57         60
    65         10
    66          5
    67         40
    77         10
    79         20
    81        110
    82         10
    83        260
    84         20
   112          5
   113         10
   115         10
   116         80
   117        310
   118        230
   119        520
   120        340
   121        610
   122         70
   123        230
   124         30
   125        120
   127         30
   131         20
   132         10
   133         30
   134         10
   135         40
   136          5
   137         10
   139         10
   141          5
   143         10
   144          5
   145         30
   146         10
   147         40
   148         10
   149         40
   151         10
   153         10
   155         10
   157         10
   159         10
   160          5
   161         80
   162         40
   163        110
   164         30
   165        130
   166          5
   167         20
   169         30
   171         30
   172         10
   173        120
   174         80
   175        450
   176        230
   177        700
   178        210
   179        710
   180         30
   181        120
   182          5
   183        130
   184          5
   197         10
   198          5
   199         20
   200         20
   201        120
   202         60
   203        180
   204         60
   205        200
   206         10
   207         30
   209         30
   217         40
   218         20
   219         80
   220         30
   221        100
   222          5
   223         10
   225         20
   227         10
   229          5
   230          5
   231        130
   232         80
   233        230
   234        110
   235        300
   236         30
   237         40
   238          5
   239         50
   240          5
   243         10
   244         10
   245         20
   246         10
   247         30
   249          5
   251          5
   253         10
   255         10
   256         10
   257        110
   258         70
   259        190
   260         80
   261        250
   262         30
   263         40
   264          5
   265         40
   266          5
   273         10
   274          5
   275         20
   276         10
   277         20
   283          5
   285          5
   287         90
   288         60
   289        160
   290         70
   291        210
   292         30
   293         30
   294          5
   295         40
   299         10
   300          5
   301         20
   302         10
   303         30
   309         10
   311         10
   312         10
   313        120
   314         80
   315        180
   316         90
   317        250
   318         40
   319         40
   320          5
   321         40
   322         10
   328          5
   339          5
   340         10
   341          5