##TITLE=Library Entry 60519
##JCAMP-DX=Revision 4.10 
##DATA TYPE=MASS SPECTRUM
##SAMPLE DESCRIPTION=NIST Mass Spectrometry Data Center, 1994
##NAMES=HP
##CAS NAME=7-Phenylheptanoic acid
##MOLFORM=C13H18O2
##CAS REGISTRY NO=40228-90-8
##MP= -300
##BP= -300
##MW= 206
##$RETENTION INDEX=0
##$CONDENSED SPECTRUM=NO
##NPOINTS= 81
##XYDATA=(XY..XY) 1 
    14          1
    16          0
    26          8
    27         77
    28         25
    29         60
    31         16
    32          6
    37          7
    38          9
    39        110
    40         16
    41        114
    42         40
    43         29
    44          6
    45         97
    50         20
    51         65
    52         18
    53         20
    54          7
    55         67
    59          7
    60         39
    61          8
    62         10
    63         33
    64         10
    65        161
    66         14
    67         10
    68          7
    69         60
    70          6
    73         45
    74          8
    75          7
    76          7
    77         80
    78         76
    79         50
    82          9
    83          9
    84         88
    85          7
    87          5
    89         33
    91        999
    92        403
    93         34
    97         49
   102         12
   103         37
   104         94
   105        121
   106         14
   107          9
   110          7
   115         40
   116         10
   117         42
   118         12
   119         19
   120          5
   128          6
   129         10
   131         11
   132          6
   133         32
   134          6
   144         21
   145         10
   146         21
   147         10
   188         54
   189          8
   191         14
   206        110
   207         15
   208          0