##TITLE=Library Entry 1736
##JCAMP-DX=Revision 4.10 
##DATA TYPE=MASS SPECTRUM
##SAMPLE DESCRIPTION=Japan AIST/NIMC Database- Spectrum MS-NW-1756
##NAMES=HP
##CAS NAME=(E)-1-Propene-1,2,3-tricarboxylic acid
##MOLFORM=C6H6O6
##CAS REGISTRY NO=4023-65-8
##MP= -300
##BP= -300
##MW= 174
##$RETENTION INDEX=0
##$CONDENSED SPECTRUM=NO
##NPOINTS= 120
##XYDATA=(XY..XY) 1 
    12         11
    13          5
    14         12
    15         15
    16         38
    17         21
    18         84
    19          3
    24          5
    25         21
    26         39
    27         70
    28        107
    29         80
    30          4
    31         15
    32          1
    33          8
    34          7
    36         22
    37        123
    38        219
    39        999
    40        578
    41        178
    42        106
    43        111
    44        667
    45        334
    46         11
    47          6
    48          3
    49          6
    50          9
    51          8
    52          6
    53         58
    54          9
    55         86
    56         23
    57         33
    58         46
    59          3
    60         20
    61          1
    62          1
    63          3
    64          1
    65          6
    66         72
    67         88
    68        340
    69         69
    70          5
    71          9
    72          4
    73          8
    74          2
    77          8
    78          3
    79         11
    80          4
    81          8
    82         12
    83         24
    84        390
    85         51
    86         73
    87          8
    88          1
    91          3
    92          1
    93          4
    94         29
    95          7
    96          3
    97          4
    98          3
    99          5
   100          7
   101          3
   102          1
   105          2
   106          3
   107          6
   108          3
   109          6
   110          6
   111         34
   112        254
   113         20
   114          2
   115          1
   121          4
   122          2
   123          3
   124          2
   125          2
   126          2
   127          1
   128         39
   129         14
   130         28
   131          2
   133          1
   134          2
   135          2
   136          2
   137          1
   138        161
   139         46
   140          5
   141          1
   149          1
   151          1
   152          4
   153          2
   154          1
   156         34
   157          5