##TITLE=Library Entry 33972
##JCAMP-DX=Revision 4.10 
##DATA TYPE=MASS SPECTRUM
##SAMPLE DESCRIPTION=NIST Mass Spectrometry Data Center, 1994
##NAMES=HP
##CAS NAME=Cyclopropanecarboxylic acid chloride
##MOLFORM=C4H5ClO
##CAS REGISTRY NO=4023-34-1
##MP= -300
##BP= -300
##MW= 104
##$RETENTION INDEX=0
##$CONDENSED SPECTRUM=NO
##NPOINTS= 53
##XYDATA=(XY..XY) 1 
     4          0
    12         14
    13         30
    14         47
    15         40
    16          2
    18          0
    19          2
    24          8
    25         37
    26        116
    27        125
    28         43
    29         23
    33          4
    34          4
    35         43
    36         30
    37        124
    38        163
    39        718
    40         97
    41        581
    42         93
    43          4
    45          1
    47          9
    48         11
    49         21
    50         16
    51          8
    52          3
    53         14
    54          5
    55         15
    60          6
    61          5
    62          4
    63         39
    64          1
    65         13
    69        999
    70         42
    71          3
    73          2
    74          1
    75          8
    76         47
    77          3
    78         12
   103          3
   104          3
   105          2