##TITLE=Library Entry 62245
##JCAMP-DX=Revision 4.10 
##DATA TYPE=MASS SPECTRUM
##SAMPLE DESCRIPTION=Chemical Concepts
##NAMES=HP
##CAS NAME=Phenol, 3-methoxy-4-(phenylmethoxy)-
##MOLFORM=C14H14O3
##CAS REGISTRY NO=40232-88-0
##MP= -300
##BP= -300
##MW= 230
##$RETENTION INDEX=0
##$CONDENSED SPECTRUM=NO
##NPOINTS= 133
##XYDATA=(XY..XY) 1 
    26          6
    27         17
    28          5
    29         16
    30          0
    31          4
    37          2
    38          7
    39         81
    40         12
    41         40
    42         16
    43         21
    44          2
    45          3
    50         14
    51         40
    52         24
    53         22
    54         11
    55         59
    56          9
    57         26
    58          1
    59          3
    60          4
    61          2
    62          9
    63         31
    64         12
    65        184
    66         13
    67         11
    68         34
    69         49
    70          8
    71         16
    72          1
    73          7
    74          3
    75          3
    76          4
    77         16
    78          5
    79         11
    80          6
    81         32
    82          8
    83         26
    84          5
    85          8
    86          1
    87          3
    88          1
    89         26
    90         13
    91        999
    92        123
    93         93
    94          7
    95         10
    96         28
    97         14
    98          3
    99          3
   101          1
   102          1
   103          2
   104          3
   105          6
   106          1
   107          3
   108         12
   109         14
   110          6
   111        176
   112         13
   113          4
   115          8
   116          2
   117          3
   118          1
   119          1
   121          7
   122          2
   123          3
   124          1
   125          8
   126          1
   127          3
   128          3
   129          5
   130          1
   131          1
   135          6
   136          1
   137          6
   138          6
   139        849
   140         83
   141         15
   142          2
   143          1
   144          1
   145          1
   146          1
   147          1
   167          7
   168          3
   169          3
   170          1
   171          0
   178          2
   179          1
   181          5
   182          1
   183          2
   184          1
   185          2
   186          3
   191          1
   192          1
   193          1
   194          1
   195          1
   196          1
   197          4
   198          2
   228          1
   229          1
   230        258
   231         43
   232          5