##TITLE=Library Entry 25853
##JCAMP-DX=Revision 4.10 
##DATA TYPE=MASS SPECTRUM
##SAMPLE DESCRIPTION=Chemical Concepts
##NAMES=HP
##CAS NAME=Neopentyl isobutyl ketone
##MOLFORM=C10H20O
##CAS REGISTRY NO=40239-19-8
##MP= -300
##BP= -300
##MW= 156
##$RETENTION INDEX=0
##$CONDENSED SPECTRUM=NO
##NPOINTS= 70
##XYDATA=(XY..XY) 1 
    12          0
    14          6
    15         35
    16          2
    17          6
    18         27
    19          0
    26          7
    27        204
    28        127
    29        376
    30          8
    31          5
    32         22
    37          1
    38          5
    39        160
    40         32
    41        470
    42         68
    43        345
    44         11
    45          2
    48          0
    50          2
    51          5
    52          2
    53         21
    54          5
    55         58
    56         69
    57        999
    58        337
    59         34
    60          1
    61          1
    62          0
    63          1
    65          1
    66          0
    67          4
    68          0
    69         15
    70          4
    71        132
    72         22
    73          0
    77          1
    79          2
    82          0
    83         13
    84          6
    85        483
    86         28
    87          1
    91          0
    95          0
    97          1
    98          2
    99        337
   100         97
   101         14
   102          0
   112          0
   113          1
   114          1
   141         15
   142          1
   156        136
   157         16