##TITLE=Library Entry 11097
##JCAMP-DX=Revision 4.10 
##DATA TYPE=MASS SPECTRUM
##SAMPLE DESCRIPTION=D.HENNEBERG, MAX-PLANCK INSTITUTE, MULHEIM, WEST GERMAN
Y
##NAMES=HP
##CAS NAME=Phosphinous chloride, bis(1-methylethyl)-
##MOLFORM=C6H14ClP
##CAS REGISTRY NO=40244-90-4
##MP= -300
##BP= -300
##MW= 152
##$RETENTION INDEX=0
##$CONDENSED SPECTRUM=NO
##NPOINTS= 95
##XYDATA=(XY..XY) 1 
    27        136
    28          2
    29         19
    31          2
    33          1
    34          0
    35          1
    36         12
    37          6
    38          8
    39         95
    40         16
    41        234
    42         30
    43        999
    44         24
    45         44
    46         10
    47         14
    48          6
    49          1
    50          1
    51          1
    52          0
    53          0
    55          5
    56          4
    57         34
    58         11
    59          6
    60          0
    61          5
    62          3
    63          1
    64          0
    65          0
    66          7
    67          9
    68          4
    70          1
    71         10
    72          8
    73         12
    74         29
    75         19
    76          5
    77          0
    78          0
    79          0
    80          2
    81         55
    82          5
    83         17
    84          1
    85          0
    87          0
    88          1
    89          1
    90          0
    91          0
    92          2
    93          2
    94          1
    95          2
    96          1
    97          0
   101          1
   102          0
   103          0
   108          4
   109          5
   110        237
   111         19
   112         77
   113          5
   114          0
   115          0
   116          3
   117         20
   118          2
   121          0
   124          1
   125          0
   126          0
   127          0
   133          0
   134          0
   136          0
   137          1
   138          0
   139          0
   151          0
   152        119
   153          8
   154         40