##TITLE=Library Entry 50775
##JCAMP-DX=Revision 4.10 
##DATA TYPE=MASS SPECTRUM
##SAMPLE DESCRIPTION=Japan AIST/NIMC Database- Spectrum MS-NW-3655
##NAMES=HP
##CAS NAME=Levo-menthoxyacetic acid
##MOLFORM=C12H22O3
##CAS REGISTRY NO=40248-63-3
##MP= -300
##BP= -300
##MW= 214
##$RETENTION INDEX=0
##$CONDENSED SPECTRUM=NO
##NPOINTS= 118
##XYDATA=(XY..XY) 1 
    14          3
    15          9
    17          2
    18          7
    26          4
    27        144
    28         35
    29        150
    30          9
    31         94
    32          2
    38          4
    39        133
    40         23
    41        482
    42         56
    43        249
    44         13
    45         26
    46          2
    49          6
    50          4
    51         16
    52          9
    53        102
    54         80
    55        595
    56        140
    57        227
    58         10
    59         21
    60         26
    61         55
    62          2
    63          4
    64          1
    65         23
    66         11
    67        330
    68        169
    69        371
    70         68
    71        425
    72         20
    73         14
    74          2
    75          6
    76          4
    77         40
    78          8
    79         51
    80         88
    81        999
    82        478
    83        415
    84         36
    85         58
    86          5
    87          2
    88          2
    89          9
    91         16
    92          3
    93         28
    94         61
    95        853
    96        280
    97         85
    98          8
    99         52
   100          3
   102         15
   103          5
   105          3
   107          6
   108          3
   109        141
   110         86
   111         24
   112          9
   113          9
   114          1
   115         21
   116          5
   117          2
   119          1
   121          7
   122          2
   123        457
   124         47
   125          5
   127          1
   128          7
   129        921
   130         65
   131          9
   132          1
   136          2
   137         70
   138        376
   139        111
   140         10
   141          2
   142          3
   143         58
   144          6
   145          1
   153          2
   154          1
   155        112
   156         12
   157         24
   158          3
   169          2
   171          3
   199          2
   213          1
   214          1