##TITLE=Library Entry 12836
##JCAMP-DX=Revision 4.10 
##DATA TYPE=MASS SPECTRUM
##SAMPLE DESCRIPTION=J.L.BORGNA ECOLE NAT. SUP., MONTPELLIER, FRANCE
##NAMES=HP
##CAS NAME=Cholestan-19-ol, 5,6-epoxy-3-fluoro-, acetate, (3.beta.,5.alpha.,
6.alpha.)-
##MOLFORM=C29H47FO3
##CAS REGISTRY NO=40242-96-4
##MP= -300
##BP= -300
##MW= 462
##$RETENTION INDEX=0
##$CONDENSED SPECTRUM=NO
##NPOINTS= 82
##XYDATA=(XY..XY) 1 
    41        540
    43        999
    44         87
    53        127
    55        594
    56        107
    57        527
    67        327
    68        114
    69        460
    71        254
    77        147
    79        300
    80         74
    81        420
    82        100
    83        290
    91        314
    92         80
    93        334
    94        100
    95        434
    97        174
   105        217
   106         80
   107        260
   108        120
   109        204
   111        100
   117        107
   119        167
   120         74
   121        167
   122        104
   123        126
   128         74
   129        150
   131        150
   133        150
   134         87
   135        307
   136        106
   139         70
   141        373
   142        107
   143        110
   145        220
   147        114
   149        267
   151        100
   154         70
   155         93
   161         87
   163        653
   164         80
   165         73
   177        107
   179        113
   180         80
   181         73
   187        107
   193         73
   203         73
   205         73
   217         93
   219        120
   221         93
   235         80
   247        123
   249        133
   289         93
   291        100
   358        103
   359         82
   371        100
   384        153
   389        153
   402        353
   403        140
   442         27
   444         15
   462         43