##TITLE=Library Entry 22548
##JCAMP-DX=Revision 4.10 
##DATA TYPE=MASS SPECTRUM
##SAMPLE DESCRIPTION=Div. of Experiment Therapeutics WRAIR, WRAMC, Washingto
n DC 20307
##NAMES=HP
##CAS NAME=N-Benzylidene-2-[N-aziridyl]ethylamine
##MOLFORM=C11H14N2
##CAS REGISTRY NO=4025-38-1
##MP= -300
##BP= -300
##MW= 174
##$RETENTION INDEX=0
##$CONDENSED SPECTRUM=NO
##NPOINTS= 79
##XYDATA=(XY..XY) 1 
    41         89
    42        160
    43        254
    44         37
    47          6
    49         45
    50         25
    51         78
    52         14
    53          1
    54         25
    55         23
    56        999
    57         39
    58         16
    62          8
    63         30
    64         11
    65         59
    66          4
    67          4
    68          7
    69          6
    70         32
    71        733
    72         34
    74          6
    75          6
    76         14
    77         82
    78         17
    79         11
    82          1
    83          5
    84         17
    85          3
    86         12
    89         43
    90         29
    91        271
    92         22
    95          5
    97          8
    99         11
   103         15
   104         50
   105         32
   106          8
   111          6
   112          1
   113          1
   115          7
   116          5
   117         40
   118        105
   119         12
   120         19
   124          1
   125          1
   130         23
   131         10
   132         24
   133          5
   144         11
   145          9
   146         12
   147          4
   149          2
   152          2
   156          1
   157          2
   158          5
   159         15
   160          2
   172          1
   173         25
   174         38
   175          6
   176          2