##TITLE=Library Entry 24901
##JCAMP-DX=Revision 4.10 
##DATA TYPE=MASS SPECTRUM
##SAMPLE DESCRIPTION=A.A.Kutin, Moscow, Russia
##NAMES=HP
##CAS NAME=Pyrrolidine, 1-methyl-3,2'-spiro-benzo-1,3-dioxolane-
##MOLFORM=C11H13NO2
##CAS REGISTRY NO=40259-14-1
##MP= -300
##BP= -300
##MW= 191
##$RETENTION INDEX=0
##$CONDENSED SPECTRUM=NO
##NPOINTS= 27
##XYDATA=(XY..XY) 1 
    45         70
    46          2
    50         14
    51         14
    52         16
    53         26
    55        151
    56        241
    57        999
    58         36
    63         22
    64         20
    65         11
    66          5
    67         21
    68          8
    69         50
    70         33
    71         20
    77          5
    81         27
    82         37
    83         28
    84          6
    94          5
   147          5
   191        102