##TITLE=Library Entry 15466
##JCAMP-DX=Revision 4.10 
##DATA TYPE=MASS SPECTRUM
##SAMPLE DESCRIPTION=Div. of Experiment Therapeutics WRAIR, WRAMC, Washingto
n DC 20307
##NAMES=HP
##CAS NAME=(2-Aziridinylethyl)amine
##MOLFORM=C4H10N2
##CAS REGISTRY NO=4025-37-0
##MP= -300
##BP= -300
##MW= 86
##$RETENTION INDEX=0
##$CONDENSED SPECTRUM=NO
##NPOINTS= 20
##XYDATA=(XY..XY) 1 
    41          2
    42          4
    43          7
    44        999
    45         32
    46         28
    55          1
    56         10
    57          4
    58          5
    59          0
    69          0
    70          5
    71          2
    72          0
    84          2
    85          6
    86          7
    87          2
    88          1