##TITLE=Library Entry 83743
##JCAMP-DX=Revision 4.10 
##DATA TYPE=MASS SPECTRUM
##SAMPLE DESCRIPTION=Exported from NIST MS Search
##NAMES=HP
##CAS NAME=Bufa-20,22-dienolide, 14,15-epoxy-3,16-dihydroxy-, (3.beta.,5.bet
a.,15.beta.,16.beta.)-
##MOLFORM=C24H32O5
##CAS REGISTRY NO=4026-95-3
##MP= -300
##BP= -300
##MW= 400
##$RETENTION INDEX=0
##$CONDENSED SPECTRUM=NO
##NPOINTS= 321
##XYDATA=(XY..XY) 1 
    41        476
    42         40
    43        352
    44        380
    45         28
    46         19
    51         47
    52         28
    53        207
    54         59
    55        452
    56         28
    57         76
    59         19
    63         40
    64         19
    65        207
    66         76
    67        628
    68         66
    69         85
    70         40
    71        107
    72          9
    73         19
    74         19
    75          9
    76         19
    77        523
    78        135
    79        776
    80        123
    81        809
    82        207
    83        142
    84         40
    85         61
    86         11
    87         11
    88         11
    89         11
    90         11
    91        866
    92        171
    93        802
    94        166
    95        571
    96         88
    97         95
    98         28
    99         28
   100         19
   101         28
   102         19
   103        104
   104         59
   105        814
   106        266
   107        999
   108        469
   109        416
   110        266
   111         95
   112         28
   113          9
   114          9
   115        157
   116         57
   117        266
   118        114
   119        476
   120        238
   121        440
   122        133
   123        154
   124        185
   125         88
   126         19
   127         57
   128        173
   129        226
   130         85
   131        316
   132        119
   133        380
   134        142
   135        207
   136         57
   137         95
   138        254
   139        154
   140         38
   141         95
   142         47
   143        214
   144        114
   145        380
   146        142
   147        428
   148        166
   149        166
   150        133
   151        173
   152         85
   153         47
   154         28
   155         88
   156         66
   157        185
   158        114
   159        338
   160        185
   161        300
   162        102
   163        135
   164         88
   165        114
   166        114
   167        142
   168         76
   169        114
   170         66
   171        185
   172         76
   173        278
   174        135
   175        157
   176         66
   177         76
   178         57
   179         66
   180         28
   181        104
   182         47
   183        123
   184         57
   185        173
   186         66
   187        185
   188         88
   189         76
   190         88
   191         95
   192         38
   193         54
   194         47
   195         95
   196         35
   197        114
   198         66
   199        154
   200         76
   201        257
   202         95
   203        142
   204         66
   205         66
   206         38
   207        114
   208         38
   209         95
   210         66
   211        142
   212         66
   213        238
   214        123
   215        778
   216        338
   217        171
   218         66
   219         88
   220         47
   221         47
   222         57
   223         66
   224         59
   225         76
   226         66
   227        142
   228         76
   229        102
   230         66
   231        102
   232        114
   233        419
   234        278
   235         76
   236         28
   237         47
   238         80
   239         95
   240         66
   241         76
   242         47
   243         88
   244         47
   245         47
   246         28
   247         76
   248         28
   249         47
   250         95
   251         57
   252         47
   253         66
   254         38
   255         66
   256         88
   257        114
   258         47
   259         47
   260         19
   261         59
   262         19
   263         59
   264         19
   265         40
   266         19
   267         40
   268         47
   269         47
   270         40
   271         47
   272         19
   273         47
   274         28
   275         47
   276         40
   277         28
   278         19
   279         47
   280         19
   281         38
   282         28
   283         28
   284          9
   285          9
   287         19
   288         19
   289         47
   290         28
   291        173
   292         66
   293         28
   294         19
   295         40
   296         28
   297         19
   301          9
   303         40
   304          9
   305         59
   306          9
   307         40
   308         47
   309         28
   310         28
   311         47
   312          9
   313          9
   317          7
   318         28
   319         47
   320         47
   321         66
   322         40
   323         76
   324         40
   325         40
   326         19
   327         28
   328         28
   329          9
   331         59
   332         19
   333          7
   334          7
   335         95
   336        123
   337         59
   338         28
   339         40
   340         19
   341         19
   342         19
   346         47
   347         19
   348         19
   349        104
   350         28
   351         19
   352         19
   353         47
   354         76
   355         40
   356         28
   357         19
   362          9
   364        142
   365         47
   366         38
   367        142
   368         40
   369          9
   370         40
   371         40
   372         28
   373          7
   380         47
   381          7
   382        195
   383         76
   384         28
   385         47
   386         19
   388         19
   398         40
   399         19
   400        266
   401        123
   402         40