##TITLE=Library Entry 38607
##JCAMP-DX=Revision 4.10 
##DATA TYPE=MASS SPECTRUM
##SAMPLE DESCRIPTION=Chemical Concepts
##NAMES=HP
##CAS NAME=1,1-Di(isobutyl)acetone
##MOLFORM=C11H22O
##CAS REGISTRY NO=40264-43-5
##MP= -300
##BP= -300
##MW= 170
##$RETENTION INDEX=0
##$CONDENSED SPECTRUM=NO
##NPOINTS= 61
##XYDATA=(XY..XY) 1 
    14          2
    15         37
    16          1
    18          7
    26          2
    27         82
    28         13
    29         65
    30          1
    31          1
    38          1
    39         57
    40         10
    41        207
    42         32
    43        858
    44         28
    45          8
    51          3
    52          1
    53         21
    54          4
    55         82
    56         42
    57        240
    58         70
    59         75
    60          3
    65          4
    67         16
    68          4
    69         54
    70         42
    71        999
    72         69
    73          5
    77          4
    79          5
    81          7
    82          1
    83         12
    84          4
    85        139
    86         13
    91          2
    93          1
    95          8
    96          1
    97          6
    98          2
    99          7
   109          4
   111          3
   112          1
   113          4
   114        271
   115         23
   127          3
   137          5
   155          3
   170          1