##TITLE=Library Entry 93375
##JCAMP-DX=Revision 4.10 
##DATA TYPE=MASS SPECTRUM
##SAMPLE DESCRIPTION=Exported from NIST MS Search
##NAMES=HP
##CAS NAME=.beta.-d-Mannopyranose, pentaacetate
##MOLFORM=C16H22O11
##CAS REGISTRY NO=4026-35-1
##MP= -300
##BP= -300
##MW= 390
##$RETENTION INDEX=0
##$CONDENSED SPECTRUM=NO
##NPOINTS= 71
##XYDATA=(XY..XY) 1 
    54         12
    55         54
    56         25
    57         50
    60         66
    61        100
    68         12
    69        137
    70         91
    71         58
    73        333
    74         20
    80         66
    81        154
    82         25
    83         12
    84         25
    85        216
    86         91
    87          8
    96          4
    97        175
    98        799
    99        104
   100          8
   101          8
   102         79
   103        358
   104         16
   109         66
   112         41
   113         45
   114         91
   115        999
   116         87
   117          4
   125          8
   126         79
   127         66
   128          8
   131         25
   139         50
   140        237
   141         25
   143         33
   144         25
   145        200
   146          8
   155         33
   156          8
   157        458
   158        141
   159          8
   168         25
   169         62
   182         25
   186          8
   187         12
   197          8
   199         41
   200        154
   201          8
   211          8
   215         50
   228          8
   242         50
   245          8
   259          1
   317          3
   331          5
   332          1