##TITLE=Library Entry 46302
##JCAMP-DX=Revision 4.10 
##DATA TYPE=MASS SPECTRUM
##SAMPLE DESCRIPTION=Chemical Concepts
##NAMES=HP
##CAS NAME=Butanoic acid, 2-hydroxy-3-methyl-
##MOLFORM=C5H10O3
##CAS REGISTRY NO=4026-18-0
##MP= -300
##BP= -300
##MW= 118
##$RETENTION INDEX=1063
##$CONDENSED SPECTRUM=NO
##NPOINTS= 79
##XYDATA=(XY..XY) 1 
    26         31
    27        285
    28         22
    29        188
    30         48
    31        103
    33          1
    34          1
    35          0
    36          2
    37         15
    38         28
    39        213
    40         46
    41        410
    42         32
    43        429
    44         18
    45        124
    46          8
    47          9
    48          2
    49          4
    50          9
    51         10
    52          3
    53         24
    54          7
    55        391
    56         40
    57        110
    58        283
    59          9
    60          9
    61          1
    62          0
    63          1
    64          1
    65          1
    66          1
    67          2
    68          4
    69         17
    70          4
    71         16
    72         14
    73        674
    74         33
    75          5
    76        999
    77         27
    78          4
    79          4
    80          1
    81          1
    82          6
    83          5
    84          8
    85         12
    86         10
    87          2
    88          0
    89         10
    90          2
    91          9
    92          1
    93          1
    94          0
    95          0
    97          1
    98          0
    99          2
   100          2
   101          2
   102          1
   103          1
   117          0
   118         10
   119          1