##TITLE=Library Entry 84494
##JCAMP-DX=Revision 4.10 
##DATA TYPE=MASS SPECTRUM
##SAMPLE DESCRIPTION=Japan AIST/NIMC Database- Spectrum MS-IW-1061
##NAMES=HP
##CAS NAME=Bufa-20,22-dienolide, 3-(acetyloxy)-14,15-epoxy-16-hydroxy-, (3.b
eta.,5.beta.,15.beta.,16.beta.)-
##MOLFORM=C26H34O6
##CAS REGISTRY NO=4026-96-4
##MP= -300
##BP= -300
##MW= 442
##$RETENTION INDEX=0
##$CONDENSED SPECTRUM=NO
##NPOINTS= 385
##XYDATA=(XY..XY) 1 
    14          4
    15         14
    16          5
    17         60
    18         98
    26          4
    27         23
    28         18
    29         44
    30          2
    31         10
    32          8
    38          2
    39         37
    40          7
    41        139
    42         21
    43        346
    44        200
    45         45
    46          4
    50          5
    51         17
    52          9
    53         68
    54         16
    55        185
    56         15
    57         38
    58         30
    59         16
    60         33
    61          7
    62          2
    63          6
    64          5
    65         49
    66         18
    67        200
    68         22
    69         82
    70         10
    71         36
    72          4
    73          5
    74          3
    75          7
    76          8
    77        144
    78         37
    79        271
    80         51
    81        340
    82         56
    83         92
    84         16
    85         17
    86          3
    87          5
    88          2
    89          9
    90          3
    91        316
    92         68
    93        305
    94        142
    95        302
    96         51
    97         68
    98         15
    99         10
   100          4
   101         10
   102          6
   103         29
   104         21
   105        442
   106        222
   107        999
   108        283
   109        293
   110         92
   111         47
   112         10
   113          9
   114          4
   115         52
   116         22
   117        108
   118         64
   119        257
   120        124
   121        313
   122        118
   123        123
   124         47
   125         28
   126         15
   127         21
   128         48
   129         80
   130         37
   131        210
   132         79
   133        235
   134        119
   135        165
   136         61
   137         59
   138        101
   139         67
   140         18
   141         46
   142         34
   143        106
   144         59
   145        245
   146        115
   147        283
   148        120
   149        159
   150        107
   151        143
   152         65
   153         33
   154         20
   155         54
   156         33
   157        118
   158         82
   159        243
   160        150
   161        204
   162         95
   163         77
   164         41
   165         78
   166         49
   167        119
   168         66
   169         65
   170         34
   171         93
   172         45
   173        152
   174        116
   175        109
   176         57
   177         52
   178         38
   179         33
   180         19
   181         44
   182         24
   183         73
   184         36
   185         93
   186         54
   187        168
   188         69
   189         88
   190         52
   191         56
   192         27
   193         25
   194         19
   195         51
   196         27
   197         82
   198         44
   199        140
   200         57
   201        209
   202        101
   203        105
   204         46
   205         44
   206         63
   207         59
   208         22
   209         48
   210         34
   211         84
   212         66
   213        152
   214        138
   215        851
   216        429
   217        143
   218         36
   219         31
   220         21
   221         30
   222         16
   223         42
   224         23
   225         56
   226         55
   227         86
   228         63
   229         68
   230         38
   231         48
   232         40
   233         40
   234         14
   235         27
   236         18
   237         43
   238         33
   239         73
   240         45
   241         67
   242         36
   243         41
   244         37
   245         37
   246         18
   247         20
   248         11
   249         23
   250         21
   251         36
   252         28
   253         67
   254         69
   255         75
   256         64
   257         53
   258         20
   259         32
   260         12
   261         17
   262          9
   263         22
   264         14
   265         25
   266         21
   267         31
   268         29
   269         31
   270         23
   271         29
   272         22
   273         44
   274         41
   275        254
   276         77
   277         43
   278         22
   279         26
   280         14
   281         25
   282         19
   283         12
   284         15
   285         12
   286          9
   287         15
   288         13
   289         30
   290         15
   291         31
   292         24
   293         30
   294         19
   295         29
   296         13
   297         10
   298          7
   299         10
   300         11
   301         12
   302          9
   303         30
   304         18
   305         35
   306         15
   307         33
   308         25
   309         37
   310         33
   311         15
   312          9
   313         12
   314         34
   315         16
   316          9
   317         11
   318         21
   319         35
   320         33
   321         52
   322         43
   323         61
   324         20
   325         16
   326          9
   327          9
   328         17
   329         11
   330          8
   331         30
   332          9
   333         55
   334         20
   335         43
   336         77
   337         31
   338         43
   339         24
   340         14
   341         10
   342          5
   343          3
   344          4
   345          4
   346         37
   347         20
   348         19
   349         82
   350         27
   351         13
   352         15
   353         40
   354         31
   355         20
   356          9
   357          4
   358          1
   359          1
   360          2
   361          1
   362         16
   363          9
   364        208
   365         72
   366         27
   367         32
   368         16
   369          9
   370          9
   371          4
   372          3
   378          6
   379          5
   380         57
   381         25
   382        144
   383         52
   384         12
   385          5
   386          3
   394          3
   395          6
   396         20
   397          9
   398        148
   399         45
   400         17
   401          4
   406          4
   407          2
   408         18
   409         23
   410          8
   411          5
   412          8
   413          8
   414          9
   415          3
   422          3
   423          2
   424        126
   425         39
   426         20
   427          8
   428          4
   438          2
   440         12
   441          5
   442        125
   443         49
   444         11
   445          2