##TITLE=Library Entry 85682
##JCAMP-DX=Revision 4.10 
##DATA TYPE=MASS SPECTRUM
##SAMPLE DESCRIPTION=NIST Mass Spectrometry Data Center, 1994
##NAMES=HP
##CAS NAME=1H-Pyrazole-3-carboxylic acid, 5-methyl-, ethyl ester
##MOLFORM=C7H10N2O2
##CAS REGISTRY NO=4027-57-0
##MP= -300
##BP= -300
##MW= 154
##$RETENTION INDEX=0
##$CONDENSED SPECTRUM=NO
##NPOINTS= 61
##XYDATA=(XY..XY) 1 
    12          2
    13          5
    14          6
    15         90
    17          2
    18          5
    19          1
    25          8
    26         82
    27        357
    28        188
    29        262
    30         18
    37         11
    38         25
    39        103
    40        210
    41        131
    42        202
    43         28
    44          2
    45         72
    46          3
    49         15
    50         93
    51        146
    52        540
    53        274
    54        184
    55         24
    56          4
    64          2
    65          5
    66         68
    67         50
    68         13
    69         19
    70          3
    77         11
    79        111
    80        179
    81         87
    82        189
    83         16
    95          4
    96          4
    97         15
    98          3
   107         36
   108        200
   109        999
   110        187
   111         16
   121          3
   125         42
   126        472
   127         32
   139         23
   154        363
   155         32
   156          3