##TITLE=Library Entry 8854
##JCAMP-DX=Revision 4.10 
##DATA TYPE=MASS SPECTRUM
##SAMPLE DESCRIPTION=H.STRICKLER FIRMENICH & CIE, GENEVA, SWITZERLAND
##NAMES=HP
##CAS NAME=Cyclopentanol, 1,2-dimethyl-3-(1-methylethenyl)-, [1R-(1.alpha.,2
.alpha.,3.alpha.)]-
##MOLFORM=C10H18O
##CAS REGISTRY NO=4028-60-8
##MP= -300
##BP= -300
##MW= 154
##$RETENTION INDEX=1155
##$CONDENSED SPECTRUM=NO
##NPOINTS= 71
##XYDATA=(XY..XY) 1 
    26         12
    27        200
    28         42
    29        160
    31         30
    38         10
    39        250
    40         50
    41        400
    42         50
    43        999
    44         30
    45         35
    50         12
    51         40
    52         20
    53        160
    54         55
    55        440
    56         60
    57        140
    58        120
    59         30
    61          1
    62          1
    63         13
    65         43
    66         20
    67        260
    68        100
    69        310
    70         65
    71        560
    72        160
    73         13
    77         63
    78         15
    79        130
    80         50
    81        440
    82        190
    83        430
    84        200
    85         70
    86         14
    91         53
    92         20
    93        170
    94         70
    95        100
    96        320
    97        140
    98         30
    99          1
   105         28
   106         12
   107        200
   108         33
   109         16
   110         10
   111        100
   112         13
   121        310
   122         30
   123         38
   125        150
   126         16
   136        180
   137         30
   139         42
   154         23