##TITLE=Library Entry 31496
##JCAMP-DX=Revision 4.10 
##DATA TYPE=MASS SPECTRUM
##SAMPLE DESCRIPTION=Exported from NIST MS Search
##NAMES=HP
##CAS NAME=Butane, 2,3-dichloro-, (R*,S*)-
##MOLFORM=C4H8Cl2
##CAS REGISTRY NO=4028-56-2
##MP= -300
##BP= -300
##MW= 126
##$RETENTION INDEX=0
##$CONDENSED SPECTRUM=NO
##NPOINTS= 77
##XYDATA=(XY..XY) 1 
    12         10
    13         15
    14         34
    15        153
    16          3
    24          4
    25         26
    26        182
    27        891
    28        128
    29        172
    30          4
    35         30
    36         35
    37         51
    38         61
    39        285
    40         24
    41        112
    42         14
    43        222
    44          6
    45         16
    46          1
    47          8
    48         11
    49         76
    50         68
    51         79
    52         18
    53         89
    54         28
    55        481
    56         38
    57          2
    58          1
    59          1
    60          9
    61         30
    62        856
    63        999
    64        292
    65        316
    66          7
    70          1
    71          2
    72          2
    73         10
    74          1
    75         87
    76          8
    77         27
    78          2
    83         10
    84          1
    85          7
    86          1
    87          3
    88          1
    89         20
    90        289
    91         69
    92         94
    93         21
    94          1
    95          1
    96          3
    97          2
    98          2
   110          1
   111          4
   112          1
   113          2
   126         15
   127          1
   128          9
   130          1