##TITLE=Library Entry 31744
##JCAMP-DX=Revision 4.10 
##DATA TYPE=MASS SPECTRUM
##SAMPLE DESCRIPTION=Div. of Experiment Therapeutics WRAIR, WRAMC, Washingto
n DC 20307
##NAMES=HP
##CAS NAME=Thiosulfuric acid (H2S2O3), S-(2-(cyclopropylamino)-2-iminoethyl)
 ester
##MOLFORM=C5H10N2O3S2
##CAS REGISTRY NO=40283-52-1
##MP= -300
##BP= -300
##MW= 210
##$RETENTION INDEX=0
##$CONDENSED SPECTRUM=NO
##NPOINTS= 155
##XYDATA=(XY..XY) 1 
    41        452
    42        490
    43        332
    44         56
    45        223
    46         55
    47         63
    48        777
    49         80
    50         47
    51         44
    52         51
    53         53
    54         99
    55         51
    56        555
    57        185
    58        135
    59         59
    60         60
    61         12
    62          9
    64        999
    65        222
    66         85
    67         68
    68         71
    69         75
    70         76
    71        200
    72         57
    73         47
    74         26
    75          6
    76        182
    77         32
    78         32
    79         20
    80         67
    81         52
    82         75
    83        196
    84         62
    85         35
    86         37
    87         10
    88         14
    89          7
    90         10
    91         10
    92          8
    93         21
    94         27
    95         35
    96         88
    97        113
    98         65
    99        261
   100         59
   101         64
   102          9
   103         12
   104          8
   105         17
   106          5
   107         20
   108         15
   109         20
   110         48
   111         57
   112         32
   113         32
   114         26
   115         51
   116         13
   117         20
   118          8
   119         10
   120         10
   121          8
   122         17
   123         28
   124         11
   125         29
   126         51
   127         43
   128         53
   129         18
   130         14
   131         84
   132         48
   133         34
   134         54
   135         25
   136         22
   137         30
   138         28
   139         65
   140         39
   141         16
   142         11
   143         21
   144         20
   145          5
   146          5
   147          4
   148         11
   149         15
   150         18
   151         19
   152         26
   153         11
   154         30
   155         38
   156          8
   157         10
   158          4
   159          3
   160        181
   161         67
   162         41
   163         18
   164         17
   165         25
   166         63
   167         55
   168         28
   169         26
   170          8
   171          8
   172         15
   173          6
   174         10
   175          5
   176          5
   177          9
   178         18
   179         15
   180         14
   181         12
   182         37
   183         48
   184         27
   185          5
   186          4
   187          5
   188          2
   189         21
   190         12
   192         71
   193         13
   194         44
   195         25
   210          5
   211          1