##TITLE=Library Entry 31754
##JCAMP-DX=Revision 4.10 
##DATA TYPE=MASS SPECTRUM
##SAMPLE DESCRIPTION=Div. of Experiment Therapeutics WRAIR, WRAMC, Washingto
n DC 20307
##NAMES=HP
##CAS NAME=Methanethiol, N-(p-methoxyphenethyl)amidino-, hydrogen thiosulfat
e
##MOLFORM=C11H16N2O4S2
##CAS REGISTRY NO=40283-94-1
##MP= -300
##BP= -300
##MW= 304
##$RETENTION INDEX=0
##$CONDENSED SPECTRUM=NO
##NPOINTS= 138
##XYDATA=(XY..XY) 1 
    41         13
    42         16
    43         10
    44         12
    45         10
    46          5
    48        317
    49          8
    50         20
    51         18
    52         12
    53          8
    54          2
    55          9
    56         13
    57          4
    58          6
    59          5
    60          4
    61          2
    62          2
    63          9
    64        999
    65         38
    66         51
    67          4
    68          2
    69          4
    70          6
    71         14
    72          6
    73          5
    74          4
    75          4
    76         25
    77         45
    78         31
    79         14
    80          4
    81          4
    82          2
    83          1
    84          7
    86          6
    87          3
    88          4
    89         11
    90          8
    91         41
    92          9
    93          3
    95          1
    96         17
    97          4
    98         10
    99          1
   100          1
   101          2
   102          3
   103         11
   104          5
   105         11
   106          9
   107         19
   108          5
   109          5
   110          4
   111          2
   113          8
   114          0
   116         16
   117          2
   118          5
   119         24
   120         10
   121        280
   122        298
   123         26
   124          3
   126          2
   128         30
   129          1
   130          7
   132          2
   133         10
   134        287
   135         65
   136          7
   138         15
   140          4
   142          3
   143         12
   144          6
   145          2
   147          2
   148          4
   149          3
   150          6
   151         29
   152          6
   155          4
   158          3
   159          2
   160         39
   161          1
   162         14
   163          3
   165          1
   166          7
   172          6
   174          2
   180          0
   189          1
   192         44
   193         11
   194         30
   195          2
   207          5
   208          4
   220          6
   222          3
   224         15
   226          5
   228          0
   234          1
   237          1
   244          4
   250         13
   251          2
   254          9
   256         54
   257         21
   258          8
   259          4
   303          3
   304         20
   305          6
   306          1