##TITLE=Library Entry 6020
##JCAMP-DX=Revision 4.10 
##DATA TYPE=MASS SPECTRUM
##SAMPLE DESCRIPTION=KONINKLIJKE SHELL LABORATORIUM AMSTERDAM
##NAMES=HP
##CAS NAME=Octadecane, 1-(methylthio)-
##MOLFORM=C19H40S
##CAS REGISTRY NO=40289-98-3
##MP= -300
##BP= -300
##MW= 300
##$RETENTION INDEX=0
##$CONDENSED SPECTRUM=NO
##NPOINTS= 166
##XYDATA=(XY..XY) 1 
    30         10
    31          3
    32          5
    33          1
    34          2
    35         35
    36          2
    37          2
    38          2
    39         85
    40         18
    41        831
    42        156
    43        999
    44         32
    45         40
    46         22
    47         76
    48        252
    49        141
    50         15
    51          9
    52          2
    53         37
    54         92
    55        791
    56        304
    57        662
    58         28
    59         13
    60         13
    61        626
    62         89
    63         35
    64          3
    65          6
    66          9
    67        116
    68        168
    69        533
    70        242
    71        271
    72         15
    73          6
    74         12
    75        101
    76         35
    77          9
    78          2
    79          9
    80          3
    81         55
    82        141
    83        472
    84        155
    85        145
    86          9
    87         32
    88          3
    89         27
    90          5
    91          5
    92          2
    93          2
    94          1
    95         25
    96         51
    97        313
    98         87
    99         28
   100          2
   101          6
   102          1
   103        160
   104         11
   105          9
   106          1
   107          0
   108          0
   109          8
   110         21
   111        135
   112         51
   113         15
   114          0
   115          1
   116          1
   117         24
   118          2
   119          1
   123          3
   124         10
   125         56
   126         29
   127          9
   128          0
   129          1
   131          6
   132          0
   133          0
   137          1
   138          7
   139         21
   140         17
   141          5
   142          0
   143          1
   144          1
   145          4
   146          0
   151          0
   152          3
   153         10
   154         11
   155          2
   156          0
   157          0
   159          4
   166          2
   167          6
   168          8
   169          1
   171          0
   173          3
   180          1
   181          2
   182          5
   183          1
   184          0
   185          0
   187          3
   188          0
   194          0
   195          1
   196          3
   197          1
   199          1
   201          3
   202          0
   208          0
   209          0
   210          1
   213          0
   215          2
   224          5
   225          0
   229          2
   243          1
   252          4
   253          0
   257          4
   258          0
   271          7
   272          3
   273          1
   283          2
   284          0
   285        251
   286         50
   287         15
   288          1
   299         23
   300         95
   301         22
   302          6
   303          0