##TITLE=Library Entry 66299
##JCAMP-DX=Revision 4.10 
##DATA TYPE=MASS SPECTRUM
##SAMPLE DESCRIPTION=NIST Mass Spectrometry Data Center, 1990.
##NAMES=HP
##CAS NAME=Allylchlorodimethylsilane
##MOLFORM=C5H11ClSi
##CAS REGISTRY NO=4028-23-3
##MP= -300
##BP= -300
##MW= 134
##$RETENTION INDEX=0
##$CONDENSED SPECTRUM=NO
##NPOINTS= 77
##XYDATA=(XY..XY) 1 
    14          5
    15         16
    16          2
    17          2
    26          7
    27         26
    28         27
    29         26
    30          4
    31          8
    32          6
    36          2
    37          5
    38         15
    39         79
    40          9
    41         29
    42         27
    43         95
    44         10
    45         11
    49          1
    50          3
    51          2
    52          3
    53         29
    54          6
    55         17
    56          2
    57          8
    58         10
    59         33
    60          3
    63        168
    64         26
    65        193
    66         30
    67         58
    68          3
    69          7
    70          2
    71         19
    72          3
    73          5
    74          1
    76          4
    77         17
    78         29
    79         81
    80         13
    81         28
    82          3
    83         18
    84          3
    89          3
    90          4
    91         24
    92          3
    93        999
    94         95
    95        348
    96         20
    97         16
    98          3
    99         52
   100          6
   101          2
   103          4
   105          4
   117          3
   119         30
   120          4
   121         12
   134         64
   135          7
   136         24
   137          2