##TITLE=Library Entry 31757
##JCAMP-DX=Revision 4.10 
##DATA TYPE=MASS SPECTRUM
##SAMPLE DESCRIPTION=Div. of Experiment Therapeutics WRAIR, WRAMC, Washingto
n DC 20307
##NAMES=HP
##CAS NAME=Thiosulfuric acid (H2S2O3), S-(2-imino-2-((2-((4-methylphenyl)thi
o)ethyl)amino)ethyl) ester
##MOLFORM=C11H16N2O3S3
##CAS REGISTRY NO=40284-00-2
##MP= -300
##BP= -300
##MW= 320
##$RETENTION INDEX=0
##$CONDENSED SPECTRUM=NO
##NPOINTS= 97
##XYDATA=(XY..XY) 1 
    41         20
    42         61
    43         29
    44         40
    45        105
    46          7
    47         17
    48        533
    49          4
    50         31
    51         17
    52          5
    53         10
    54          2
    55          6
    56          4
    57          4
    58          7
    59         15
    60          5
    61          6
    62          5
    63         21
    64        999
    65         66
    66         50
    67          1
    69         16
    70         10
    71         34
    72          5
    73          2
    74         13
    75          1
    76          4
    77         40
    78         15
    79         27
    82          2
    83          6
    84          5
    85          4
    86          3
    89         13
    90          9
    91        106
    92         15
    93         13
    95          1
    97          8
   103         26
   104          5
   105         24
   106          4
   108          5
   110          1
   113         18
   115          3
   116          2
   117         11
   118          2
   120         16
   121         16
   122          8
   123         59
   124         21
   125          5
   126          2
   133         18
   134          9
   135        119
   136         12
   137         50
   138        218
   139         21
   140         11
   143          8
   147          2
   148          1
   149         37
   150        212
   151         35
   152         12
   167         57
   168          6
   169          2
   180          6
   185          2
   186          8
   207          5
   208          7
   209          7
   236         16
   240          7
   270          2
   277          4
   320          4