##TITLE=Library Entry 80498
##JCAMP-DX=Revision 4.10 
##DATA TYPE=MASS SPECTRUM
##SAMPLE DESCRIPTION=NIST Mass Spectrometry Data Center
##NAMES=HP
##CAS NAME=Ethyl o-tolylacetate
##MOLFORM=C11H14O2
##CAS REGISTRY NO=40291-39-2
##MP= -300
##BP= -300
##MW= 178
##$RETENTION INDEX=0
##$CONDENSED SPECTRUM=NO
##NPOINTS= 70
##XYDATA=(XY..XY) 1 
    12          1
    13          2
    14          7
    15         28
    16          4
    17          5
    18         16
    19          9
    20          1
    23          1
    26         28
    27        153
    28         38
    29        247
    30         13
    31         10
    36          1
    37          3
    38         18
    39         89
    40          8
    41          8
    42          5
    43         14
    44          4
    45          7
    50         42
    51         93
    52         34
    53         25
    54          2
    55          2
    61          4
    62         13
    63         47
    64         11
    65         31
    66          5
    73          2
    74         11
    75         10
    77        184
    78        105
    79        138
    80          9
    86          1
    87          1
    89         18
    91         51
    92          7
    93         21
   103        127
   104        282
   105        999
   106         92
   107          4
   115          1
   117          1
   119         16
   121         16
   122          1
   132        107
   133         25
   134          2
   149          7
   150          4
   163          1
   178        217
   179         25
   180          2