##TITLE=Library Entry 16974
##JCAMP-DX=Revision 4.10 
##DATA TYPE=MASS SPECTRUM
##SAMPLE DESCRIPTION=Chemical Concepts
##NAMES=HP
##CAS NAME=2,3-Hexadien-5-ol
##MOLFORM=C6H10O
##CAS REGISTRY NO=40296-27-3
##MP= -300
##BP= -300
##MW= 98
##$RETENTION INDEX=0
##$CONDENSED SPECTRUM=NO
##NPOINTS= 55
##XYDATA=(XY..XY) 1 
    25          1
    26         40
    27        274
    28         85
    29        140
    30          6
    31         16
    37         22
    38         52
    39        460
    40         37
    41        130
    42         30
    43        478
    44         32
    45        999
    46         27
    49         19
    50        113
    51        134
    52         59
    53        258
    54        643
    55        201
    56         35
    58          7
    59          1
    60          4
    61          4
    62         10
    63         14
    64          1
    65         17
    66          8
    67          5
    68          2
    69        256
    70         13
    71          3
    73          1
    74          4
    75          1
    77         23
    78          4
    79         45
    80         25
    81         24
    82          5
    83        180
    84          8
    85          1
    95          2
    96         12
    97         10
    98          8