##TITLE=Library Entry 8714
##JCAMP-DX=Revision 4.10 
##DATA TYPE=MASS SPECTRUM
##SAMPLE DESCRIPTION=NIST Mass Spectrometry Data Center, 1994
##NAMES=HP
##CAS NAME=Pyrrolidine, 1-acetyl-
##MOLFORM=C6H11NO
##CAS REGISTRY NO=4030-18-6
##MP= -300
##BP= -300
##MW= 113
##$RETENTION INDEX=1162
##$CONDENSED SPECTRUM=NO
##NPOINTS= 40
##XYDATA=(XY..XY) 1 
    12          2
    13          5
    14         35
    15        195
    16          3
    25          1
    26         26
    27        103
    28        167
    29         26
    30         40
    31          1
    37          6
    38         18
    39        105
    40         42
    41        180
    42        181
    43        999
    44         35
    45          2
    50          3
    51          5
    52          6
    53          7
    54          9
    55         63
    56         63
    57          8
    58          4
    67          6
    68         42
    70        468
    71         45
    72          8
    85        103
    86          5
    98         18
   113        288
   114         21