##TITLE=Library Entry 4660
##JCAMP-DX=Revision 4.10 
##DATA TYPE=MASS SPECTRUM
##SAMPLE DESCRIPTION=Div. of Experiment Therapeutics WRAIR, WRAMC, Washingto
n DC 20307
##NAMES=HP
##CAS NAME=N,N'-Bis-3-oxapentamethyleneformamidinum dithiocarboxylate
##MOLFORM=C10H16N2O2S2
##CAS REGISTRY NO=4030-53-9
##MP= -300
##BP= -300
##MW= 260
##$RETENTION INDEX=0
##$CONDENSED SPECTRUM=NO
##NPOINTS= 125
##XYDATA=(XY..XY) 1 
    42        999
    43        538
    44        139
    45        890
    47         27
    49          4
    51          1
    52         28
    53         58
    54        256
    55        343
    56        470
    57         83
    58         93
    59         82
    60         67
    61         16
    62          1
    64         15
    66         13
    67         34
    68        545
    69        201
    70        182
    72        410
    73          1
    74          3
    76        133
    77         44
    78         14
    79          6
    80         14
    81         25
    82         43
    83         45
    84        104
    85        161
    86        644
    88         47
    90         39
    91         18
    92          0
    93         30
    95         38
    96         48
    97         83
    98        234
    99        381
   100         59
   102         11
   103         16
   104          3
   105          2
   106          1
   107          3
   108          5
   109         21
   110         25
   111         50
   112        178
   113         93
   114         32
   115         14
   117         56
   119          3
   121          1
   123         18
   124         42
   125         82
   126        508
   127        138
   128          0
   130         95
   131         14
   132          6
   133          2
   135          4
   137          9
   139         83
   141         75
   142         87
   143         43
   144         33
   145         16
   146          3
   151          3
   153        122
   155        155
   156         61
   157         18
   158         10
   159          0
   160         20
   161          1
   162          1
   164          0
   165          1
   167          7
   169         18
   170          4
   171         11
   172          5
   174         22
   176         17
   177          0
   183         33
   184        301
   185         30
   187         12
   188          0
   195          0
   197          2
   201          6
   202          2
   203          5
   204          0
   215          1
   216          3
   227         16
   228          3
   229          0
   260        217
   261         33
   262         22
   263          3