##TITLE=Library Entry 46622
##JCAMP-DX=Revision 4.10 
##DATA TYPE=MASS SPECTRUM
##SAMPLE DESCRIPTION=V.A.Korolev, Moscow, Russia
##NAMES=HP
##CAS NAME=3-Benzoyl-4H,5H,6H-cyclopenta[b]thiophen-2-amine
##MOLFORM=C14H13NOS
##CAS REGISTRY NO=40312-29-6
##MP= -300
##BP= -300
##MW= 243
##$RETENTION INDEX=0
##$CONDENSED SPECTRUM=NO
##NPOINTS= 119
##XYDATA=(XY..XY) 1 
    37          9
    38         46
    39        280
    40         63
    41         77
    42         28
    43         71
    44        163
    45        158
    46          8
    47         22
    48          2
    49         21
    50        142
    51        581
    52        137
    53        135
    54         44
    55         16
    56          3
    57         16
    58         48
    59         36
    60         76
    61          7
    62         20
    63         57
    64         80
    65        106
    66        132
    67         35
    68         17
    69         56
    70         17
    71         76
    72         12
    73         18
    74         24
    75         33
    76         67
    77        999
    78        185
    79         47
    80         58
    81          8
    82         18
    83          8
    84         21
    85          7
    86          6
    87          4
    88          2
    89         16
    90          7
    91         17
    92          6
    93         10
    94          7
    95          7
    96         21
    97         19
    98          9
    99          3
   101          3
   102         13
   103         12
   104         69
   105        402
   106         47
   108         23
   109         22
   110         18
   111         17
   112          1
   113          2
   114          2
   115         25
   116          3
   121         11
   122          2
   127         10
   128         18
   129          3
   132          3
   135         10
   136         18
   137          9
   138         13
   139          4
   140          4
   141          5
   148          3
   151          1
   152         11
   153         10
   154          3
   155          3
   164          7
   165         24
   166         19
   167          6
   179          2
   180          6
   181          3
   182          6
   183          1
   192          5
   197          4
   198          2
   199          1
   209          4
   214         20
   215          4
   240          4
   241          7
   242        282
   243        218
   244         41
   245         10