##TITLE=Library Entry 18181
##JCAMP-DX=Revision 4.10 
##DATA TYPE=MASS SPECTRUM
##SAMPLE DESCRIPTION=V.A.Korolev, Moscow, Russia
##NAMES=HP
##CAS NAME=N'-Hydroxy-3,4-dimethoxybenzene-1-carboximidamide
##MOLFORM=C9H12N2O3
##CAS REGISTRY NO=40312-16-1
##MP= -300
##BP= -300
##MW= 196
##$RETENTION INDEX=0
##$CONDENSED SPECTRUM=NO
##NPOINTS= 109
##XYDATA=(XY..XY) 1 
    36          5
    37         70
    38        201
    39        384
    40         87
    41        175
    42        203
    43        430
    44        225
    45         39
    46         11
    49         38
    50        501
    51        999
    52        481
    53        506
    54        118
    55        103
    56         17
    57         20
    58          9
    59         44
    60          6
    61         66
    62        225
    63        435
    64        190
    65        507
    66        280
    67        119
    68         97
    69         61
    70         20
    71          8
    73         13
    74         70
    75        103
    76        220
    77        471
    78        261
    79        716
    80        245
    81         88
    82         39
    83         13
    84          4
    85          4
    87          5
    88         46
    89         33
    90        117
    91        116
    92        235
    93        202
    94        128
    95         99
    96         29
    97          3
    98          9
   102         46
   103         57
   104         65
   105         52
   106         97
   107        114
   108        100
   109         32
   110         59
   111         28
   117         26
   118         81
   119        105
   120        142
   121        107
   122        129
   123         45
   124         11
   125         10
   131         10
   132         24
   133         20
   134         49
   135         53
   136        125
   137         41
   138         34
   139         14
   146          7
   147         16
   148         82
   149         72
   150         33
   151         10
   152          3
   153          7
   162         12
   163         61
   164        335
   165        116
   166         13
   178         12
   179        553
   180         71
   181         48
   182          5
   195         18
   196        585
   197         65
   198          5