##TITLE=Library Entry 88521
##JCAMP-DX=Revision 4.10 
##DATA TYPE=MASS SPECTRUM
##SAMPLE DESCRIPTION=TNO Volatile Compounds in Food - Chemical Concepts
##NAMES=HP
##CAS NAME=Thiophene, 2-ethyl-5-methyl-
##MOLFORM=C7H10S
##CAS REGISTRY NO=40323-88-4
##MP= -300
##BP= -300
##MW= 126
##$RETENTION INDEX=965
##$CONDENSED SPECTRUM=NO
##NPOINTS= 59
##XYDATA=(XY..XY) 1 
    27         38
    37          2
    38          9
    39         58
    41         24
    45         89
    46          2
    47          9
    50         20
    51         39
    52          8
    53         27
    57          3
    58         16
    59         72
    60          4
    61          7
    62         16
    63         14
    64          3
    65         34
    66         16
    67         59
    68          2
    69         25
    70          3
    71         29
    72          4
    73          8
    74          4
    75          2
    77         97
    78         48
    79         11
    81          5
    82          3
    83          1
    84          4
    85         17
    86          2
    89          2
    91         26
    92          9
    93          4
    95          9
    96          2
   108          1
   109          8
   110         28
   111        999
   112          5
   113         42
   121          1
   123         14
   124          5
   125         59
   126        387
   127         35
   128         19