##TITLE=Library Entry 91776
##JCAMP-DX=Revision 4.10 
##DATA TYPE=MASS SPECTRUM
##SAMPLE DESCRIPTION=V.G.Zaikin, TIPS, Russian Acad. Sci.
##NAMES=HP
##CAS NAME=4-Ethylthiane
##MOLFORM=C7H14S
##CAS REGISTRY NO=40324-31-0
##MP= -300
##BP= -300
##MW= 130
##$RETENTION INDEX=1050
##$CONDENSED SPECTRUM=NO
##NPOINTS= 59
##XYDATA=(XY..XY) 1 
    41        660
    42        110
    43         90
    44        110
    45        250
    46        160
    47        250
    48         20
    49         10
    50         20
    51         30
    52         20
    53        120
    54        210
    55        970
    56        150
    57         30
    58         40
    59        180
    60        280
    61         50
    62         40
    63         30
    65         40
    66         60
    67        750
    68        300
    69        330
    70        130
    71         30
    72         10
    73        130
    74        140
    75         80
    76         20
    77         20
    81        340
    82         80
    83        230
    84         60
    85         30
    87        160
    88         40
    89         30
    95         60
    96        230
    97         50
    99         40
   101        560
   102        160
   103         30
   115        999
   116         80
   117         50
   129        220
   130        940
   131         89
   132         44
   133          3