##TITLE=Library Entry 90318
##JCAMP-DX=Revision 4.10 
##DATA TYPE=MASS SPECTRUM
##SAMPLE DESCRIPTION=Institute of Organic Chemistry, Novosibirsk, USSR 1988
##NAMES=HP
##CAS NAME=Methyl(3,3-difluoro-2-propenyl)dichlorosilane
##MOLFORM=C4H6Cl2F2Si
##CAS REGISTRY NO=40331-32-6
##MP= -300
##BP= -300
##MW= 190
##$RETENTION INDEX=0
##$CONDENSED SPECTRUM=NO
##NPOINTS= 19
##XYDATA=(XY..XY) 1 
    39        160
    40          4
    51         47
    63         60
    65         19
    77         80
    81          9
    97         77
    99         41
   101         20
   113        999
   114        107
   115        668
   116         40
   117        150
   118         12
   190         80
   192         49
   194         11