##TITLE=Library Entry 58436
##JCAMP-DX=Revision 4.10 
##DATA TYPE=MASS SPECTRUM
##SAMPLE DESCRIPTION=O.A.MAMER ROYAL VICTORIA HOSPITAL, MONTREAL, CANADA
##NAMES=HP
##CAS NAME=2-Propenoic acid, 3-methoxy-3-[(trimethylsilyl)oxy]-, methyl este
r
##MOLFORM=C8H16O4Si
##CAS REGISTRY NO=40333-11-7
##MP= -300
##BP= -300
##MW= 204
##$RETENTION INDEX=0
##$CONDENSED SPECTRUM=NO
##NPOINTS= 80
##XYDATA=(XY..XY) 1 
    15        200
    16          5
    26         17
    27         36
    28        157
    29         89
    30         15
    31         49
    32         23
    39         10
    40          9
    41         57
    42         55
    43        187
    44         86
    45        276
    46         21
    47         49
    51          8
    52         13
    53         14
    55         37
    56         11
    57         39
    58         70
    59        539
    60         47
    61         68
    68          9
    69        347
    70         29
    71         21
    72        176
    73        976
    74        105
    75        163
    76         13
    77         15
    79         15
    83          6
    85         27
    88         38
    89        999
    90         87
    91         66
    99         25
   100         58
   101         78
   102          7
   103         37
   104         68
   105        228
   106         25
   107         11
   113         11
   115         33
   116         41
   117         10
   121         82
   122          9
   129          9
   131         29
   132          6
   133          7
   143         11
   146         73
   147         42
   148          9
   159          6
   162          6
   172          9
   173         92
   174         26
   175          9
   189        481
   190         65
   191         24
   204         84
   205         12
   206          5