##TITLE=Library Entry 34767
##JCAMP-DX=Revision 4.10 
##DATA TYPE=MASS SPECTRUM
##SAMPLE DESCRIPTION=NIST Mass Spectrometry Data Center
##NAMES=HP
##CAS NAME=Pentanoic acid, 2-hydroxy-4-methyl-, methyl ester
##MOLFORM=C7H14O3
##CAS REGISTRY NO=40348-72-9
##MP= -300
##BP= -300
##MW= 146
##$RETENTION INDEX=995
##$CONDENSED SPECTRUM=NO
##NPOINTS= 82
##XYDATA=(XY..XY) 1 
    14          2
    15         46
    16          1
    19          8
    26          6
    27        104
    28         15
    29        137
    30         13
    31         47
    32          3
    33        112
    34          2
    37          3
    38          9
    39        132
    40         20
    41        400
    42         64
    43        819
    44        131
    45        474
    46         11
    47          2
    49          1
    50          6
    51         11
    52          4
    53         40
    54          6
    55         95
    56         13
    57        142
    58         43
    59        113
    60          6
    61         53
    62          5
    63          1
    65          3
    66          1
    67         20
    69        999
    70         62
    71        109
    72          8
    73          6
    74          5
    75         14
    76         11
    77          1
    81         19
    82          1
    83          2
    84          1
    85         25
    86         33
    87        655
    88         37
    89         43
    90        213
    91          8
    92          1
    95          8
    96          4
    97          2
    98          1
    99         13
   100          1
   101         24
   102          5
   103         11
   104          3
   111          1
   113         32
   114          6
   115          1
   116          1
   117          1
   127         10
   128          2
   131          1