##TITLE=Library Entry 62812
##JCAMP-DX=Revision 4.10 
##DATA TYPE=MASS SPECTRUM
##SAMPLE DESCRIPTION=Japan AIST/NIMC Database- Spectrum MS-IW-4539
##NAMES=HP
##CAS NAME=(N-(Benzyloxycarbonyl)glycyl)-d-threonine methyl ester
##MOLFORM=C15H20N2O6
##CAS REGISTRY NO=40356-07-8
##MP= -300
##BP= -300
##MW= 324
##$RETENTION INDEX=0
##$CONDENSED SPECTRUM=NO
##NPOINTS= 186
##XYDATA=(XY..XY) 1 
    13          1
    14          5
    15         30
    16          2
    17          4
    18          1
    25          2
    26          9
    27         27
    28         76
    29         75
    30        138
    31         19
    32          8
    33         12
    37          3
    38          8
    39         37
    40          7
    41         21
    42         46
    43         53
    44         65
    45         35
    46          2
    49          2
    50         19
    51         46
    52         14
    53         11
    54         10
    55          9
    56        113
    57         33
    58          9
    59         31
    60         13
    61          3
    62          6
    63         19
    64          7
    65         83
    66          5
    67          2
    68          4
    69         12
    70          9
    71         10
    72          6
    73          5
    74         97
    75          9
    76          4
    77         97
    78         23
    79        164
    80         15
    81          2
    82          6
    83         11
    84         26
    85         45
    86         19
    87          4
    88        324
    89         51
    90         46
    91        999
    92        124
    93          6
    95          1
    96          3
    97         20
    98         14
    99         18
   100         20
   101          9
   102         10
   103          3
   104         54
   105         20
   106         11
   107        157
   108        229
   109         17
   110          4
   111          7
   112         41
   113         72
   114         27
   115         10
   116         34
   117          6
   118          4
   119          2
   120         30
   121          4
   122          1
   123          1
   125          1
   126          1
   127          1
   128          4
   129          3
   130          2
   131         18
   132          2
   134         10
   135          1
   136          1
   138          2
   139         36
   140        143
   141         25
   142          3
   143          2
   144          2
   145          8
   146          9
   147          2
   149          1
   150          2
   154          1
   155          1
   157         47
   158          5
   159          2
   160          2
   161          8
   162        346
   163         40
   164         13
   165          7
   166          9
   167          4
   169          5
   170          1
   171          7
   172         89
   173         50
   174          5
   175          5
   176          1
   177          1
   178          5
   179          1
   180          1
   185          6
   186          1
   189         11
   190          1
   191          4
   192          6
   193          1
   198          2
   199          4
   200          1
   201          2
   203          1
   204          4
   205          1
   206          3
   209          2
   215          4
   217         12
   218          1
   219          1
   220          2
   221         12
   222          2
   236          5
   237          1
   247          6
   248         11
   249          5
   265         12
   266          2
   280         79
   281         11
   282          1
   292          1
   293          3
   306         31
   307          6
   324         12
   325          3