##TITLE=Library Entry 85488
##JCAMP-DX=Revision 4.10 
##DATA TYPE=MASS SPECTRUM
##SAMPLE DESCRIPTION=NIST Mass Spectrometry Data Center
##NAMES=HP
##CAS NAME=Acetamide, N,N'-p-phenylenebis[2,2,2-trifluoro-
##MOLFORM=C10H6F6N2O2
##CAS REGISTRY NO=404-28-4
##MP= -300
##BP= -300
##MW= 300
##$RETENTION INDEX=0
##$CONDENSED SPECTRUM=NO
##NPOINTS= 176
##XYDATA=(XY..XY) 1 
    20          2
    25          1
    26          8
    27         13
    28         39
    29          3
    31         10
    37          6
    38         20
    39         31
    40          9
    41          8
    42          2
    43          3
    44          5
    45          6
    47          1
    49          2
    50         49
    51         70
    52        171
    53         88
    54         18
    55          5
    56          2
    57          2
    59          1
    61          8
    62         26
    63         76
    64         61
    65         37
    66          4
    67         14
    69        527
    70          6
    73          1
    74          7
    75         17
    76         23
    77         31
    78        109
    79        119
    80         49
    81        145
    82          8
    83         32
    84          4
    86          1
    87          3
    88          7
    89         10
    90         74
    91         65
    92          7
    93          6
    94          1
    95          9
    96         42
    97         25
    98          3
    99          1
   100          1
   101         13
   102         42
   103          8
   104         11
   105        109
   106        165
   107         22
   108        999
   109         72
   110         28
   111          3
   112          1
   113          6
   114          2
   115         13
   117          5
   118         14
   119         12
   120          6
   121          2
   122          3
   123          1
   125          1
   126          2
   127          2
   128         94
   129          8
   130          1
   131          1
   132         13
   133        367
   134         44
   135         45
   136         19
   137          3
   138          3
   139          1
   140         14
   141          7
   143          1
   144          1
   145          6
   146          1
   147          1
   148         13
   149          4
   151          1
   153          3
   154          3
   155         49
   156          7
   157         13
   158          2
   159          1
   160         24
   161         37
   162          4
   163          1
   164          1
   165          1
   166          1
   167          1
   168         29
   169          3
   173          1
   174          1
   175          2
   176          8
   177          2
   182         11
   183         11
   184          3
   185          1
   186          1
   188          9
   189          1
   191          1
   193          1
   201          4
   203        615
   204         62
   205         60
   206          5
   209          3
   210          1
   211          2
   213          1
   214          1
   215          1
   218          4
   219          1
   223          1
   229          4
   230         89
   231         69
   232          8
   233          1
   238          1
   251          1
   252         21
   253          4
   261         37
   262          4
   263          1
   271          2
   279          1
   281         23
   282          2
   298          1
   300        938
   301        109
   302         10
   303          1