##TITLE=Library Entry 22755
##JCAMP-DX=Revision 4.10 
##DATA TYPE=MASS SPECTRUM
##SAMPLE DESCRIPTION=R.A. CORRAL, DIV. QUIM. ORG., UNIV. NAC. LA PLATA
##NAMES=HP
##CAS NAME=1-Butyl-2,4,5-trioxoimidazolidine
##MOLFORM=C7H10N2O3
##CAS REGISTRY NO=40408-40-0
##MP= -300
##BP= -300
##MW= 170
##$RETENTION INDEX=0
##$CONDENSED SPECTRUM=NO
##NPOINTS= 30
##XYDATA=(XY..XY) 1 
    40         20
    41        320
    42         80
    43        280
    44        120
    53         10
    54         20
    55         80
    56        999
    57        160
    58         20
    70        100
    71         20
    72         30
    84         20
    85         30
    86         20
    98         20
    99         80
   100         20
   114         10
   115        430
   116         80
   117         10
   119         10
   127         20
   128        220
   129         20
   142         20
   170        110