##TITLE=Library Entry 5547
##JCAMP-DX=Revision 4.10 
##DATA TYPE=MASS SPECTRUM
##SAMPLE DESCRIPTION=J.VOTH UNIV. OF CALIFORNIA, DAVIS, CALIFORNIA, 95616, U
SA
##NAMES=HP
##CAS NAME=5H-1,4-Dioxepin, 2,3-dihydro-
##MOLFORM=C5H8O2
##CAS REGISTRY NO=4040-81-7
##MP= -300
##BP= -300
##MW= 100
##$RETENTION INDEX=0
##$CONDENSED SPECTRUM=NO
##NPOINTS= 49
##XYDATA=(XY..XY) 1 
    12         24
    13         66
    14        243
    15        466
    16         27
    17          4
    18          6
    19         56
    24          6
    25         37
    26        292
    27        717
    28        510
    29        991
    30         58
    31        123
    36          3
    37         31
    38         89
    39        577
    40        351
    41        388
    42        535
    43        999
    44        511
    45        364
    46          9
    52          3
    53         19
    54          8
    55        212
    56         60
    57         53
    58          9
    68          5
    69        162
    70         20
    71        142
    72         40
    73        368
    74         13
    75          2
    81          5
    85          3
    98         20
    99        364
   100        631
   101         35
   102          3