##TITLE=Library Entry 27187
##JCAMP-DX=Revision 4.10 
##DATA TYPE=MASS SPECTRUM
##SAMPLE DESCRIPTION=Japan AIST/NIMC Database- Spectrum MS-NW-7357
##NAMES=HP
##CAS NAME=Thiourea, N,N'-bis(1,1-dimethylethyl)-
##MOLFORM=C9H20N2S
##CAS REGISTRY NO=4041-95-6
##MP= -300
##BP= -300
##MW= 188
##$RETENTION INDEX=0
##$CONDENSED SPECTRUM=NO
##NPOINTS= 103
##XYDATA=(XY..XY) 1 
    15         14
    26          3
    27         55
    28         20
    29        216
    30         40
    32          3
    33          2
    34          3
    37          1
    38          5
    39        106
    40         16
    41        380
    42        199
    43        240
    44         10
    45         27
    46          2
    47          7
    48          5
    49          2
    50          3
    51          4
    52          3
    53         16
    54          9
    55        126
    56        127
    57        999
    58        602
    59         21
    60         65
    61          5
    62          5
    67          4
    68          2
    69          1
    70         10
    71          5
    72        181
    73          9
    74          4
    75         31
    76        261
    77        608
    78         27
    79         26
    80          1
    81          1
    82          1
    83         78
    84          6
    85         19
    86          3
    87          3
    88          6
    89         53
    90         84
    91          8
    92          4
    97          5
    98          2
    99        215
   100         21
   101          5
   102          1
   103          1
   104          3
   113          2
   114          2
   115         32
   116          9
   117         92
   118          6
   119          4
   130          1
   131        418
   132         37
   133         36
   134          3
   135          1
   139         12
   140          1
   141          6
   142          5
   145         13
   146          2
   147          1
   154          6
   155         30
   156          5
   157          5
   171          1
   172          2
   173          9
   174          1
   186          5
   187        296
   188        786
   189        108
   190         42
   191          4