##TITLE=Library Entry 94432
##JCAMP-DX=Revision 4.10 
##DATA TYPE=MASS SPECTRUM
##SAMPLE DESCRIPTION=Japan AIST/NIMC Database- Spectrum MS-IW- 923
##NAMES=HP
##CAS NAME=Diethyl 3-oxopimelate
##MOLFORM=C11H18O5
##CAS REGISTRY NO=40420-22-2
##MP= -300
##BP= -300
##MW= 230
##$RETENTION INDEX=0
##$CONDENSED SPECTRUM=NO
##NPOINTS= 143
##XYDATA=(XY..XY) 1 
    14          5
    15         22
    16          1
    17          1
    18          4
    25          1
    26         16
    27        143
    28         60
    29        485
    30         16
    31        187
    32          3
    35          4
    36          6
    37          1
    38          3
    39         41
    40         11
    41        112
    42        222
    43        662
    44         75
    45        300
    46         48
    47          5
    49         20
    50          1
    51          1
    52          1
    53          6
    54          3
    55        352
    56         29
    57         10
    58         36
    59          8
    60        188
    61         73
    62          2
    65          3
    66          3
    67         15
    68         32
    69        117
    70        145
    71         38
    72          4
    73         98
    74          4
    77          1
    79          1
    80          1
    81          3
    82         17
    83         43
    84        108
    85        143
    86        121
    87        619
    88        379
    89         25
    90          2
    93          2
    94          7
    95          9
    96          9
    97        188
    98         35
    99          7
   100         16
   101         54
   102         13
   103          2
   104          2
   107          1
   108          2
   109          7
   110         82
   111        166
   112        133
   113        198
   114        252
   115        999
   116         97
   117         10
   118          1
   121          3
   122          2
   123          1
   124          1
   125          3
   126         10
   127          4
   128          9
   129          4
   130        110
   131          9
   132          3
   133          3
   134          1
   135          1
   136          1
   137         11
   138        112
   139        321
   140         26
   141          8
   142         64
   143        730
   144         57
   145          7
   150          3
   151          5
   152          1
   153          1
   154         41
   155         27
   156        120
   157         32
   158          9
   159          2
   161          2
   166          6
   167         11
   168          1
   180         11
   181          2
   182          4
   183         10
   184        340
   185        270
   186         27
   187          4
   196          1
   200         19
   201          3
   202          1
   209          3
   212          7
   213          1
   230          7
   231          3