##TITLE=Library Entry 31235
##JCAMP-DX=Revision 4.10 
##DATA TYPE=MASS SPECTRUM
##SAMPLE DESCRIPTION=Japan AIST/NIMC Database- Spectrum MS-NW-3373
##NAMES=HP
##CAS NAME=1,3-Diethoxy-2-propanol
##MOLFORM=C7H16O3
##CAS REGISTRY NO=4043-59-8
##MP= -300
##BP= -300
##MW= 148
##$RETENTION INDEX=0
##$CONDENSED SPECTRUM=NO
##NPOINTS= 62
##XYDATA=(XY..XY) 1 
    14          5
    15         39
    16          1
    17          2
    18          7
    26         12
    27        124
    28         25
    29        310
    30         11
    31        563
    32          7
    33         14
    38          1
    39          9
    40          3
    41         31
    42         17
    43        221
    44        108
    45        166
    46          6
    47         25
    55          9
    56          9
    57        119
    58         94
    59        900
    60         70
    61        999
    62         24
    63          5
    69          1
    71          3
    72         10
    73         40
    74          7
    75         41
    76          2
    77          1
    79          1
    83          1
    84          5
    85         70
    86        271
    87         26
    88         43
    89        310
    90         16
    91          3
    99          1
   101         20
   102         41
   103         25
   104          2
   105         13
   107          2
   108          2
   117          2
   129         10
   130         13
   131          2