##TITLE=Library Entry 77773
##JCAMP-DX=Revision 4.10 
##DATA TYPE=MASS SPECTRUM
##SAMPLE DESCRIPTION=Chemical Concepts
##NAMES=HP
##CAS NAME=Benzeneacetaldehyde, 4-bromo-.alpha.-methyl-
##MOLFORM=C9H9BrO
##CAS REGISTRY NO=40460-91-1
##MP= -300
##BP= -300
##MW= 212
##$RETENTION INDEX=0
##$CONDENSED SPECTRUM=NO
##NPOINTS= 101
##XYDATA=(XY..XY) 1 
    28         84
    29        150
    30         26
    31        102
    34          1
    37          9
    38         35
    39         86
    40          7
    41         17
    42          6
    43         21
    44         89
    45          7
    46          8
    49          8
    50        145
    51        203
    52         41
    53         22
    54          4
    55         11
    56          7
    57         14
    58          2
    59          3
    60         26
    61         13
    62         40
    63         95
    64         16
    65         16
    66          1
    67          2
    68          2
    69          4
    70          3
    71          5
    73          7
    74         62
    75         94
    76         87
    77        285
    78        175
    79         30
    80          1
    81          2
    82          2
    83          3
    84          3
    85          3
    86          9
    87         10
    88          7
    89         51
    90         37
    91          6
    92          1
    97          2
    98          6
    99          4
   101         20
   102         98
   103        267
   104        999
   105        154
   106         11
   114          1
   115          3
   116          1
   117          4
   118          6
   119          4
   120          2
   121          2
   129          1
   131          6
   132          2
   133          3
   143          2
   145          1
   155         17
   156          5
   157         18
   158          3
   159          2
   169         41
   170          3
   171         40
   172          3
   181          4
   182         19
   183        506
   184         90
   185        489
   186         68
   187          6
   212         70
   213          8
   214         72
   215          8