##TITLE=Library Entry 25172
##JCAMP-DX=Revision 4.10 
##DATA TYPE=MASS SPECTRUM
##SAMPLE DESCRIPTION=D.HENNEBERG, MAX-PLANCK INSTITUTE, MULHEIM, WEST GERMAN
Y
##NAMES=HP
##CAS NAME=2-Hexene, 2,5,5-trimethyl-
##MOLFORM=C9H18
##CAS REGISTRY NO=40467-04-7
##MP= -300
##BP= -300
##MW= 126
##$RETENTION INDEX=0
##$CONDENSED SPECTRUM=NO
##NPOINTS= 65
##XYDATA=(XY..XY) 1 
    24          0
    25          1
    26          0
    27         46
    28         14
    29        115
    30          4
    31          0
    35          0
    36          0
    37          4
    38          3
    39         67
    40         14
    41        401
    42         52
    43         34
    44          0
    45          1
    46          1
    47          1
    49          0
    50          4
    51         10
    52          5
    53         33
    54         12
    55        182
    56         32
    57        999
    58         50
    59          1
    61          0
    62          0
    63          2
    64          0
    65          7
    66          0
    67         30
    68         28
    69        262
    70        570
    71         31
    72          0
    75          3
    76          0
    77          8
    78          1
    79          5
    80          1
    81          6
    82          1
    83         10
    84          1
    91          3
    93          2
    95          8
    96          1
   107          0
   109          1
   110          1
   111         93
   112          8
   126        105
   127         11