##TITLE=Library Entry 49079
##JCAMP-DX=Revision 4.10 
##DATA TYPE=MASS SPECTRUM
##SAMPLE DESCRIPTION=NIST Mass Spectrometry Data Center, 1994
##NAMES=HP
##CAS NAME=cis-3-Methyl-4-cyclohexene-1,2-dicarboxylic acid
##MOLFORM=C9H12O4
##CAS REGISTRY NO=40469-16-7
##MP= -300
##BP= -300
##MW= 184
##$RETENTION INDEX=0
##$CONDENSED SPECTRUM=NO
##NPOINTS= 76
##XYDATA=(XY..XY) 1 
    12          2
    13          2
    15         84
    16          4
    17          0
    18          1
    26         67
    27        215
    28         43
    29         15
    32          0
    33          0
    37         22
    38         63
    39        356
    40         62
    41         87
    42         14
    43          3
    44          8
    45         26
    46         13
    47          1
    50         77
    51        145
    52         65
    53         95
    54         17
    55         14
    56          2
    60         13
    61          9
    62         22
    63         48
    64         11
    65         72
    66         36
    67         49
    68         40
    69          4
    71          2
    73          2
    74          2
    75          5
    76          2
    77        339
    78        107
    79        999
    80         72
    81          6
    82          2
    84          1
    85          1
    86          2
    87          1
    89          5
    91        120
    93        311
    94        384
    95         35
    96          1
    97          2
    99         12
   103          1
   105          3
   107          2
   109          1
   110          4
   119          1
   120          4
   121          5
   123         14
   124          2
   138        136
   139         12
   166          1