##TITLE=Library Entry 31779
##JCAMP-DX=Revision 4.10 
##DATA TYPE=MASS SPECTRUM
##SAMPLE DESCRIPTION=Exported from NIST MS Search
##NAMES=HP
##CAS NAME=1H-2,1,3-Benzothiadiazin-4(3H)-one, 3-(2-oxo-2-phenylethyl)-, 2,2
-dioxide
##MOLFORM=C15H12N2O4S
##CAS REGISTRY NO=40467-23-0
##MP= -300
##BP= -300
##MW= 316
##$RETENTION INDEX=0
##$CONDENSED SPECTRUM=NO
##NPOINTS= 31
##XYDATA=(XY..XY) 1 
    39        120
    48        470
    51        250
    64        999
    77        869
    79        220
    90        310
    91        150
    92        140
   105        749
   129        120
   132        250
   133        110
   146        400
   147        629
   149        150
   175        430
   195         30
   196         30
   205         40
   221         50
   222        100
   223        170
   233         50
   234         90
   235         60
   236         20
   250        240
   251        120
   252        749
   253        130