##TITLE=Library Entry 25587
##JCAMP-DX=Revision 4.10 
##DATA TYPE=MASS SPECTRUM
##SAMPLE DESCRIPTION=T. Jones, LC, NHLBI, NIH, Bethesda, MD 20892
##NAMES=HP
##CAS NAME=1-Dodecen-3-ol
##MOLFORM=C12H24O
##CAS REGISTRY NO=4048-42-4
##MP= -300
##BP= -300
##MW= 184
##$RETENTION INDEX=0
##$CONDENSED SPECTRUM=NO
##NPOINTS= 145
##XYDATA=(XY..XY) 1 
    41        278
    42         77
    43        351
    44         53
    45         12
    46          1
    47          2
    48          1
    49          9
    50          2
    51          9
    52          4
    53         43
    54         91
    55        254
    56         98
    57        999
    58        123
    59          3
    60          1
    61          0
    62          0
    63          1
    64          0
    65         12
    66         22
    67        147
    68        131
    69        117
    70         72
    71        151
    72        411
    73        106
    74          5
    75         10
    76          0
    77          9
    78          2
    79         26
    80         12
    81        135
    82        191
    83         94
    84         37
    85        264
    86         30
    87          2
    88          1
    89          0
    90          0
    91          4
    92          1
    93          5
    94          7
    95        104
    96        105
    97         44
    98         13
    99         24
   100          4
   101          0
   102          0
   103          0
   104          0
   105          1
   106          0
   107          1
   108          3
   109         46
   110         63
   111         14
   112          8
   113          8
   114          7
   115          1
   116          0
   117          0
   118          0
   119          1
   120          0
   121          0
   122          0
   123         20
   124         15
   125          3
   126          3
   127          7
   128          3
   129          0
   130          0
   131          0
   132          0
   133          0
   134          0
   135          1
   137         14
   138         15
   139          3
   140          2
   141         11
   142          1
   143          0
   144          0
   145          0
   146          0
   147          0
   148          0
   149          0
   150          0
   151          1
   152          1
   153          2
   155         75
   156          9
   157          1
   158          0
   159          0
   160          0
   161          0
   162          0
   163          0
   164          0
   165          1
   166          9
   167          1
   168          0
   169          0
   170          0
   171          1
   172          0
   173          0
   174          0
   175          0
   176          0
   177          0
   178          0
   179          0
   180          0
   181          0
   182          0
   183          1
   184          1
   185          0
   186          0
   187          0