##TITLE=Library Entry 1130
##JCAMP-DX=Revision 4.10 
##DATA TYPE=MASS SPECTRUM
##SAMPLE DESCRIPTION=P. Vainiotalo, Dep. Chem., Univ. Joensuu, Joensuu, Finl
and
##NAMES=HP
##CAS NAME=Cyclopentanol, 2-(aminomethyl)-, trans-
##MOLFORM=C6H13NO
##CAS REGISTRY NO=40482-02-8
##MP= -300
##BP= -300
##MW= 115
##$RETENTION INDEX=0
##$CONDENSED SPECTRUM=NO
##NPOINTS= 48
##XYDATA=(XY..XY) 1 
    14          3
    15          7
    17         20
    26          5
    27         41
    29         42
    30        999
    31         44
    38          3
    39         43
    41         89
    42         44
    43         51
    44         61
    45          6
    46         13
    48         52
    51          5
    53         25
    54         68
    55         54
    56         58
    57         41
    58         29
    65          8
    66         21
    67        166
    68        210
    69         52
    70         89
    71         10
    72         15
    77          7
    79         21
    82         10
    83         57
    84         16
    85          8
    86          9
    87          9
    96         13
    97         49
    98        143
    99         10
   100          5
   114          4
   115          7
   116         11