##TITLE=Library Entry 24544
##JCAMP-DX=Revision 4.10 
##DATA TYPE=MASS SPECTRUM
##SAMPLE DESCRIPTION=Japan AIST/NIMC Database- Spectrum MS-NW-8209
##NAMES=HP
##CAS NAME=4-Phenyl-4-piperidinecarbonitrile
##MOLFORM=C12H14N2
##CAS REGISTRY NO=40481-13-8
##MP= -300
##BP= -300
##MW= 186
##$RETENTION INDEX=0
##$CONDENSED SPECTRUM=NO
##NPOINTS= 119
##XYDATA=(XY..XY) 1 
    15          7
    26          4
    27         36
    28        170
    29        130
    30        122
    31          2
    39         39
    40          5
    41         22
    42        124
    43        903
    44         57
    45          1
    50         24
    51         73
    52         24
    53         40
    54         16
    55         15
    56        816
    57        999
    58         37
    61          2
    62          9
    63         31
    64         11
    65         26
    66          4
    67          4
    68         21
    69         22
    70          4
    71          1
    73          1
    74          9
    75         17
    76         25
    77         90
    78         36
    79          9
    80         18
    81          7
    82         20
    83          2
    85          1
    86          2
    87          5
    88          8
    89         26
    90          8
    91         97
    92         24
    93          9
    94          8
    95         60
    96          4
    98          1
    99          1
   100          3
   101         14
   102         48
   103         65
   104         15
   105         19
   106         29
   107         22
   108        120
   109         26
   110          2
   113          6
   114          9
   115         79
   116         37
   117         18
   118         10
   119         28
   120          9
   121          1
   126          3
   127         19
   128         51
   129         79
   130         44
   131         11
   132          6
   133          2
   139          1
   140         16
   141          9
   142          9
   143         18
   144         11
   145          4
   146          4
   151          1
   152          1
   153          2
   154          9
   155         25
   156         13
   157         10
   158         44
   159         93
   160         12
   161          3
   164          2
   168          2
   169          2
   170          1
   171          2
   181          1
   183          3
   184          3
   185        161
   186        879
   187        128
   188          9
   189          5