##TITLE=Library Entry 61165
##JCAMP-DX=Revision 4.10 
##DATA TYPE=MASS SPECTRUM
##SAMPLE DESCRIPTION=LAC, NIDDK, NIH, Bethesda, MD 20892
##NAMES=HP
##CAS NAME=N-Cbz-serine benzyl ester
##MOLFORM=C18H19NO5
##CAS REGISTRY NO=40489-45-0
##MP= -300
##BP= -300
##MW= 329
##$RETENTION INDEX=0
##$CONDENSED SPECTRUM=NO
##NPOINTS= 56
##XYDATA=(XY..XY) 1 
    41          9
    42          8
    43          5
    44         11
    45          3
    47          6
    48          1
    52          5
    55          1
    57          2
    59          2
    60         22
    62          6
    63         19
    65         97
    66          4
    73          0
    74          3
    76          0
    77         40
    78          8
    79         31
    80          1
    88          4
    89         30
    91        999
    92         82
    93          3
   101          3
   104          4
   105         12
   107        261
   108         36
   109          1
   118          0
   120          3
   132         27
   148          7
   150         57
   151          8
   164          7
   167          3
   180         35
   181         12
   189          4
   192          4
   193          0
   194         24
   195          2
   222          0
   235          3
   238         37
   239          5
   299          3
   329          1
   330          1