##TITLE=Library Entry 11927
##JCAMP-DX=Revision 4.10 
##DATA TYPE=MASS SPECTRUM
##SAMPLE DESCRIPTION=Japan AIST/NIMC Database- Spectrum MS-IW-6607
##NAMES=HP
##CAS NAME=Acetyl 2,3,4-tri-O-acetyl-.beta.-D-xylopyranoside
##MOLFORM=C13H18O9
##CAS REGISTRY NO=4049-33-6
##MP= -300
##BP= -300
##MW= 318
##$RETENTION INDEX=0
##$CONDENSED SPECTRUM=NO
##NPOINTS= 106
##XYDATA=(XY..XY) 1 
    13          1
    14          6
    15         41
    16          1
    17          3
    18         10
    19          1
    26          1
    27          5
    28         15
    29         13
    30          1
    31          8
    38          1
    39         11
    40          7
    41         20
    42         37
    43        999
    44         52
    45         42
    47          1
    53          1
    54          1
    55         10
    56          2
    57         24
    58          5
    59          1
    60         54
    61         20
    67          1
    68        159
    69        155
    70         12
    71         17
    72          3
    73         73
    74          4
    81          1
    82          7
    83          2
    84          7
    85         73
    86        172
    87         10
    88          1
    89          4
    95          4
    96         14
    97        141
    98         16
    99         24
   100         31
   101          5
   102         20
   103        241
   104         10
   105          1
   110          3
   111          2
   112          1
   113         36
   114         98
   115        371
   116         22
   117          3
   126          4
   127         44
   128        681
   129         49
   130          6
   131         11
   132          2
   138          4
   139         61
   140          6
   141          1
   142          9
   143          5
   144          3
   145         93
   146          6
   155          3
   156         72
   157        264
   158         21
   159          3
   170        617
   171         67
   172          8
   173         25
   174          6
   175          1
   187          2
   191          1
   198          2
   199         38
   200          4
   215          2
   216         42
   217          5
   233          2
   259         31
   260          3
   275          4