##TITLE=Library Entry 13032
##JCAMP-DX=Revision 4.10 
##DATA TYPE=MASS SPECTRUM
##SAMPLE DESCRIPTION=LAC, NIDDK, NIH, Bethesda, MD 20892
##NAMES=HP
##CAS NAME=.beta.-D-Ribopyranose, tetraacetate
##MOLFORM=C13H18O9
##CAS REGISTRY NO=4049-34-7
##MP= -300
##BP= -300
##MW= 318
##$RETENTION INDEX=0
##$CONDENSED SPECTRUM=NO
##NPOINTS= 83
##XYDATA=(XY..XY) 1 
    41          9
    43        999
    44         22
    45          5
    47          8
    48          3
    53          0
    54          0
    55          5
    56          1
    57         14
    58          2
    59          0
    60          7
    61          7
    68         35
    69         49
    70          5
    71          7
    72          0
    73         25
    74          1
    78          1
    81          1
    82          3
    83          2
    84         25
    85         19
    86         70
    87          3
    88          3
    89          1
    96          3
    97         32
    98          3
    99          7
   100         10
   101          1
   102          8
   103         70
   104          3
   106          0
   110          1
   111          0
   112          0
   113         11
   114         26
   115        108
   116          6
   117          1
   124          0
   126          1
   127         13
   128        171
   129         13
   130          2
   131          3
   138          1
   139         15
   140          1
   142          3
   143          1
   144          0
   145         23
   146          1
   149          0
   155          0
   156         14
   157         71
   158          5
   159          0
   170        202
   171         20
   172          2
   173          6
   174          0
   184          0
   198          0
   199          5
   216         11
   217          1
   259          4
   275          1