##TITLE=Library Entry 86512
##JCAMP-DX=Revision 4.10 
##DATA TYPE=MASS SPECTRUM
##SAMPLE DESCRIPTION=NIST Mass Spectrometry Data Center, 1994
##NAMES=HP
##CAS NAME=Benzeneacetic acid, 4-fluoro-
##MOLFORM=C8H7FO2
##CAS REGISTRY NO=405-50-5
##MP= -300
##BP= -300
##MW= 154
##$RETENTION INDEX=0
##$CONDENSED SPECTRUM=NO
##NPOINTS= 83
##XYDATA=(XY..XY) 1 
    14          2
    15          1
    17          2
    18          1
    25          0
    26          4
    27          5
    28          5
    29          5
    31         16
    32          0
    33          5
    36          0
    37          6
    38         13
    39         37
    40          2
    41          1
    42          2
    43          4
    44         10
    45         33
    46          1
    49          4
    50         25
    51         26
    52          3
    53          2
    55         16
    56          7
    57         67
    58          3
    59         15
    60          2
    61         11
    62         23
    63         46
    64          5
    65          2
    68          6
    69          6
    70          5
    71          1
    73          2
    74          8
    75         12
    76          4
    77         10
    78          1
    79          2
    80          4
    81         28
    82          1
    83        164
    84         11
    85          4
    86          5
    87          5
    88          3
    89         22
    90          4
    91          1
    92          1
    93          1
    94          2
    95          7
    96          3
    97          6
    98          0
   104          0
   105          3
   107         51
   109        999
   110        103
   111          4
   112          1
   123          1
   125          2
   135          0
   136          3
   154        239
   155         21
   156          2