##TITLE=Library Entry 58712
##JCAMP-DX=Revision 4.10 
##DATA TYPE=MASS SPECTRUM
##SAMPLE DESCRIPTION=NIST Mass Spectrometry Data Center, 2010
##NAMES=HP
##CAS NAME=Acetic acid, trifluoro-, (4-nitrophenyl)methyl ester
##MOLFORM=C9H6F3NO4
##CAS REGISTRY NO=405-84-5
##MP= -300
##BP= -300
##MW= 249
##$RETENTION INDEX=0
##$CONDENSED SPECTRUM=NO
##NPOINTS= 127
##XYDATA=(XY..XY) 1 
    26          2
    27          6
    28          4
    29          9
    30        114
    31          4
    33          1
    37          7
    38         22
    39         67
    40         13
    41          1
    43          2
    44          5
    45          7
    46          9
    47          1
    49          5
    50        104
    51        140
    52         45
    53          6
    54          1
    55          2
    57          3
    59          7
    60          2
    61         12
    62         52
    63        202
    64         67
    65         15
    66          9
    67          1
    68          2
    69        386
    70          5
    71          1
    73          5
    74         35
    75         41
    76         54
    77        186
    78        325
    79         26
    80          2
    81          1
    83        100
    84          6
    85          5
    86          9
    87         10
    88         12
    89        999
    90        195
    91         15
    92          8
    93          3
    94          8
    95          7
    96          3
    97         23
    98          1
    99          4
   101          3
   102          1
   103          3
   104         13
   105         68
   106        119
   107         19
   108          9
   109         79
   110          6
   114          1
   115          1
   118          4
   119          1
   120          4
   121          9
   122          5
   123          2
   124          1
   125          2
   126          1
   127         27
   128          2
   133          1
   134          2
   135        220
   136        478
   137         39
   138          3
   143          1
   145          2
   147          1
   148          1
   149          1
   150          3
   151          1
   152        102
   153          9
   154          1
   155          1
   162          4
   163          1
   174          5
   175         18
   176          2
   177          1
   180         14
   181          1
   191          4
   202         11
   203        129
   204         13
   205          1
   219         13
   220          2
   232         64
   233         28
   234          3
   248          1
   249        579
   250         60
   251          8
   252          1