##TITLE=Library Entry 89282
##JCAMP-DX=Revision 4.10 
##DATA TYPE=MASS SPECTRUM
##SAMPLE DESCRIPTION=NIST Mass Spectrometry Data Center
##NAMES=HP
##CAS NAME=1-Acetoxy-4-fluorobenzene
##MOLFORM=C8H7FO2
##CAS REGISTRY NO=405-51-6
##MP= -300
##BP= -300
##MW= 154
##$RETENTION INDEX=0
##$CONDENSED SPECTRUM=NO
##NPOINTS= 67
##XYDATA=(XY..XY) 1 
    12          2
    13          6
    14         27
    15        102
    16          1
    18          3
    25          2
    26         10
    27          6
    28         21
    29         11
    31         52
    32          5
    33          6
    36          1
    37         11
    38         21
    39         28
    40          2
    41         11
    42         42
    43        540
    44         12
    45          4
    48          1
    49          4
    50         27
    51         13
    52          2
    53          8
    55          5
    56         28
    57        173
    58          9
    59          1
    60          1
    61         13
    62         21
    63         44
    64         41
    65          5
    66          1
    68          7
    69         10
    70          2
    73          8
    74         12
    75         32
    76          2
    79          1
    80          2
    81         26
    82         16
    83        154
    84        152
    85          7
    86          1
    92          3
    93          3
    94          5
    95         29
    96          2
   112        999
   113         63
   114          4
   154         80
   155          7