##TITLE=Library Entry 89946
##JCAMP-DX=Revision 4.10 
##DATA TYPE=MASS SPECTRUM
##SAMPLE DESCRIPTION=LAC, NIDDK, NIH, Bethesda, MD 20892
##NAMES=HP
##CAS NAME=4-Nitroimidazole-5-carboxylic acid
##MOLFORM=C4H3N3O4
##CAS REGISTRY NO=40507-59-3
##MP= -300
##BP= -300
##MW= 157
##$RETENTION INDEX=0
##$CONDENSED SPECTRUM=NO
##NPOINTS= 52
##XYDATA=(XY..XY) 1 
    41        154
    42        106
    43        522
    44        995
    45        693
    46        294
    51        112
    52         33
    53        499
    54        266
    55        560
    56        187
    57        172
    58         48
    60        179
    64         21
    65        259
    66        462
    67        252
    68         39
    69        893
    70         91
    71         31
    72        639
    73        102
    77        128
    78         70
    81         75
    82         45
    83        125
    84         47
    85         23
    88         63
    91         45
    92         21
    93         64
    95         26
    96         74
    97         98
    99         77
   105         81
   109         42
   113        999
   114         50
   115         66
   123        191
   127         30
   129         28
   140         74
   156         83
   157        749
   158         76