##TITLE=Library Entry 14292
##JCAMP-DX=Revision 4.10 
##DATA TYPE=MASS SPECTRUM
##SAMPLE DESCRIPTION=DENNIS H SMITH DEPT OF CHEM STANFORD UNIV STANFORD CALI
F 9430
##NAMES=HP
##CAS NAME=19-Norpregn-4-ene-3,20-dione, 1-methyl-, (1.alpha.)-
##MOLFORM=C21H30O2
##CAS REGISTRY NO=4050-25-3
##MP= -300
##BP= -300
##MW= 314
##$RETENTION INDEX=0
##$CONDENSED SPECTRUM=NO
##NPOINTS= 160
##XYDATA=(XY..XY) 1 
    40         11
    41        334
    42         35
    43        999
    45         18
    51         21
    52         20
    53         98
    54         15
    55        239
    57         18
    58          5
    63          6
    64          4
    65         63
    66         16
    67        187
    68         27
    69        120
    71        159
    72         11
    74         34
    75         17
    77        183
    78         43
    79        229
    80         50
    81        209
    82         29
    83         34
    84        163
    85         78
    87         21
    89          4
    91        327
    92         66
    93        197
    94         66
    95        156
    96         20
    97         28
   103         20
   104         22
   105        170
   106         48
   107        215
   108         59
   109         92
   110         20
   111         36
   115         34
   116          7
   117         63
   118         26
   119        101
   120         75
   121        142
   122        102
   123         80
   124        392
   125         51
   127          8
   128         31
   129         32
   130         10
   131         73
   132         58
   133        145
   134         79
   135        109
   136         55
   137         95
   138         36
   141         15
   142         12
   143         41
   144         22
   145         84
   146         34
   147        141
   148         46
   149         80
   150         13
   155          8
   156          8
   157         31
   158         23
   159         58
   160         32
   161         55
   162         27
   163         24
   169         12
   170          6
   171         25
   172         23
   173         65
   174         47
   175         51
   176         31
   177         19
   178          9
   183         11
   184          8
   185         27
   186         19
   187        101
   188         26
   189         26
   190         44
   191        122
   192         20
   197         12
   199         22
   200          5
   201         49
   202         20
   203         10
   209          4
   211         51
   212         11
   213         24
   214         16
   215         29
   216         28
   225          9
   226         15
   227         26
   228         11
   229        260
   230         40
   231         57
   232         14
   237          5
   238          9
   241         17
   243         26
   244         76
   246          5
   253         21
   254         24
   255          5
   256         30
   257         39
   258         18
   267         11
   269         15
   270         25
   271         58
   272        486
   273         18
   281         15
   286         32
   287          5
   296         79
   297         18
   298         20
   299         43
   300         25
   314        363