##TITLE=Library Entry 19554
##JCAMP-DX=Revision 4.10 
##DATA TYPE=MASS SPECTRUM
##SAMPLE DESCRIPTION=Japan AIST/NIMC Database- Spectrum MS-NW-3701
##NAMES=HP
##CAS NAME=2-Hexene, (E)-
##MOLFORM=C6H12
##CAS REGISTRY NO=4050-45-7
##MP= -300
##BP= -300
##MW= 84
##$RETENTION INDEX=597
##$CONDENSED SPECTRUM=NO
##NPOINTS= 46
##XYDATA=(XY..XY) 1 
    14          1
    15         10
    26         19
    27        178
    28         28
    29        212
    30          4
    31          2
    37          6
    38         15
    39        188
    40         33
    41        367
    42        451
    43        119
    44          4
    45          3
    49          2
    50         16
    51         22
    52          9
    53         68
    54         69
    55        999
    56        232
    57         11
    58          1
    61          1
    62          3
    63          4
    65          7
    66          3
    67         28
    68          7
    69        194
    70         11
    71          1
    77          3
    78          1
    79          3
    81          3
    82          2
    83          7
    84        342
    85         24
    86          1