##TITLE=Library Entry 84121
##JCAMP-DX=Revision 4.10 
##DATA TYPE=MASS SPECTRUM
##SAMPLE DESCRIPTION=NIST Mass Spectrometry Data Center
##NAMES=HP
##CAS NAME=1,1,4,7-Tetramethyl-1a,2,3,4,6,7,7a,7b-octahydro-1H-cyclopropa[e]
azulene
##MOLFORM=C15H24
##CAS REGISTRY NO=405112-35-8
##MP= -300
##BP= -300
##MW= 204
##$RETENTION INDEX=1447
##$CONDENSED SPECTRUM=NO
##NPOINTS= 91
##XYDATA=(XY..XY) 1 
    27         83
    29        124
    39        244
    40         47
    41        681
    42         51
    43        158
    50         15
    51         86
    52         41
    53        256
    54         36
    55        468
    56         36
    57         33
    58         11
    63         39
    64         20
    65        216
    66         56
    67        516
    68         42
    70         18
    71         16
    72         10
    76          8
    77        507
    78        115
    79        493
    80         97
    81        469
    82        144
    83        191
    89         16
    90          4
    91        758
    92        118
    93        809
    94        127
    95        651
    96        132
   102         13
   103         79
   104         31
   105        823
   106        166
   107        999
   108        240
   109        421
   110         39
   114          3
   115        126
   116         45
   117        145
   118         37
   119        629
   120        206
   121        414
   122        951
   123        203
   124         16
   127         19
   128         63
   129         60
   130         31
   131        103
   132         23
   133        390
   134         96
   136         36
   141         10
   143         14
   144          8
   145         57
   146         20
   147        423
   148        161
   149         63
   159         19
   160         17
   161        800
   162        172
   163         16
   175         54
   176         23
   189        191
   190         32
   203          5
   204        439
   205         68
   206          6