##TITLE=Library Entry 78888
##JCAMP-DX=Revision 4.10 
##DATA TYPE=MASS SPECTRUM
##SAMPLE DESCRIPTION=NIST Mass Spectrometry Data Center, 1994
##NAMES=HP
##CAS NAME=2-Phenethyl phenyl ether
##MOLFORM=C14H14O
##CAS REGISTRY NO=40515-89-7
##MP= -300
##BP= -300
##MW= 198
##$RETENTION INDEX=0
##$CONDENSED SPECTRUM=NO
##NPOINTS= 71
##XYDATA=(XY..XY) 1 
    15          1
    16          0
    17          1
    18          2
    26          8
    27         89
    28          7
    29          5
    30          1
    31          0
    37          8
    38         35
    39        198
    40         18
    41         11
    42          1
    43          1
    50         62
    51        201
    52         31
    53         20
    54          1
    55          4
    61          3
    62         15
    63         57
    64         20
    65        142
    66         28
    67          1
    73          1
    74         13
    75         13
    76          1
    77        392
    78         89
    79        214
    80         13
    86          1
    87          1
    89         16
    91         91
    92          8
    94         51
    95          3
    98          1
    99          5
   101          2
   103        120
   104        149
   105        999
   106         91
   107         36
   108          3
   115          3
   119          2
   128          1
   139          1
   141          1
   152          3
   153          2
   154          1
   165          3
   167          1
   171          0
   178          3
   179          1
   181          1
   198        148
   199         21
   200          1