##TITLE=Library Entry 39825
##JCAMP-DX=Revision 4.10 
##DATA TYPE=MASS SPECTRUM
##SAMPLE DESCRIPTION=B.WEBSTER ICI PHARMACEUTICALS DIVISION. ALDERLEY PARK C
HESHIRE
##NAMES=HP
##CAS NAME=2-Propanol, 1-[(2,3-dihydro-1H-inden-4-yl)oxy]-3-[(1-methylethyl)
amino]-
##MOLFORM=C15H23NO2
##CAS REGISTRY NO=4051-88-1
##MP= -300
##BP= -300
##MW= 249
##$RETENTION INDEX=0
##$CONDENSED SPECTRUM=NO
##NPOINTS= 47
##XYDATA=(XY..XY) 1 
    50         17
    51         43
    52         17
    53         14
    54         17
    55         26
    56        173
    57         39
    58         40
    60         23
    63         19
    65         21
    72        999
    73         67
    77         58
    78         36
    79         31
    82         14
    84         43
    89         11
    91         62
    92         11
    98         28
   100         36
   102         47
   103         33
   104         18
   105         44
   107         10
   115         80
   116         34
   117         78
   118         12
   119         11
   131         29
   132         39
   133        107
   134        111
   135         14
   145          8
   147         29
   173         18
   205         45
   206          7
   234         32
   249         71
   250         12