##TITLE=Library Entry 76915
##JCAMP-DX=Revision 4.10 
##DATA TYPE=MASS SPECTRUM
##SAMPLE DESCRIPTION=MINISTRY OF DEFENCE ERDE, WALTHAM ABBEY, ESSEX, UK
##NAMES=HP
##CAS NAME=Benzene, 4-azido-1-methyl-2-nitro-
##MOLFORM=C7H6N4O2
##CAS REGISTRY NO=40515-18-2
##MP= -300
##BP= -300
##MW= 178
##$RETENTION INDEX=0
##$CONDENSED SPECTRUM=NO
##NPOINTS= 45
##XYDATA=(XY..XY) 1 
    15         10
    26         50
    27        210
    28        260
    29         30
    30        120
    37         40
    38         90
    39        230
    40         30
    41         20
    42         10
    49         20
    50        210
    51        700
    52        150
    53         60
    54         20
    61         30
    62         70
    63        130
    64         60
    65         70
    66         20
    74         30
    75         60
    76        280
    77        720
    78        300
    79         20
    87         10
    88         20
    89         30
    91         40
    92         10
   102         60
   103        210
   104        999
   105        110
   106         10
   133         20
   150        300
   151         30
   178        230
   179         20