##TITLE=Library Entry 46947
##JCAMP-DX=Revision 4.10 
##DATA TYPE=MASS SPECTRUM
##SAMPLE DESCRIPTION=Japan AIST/NIMC Database- Spectrum MS-IW-7846
##NAMES=HP
##CAS NAME=Benzene, 2-azido-1-methyl-4-nitro-
##MOLFORM=C7H6N4O2
##CAS REGISTRY NO=40515-19-3
##MP= -300
##BP= -300
##MW= 178
##$RETENTION INDEX=0
##$CONDENSED SPECTRUM=NO
##NPOINTS= 86
##XYDATA=(XY..XY) 1 
    14          5
    15          2
    16          1
    26         13
    27         85
    28        215
    29          6
    30         41
    37         25
    38         45
    39        147
    40         13
    41         10
    42          3
    43         10
    44         11
    46          9
    49          9
    50        110
    51        396
    52         78
    53         37
    54         13
    55         10
    56          5
    57          1
    60          1
    61         15
    62         31
    63         60
    64        112
    65        108
    66         18
    67          3
    68          2
    73          6
    74         22
    75         43
    76        150
    77        999
    78        235
    79         23
    80          4
    82          1
    85          2
    86          4
    87          6
    88          9
    89         29
    90         11
    91         10
    92         56
    93          9
    94          3
    95          1
    99          3
   100          1
   101          1
   102         87
   103         85
   104        988
   105         86
   106         20
   107          3
   118          3
   119          5
   120          8
   121          2
   122          3
   124         14
   125          1
   133          2
   134          1
   136          1
   137          2
   138          1
   148          1
   149         42
   150        435
   151         36
   152         29
   153          3
   162          6
   178        452
   179         46
   180          4