##TITLE=Library Entry 15789
##JCAMP-DX=Revision 4.10 
##DATA TYPE=MASS SPECTRUM
##SAMPLE DESCRIPTION=A.A.Kutin, Moscow, Russia
##NAMES=HP
##CAS NAME=Glycine, N-(dithiocarboxy)-N-methyl-
##MOLFORM=C4H7NO2S2
##CAS REGISTRY NO=40520-03-4
##MP= -300
##BP= -300
##MW= 165
##$RETENTION INDEX=0
##$CONDENSED SPECTRUM=NO
##NPOINTS= 39
##XYDATA=(XY..XY) 1 
    34         16
    35          0
    36          6
    38         33
    39         14
    40         78
    42        251
    44        999
    45         43
    46          5
    48          1
    50          0
    51          2
    52          0
    55          1
    57          1
    60         14
    64         31
    65          0
    66          1
    72          1
    74          0
    76        751
    78         91
    79          1
    80          1
    89         64
    90          1
    91          0
    96          1
   104          2
   105          3
   119          0
   128          3
   147          2
   149          1
   160          0
   165          6
   167          2