##TITLE=Library Entry 94934
##JCAMP-DX=Revision 4.10 
##DATA TYPE=MASS SPECTRUM
##SAMPLE DESCRIPTION=K.PAULL MIDWEST RES. INST., KANSAS CITY, MISSOURI, USA
##NAMES=HP
##CAS NAME=2-Pyrrolidinone, 1-(5,6-dihydronaphth[2,1-c][1,2]oxathiin-2-yl)-,
 S,S-dioxide
##MOLFORM=C16H15NO4S
##CAS REGISTRY NO=40535-16-8
##MP= -300
##BP= -300
##MW= 317
##$RETENTION INDEX=0
##$CONDENSED SPECTRUM=NO
##NPOINTS= 86
##XYDATA=(XY..XY) 1 
    15         47
    17         32
    18        150
    27        173
    28        191
    29         51
    30         62
    39        339
    40         53
    41        764
    42        145
    48         95
    50         59
    51        157
    52         40
    55         82
    56        287
    58         81
    62         66
    63        261
    64        124
    65        121
    67         69
    68         32
    69        344
    70        127
    71         75
    74         50
    75        105
    76         70
    77        111
    78         30
    84        102
    85         52
    86         79
    87         63
    88         55
    89        178
    90         33
    91        110
   101         31
   102         78
   112         30
   113         94
   114        116
   115        999
   116        151
   126         97
   127        207
   128        322
   129        149
   138         45
   139        772
   140        821
   141        942
   142        165
   152         47
   153         75
   154        122
   155        209
   156         70
   157         44
   166        112
   167         99
   168        993
   169        566
   170        122
   182         52
   183         75
   184         54
   185         80
   195         53
   196        511
   197        760
   198        208
   208         83
   210         34
   224        692
   225        206
   251         58
   252        260
   253        950
   254        170
   317        556
   318        109
   319         40