##TITLE=Library Entry 51019
##JCAMP-DX=Revision 4.10 
##DATA TYPE=MASS SPECTRUM
##SAMPLE DESCRIPTION=Dmitri Zagorevskii, Scientific Instruments & Applicatio
ns
##NAMES=HP
##CAS NAME=1H-Imidazole-4-propanamine
##MOLFORM=C6H11N3
##CAS REGISTRY NO=40546-33-6
##MP= -300
##BP= -300
##MW= 125
##$RETENTION INDEX=0
##$CONDENSED SPECTRUM=NO
##NPOINTS= 36
##XYDATA=(XY..XY) 1 
    30        991
    37         12
    38         34
    39        179
    40         54
    41        279
    42        130
    43         23
    44         42
    50          8
    51         16
    52         41
    53         48
    54        152
    55         48
    56         42
    57         23
    66         12
    67         23
    68        117
    69         45
    70          5
    79        172
    80        437
    81        521
    82        999
    83         80
    93         20
    95        706
    96        117
    97          8
   107         80
   108        165
   109         20
   125         48
   126         11