##TITLE=Library Entry 73601
##JCAMP-DX=Revision 4.10 
##DATA TYPE=MASS SPECTRUM
##SAMPLE DESCRIPTION=V.Zaikin,Topchiev Inst.Petrochem.Synth.,Moscow
##NAMES=HP
##CAS NAME=1-Diphenylsilyloxybutane
##MOLFORM=C16H20OSi
##CAS REGISTRY NO=40553-58-0
##MP= -300
##BP= -300
##MW= 256
##$RETENTION INDEX=0
##$CONDENSED SPECTRUM=NO
##NPOINTS= 169
##XYDATA=(XY..XY) 1 
    25          4
    26         30
    27        132
    28         18
    29        179
    30          8
    31         19
    35          3
    36         12
    37          6
    38         15
    39         89
    40         11
    41        139
    42         23
    43         77
    44         19
    45        392
    46         21
    47         21
    48          2
    49          7
    50         63
    51        123
    52         46
    53        114
    54         19
    55         64
    56         77
    57         41
    58         11
    59         47
    60          5
    61          8
    62          4
    63         27
    64          4
    65         14
    66          8
    67         13
    68          5
    69         18
    70         16
    71         31
    72         14
    73         14
    74         15
    75         14
    76         18
    77        185
    78        253
    79         92
    80         15
    81         11
    82          7
    83         12
    84          6
    85         24
    86          7
    87          6
    89          4
    90          4
    91        117
    92         46
    93          7
    95          5
    96          2
    97         12
    98         10
    99         36
   100        999
   101        103
   102         51
   103         27
   104         25
   105        342
   106         81
   107         63
   108         10
   110          2
   111          3
   113          2
   114          4
   115         10
   116          3
   117         14
   118          9
   119          5
   120         10
   121         31
   122         78
   123        330
   124         41
   125         16
   126          6
   127          6
   128          9
   129         19
   130          4
   131         16
   132         10
   133          6
   134          5
   135         16
   136         64
   137         46
   138          7
   139          5
   140         24
   141          4
   142          9
   143          4
   144          2
   145          5
   146          3
   147         12
   148         12
   149         36
   150         35
   151         13
   152         27
   153         21
   154         29
   155         58
   156          9
   157          8
   159          5
   160          2
   161          6
   163         21
   164          5
   165          4
   166          3
   167          7
   168          3
   173          3
   175          2
   176          7
   177        140
   178        434
   179         97
   180         56
   181        130
   182         45
   183        476
   184         87
   185         25
   186          4
   195          3
   197         28
   198          7
   199        137
   200         26
   201          7
   202          2
   211          9
   212          6
   213         39
   214          4
   215          3
   217          3
   218          4
   219          2
   220          2
   227          3
   254          3
   255         73
   256         19
   257          5