##TITLE=Library Entry 37281
##JCAMP-DX=Revision 4.10 
##DATA TYPE=MASS SPECTRUM
##SAMPLE DESCRIPTION=Exported from NIST MS Search
##NAMES=HP
##CAS NAME=Mitomycin B
##MOLFORM=C16H19N3O6
##CAS REGISTRY NO=4055-40-7
##MP= -300
##BP= -300
##MW= 349
##$RETENTION INDEX=0
##$CONDENSED SPECTRUM=NO
##NPOINTS= 169
##XYDATA=(XY..XY) 1 
    41         48
    42        230
    43         84
    44        533
    45          7
    51         24
    52         21
    53         21
    54         31
    55         48
    56         43
    57         46
    58         38
    59          7
    61         19
    63         12
    64         12
    65         24
    66         21
    67         38
    68        126
    69         26
    70        999
    72         68
    77         26
    78         24
    79         24
    80         21
    81         12
    82         17
    83         63
    84         55
    85          9
    89         12
    90          4
    91         21
    92         21
    93         19
    94         24
    95         24
    96         48
    97         14
    98          7
    99          4
   103         12
   104         14
   105         14
   106         12
   107          9
   108          9
   109          7
   110          4
   111         26
   114         17
   115          4
   116          7
   117         12
   118         19
   119         21
   120         24
   121         19
   122         19
   123          7
   128          4
   129          2
   130          7
   131         14
   132         21
   133         19
   134         14
   135         24
   136         12
   141          2
   142          4
   143          4
   144         12
   145         14
   146         14
   147         12
   148         19
   149         21
   150          4
   155          4
   156          2
   157         14
   158          9
   159          9
   160         14
   161         21
   162         19
   163         14
   164          4
   165          7
   170          4
   171         14
   172          7
   173         19
   174         17
   175         19
   176         21
   177         19
   178         14
   183          4
   184          4
   185          7
   186          9
   187          9
   188         14
   189         24
   190         21
   191         21
   192          2
   199         19
   200         21
   201         21
   202         21
   203         21
   204         46
   205         12
   206          7
   213         24
   214         19
   215         36
   216         24
   217         36
   218         24
   219         21
   227         24
   228         24
   229         43
   230         31
   231         21
   232         38
   233         12
   234          7
   241         24
   242         24
   243         55
   244         43
   245         77
   246         24
   247         31
   248          4
   255         24
   256         24
   257         43
   258         68
   259         46
   260         19
   261          2
   269         12
   270         29
   271         70
   272         24
   273        165
   274         26
   275         12
   276          2
   287         55
   288        519
   289         97
   290          4
   306         99
   316        412
   317          4
   331        339
   332          4
   349        194
   350         29