##TITLE=Library Entry 16593
##JCAMP-DX=Revision 4.10 
##DATA TYPE=MASS SPECTRUM
##SAMPLE DESCRIPTION=Exported from NIST MS Search
##NAMES=HP
##CAS NAME=Mitomycin A
##MOLFORM=C16H19N3O6
##CAS REGISTRY NO=4055-39-4
##MP= -300
##BP= -300
##MW= 349
##$RETENTION INDEX=0
##$CONDENSED SPECTRUM=NO
##NPOINTS= 146
##XYDATA=(XY..XY) 1 
    41         51
    43         95
    44        999
    45         12
    47         48
    48         14
    49         12
    50          7
    51         24
    52         21
    53         24
    54         73
    59          2
    60          2
    61         14
    63         14
    64          9
    65         24
    66         14
    67         26
    68          9
    69          9
    70         21
    76         12
    77         12
    78         12
    79         12
    80         14
    81         12
    89         12
    90         12
    91         12
    92         14
    93         14
    94         12
    95          4
   100         14
   102         12
   103         19
   104         17
   105         17
   106         14
   107         12
   108          9
   109          7
   115         12
   116          7
   117         19
   118         17
   119         14
   120         14
   121          9
   125         29
   128         12
   129         12
   130         80
   131         24
   132         14
   133         21
   134         12
   135          7
   143         14
   144         14
   145         19
   146         21
   147         21
   148          9
   149          9
   153         14
   155          7
   156         17
   157         21
   158          9
   159         21
   160         12
   161         12
   163          4
   164          9
   173          7
   174          7
   175          7
   176          7
   177          7
   178          4
   179          4
   185         12
   186         12
   189          9
   190         12
   199         12
   200         12
   201         24
   202         12
   203         12
   204          9
   206          7
   207          4
   211          2
   212          2
   213         19
   214         46
   215         46
   216         12
   217         21
   218         21
   219          4
   220         21
   222         26
   227         24
   228        100
   229         95
   230         43
   231         12
   232         12
   233          4
   234         14
   239          4
   240          7
   241         12
   242         70
   243        109
   244         48
   245         48
   246         12
   255         26
   256         48
   257         48
   258        241
   259         61
   260        170
   261         24
   262          2
   273         97
   274         58
   275         19
   276         14
   287         12
   288        451
   289         85
   290         12
   302         80
   303          9
   306         95
   317         70
   318          7
   349        109