##TITLE=Library Entry 25720
##JCAMP-DX=Revision 4.10 
##DATA TYPE=MASS SPECTRUM
##SAMPLE DESCRIPTION=AC73-347-2B
##NAMES=HP
##CAS NAME=Cyclohexanol, 3-(3,3-dimethylbutyl)-
##MOLFORM=C12H24O
##CAS REGISTRY NO=40564-98-5
##MP= -300
##BP= -300
##MW= 184
##$RETENTION INDEX=0
##$CONDENSED SPECTRUM=NO
##NPOINTS= 33
##XYDATA=(XY..XY) 1 
    41        240
    42         26
    43        115
    53         21
    54         26
    55        122
    56        172
    57        999
    58         43
    66         17
    67        117
    68         61
    69        277
    70         69
    71         43
    73         48
    74          4
    75          2
    77         21
    79         26
    80         39
    81        336
    82        401
    83         69
    85         28
    95        257
    96         37
    97         41
    99         39
   121         28
   151         80
   166         74
   167         17