##TITLE=Library Entry 73261
##JCAMP-DX=Revision 4.10 
##DATA TYPE=MASS SPECTRUM
##SAMPLE DESCRIPTION=Exported from NIST MS Search
##NAMES=HP
##CAS NAME=Acetamide, N,N'-1,4-butanediylbis[N-[3-(acetylamino)propyl]-
##MOLFORM=C18H34N4O4
##CAS REGISTRY NO=40563-82-4
##MP= -300
##BP= -300
##MW= 370
##$RETENTION INDEX=0
##$CONDENSED SPECTRUM=NO
##NPOINTS= 167
##XYDATA=(XY..XY) 1 
    52          5
    53         20
    54         34
    55        166
    56        505
    57        255
    58        304
    59         51
    60         46
    61         14
    62          5
    66          8
    67         31
    68         74
    69         86
    70        462
    71         91
    72        307
    73        149
    74         23
    75          5
    79          2
    80         14
    81         25
    82         63
    83        123
    84        623
    85        103
    86        160
    87        114
    88         28
    89         20
    90          2
    93          2
    94          2
    95         17
    96         66
    97         54
    98        307
    99         94
   100        999
   101        166
   102         28
   103         11
   104          2
   107          2
   108         17
   109         25
   110        232
   111         51
   112        132
   113         51
   114         80
   115         46
   116         14
   117         14
   118          5
   124          8
   125         25
   126         25
   127         77
   128         37
   129        408
   130         83
   131         14
   132          2
   137          2
   138         11
   139         23
   140         46
   141         28
   142         23
   143        132
   144         28
   145          8
   146          2
   153          5
   154         20
   155         46
   156         14
   157         83
   158         28
   159         23
   160          5
   166          5
   167          5
   168         20
   169        169
   170         43
   171         80
   172         28
   173          8
   174          5
   182          8
   183         54
   184          8
   185          5
   196          8
   197         20
   198          8
   199         46
   200          8
   209          5
   210         14
   211         43
   212         17
   213         74
   214         17
   215          2
   224          2
   225         14
   226          2
   227          2
   228         23
   229          5
   230          2
   238          2
   239          5
   240         20
   241          5
   242        114
   243         34
   244          8
   245          5
   254          5
   255         23
   256        229
   257         71
   258         17
   259          2
   266          8
   267         17
   268        281
   269        103
   270         34
   271          8
   272          2
   284          5
   285         17
   286          5
   296          2
   297          2
   298         51
   299         17
   300          5
   307          2
   308         11
   309         69
   310         28
   311          2
   312          2
   324          5
   325         11
   326         28
   327        275
   328        120
   329         23
   330          5
   331          2
   354          2
   355          5
   356          2
   368          5
   369          8
   370         23
   371          5
   372          5