##TITLE=Library Entry 72189
##JCAMP-DX=Revision 4.10 
##DATA TYPE=MASS SPECTRUM
##SAMPLE DESCRIPTION=Div. of Experiment Therapeutics WRAIR, WRAMC, Washingto
n DC 20307
##NAMES=HP
##CAS NAME=5-Hydroxy-6-phenylhexanoic acid, d-lactone
##MOLFORM=C12H14O2
##CAS REGISTRY NO=40564-46-3
##MP= -300
##BP= -300
##MW= 190
##$RETENTION INDEX=0
##$CONDENSED SPECTRUM=NO
##NPOINTS= 81
##XYDATA=(XY..XY) 1 
    41        310
    42        213
    43        634
    44         43
    45         26
    47         21
    49          9
    50          8
    51         94
    52         28
    53         22
    55        553
    57         46
    59         11
    60          8
    62          4
    63         79
    65        235
    66         10
    67          4
    71        890
    72         31
    74         24
    75          7
    77         53
    78         13
    79          6
    81          3
    82          3
    84          6
    85         43
    86          3
    87          7
    88          6
    89         30
    91        527
    92        210
    93         14
    94          0
    95          2
    98         16
    99        999
   100         44
   101          2
   102          2
   103         47
   104         17
   105         18
   107          4
   113          5
   115         48
   117        130
   118          9
   120          6
   121          9
   122          1
   123          0
   127          2
   128          5
   129          7
   131         89
   132          4
   133          2
   134          2
   135          0
   139          0
   141          1
   143          2
   145          6
   146          1
   153          0
   155          3
   161          2
   162          3
   173         30
   174          3
   188          1
   189          4
   190        180
   191         24
   192          2