##TITLE=Library Entry 29012
##JCAMP-DX=Revision 4.10 
##DATA TYPE=MASS SPECTRUM
##SAMPLE DESCRIPTION=Exported from NIST MS Search
##NAMES=HP
##CAS NAME=Acetamide, N,N'-[1,4-butanediylbis[(ethylimino)-3,1-propanediyl]]
bis[N-ethyl-
##MOLFORM=C22H46N4O2
##CAS REGISTRY NO=40563-87-9
##MP= -300
##BP= -300
##MW= 398
##$RETENTION INDEX=0
##$CONDENSED SPECTRUM=NO
##NPOINTS= 119
##XYDATA=(XY..XY) 1 
    52          8
    53         22
    54         37
    55         88
    56        200
    57        111
    58        999
    59         68
    60         25
    61         14
    62          2
    66          5
    67         20
    68         37
    69         57
    70        111
    71         68
    72        371
    73         51
    74          5
    75          2
    80          2
    81         11
    82         37
    83         37
    84        240
    85        108
    86        142
    87         37
    88         17
    89         25
    90          5
    94          5
    95         14
    96         42
    97         31
    98        342
    99         45
   100        122
   101         34
   102          5
   103          2
   109          8
   110         51
   111         74
   112        168
   113         28
   114        142
   115         48
   116          5
   117          2
   124          2
   125         20
   126         51
   127         17
   128        659
   129        131
   130         20
   131          2
   138         17
   139          2
   140          2
   141         17
   142          2
   143         37
   144          2
   155          2
   156          2
   157         34
   158          2
   170          5
   171         68
   172         94
   173         37
   174          5
   184          5
   185        171
   186         28
   187          2
   196          5
   197         45
   198          8
   199         25
   200         17
   201          2
   210          2
   211         20
   212          2
   213         25
   218          2
   219         17
   220          5
   224          2
   225         45
   226          5
   227         20
   228          5
   242          5
   255          2
   256          5
   257          2
   269          5
   270        102
   271         14
   272          2
   281          2
   282         14
   283          2
   284         22
   285          2
   297          2
   298         51
   299          5
   367          2
   368          5
   369         45
   370         14
   371          2
   398         22