##TITLE=Library Entry 54104
##JCAMP-DX=Revision 4.10 
##DATA TYPE=MASS SPECTRUM
##SAMPLE DESCRIPTION=CARL DJERASSI DEPT OF CHEM STANFORD UNIV STANFORD CALIF
 94305
##NAMES=HP
##CAS NAME=Cyclopentanone, 2-octyl-
##MOLFORM=C13H24O
##CAS REGISTRY NO=40566-23-2
##MP= -300
##BP= -300
##MW= 196
##$RETENTION INDEX=0
##$CONDENSED SPECTRUM=NO
##NPOINTS= 19
##XYDATA=(XY..XY) 1 
    41        120
    42         30
    43         60
    53         10
    54         20
    55        100
    56         20
    57         20
    67         20
    68         10
    69         50
    70         10
    83         90
    84        999
    85         70
    97        160
    98         20
   111         10
   196         60