##TITLE=Library Entry 35286
##JCAMP-DX=Revision 4.10 
##DATA TYPE=MASS SPECTRUM
##SAMPLE DESCRIPTION=Japan AIST/NIMC Database- Spectrum MS-IW-2932
##NAMES=HP
##CAS NAME=2-Octene, 2,6-dimethyl-
##MOLFORM=C10H20
##CAS REGISTRY NO=4057-42-5
##MP= -300
##BP= -300
##MW= 140
##$RETENTION INDEX=967
##$CONDENSED SPECTRUM=NO
##NPOINTS= 83
##XYDATA=(XY..XY) 1 
    15          2
    26          3
    27         73
    28          7
    29        119
    30          3
    31          2
    37          1
    38          3
    39        102
    40         20
    41        535
    42         82
    43        249
    44          9
    45          2
    50          4
    51         13
    52          7
    53         62
    54         22
    55        514
    56        418
    57        220
    58         13
    59         41
    60          1
    62          1
    63          3
    64          1
    65         12
    66          6
    67         90
    68         82
    69        999
    70        728
    71        167
    72         12
    73          2
    76          1
    77         11
    78          3
    79         14
    80          5
    81         24
    82         30
    83        217
    84        183
    85         42
    86          5
    87          1
    91          7
    92          5
    93         17
    94          6
    95         14
    96          8
    97         36
    98         10
    99          4
   104          1
   105          2
   107          5
   108          2
   109          8
   110          4
   111        107
   112         18
   113          3
   119          2
   121          7
   122          1
   123          4
   125         11
   126          2
   127          1
   136          6
   137          1
   138          2
   139          3
   140        360
   141         45
   142          2