##TITLE=Library Entry 23884
##JCAMP-DX=Revision 4.10 
##DATA TYPE=MASS SPECTRUM
##SAMPLE DESCRIPTION=K.OLSSON INST. OF ORG. CHEM., GOTEBORG 5, SWEDEN
##NAMES=HP
##CAS NAME=Benzene, 2-bromo-1,3,5-tris(2,2-dimethylpropyl)-4-nitro-
##MOLFORM=C21H34BrNO2
##CAS REGISTRY NO=40572-23-4
##MP= -300
##BP= -300
##MW= 411
##$RETENTION INDEX=0
##$CONDENSED SPECTRUM=NO
##NPOINTS= 34
##XYDATA=(XY..XY) 1 
    29        180
    31         20
    39         30
    41        240
    43         60
    46         40
    55         30
    56         40
    57        999
    58         50
    71         20
   226         20
   228         20
   282        210
   283         30
   284        200
   285         30
   309         60
   311         60
   324         40
   326         20
   338         18
   339         40
   340         18
   341         30
   355         80
   356         20
   357         80
   396         40
   398         40
   411          4
   412          1
   413          4
   414          1