##TITLE=Library Entry 23255
##JCAMP-DX=Revision 4.10 
##DATA TYPE=MASS SPECTRUM
##SAMPLE DESCRIPTION=K.OLSSON INST. OF ORG. CHEM., GOTEBORG 5, SWEDEN
##NAMES=HP
##CAS NAME=Benzene, 2-(chloromethyl)-1,3,5-tris(2,2-dimethylpropyl)-
##MOLFORM=C22H37Cl
##CAS REGISTRY NO=40572-18-7
##MP= -300
##BP= -300
##MW= 336
##$RETENTION INDEX=0
##$CONDENSED SPECTRUM=NO
##NPOINTS= 90
##XYDATA=(XY..XY) 1 
    29        380
    30        260
    35         20
    36        110
    38         40
    39        110
    40         30
    41        550
    42         30
    43        230
    44         50
    45         20
    46         80
    50         20
    51         20
    53         30
    55         90
    56        100
    57        999
    58         70
    60         20
    61        360
    69         40
    71        180
    91         60
   105         40
   115         40
   116         20
   119         70
   120        150
   121         20
   128         40
   129         40
   130         20
   131         60
   132        250
   133        120
   134        150
   135         20
   141         30
   142         30
   143         40
   144         20
   145         30
   155         20
   156         20
   157         40
   158         20
   159         50
   162         20
   167         40
   168        170
   169         40
   170         60
   171         30
   173        130
   174         60
   175         60
   176         80
   187        130
   188        300
   189        130
   190         70
   223         40
   224        160
   225         40
   226         50
   229         60
   230         30
   231         80
   232         40
   243         90
   244        230
   245        180
   246         70
   273         20
   279         20
   280         40
   281         20
   285         60
   286         30
   287         20
   288         30
   301         30
   302         30
   321         30
   336         35
   337          9
   338         11
   339          3