##TITLE=Library Entry 27373
##JCAMP-DX=Revision 4.10 
##DATA TYPE=MASS SPECTRUM
##SAMPLE DESCRIPTION=K.OLSSON INST. OF ORG. CHEM., GOTEBORG 5, SWEDEN
##NAMES=HP
##CAS NAME=Benzene, 1,3,5-tris(2,2-dimethylpropyl)-2,4-dimethyl-6-nitro-
##MOLFORM=C23H39NO2
##CAS REGISTRY NO=40572-22-3
##MP= -300
##BP= -300
##MW= 361
##$RETENTION INDEX=0
##$CONDENSED SPECTRUM=NO
##NPOINTS= 92
##XYDATA=(XY..XY) 1 
    27        270
    30         20
    31         20
    39         80
    40         20
    41        440
    42         30
    43        110
    44         70
    50         20
    51         20
    53         20
    55         60
    56         60
    57        999
    58         50
    77         20
    79         20
    91         40
   105         30
   115         30
   116         20
   117         20
   119         30
   128         30
   129         30
   130         30
   131         30
   132         20
   133         20
   134         20
   141         20
   142         20
   144         30
   145         30
   146         40
   147         30
   148         20
   155         20
   156         20
   157         30
   158         20
   159         20
   160         20
   162         70
   163         20
   170         20
   171         20
   172         30
   173         20
   174         50
   175         80
   176        120
   177         20
   184         20
   185         20
   186         20
   187         60
   188         20
   192         40
   193         70
   200         20
   201         40
   202         30
   203         30
   214         20
   216         50
   218         40
   230         40
   231         30
   232        740
   233        130
   234         20
   248        100
   249        100
   250         20
   259         20
   272         60
   273         20
   274         60
   275         20
   286         30
   288        720
   289        170
   290         30
   304         50
   305         60
   346        110
   347         30
   361         98
   362         23
   363          4