##TITLE=Library Entry 35593
##JCAMP-DX=Revision 4.10 
##DATA TYPE=MASS SPECTRUM
##SAMPLE DESCRIPTION=NIST Mass Spectrometry Data Center, 1990.
##NAMES=HP
##CAS NAME=4-Octanol, 2-methyl-
##MOLFORM=C9H20O
##CAS REGISTRY NO=40575-41-5
##MP= -300
##BP= -300
##MW= 144
##$RETENTION INDEX=0
##$CONDENSED SPECTRUM=NO
##NPOINTS= 27
##XYDATA=(XY..XY) 1 
    26         10
    27        130
    28         58
    29        149
    30         10
    31         34
    39         95
    41        344
    42         40
    43        268
    44         82
    45        186
    53         20
    54         10
    55         63
    56         46
    57        163
    58         53
    67         17
    69        999
    70         63
    71         30
    85         45
    87        452
    88         23
   111         10
   126         14