##TITLE=Library Entry 89348
##JCAMP-DX=Revision 4.10 
##DATA TYPE=MASS SPECTRUM
##SAMPLE DESCRIPTION=Chemical Concepts
##NAMES=HP
##CAS NAME=2(1H)-Naphthalenone, octahydro-8a-hydroxy-4a-methyl-
##MOLFORM=C11H18O2
##CAS REGISTRY NO=40573-27-1
##MP= -300
##BP= -300
##MW= 182
##$RETENTION INDEX=0
##$CONDENSED SPECTRUM=NO
##NPOINTS= 116
##XYDATA=(XY..XY) 1 
    26          8
    27        150
    28         43
    29        165
    30          5
    31         31
    38          6
    39        167
    40         42
    41        382
    42         76
    43        405
    44         26
    45         20
    46          2
    48          2
    49          2
    50          8
    51         31
    52         19
    53        110
    54         39
    55        672
    56         74
    57         55
    58         72
    59         18
    60          4
    61          2
    62          3
    63          9
    64          3
    65         37
    66         20
    67        179
    68         73
    69        213
    70         74
    71        104
    72         16
    73          4
    74          2
    75          2
    76          2
    77         61
    78         15
    79        115
    80         31
    81        167
    82        398
    83        224
    84        155
    85         40
    86          8
    87          4
    89          2
    91         51
    92         10
    93         71
    94         49
    95         73
    96         80
    97        434
    98         61
    99         15
   100         82
   101         11
   102          2
   103          3
   104          2
   105         17
   106         24
   107        124
   108         35
   109        108
   110         24
   111         85
   112        999
   113        109
   114          9
   115          3
   117          3
   119          3
   120          5
   121         52
   122         84
   123         20
   124         47
   125        272
   126         71
   127          9
   128          2
   131          6
   135         14
   136         39
   137          6
   138          3
   139         17
   140         15
   141          4
   146          4
   147          3
   149         36
   150          4
   153          4
   154          7
   155          2
   163          3
   164         61
   165         10
   167         17
   168          3
   182        119
   183         16
   184          2
   185          2