##TITLE=Library Entry 23266
##JCAMP-DX=Revision 4.10 
##DATA TYPE=MASS SPECTRUM
##SAMPLE DESCRIPTION=K.OLSSON INST. OF ORG. CHEM., GOTEBORG 5, SWEDEN
##NAMES=HP
##CAS NAME=Benzene, 1,3,5-tris(2,2-dimethylpropyl)-2-methyl-4,6-dinitro-
##MOLFORM=C22H36N2O4
##CAS REGISTRY NO=40572-21-2
##MP= -300
##BP= -300
##MW= 392
##$RETENTION INDEX=0
##$CONDENSED SPECTRUM=NO
##NPOINTS= 18
##XYDATA=(XY..XY) 1 
    29        140
    39         40
    41        200
    43         30
    55         30
    56         50
    57        999
    58         50
   207         30
   233         20
   263        110
   264         20
   280         70
   319         30
   336         40
   377         60
   392          2
   393          6