##TITLE=Library Entry 23286
##JCAMP-DX=Revision 4.10 
##DATA TYPE=MASS SPECTRUM
##SAMPLE DESCRIPTION=K.OLSSON INST. OF ORG. CHEM., GOTEBORG 5, SWEDEN
##NAMES=HP
##CAS NAME=Benzene, 1-bromo-2,4,6-tris(2,2-dimethylpropyl)-3-iodo-5-nitro-
##MOLFORM=C21H33BrINO2
##CAS REGISTRY NO=40572-26-7
##MP= -300
##BP= -300
##MW= 537
##$RETENTION INDEX=0
##$CONDENSED SPECTRUM=NO
##NPOINTS= 28
##XYDATA=(XY..XY) 1 
    29        180
    30         30
    34         20
    39         60
    41        280
    42         30
    43         70
    44         90
    53         20
    55         40
    56         70
    57        999
    58         40
   408         70
   410         70
   425         40
   426         20
   427         40
   450         20
   452         20
   464         30
   466         30
   481         60
   483         50
   537         10
   538          0
   539         11
   540          3