##TITLE=Library Entry 2135
##JCAMP-DX=Revision 4.10 
##DATA TYPE=MASS SPECTRUM
##SAMPLE DESCRIPTION=Exported from NIST MS Search
##NAMES=HP
##CAS NAME=3,4-Pentadienal, 2,2-dimethyl-
##MOLFORM=C7H10O
##CAS REGISTRY NO=4058-51-9
##MP= -300
##BP= -300
##MW= 110
##$RETENTION INDEX=1573
##$CONDENSED SPECTRUM=NO
##NPOINTS= 44
##XYDATA=(XY..XY) 1 
    14         19
    15         74
    26         45
    27        371
    28         61
    29        252
    31         13
    33          8
    37         59
    38        117
    39        708
    40        100
    41        999
    42         61
    43        125
    45          9
    49         11
    50         64
    51         95
    52         36
    53        658
    54         45
    55        159
    56         11
    61         16
    62         28
    63         45
    64          8
    65        138
    66         97
    67        144
    68         13
    69          7
    74          8
    77         97
    79        368
    80         68
    81        609
    82         66
    83         15
    95        508
    96         36
   109         92
   110         13