##TITLE=Library Entry 2726
##JCAMP-DX=Revision 4.10 
##DATA TYPE=MASS SPECTRUM
##SAMPLE DESCRIPTION=W.T.RAINEY OAK RIDGE NATIONAL LABORATORY,OAK RIDGE,TN.U
SA
##NAMES=HP
##CAS NAME=Azacyclotridecane, 1-nitroso-
##MOLFORM=C12H24N2O
##CAS REGISTRY NO=40580-89-0
##MP= -300
##BP= -300
##MW= 212
##$RETENTION INDEX=0
##$CONDENSED SPECTRUM=NO
##NPOINTS= 94
##XYDATA=(XY..XY) 1 
    30        589
    31         17
    32         17
    37          8
    38         17
    39        258
    40         62
    41        999
    42        562
    43        696
    44        714
    45         44
    46          8
    50          8
    51         17
    52         17
    53         98
    54        214
    55        973
    56        571
    57        410
    58         80
    59         17
    60          8
    65         17
    66         17
    67        241
    68        178
    69        544
    70        339
    71        116
    72         26
    73          8
    74         26
    77          8
    78          8
    79         26
    80         17
    81        196
    82        178
    83        339
    84        241
    85         62
    86         26
    87          8
    91          8
    92          8
    93          8
    94          8
    95        116
    96        214
    97        160
    98        124
    99         26
   100         17
   107          8
   108          8
   109         26
   110         98
   111         35
   112         62
   113         17
   114          8
   121          8
   122          8
   123          8
   124         62
   125         17
   126         44
   127          8
   128          8
   136          8
   138         44
   139          8
   140         62
   141          8
   142          8
   152         26
   153         17
   154         17
   166         62
   167          8
   168          8
   180         35
   181         53
   182        598
   183        107
   184          8
   195        535
   196         80
   197          8
   212        330
   213         53
   214          8