##TITLE=Library Entry 49756
##JCAMP-DX=Revision 4.10 
##DATA TYPE=MASS SPECTRUM
##SAMPLE DESCRIPTION=Exported from NIST MS Search
##NAMES=HP
##CAS NAME=3,4-Pentadien-1-ol, 2,2-dimethyl-
##MOLFORM=C7H12O
##CAS REGISTRY NO=4058-52-0
##MP= -300
##BP= -300
##MW= 112
##$RETENTION INDEX=0
##$CONDENSED SPECTRUM=NO
##NPOINTS= 38
##XYDATA=(XY..XY) 1 
    15         87
    26         33
    27        388
    29        298
    31        237
    37         38
    38         87
    39        578
    40         94
    41        830
    42         64
    43        408
    45        117
    50         51
    51         87
    52         33
    53        592
    54         45
    55        351
    56         37
    57         52
    65        107
    66         80
    67         75
    69         80
    70         43
    73         23
    77        140
    78         34
    79        542
    80        130
    81        999
    82        107
    83         41
    95         22
    97        374
    98         20
   112         13