##TITLE=Library Entry 18187
##JCAMP-DX=Revision 4.10 
##DATA TYPE=MASS SPECTRUM
##SAMPLE DESCRIPTION=M. GRANBERG, ARRHENIUS LAB., UNIV. STOCKHOLM, STOCKHOLM
,SWEDEN
##NAMES=HP
##CAS NAME=4-Chlorobuten-3-yne
##MOLFORM=C4H3Cl
##CAS REGISTRY NO=40589-38-6
##MP= -300
##BP= -300
##MW= 86
##$RETENTION INDEX=0
##$CONDENSED SPECTRUM=NO
##NPOINTS= 12
##XYDATA=(XY..XY) 1 
    49        195
    50        465
    51        999
    52         45
    60        105
    62         35
    84        105
    85        120
    86        985
    87         85
    88        305
    89         15