##TITLE=Library Entry 53719
##JCAMP-DX=Revision 4.10 
##DATA TYPE=MASS SPECTRUM
##SAMPLE DESCRIPTION=NIST Mass Spectrometry Data Center
##NAMES=HP
##CAS NAME=Hexyl 8-methylnonanoate
##MOLFORM=C16H32O2
##CAS REGISTRY NO=405922-73-8
##MP= -300
##BP= -300
##MW= 256
##$RETENTION INDEX=1746
##$CONDENSED SPECTRUM=NO
##NPOINTS= 69
##XYDATA=(XY..XY) 1 
    18          4
    26          4
    27         53
    29         69
    37          3
    38          3
    39         38
    40         16
    41        277
    42        167
    43        953
    44         38
    45          9
    46          2
    50          3
    55        130
    56        310
    59         24
    60        205
    61        445
    62          8
    71        131
    72          9
    73        346
    74         20
    75          7
    81         56
    84        999
    85        113
    86          8
    87         82
    88          9
    89          5
    94          4
    95         39
    99          7
   101         33
   102          8
   106          6
   113         19
   115         35
   116         17
   117          9
   129        312
   130         34
   133          4
   137         59
   138          4
   139         22
   143         17
   144         19
   151          3
   152          7
   153         11
   155        167
   156         19
   157         22
   171          6
   172         39
   173        540
   174         55
   175          3
   185          3
   186          2
   188          2
   213         56
   214         11
   227          4
   256         10