##TITLE=Library Entry 42065
##JCAMP-DX=Revision 4.10 
##DATA TYPE=MASS SPECTRUM
##SAMPLE DESCRIPTION=LOREN L. DUNHAM, ZOECON CORP., PALO ALTO, CA, USA
##NAMES=HP
##CAS NAME=Methoprene
##MOLFORM=C19H34O3
##CAS REGISTRY NO=40596-69-8
##MP= -300
##BP= -300
##MW= 310
##$RETENTION INDEX=2097
##$CONDENSED SPECTRUM=NO
##NPOINTS= 146
##XYDATA=(XY..XY) 1 
    39         27
    41        188
    42         39
    43        267
    44         23
    45         36
    46          6
    47          6
    50          3
    51         17
    52         16
    53         40
    54         21
    55        173
    56         24
    57         46
    58          5
    59         58
    61          9
    62          6
    65         29
    66          9
    67         90
    68         42
    69        261
    70         31
    71         34
    73        999
    74         56
    75          3
    76         10
    77         66
    78         14
    79        135
    81        245
    83         45
    84          8
    85         55
    86          4
    87         15
    91         64
    92         17
    93        103
    94         29
    95        176
    96         53
    97         64
    98         22
    99         11
   100         58
   101          5
   102          8
   103         10
   105         43
   107        172
   108         63
   109        224
   110        329
   112         39
   113         56
   114         48
   116          9
   117          7
   120         24
   121        110
   122         37
   123        103
   124         73
   125         69
   126         44
   127         23
   128         13
   129          3
   130          2
   131         16
   132         11
   133         39
   134         20
   135         97
   136         58
   137        132
   138         21
   140          8
   141          8
   142         22
   143         18
   145         12
   146         10
   147         62
   149         76
   151         17
   152         37
   153        160
   154         27
   155         33
   156         37
   157         14
   159         15
   160          9
   161         33
   162         18
   163         23
   164          9
   165         29
   166          9
   167         21
   169         10
   171         11
   175         81
   176         43
   177         27
   179         31
   180         22
   181         13
   183          7
   185          7
   189         28
   191        118
   193         72
   194         16
   197          2
   198          6
   200          6
   201         10
   203         16
   204          7
   209         13
   217         13
   218         17
   219         31
   221         52
   222         15
   224          5
   225          5
   233          6
   235         35
   236         28
   237         13
   243          7
   249          6
   250          9
   251         15
   279         11
   281         10
   285          6
   295          8