##TITLE=Library Entry 18519
##JCAMP-DX=Revision 4.10 
##DATA TYPE=MASS SPECTRUM
##SAMPLE DESCRIPTION=J.Tou.J.Heterocycl.Chem.,11,707(1974)
##NAMES=HP
##CAS NAME=Ethyl trans-3-methyltetrazole-5-acrylate
##MOLFORM=C7H10N4O2
##CAS REGISTRY NO=40595-01-5
##MP= -300
##BP= -300
##MW= 182
##$RETENTION INDEX=0
##$CONDENSED SPECTRUM=NO
##NPOINTS= 50
##XYDATA=(XY..XY) 1 
    37        104
    38        164
    39        495
    40        166
    41        368
    42        166
    43        263
    44        103
    45        111
    50        200
    51        335
    52        289
    53        999
    54         92
    55         87
    66        108
    67        197
    68        192
    69        307
    70         92
    79         41
    80         52
    81        175
    82         60
    83         75
    84         23
    85         26
    93         39
    94        277
    95         37
    96        300
    97        234
    98        688
    99         21
   108        112
   109        337
   110        103
   111         94
   112         46
   125         49
   126        245
   127         23
   136         67
   137        236
   138         21
   139         50
   154        354
   155         35
   182         70
   183         10