##TITLE=Library Entry 42252
##JCAMP-DX=Revision 4.10 
##DATA TYPE=MASS SPECTRUM
##SAMPLE DESCRIPTION=LOREN L. DUNHAM, ZOECON CORP., PALO ALTO, CA, USA
##NAMES=HP
##CAS NAME=2,4-Dodecadienoic acid, 11-methoxy-3,7,11-trimethyl-, methyl este
r, (E,E)-
##MOLFORM=C17H30O3
##CAS REGISTRY NO=40596-68-7
##MP= -300
##BP= -300
##MW= 282
##$RETENTION INDEX=0
##$CONDENSED SPECTRUM=NO
##NPOINTS= 139
##XYDATA=(XY..XY) 1 
    39         32
    40         11
    41        159
    42         32
    43        149
    44          3
    45         33
    46          6
    47          4
    50          2
    51         17
    52         12
    53         39
    54         17
    55        206
    56         25
    57         37
    59        146
    60          6
    61          7
    64          2
    65         30
    66         11
    67         80
    69        281
    70         24
    71         31
    73        999
    74         54
    77         74
    78         15
    79        161
    80         88
    81        221
    82         50
    83         32
    85         52
    86          4
    87         11
    88          5
    89          7
    90          4
    92         16
    93         88
    94         24
    95        139
    97         28
    98          4
    99          9
   101          6
   103          8
   104          4
   105         62
   106         31
   107        166
   108         54
   109        169
   110         27
   111         41
   112         21
   113         10
   114         62
   117          6
   118          8
   119         45
   120         25
   121        114
   122         29
   123         94
   125        340
   126         37
   127         52
   128         64
   129          8
   131         13
   132          9
   133         40
   135         74
   136         39
   137         83
   138         25
   139         28
   140         10
   141          8
   142          6
   144          6
   145          9
   147         81
   149         60
   150         18
   151         14
   152         11
   153          6
   154          6
   155          7
   158          6
   159         11
   161         31
   162         17
   163         16
   165         56
   166         13
   168          7
   169          7
   173          4
   175         81
   176         33
   177         18
   178         15
   180          7
   181          8
   185          4
   189          4
   190         21
   191         71
   192         10
   193         15
   194         11
   195          8
   196          5
   202          4
   206          6
   207         24
   208          5
   214          3
   215          5
   219         15
   221         10
   225          3
   231          4
   235         10
   236          6
   250         24
   251         11
   257          4
   258          3
   259          3
   267         20
   282          3