##TITLE=Library Entry 61382
##JCAMP-DX=Revision 4.10 
##DATA TYPE=MASS SPECTRUM
##SAMPLE DESCRIPTION=NIST Mass Spectrometry Data Center, 1994
##NAMES=HP
##CAS NAME=4,4,4-Trifluoro-1-bromobutane
##MOLFORM=C4H6BrF3
##CAS REGISTRY NO=406-81-5
##MP= -300
##BP= -300
##MW= 190
##$RETENTION INDEX=0
##$CONDENSED SPECTRUM=NO
##NPOINTS= 75
##XYDATA=(XY..XY) 1 
    13          4
    14         15
    15         34
    25         10
    26         91
    27        290
    28         75
    29          5
    30          4
    31         36
    32          4
    33         54
    36          5
    37         38
    38         78
    39        344
    40         38
    41        281
    42         25
    43          3
    44         20
    45         28
    46         44
    47        856
    48         15
    50         19
    51        146
    52          3
    56          6
    57         21
    59         43
    60          6
    61         14
    63         13
    64        162
    65         66
    69        222
    71        162
    72          7
    75         25
    77         96
    78          7
    79         36
    80         19
    81         31
    82         23
    83         11
    85          3
    87          2
    88          9
    89         49
    90          2
    91        999
    92         44
    93         60
    94          9
    95         80
    96          6
   105          9
   106         14
   107         67
   108         18
   109         66
   110          6
   111        947
   112         37
   119          4
   121          3
   125          5
   127          5
   171          4
   190        203
   191          9
   192        200
   193          8