##TITLE=Library Entry 90085
##JCAMP-DX=Revision 4.10 
##DATA TYPE=MASS SPECTRUM
##SAMPLE DESCRIPTION=Exported from NIST MS Search
##NAMES=HP
##CAS NAME=1-Propene, 3-chloro-1,1,3,3-tetrafluoro-
##MOLFORM=C3HClF4
##CAS REGISTRY NO=406-46-2
##MP= -300
##BP= -300
##MW= 148
##$RETENTION INDEX=0
##$CONDENSED SPECTRUM=NO
##NPOINTS= 71
##XYDATA=(XY..XY) 1 
    24          3
    25          5
    31         12
    32         41
    35         11
    36          4
    37         10
    38          1
    40          5
    43          7
    44         45
    45          5
    46          2
    47         22
    48          8
    49          2
    50         21
    51         16
    55         11
    56          7
    57          1
    59          1
    60          4
    61          1
    62          6
    63         86
    64          5
    65          1
    66          3
    67          8
    68          2
    69        659
    70          8
    71          1
    74         17
    75         38
    76          1
    78          2
    79          7
    80          1
    81          3
    82          2
    85         98
    86          1
    87         32
    88          1
    90          1
    91          1
    92          1
    93         73
    94         22
    95          1
    97          2
    98         12
    99          1
   100          4
   109          7
   110          1
   111          3
   112         12
   113        999
   114         35
   128          1
   129        104
   130          4
   131         34
   132          2
   148         17
   149          1
   150          6
   151          1