##TITLE=Library Entry 109858
##JCAMP-DX=Revision 4.10 
##DATA TYPE=MASS SPECTRUM
##SAMPLE DESCRIPTION=HD Science, UK
##NAMES=HP
##CAS NAME=Diethyl 2-oxo-4-phenylbutylphosphonate
##MOLFORM=C14H21O4P
##CAS REGISTRY NO=40601-45-4
##MP= -300
##BP= -300
##MW= 284
##$RETENTION INDEX=0
##$CONDENSED SPECTRUM=NO
##NPOINTS= 128
##XYDATA=(XY..XY) 1 
    14          8
    15         48
    19         13
    26         47
    27        325
    28         89
    29        525
    30         19
    31         78
    33          1
    39        113
    40         25
    41         49
    42         90
    43        118
    44          6
    45         76
    47         52
    48         18
    49         12
    50         46
    51        143
    52         37
    53         35
    54          2
    55         29
    56          4
    57          8
    58          1
    59          2
    61         16
    62         14
    63         54
    65        294
    66         15
    67          2
    69          1
    74         10
    75         13
    77        278
    78        224
    79        193
    80        184
    81        346
    82         22
    83         20
    87          2
    89         39
    91        780
    92         61
    93         19
    94          4
    95         34
    96        187
    97        540
    98          9
    99         11
   101          3
   102         32
   103        159
   104        201
   105        244
   106         28
   108        296
   109        206
   110         12
   111         28
   115         43
   116         36
   117         55
   118         14
   119          8
   120          7
   121         13
   123        431
   125        999
   126         39
   127         31
   128         65
   129         87
   130         31
   131         48
   132          9
   133         12
   134          1
   135          2
   137         26
   138         11
   139         11
   141          1
   145        106
   146        178
   147         39
   148          7
   149          7
   151        182
   152        957
   153         55
   154          8
   155          4
   156          3
   157          4
   159          1
   175          1
   179        102
   180          9
   181          2
   185          1
   191          4
   193          4
   209          8
   210          8
   211         44
   212          5
   213          2
   227         13
   228          4
   238          3
   239          7
   241          7
   255         23
   256          9
   257          1
   266          3
   282          2
   284        276
   285         53
   286          7