##TITLE=Library Entry 62465
##JCAMP-DX=Revision 4.10 
##DATA TYPE=MASS SPECTRUM
##SAMPLE DESCRIPTION=LAC, NIDDK, NIH, Bethesda, MD 20892
##NAMES=HP
##CAS NAME=2-O-Benzyl 3,5-di-p-nitrobenzoyl-d-arabinoside
##MOLFORM=C26H22N2O11
##CAS REGISTRY NO=4060-29-1
##MP= -300
##BP= -300
##MW= 538
##$RETENTION INDEX=0
##$CONDENSED SPECTRUM=NO
##NPOINTS= 21
##XYDATA=(XY..XY) 1 
    43         54
    45         68
    46         63
    50         64
    51        120
    75         53
    76         72
    90        173
    91        999
    92        141
   104         46
   105        110
   150        214
   151         32
   388         66
   389         25
   433        146
   434         33
   447         65
   448         20
   538         15