##TITLE=Library Entry 34226
##JCAMP-DX=Revision 4.10 
##DATA TYPE=MASS SPECTRUM
##SAMPLE DESCRIPTION=Insect Chem. Ecol. Lab., USDA, Beltsville, MD 20705
##NAMES=HP
##CAS NAME=2-Octen-1-ol, 3,7-dimethyl-
##MOLFORM=C10H20O
##CAS REGISTRY NO=40607-48-5
##MP= -300
##BP= -300
##MW= 156
##$RETENTION INDEX=1463
##$CONDENSED SPECTRUM=NO
##NPOINTS= 102
##XYDATA=(XY..XY) 1 
    41        982
    42        103
    43        283
    44         41
    45         46
    46          3
    47          1
    48          0
    49          3
    50          8
    51         28
    52         14
    53        129
    54         46
    55        517
    56        276
    57        139
    58         16
    59         39
    60          4
    61          2
    62          1
    63          6
    64          2
    65         32
    66         16
    67        501
    68        281
    69        999
    70        176
    71        308
    72         23
    73          7
    74          2
    75          2
    76          1
    77         31
    78          7
    79         51
    80         52
    81        487
    82        472
    83        143
    84         55
    85         38
    86         29
    87          9
    88          1
    89          3
    90          0
    91         24
    92          9
    93         50
    94         31
    95        380
    96         87
    97         32
    98         11
    99         26
   100          7
   101          5
   102          2
   103          2
   104          1
   105         11
   106          4
   107         16
   108          8
   109        173
   110         56
   111         36
   112         17
   113          8
   114          3
   115          5
   116          1
   117          2
   118          1
   119          6
   120          1
   121         21
   122          5
   123        223
   124         26
   125          8
   126          4
   127          4
   128          2
   129          2
   137          8
   138         99
   139         19
   140          3
   141          3
   142          1
   153          2
   154          4
   155          1
   156         94
   157         13
   158          1
   159          1