##TITLE=Library Entry 41601
##JCAMP-DX=Revision 4.10 
##DATA TYPE=MASS SPECTRUM
##SAMPLE DESCRIPTION=A.Pleshkova, Nesmeyanov Inst.Org.Elem.Cpds, Moscow
##NAMES=HP
##CAS NAME=Hexafluoroacetone oxime, TMS derivative
##MOLFORM=C6H9F6NOSi
##CAS REGISTRY NO=40618-90-4
##MP= -300
##BP= -300
##MW= 253
##$RETENTION INDEX=0
##$CONDENSED SPECTRUM=NO
##NPOINTS= 38
##XYDATA=(XY..XY) 1 
    43         81
    44         45
    45        198
    46         23
    47         83
    49         43
    55         38
    57         23
    58         24
    59         98
    63         82
    67         35
    69        145
    71         25
    72         43
    73        999
    74        143
    75        105
    76         43
    77        846
    78        102
    79         43
    92         20
   109          6
   112          8
   122          7
   131         30
   132          6
   133          8
   142          6
   143         20
   161        200
   162          6
   178          7
   234         12
   238         13
   253          7
   254          3