##TITLE=Library Entry 13154
##JCAMP-DX=Revision 4.10 
##DATA TYPE=MASS SPECTRUM
##SAMPLE DESCRIPTION=Div. of Experiment Therapeutics WRAIR, WRAMC, Washingto
n DC 20307
##NAMES=HP
##CAS NAME=2'-Methoxy-5'-trifluoromethyl acetanilide
##MOLFORM=C10H10F3NO2
##CAS REGISTRY NO=40622-64-8
##MP= -300
##BP= -300
##MW= 233
##$RETENTION INDEX=0
##$CONDENSED SPECTRUM=NO
##NPOINTS= 114
##XYDATA=(XY..XY) 1 
    43        999
    44         14
    45          3
    46          0
    47          6
    49         28
    50         30
    51         75
    52         35
    53         14
    54          5
    55          0
    56          1
    57         13
    59          2
    61          7
    63         60
    64          9
    65          7
    66          3
    67          0
    69         29
    70          9
    71          3
    72          1
    75         37
    76         14
    77         12
    78         32
    79         10
    81          9
    83         15
    84          8
    86          7
    87          2
    88          8
    89          4
    90          4
    91          4
    93         15
    95         14
    96          2
    98         23
    99          6
   101         34
   102          4
   103          0
   104          0
   105          0
   106          3
   107          4
   108          4
   109          2
   110          2
   111          2
   113         27
   114          8
   115          4
   119          3
   120         18
   121          3
   122          2
   123          0
   125          1
   126         15
   127         10
   128         11
   129          7
   130          5
   132          9
   133         12
   134          1
   138          1
   140         24
   141          6
   142         12
   143          4
   145          7
   146          5
   148        162
   149          8
   152          0
   155          0
   157         12
   158          2
   160         31
   161          9
   162          5
   163          6
   170          2
   172          8
   173          5
   174          4
   176        284
   177         17
   178          1
   182          0
   188         10
   189          1
   191        268
   192         29
   193          2
   202          2
   203          2
   204          3
   214         44
   215          4
   216          3
   217          1
   218          1
   232          1
   233        182
   234         22
   235          4