##TITLE=Library Entry 77966
##JCAMP-DX=Revision 4.10 
##DATA TYPE=MASS SPECTRUM
##SAMPLE DESCRIPTION=Chemical Concepts
##NAMES=HP
##CAS NAME=4-Heptanone, 1,7-dichloro-
##MOLFORM=C7H12Cl2O
##CAS REGISTRY NO=40624-07-5
##MP= -300
##BP= -300
##MW= 182
##$RETENTION INDEX=0
##$CONDENSED SPECTRUM=NO
##NPOINTS= 97
##XYDATA=(XY..XY) 1 
    26         22
    27        132
    28         83
    29         55
    30          2
    31         14
    36          6
    37          9
    38         21
    39        203
    40         39
    41        673
    42        169
    43         60
    44          5
    45         13
    49         74
    50          8
    51         32
    52          8
    53         28
    54         10
    55        144
    56         55
    57         15
    58        275
    59         15
    60          4
    61          9
    62          6
    63         13
    64          2
    65         13
    66          5
    67         15
    68         14
    69         71
    70          7
    71          7
    73          3
    74          3
    75         16
    76          5
    77        341
    78         16
    79        121
    80          6
    81         27
    82          8
    83         11
    84        151
    85         27
    86         30
    87         39
    88          4
    89          2
    91          6
    92          2
    93          2
    94          2
    95          7
    96          4
    97        123
    98         25
    99          2
   101          5
   103          5
   104          6
   105        999
   106         57
   107        344
   108         17
   109         13
   110         24
   111         21
   112          3
   119          2
   120        148
   121         11
   122         49
   123          4
   125          2
   127          3
   133         14
   134          1
   135          5
   145          8
   146         60
   147         19
   148         20
   149          5
   182         31
   183          4
   184         20
   185          3
   186          4
   187          1