##TITLE=Library Entry 86475
##JCAMP-DX=Revision 4.10 
##DATA TYPE=MASS SPECTRUM
##SAMPLE DESCRIPTION=DS14-138-2B
##NAMES=HP
##CAS NAME=Phenol, 2-(2-propenyloxy)-, methylcarbamate
##MOLFORM=C11H13NO3
##CAS REGISTRY NO=4062-99-1
##MP= -300
##BP= -300
##MW= 207
##$RETENTION INDEX=0
##$CONDENSED SPECTRUM=NO
##NPOINTS= 69
##XYDATA=(XY..XY) 1 
    37         16
    38         23
    39        138
    40         16
    41        346
    42         19
    43         16
    44         14
    49         14
    50         55
    51         86
    52        114
    53         43
    54         16
    55         31
    56         52
    57         71
    58        155
    59         16
    62         12
    63         43
    64         52
    65         35
    66          4
    68          4
    69         21
    70         19
    72         14
    73         14
    74         43
    75          9
    76         16
    77         64
    78        366
    79         33
    80         43
    81        246
    82         31
    86         16
    88        114
    89          9
    91        100
    92         81
    93         14
    94         21
    95          7
    96          7
   103         16
   107         16
   108         14
   109        999
   110        258
   111         16
   121         43
   122         28
   124          4
   130         19
   131         16
   132         23
   134         14
   135          9
   138         19
   145         14
   149         19
   150        729
   151          7
   152          9
   190         16
   207         16