##TITLE=Library Entry 1213
##JCAMP-DX=Revision 4.10 
##DATA TYPE=MASS SPECTRUM
##SAMPLE DESCRIPTION=NIST Mass Spectrometry Data Center, 1994
##NAMES=HP
##CAS NAME=N,N'-di-t-Butylethylenediamine
##MOLFORM=C10H24N2
##CAS REGISTRY NO=4062-60-6
##MP= -300
##BP= -300
##MW= 172
##$RETENTION INDEX=0
##$CONDENSED SPECTRUM=NO
##NPOINTS= 48
##XYDATA=(XY..XY) 1 
    14          0
    15         15
    27         23
    28         23
    29        109
    30        999
    31         14
    32          2
    39         35
    41        140
    42         99
    43         21
    44         77
    45          1
    52          0
    53          3
    54          5
    55         21
    56         37
    57        172
    58        104
    59         16
    63          1
    67          1
    68          6
    69          3
    70         34
    71         98
    72        117
    73          6
    81          0
    82          7
    83          2
    84         22
    85          0
    86        345
    87         31
    88          3
    98          4
    99          4
   100         21
   101         50
   102          3
   115          1
   157         15
   158          1
   172         10
   173          1