##TITLE=Library Entry 14515
##JCAMP-DX=Revision 4.10 
##DATA TYPE=MASS SPECTRUM
##SAMPLE DESCRIPTION=R.T.HOLMAN,UNIVERSITY OF MINNESOTA
##NAMES=HP
##CAS NAME=Dodecanoic acid, (2,2-dimethyl-1,3-dioxolan-4-yl)methyl ester
##MOLFORM=C18H34O4
##CAS REGISTRY NO=40630-75-9
##MP= -300
##BP= -300
##MW= 314
##$RETENTION INDEX=0
##$CONDENSED SPECTRUM=NO
##NPOINTS= 114
##XYDATA=(XY..XY) 1 
    26         10
    27        160
    28         90
    29        340
    30         12
    31         54
    32          5
    39         78
    40         22
    41        450
    42        160
    43        999
    44         43
    45         37
    47          5
    51          6
    53         23
    54         26
    55        370
    56        120
    57        510
    58         42
    59        150
    60         55
    61         89
    65          9
    66          5
    67         53
    68         20
    69        140
    70         76
    71        260
    72        160
    73        140
    74         85
    75         18
    77          6
    79         15
    80          7
    81         49
    82         13
    83        140
    84         53
    85        180
    86         32
    87         61
    88        290
    89         35
    91         17
    92          9
    93          9
    94          5
    95         85
    96         14
    97         66
    98         42
    99         64
   100         15
   101        790
   102         55
   103         12
   105          5
   107          8
   109         50
   110         10
   111         20
   112         14
   113         13
   114         63
   115         51
   116        300
   117         30
   121          7
   123         17
   125          8
   126          9
   127          9
   129        220
   130         26
   131          6
   135          7
   137          6
   139          5
   141         15
   143         31
   149          6
   155          6
   157         30
   158         20
   159         11
   165          7
   171         90
   172         13
   174          6
   182          5
   183        220
   184         33
   185         63
   186          9
   199         19
   200          5
   201         13
   213         37
   214          8
   228         25
   229         11
   242          8
   256         17
   257         38
   258         26
   259          6
   299        860
   300        180
   301         24