##TITLE=Library Entry 89450
##JCAMP-DX=Revision 4.10 
##DATA TYPE=MASS SPECTRUM
##SAMPLE DESCRIPTION=J.VOTH UNIV. OF CALIF, DAVIS, CALIFORNIA, 95616, USA
##NAMES=HP
##CAS NAME=Cyclohexene, 1-(1,1-dimethylethoxy)-6-methyl-
##MOLFORM=C11H20O
##CAS REGISTRY NO=40648-25-7
##MP= -300
##BP= -300
##MW= 168
##$RETENTION INDEX=0
##$CONDENSED SPECTRUM=NO
##NPOINTS= 81
##XYDATA=(XY..XY) 1 
    13          1
    14         24
    15         73
    16          6
    17          3
    18         12
    26         19
    27        291
    28        159
    29        313
    30          7
    31         17
    32         23
    37          6
    38         17
    39        276
    40         57
    41        515
    42        105
    43        150
    44          6
    45          4
    49          1
    50         22
    51         45
    52         25
    53        122
    54         25
    55        372
    56         98
    57        481
    58         90
    59         82
    60          3
    61          1
    62          3
    63          9
    64          3
    65         25
    66         20
    67         55
    68         59
    69        161
    70        910
    71         64
    72          5
    73          3
    74          1
    75          1
    77         35
    78          9
    79         44
    80         10
    81         22
    82          6
    83         52
    84        143
    85         12
    86          1
    89          1
    91         12
    92          2
    93         15
    94         30
    95         98
    96         14
    97        464
    98         31
    99          2
   107          1
   109         12
   110          9
   111        158
   112        999
   113         76
   114          4
   135          1
   153         15
   154          1
   168         15
   169          2