##TITLE=Library Entry 19077
##JCAMP-DX=Revision 4.10 
##DATA TYPE=MASS SPECTRUM
##SAMPLE DESCRIPTION=NIST Mass Spectrometry Data Center, 1994
##NAMES=HP
##CAS NAME=4-Propylcyclohexanone
##MOLFORM=C9H16O
##CAS REGISTRY NO=40649-36-3
##MP= -300
##BP= -300
##MW= 140
##$RETENTION INDEX=0
##$CONDENSED SPECTRUM=NO
##NPOINTS= 77
##XYDATA=(XY..XY) 1 
    13          2
    14         11
    15         58
    16          1
    17          3
    18          4
    26         66
    27        569
    28        215
    29        356
    30          8
    31          5
    32          2
    34          1
    37          5
    39        462
    40         89
    41        795
    42        311
    43        680
    44         24
    45          3
    49          1
    50         22
    51         51
    52         26
    53        137
    54        122
    55        999
    56        293
    57        113
    58          9
    62          4
    63         11
    64          2
    65         29
    66         13
    67         88
    68         80
    69        325
    70        173
    71         25
    72          6
    75          1
    77         19
    78          8
    79         32
    80          1
    81        130
    82          1
    83        395
    84        108
    85         40
    86          4
    91          7
    92         11
    93         63
    94         13
    95          4
    96        349
    97        125
    98         61
    99          4
   107         25
   108          2
   109          2
   110          2
   111        169
   112         49
   113          3
   122         11
   123          1
   125         18
   126          2
   140        216
   141         21
   142          1