##TITLE=Library Entry 45427
##JCAMP-DX=Revision 4.10 
##DATA TYPE=MASS SPECTRUM
##SAMPLE DESCRIPTION=AJ46-293-3G
##NAMES=HP
##CAS NAME=Ethanimidamide, 2-chloro-N-(1,2-dichloroethenyl)-
##MOLFORM=C4H5Cl3N2
##CAS REGISTRY NO=40645-66-7
##MP= -300
##BP= -300
##MW= 186
##$RETENTION INDEX=0
##$CONDENSED SPECTRUM=NO
##NPOINTS= 13
##XYDATA=(XY..XY) 1 
    42        644
    49        266
    51         88
    75        999
    76        855
    77        344
    78        277
   151        300
   153        200
   155         61
   186        166
   188        166
   190         55