##TITLE=Library Entry 20023
##JCAMP-DX=Revision 4.10 
##DATA TYPE=MASS SPECTRUM
##SAMPLE DESCRIPTION=NIST Mass Spectrometry Data Center, 1998.
##NAMES=HP
##CAS NAME=8-Dodecen-1-ol, (Z)-
##MOLFORM=C12H24O
##CAS REGISTRY NO=40642-40-8
##MP= -300
##BP= -300
##MW= 184
##$RETENTION INDEX=1468
##$CONDENSED SPECTRUM=NO
##NPOINTS= 91
##XYDATA=(XY..XY) 1 
    15          2
    19          2
    26          4
    27         84
    28         19
    29        126
    30          5
    31        178
    32          2
    33          1
    37          1
    38          3
    39        165
    40         29
    41        648
    42        121
    43        159
    44         25
    45         19
    46          1
    50          4
    51         17
    52         12
    53        120
    54        406
    55        999
    56        161
    57        130
    58         10
    59          4
    62          1
    63          3
    64          1
    65         37
    66         60
    67        787
    68        439
    69        288
    70         66
    71         45
    72          7
    73          4
    77         29
    78          6
    79         76
    80         31
    81        657
    82        599
    83        138
    84         26
    85         26
    86          5
    87          1
    91         11
    92          1
    93         18
    94         13
    95        366
    96        308
    97         60
    98         12
    99          6
   100          2
   105          1
   107          4
   108          4
   109        160
   110        124
   111         17
   112          3
   113          2
   115          1
   121          2
   122          3
   123         55
   124         42
   125          5
   127          1
   135          1
   136          1
   137         23
   138         33
   139          3
   140          2
   141          1
   151          2
   156          2
   164          1
   166         37
   167          5
   184          2