##TITLE=Library Entry 14046
##JCAMP-DX=Revision 4.10 
##DATA TYPE=MASS SPECTRUM
##SAMPLE DESCRIPTION=Japan AIST/NIMC Database- Spectrum MS-IW- 64
##NAMES=HP
##CAS NAME=.alpha.-D-Galactopyranose, 1,2:3,4-bis-O-(1-methylethylidene)-
##MOLFORM=C12H20O6
##CAS REGISTRY NO=4064-06-6
##MP= -300
##BP= -300
##MW= 260
##$RETENTION INDEX=0
##$CONDENSED SPECTRUM=NO
##NPOINTS= 134
##XYDATA=(XY..XY) 1 
    14          2
    15         30
    16          1
    17         11
    18         58
    19          2
    26          5
    27         41
    28         27
    29         70
    30          4
    31         99
    32          2
    37          1
    38          2
    39         49
    40         10
    41        116
    42         28
    43        999
    44         35
    45         19
    47          3
    50          1
    51          3
    52          1
    53         19
    54          6
    55         84
    56         28
    57        109
    58        112
    59        522
    60         38
    61         25
    65          2
    66          1
    67          5
    68         22
    69        383
    70         42
    71        334
    72         15
    73         79
    74          5
    75          3
    77          1
    78          1
    79          2
    80          3
    81        329
    82         21
    83         54
    84         71
    85        423
    86         41
    87         20
    88          1
    89          5
    91          2
    93          2
    94          1
    95         18
    96          6
    97        101
    98         86
    99        200
   100        537
   101        104
   102          8
   103          7
   105          1
   107          4
   108          1
   109         56
   110          5
   111          9
   112          2
   113        304
   114         43
   115         32
   116          5
   117          7
   119          2
   121          1
   123          6
   124          1
   125          5
   126          3
   127        308
   128         20
   129         19
   130          4
   131          8
   137          3
   138          2
   139         26
   140          3
   141         17
   142          5
   143         16
   144         13
   145         27
   146          2
   153          1
   155          3
   156          6
   157          3
   159          5
   160          1
   167          3
   169         15
   170          2
   171         54
   172          5
   173          6
   185         61
   186          7
   187        220
   188         19
   189          3
   199          1
   201          2
   202          2
   203         14
   204          1
   229          9
   230          1
   243          1
   245        830
   246        102
   247         15
   248          1
   260          1