##TITLE=Library Entry 13725
##JCAMP-DX=Revision 4.10 
##DATA TYPE=MASS SPECTRUM
##SAMPLE DESCRIPTION=Chemical Concepts
##NAMES=HP
##CAS NAME=.alpha.-l-Arabinopyranose, 1,2:3,4-bis-O-(1-methylethylidene)-
##MOLFORM=C11H18O5
##CAS REGISTRY NO=4064-05-5
##MP= -300
##BP= -300
##MW= 230
##$RETENTION INDEX=0
##$CONDENSED SPECTRUM=NO
##NPOINTS= 70
##XYDATA=(XY..XY) 1 
    26          6
    27         62
    28          8
    29         81
    30          7
    31         78
    38          3
    39         68
    40         15
    41        148
    42         41
    43        999
    44         38
    45         16
    47          2
    52          2
    54          9
    55          6
    56         57
    57         16
    58        109
    59         50
    60        342
    61         25
    62         18
    67         20
    68         63
    69        352
    70         21
    71         48
    72          8
    73         26
    74          2
    75          5
    81         16
    82          2
    83         20
    84         27
    85        247
    86         26
    87         18
    95          6
    97        159
    98         11
    99          9
   100        172
   101         52
   102          4
   109         14
   111          7
   113         35
   114         34
   115         42
   116          6
   117          3
   126          9
   127          9
   129          5
   139          2
   143          6
   155         18
   156          3
   157        217
   158         18
   159          3
   171          3
   173          5
   215        378
   216         43
   217          7