##TITLE=Library Entry 68961
##JCAMP-DX=Revision 4.10 
##DATA TYPE=MASS SPECTRUM
##SAMPLE DESCRIPTION=J.VOTH UNIV. OF CALIF, DAVIS, CALIFORNIA, 95616, USA
##NAMES=HP
##CAS NAME=Cyclohexene, 1-iodo-2-methyl-
##MOLFORM=C7H11I
##CAS REGISTRY NO=40648-08-6
##MP= -300
##BP= -300
##MW= 222
##$RETENTION INDEX=1185
##$CONDENSED SPECTRUM=NO
##NPOINTS= 83
##XYDATA=(XY..XY) 1 
    12          1
    13          2
    14          6
    15         50
    16          1
    17          1
    18          5
    25          2
    26         34
    27        241
    28         32
    29         67
    30          1
    36          1
    37         18
    38         46
    39        323
    40         65
    41        322
    42         15
    43         22
    44          1
    45          4
    46          3
    48          1
    49         17
    50        106
    51        181
    52        101
    53        303
    54         33
    55        422
    56         19
    57          1
    60          3
    61         20
    62         38
    63         71
    64         19
    65        118
    66         62
    67        543
    68         37
    69          3
    70          2
    74          9
    75          7
    76          4
    77        174
    78         44
    79          1
    80         93
    81          7
    84          1
    85          2
    86          3
    87          2
    89          6
    90          2
    91         74
    92         11
    93         82
    94         23
    95        999
    96         77
    97          2
   127        160
   128         53
   129          8
   139          1
   141          4
   152          1
   153          2
   155        140
   164          1
   165          2
   167          2
   181          1
   194          1
   221          1
   222        748
   223         58
   224          2