##TITLE=Library Entry 73439
##JCAMP-DX=Revision 4.10 
##DATA TYPE=MASS SPECTRUM
##SAMPLE DESCRIPTION=Chemical Concepts
##NAMES=HP
##CAS NAME=N,N'-Bis(2,2,6,6-tetramethyl-4-piperidyl) 1,2-ethanediimine
##MOLFORM=C20H38N4
##CAS REGISTRY NO=40645-50-9
##MP= -300
##BP= -300
##MW= 334
##$RETENTION INDEX=0
##$CONDENSED SPECTRUM=NO
##NPOINTS= 105
##XYDATA=(XY..XY) 1 
    39         13
    41         98
    42        142
    43         50
    44         30
    45          6
    49          1
    50          1
    51          1
    52          1
    53          8
    54         10
    55         68
    56        129
    57         52
    58        171
    59          8
    60          1
    65          4
    67         20
    68         13
    69         19
    70         53
    71         24
    72         18
    73          3
    76          1
    77          4
    78          1
    79          9
    80          4
    81         15
    82         34
    83         25
    84         27
    85         13
    86          9
    87          1
    88          1
    91          7
    92          3
    93          6
    94          6
    95          9
    96         13
    97         13
    98         50
   100        999
   101         58
   102          3
   104          1
   105          3
   106          1
   107         21
   108         13
   109          7
   110         33
   111          9
   112         12
   113          4
   115          1
   119          1
   120          1
   121          2
   122          6
   124        531
   125         56
   126          6
   127          4
   128          1
   135          2
   136          1
   137          2
   138          9
   139          8
   140          6
   141          2
   142          3
   143          1
   145         54
   146          4
   147          1
   149          6
   150          1
   151          1
   153          1
   155          1
   163          1
   165          2
   166          1
   167         10
   168          2
   169          1
   170          1
   181          1
   183        181
   184         18
   185          1
   198          9
   199          1
   253          9
   254          1
   268         12
   269          2
   283          1