##TITLE=Library Entry 68057
##JCAMP-DX=Revision 4.10 
##DATA TYPE=MASS SPECTRUM
##SAMPLE DESCRIPTION=J.VOTH UNIV. OF CALIF, DAVIS, CALIFORNIA, 95616, USA
##NAMES=HP
##CAS NAME=Cyclohexene, 1-iodo-6-methyl-
##MOLFORM=C7H11I
##CAS REGISTRY NO=40648-10-0
##MP= -300
##BP= -300
##MW= 222
##$RETENTION INDEX=1157
##$CONDENSED SPECTRUM=NO
##NPOINTS= 93
##XYDATA=(XY..XY) 1 
    12          1
    13          2
    14          8
    15         58
    16          1
    25          2
    26         34
    27        234
    28         33
    29         68
    30          1
    36          1
    37         17
    38         46
    39        307
    40         55
    41        282
    42         15
    43         21
    44          1
    45          5
    46          3
    49          6
    50        104
    51        170
    52         89
    53        227
    54         31
    55        312
    56         16
    57          2
    60          2
    61         16
    62         31
    63         59
    64         15
    65        102
    66         59
    67        445
    68         28
    69          4
    70          0
    73          4
    74         10
    75          8
    76          4
    77        160
    78         49
    79        206
    80        106
    81         32
    82          2
    83          1
    84          1
    85          1
    86          2
    87          1
    89          4
    90          2
    91         57
    92          8
    93         64
    94         20
    95        999
    96         76
    97          2
   105          1
   107          1
   109         14
   110          1
   127        135
   128         41
   129          6
   139          1
   141          3
   152          3
   153          2
   155          1
   164          1
   165          3
   167          2
   174          3
   176          3
   180          1
   181          4
   194          2
   204          1
   206          1
   207          2
   220          1
   222        428
   223         32
   224          1