##TITLE=Library Entry 58330
##JCAMP-DX=Revision 4.10 
##DATA TYPE=MASS SPECTRUM
##SAMPLE DESCRIPTION=AJ46-293-3U
##NAMES=HP
##CAS NAME=Propanimidamide, 2-chloro-N-(1,2-dichloro-1-propenyl)-
##MOLFORM=C6H9Cl3N2
##CAS REGISTRY NO=40645-80-5
##MP= -300
##BP= -300
##MW= 214
##$RETENTION INDEX=0
##$CONDENSED SPECTRUM=NO
##NPOINTS= 19
##XYDATA=(XY..XY) 1 
    54        934
    56        586
    63        413
    65        130
    89        999
    90        739
    91        423
    92        250
   143        293
   145         97
   151        260
   153        173
   155         54
   179        739
   181        500
   183        152
   214        445
   216        445
   218        152