##TITLE=Library Entry 70366
##JCAMP-DX=Revision 4.10 
##DATA TYPE=MASS SPECTRUM
##SAMPLE DESCRIPTION=J.VOTH UNIV. OF CALIF, DAVIS, CALIFORNIA, 95616, USA
##NAMES=HP
##CAS NAME=Cyclohexene, 1-(1,1-dimethylethoxy)-3-methyl-
##MOLFORM=C11H20O
##CAS REGISTRY NO=40648-24-6
##MP= -300
##BP= -300
##MW= 168
##$RETENTION INDEX=0
##$CONDENSED SPECTRUM=NO
##NPOINTS= 86
##XYDATA=(XY..XY) 1 
    12          0
    13          1
    14          5
    15         42
    16          2
    17         12
    18         43
    19          0
    25          0
    26         12
    27        160
    28         36
    29        193
    30          4
    31          9
    37          3
    38         10
    39        174
    40         33
    41        305
    42         49
    43         68
    44          2
    45          3
    49          0
    50         14
    51         29
    52         15
    53         65
    54         19
    55        207
    56         50
    57        271
    58         20
    59         34
    60          1
    61          0
    62          2
    63          6
    64          2
    65         17
    66          1
    67         45
    68         39
    69        146
    70        131
    71         23
    72          1
    73          1
    74          1
    75          1
    76          0
    77         24
    78          6
    79         35
    80          7
    81         13
    82         13
    83         29
    84        212
    85         14
    86          1
    89          0
    91          7
    92          1
    93          8
    94         11
    95         62
    96         10
    97        999
    98         67
    99          4
   107          1
   108          0
   109          3
   110          3
   111         49
   112        361
   113         28
   114          1
   126          0
   135          1
   153          8
   154          1
   168          9
   169          1