##TITLE=Library Entry 26515
##JCAMP-DX=Revision 4.10 
##DATA TYPE=MASS SPECTRUM
##SAMPLE DESCRIPTION=Chemical Concepts
##NAMES=HP
##CAS NAME=1H-Indene, 1-(1,1-dimethylethyl)-
##MOLFORM=C13H16
##CAS REGISTRY NO=40650-31-5
##MP= -300
##BP= -300
##MW= 172
##$RETENTION INDEX=0
##$CONDENSED SPECTRUM=NO
##NPOINTS= 83
##XYDATA=(XY..XY) 1 
    26          4
    27         30
    28          5
    29        141
    30          3
    37          1
    38          6
    39         58
    40          5
    41        162
    42          7
    43          2
    50         13
    51         21
    52          4
    53          4
    54          0
    55          6
    56          1
    57        999
    58         38
    59          0
    61          2
    62         14
    63         40
    64         11
    65         24
    66          1
    69          1
    70          2
    71          2
    74          7
    75         11
    76          8
    77         10
    78          4
    79          1
    85          0
    86          4
    87          8
    88          8
    89         37
    90          3
    91          7
    92          0
    98          1
    99          1
   101          1
   102          4
   103          1
   105          0
   111          0
   113          9
   114         12
   115        182
   116        263
   117         25
   118          1
   126          2
   127          8
   128         23
   129         17
   130          3
   131          1
   139         10
   140          3
   141         43
   142         55
   143         10
   144          1
   150          0
   151          1
   152          4
   153          3
   154          1
   155          3
   156          2
   157         94
   158         13
   159          0
   172        130
   173         20
   174          1