##TITLE=Library Entry 34426
##JCAMP-DX=Revision 4.10 
##DATA TYPE=MASS SPECTRUM
##SAMPLE DESCRIPTION=A.A.Kutin, Moscow, Russia
##NAMES=HP
##CAS NAME=Thiiranecarboxamide, 2-methyl-N-phenyl-
##MOLFORM=C10H11NOS
##CAS REGISTRY NO=40651-27-2
##MP= -300
##BP= -300
##MW= 193
##$RETENTION INDEX=0
##$CONDENSED SPECTRUM=NO
##NPOINTS= 115
##XYDATA=(XY..XY) 1 
    33          5
    34          4
    37         29
    39        456
    41        791
    42         26
    43          7
    44         14
    45         92
    46         13
    47         19
    48          2
    50         50
    51        102
    52         35
    53         18
    54         10
    55          7
    56          2
    57          6
    58         19
    59         44
    60          4
    61         13
    62         27
    63         85
    64         95
    65        271
    66         85
    69        999
    71         60
    73        270
    74         48
    75         25
    77        214
    78         17
    79         11
    80          1
    81          0
    83          1
    84          0
    85          1
    86          0
    87          2
    88          2
    89          5
    90         13
    91         77
    92        178
    93        644
    94         46
    96          3
    97          2
    98          0
    99          1
   101         46
   103         10
   104          9
   105         10
   106         63
   107          3
   109          2
   110          0
   111          0
   114          0
   115          5
   116          7
   117         22
   118         74
   119         68
   120         31
   121          3
   122          0
   123          2
   124          2
   125          1
   126          0
   128         11
   130         13
   132         81
   133         79
   134          7
   135          1
   136          2
   137          0
   140          0
   142          3
   143          3
   144          9
   146        173
   147         15
   148          4
   149          2
   150          2
   151          2
   152          0
   155          1
   157          0
   158          2
   161        505
   162         45
   163          3
   165          1
   166          0
   171          0
   174          0
   175          0
   176          3
   178          1
   190          0
   191          2
   193        240
   194         31
   195          9
   196          1