##TITLE=Library Entry 2249
##JCAMP-DX=Revision 4.10 
##DATA TYPE=MASS SPECTRUM
##SAMPLE DESCRIPTION=NIST Mass Spectrometry Data Center, 1994
##NAMES=HP
##CAS NAME=Benzaldehyde, 4-(2-propenyloxy)-
##MOLFORM=C10H10O2
##CAS REGISTRY NO=40663-68-1
##MP= -300
##BP= -300
##MW= 162
##$RETENTION INDEX=0
##$CONDENSED SPECTRUM=NO
##NPOINTS= 83
##XYDATA=(XY..XY) 1 
    12          1
    13          1
    14          3
    15         23
    16          0
    17          1
    18          1
    25          2
    26         20
    27         46
    28         11
    29         47
    30          0
    32          0
    37         27
    38         85
    39        445
    40          0
    41        999
    42         34
    43          1
    48          0
    49          4
    50         63
    51         92
    52          9
    53         14
    54          3
    55         14
    56          1
    57          0
    60          1
    61         12
    62         34
    63         91
    64         44
    65        139
    66         26
    67          5
    68          5
    69          1
    73          3
    74         15
    75         15
    76         24
    77         57
    78         16
    79         21
    80          3
    81          0
    86          1
    89          1
    91         33
    92         38
    93         45
    94         11
    95          3
   102          1
   103         10
   104          8
   105         41
   106         10
   107          5
   108          0
   115          5
   116         11
   117         14
   119         27
   121        127
   122         14
   123          1
   131          4
   133         46
   134         27
   135          4
   144          3
   145          2
   147         12
   148          1
   161         68
   162        197
   163         21
   164          1