##TITLE=Library Entry 60974
##JCAMP-DX=Revision 4.10 
##DATA TYPE=MASS SPECTRUM
##SAMPLE DESCRIPTION=LAC, NIDDK, NIH, Bethesda, MD 20892
##NAMES=HP
##CAS NAME=2-Trifluoromethylphenyl-.beta.-phenylpropionate
##MOLFORM=C16H13F3O2
##CAS REGISTRY NO=40672-26-2
##MP= -300
##BP= -300
##MW= 294
##$RETENTION INDEX=0
##$CONDENSED SPECTRUM=NO
##NPOINTS= 119
##XYDATA=(XY..XY) 1 
    41         33
    42         19
    43         20
    44          3
    45         10
    49          2
    50         71
    51        202
    52         59
    53         76
    54         12
    55         31
    56          3
    57         24
    58          0
    60          1
    61          3
    62         19
    63         98
    64         25
    65        189
    66         15
    67          3
    68          2
    69         10
    70          3
    71          2
    73          2
    74         16
    75         31
    76         26
    77        336
    78        149
    79        227
    80         14
    81          5
    82          1
    83         44
    84          3
    85          1
    86          2
    87          4
    88         12
    89         29
    91        999
    92         20
    93          5
    94          1
    95         10
    96          1
    97          0
    98          1
    99          1
   101          1
   102         13
   103         95
   104        262
   105        691
   106          4
   107         81
   108          6
   109          3
   110          1
   111          1
   113         23
   114         29
   115         21
   116          4
   117         30
   118          3
   119          1
   120          0
   121          0
   122          0
   123          1
   125          2
   126          0
   127          1
   128          1
   129          1
   131         19
   133        339
   134         31
   135          2
   139          2
   140          0
   141          2
   142         25
   143         23
   144          2
   145          8
   146          0
   147          0
   149         26
   150         16
   151          2
   152          0
   160          3
   161          4
   162          5
   163          1
   165          0
   167          0
   175          0
   178          0
   183          0
   191          0
   202          2
   203          3
   204          1
   205          1
   206          0
   222          0
   251          1
   254          0
   266          1
   275          1
   294          3
   295          0