##TITLE=Library Entry 54007
##JCAMP-DX=Revision 4.10 
##DATA TYPE=MASS SPECTRUM
##SAMPLE DESCRIPTION=Japan AIST/NIMC Database- Spectrum MS-IW-3477
##NAMES=HP
##CAS NAME=Ethyl 7-(2-oxocyclopentyl)heptanoate
##MOLFORM=C14H24O3
##CAS REGISTRY NO=40687-10-3
##MP= -300
##BP= -300
##MW= 240
##$RETENTION INDEX=0
##$CONDENSED SPECTRUM=NO
##NPOINTS= 141
##XYDATA=(XY..XY) 1 
    15          2
    26          3
    27         53
    28         25
    29        116
    30          3
    31          5
    39         49
    40         12
    41        219
    42         48
    43         54
    44          4
    45         23
    46          1
    47          1
    50          1
    51          3
    52          2
    53         30
    54         43
    55        275
    56         38
    57         22
    58          3
    59          9
    60         45
    61         29
    62          1
    63          1
    65          7
    66          6
    67         84
    68         34
    69        150
    70         39
    71         19
    72          1
    73         44
    74          6
    75          1
    77          8
    78          3
    79         30
    80         16
    81         67
    82         21
    83        286
    84        999
    85         76
    86          6
    87         14
    88         50
    89          3
    91          9
    92          3
    93         31
    94         13
    95         38
    96         29
    97        140
    98         68
    99          9
   100          2
   101         40
   102          4
   105          6
   106          4
   107         16
   108          7
   109         25
   110         50
   111        263
   112         29
   113          5
   114          2
   115         12
   116          1
   117          1
   119          5
   120          3
   121          8
   122          4
   123         48
   124         14
   125          9
   126          3
   127          3
   128          2
   129         25
   130          2
   131          2
   132          1
   133          7
   134          6
   135         20
   136          3
   137         14
   138         19
   139          7
   140          3
   141          1
   142          1
   143          3
   144          5
   147          6
   148         13
   149         30
   150          7
   151         10
   152         12
   153          6
   154          1
   155          1
   156         40
   157        257
   158         26
   159         12
   160          3
   161          1
   165          9
   166         40
   167          6
   168          2
   175          3
   176          7
   177          8
   178          1
   179          1
   185          1
   192          1
   193          2
   194         65
   195        151
   196         19
   197          2
   199          5
   211          1
   222          2
   240         33
   241          5