##TITLE=Library Entry 73354
##JCAMP-DX=Revision 4.10 
##DATA TYPE=MASS SPECTRUM
##SAMPLE DESCRIPTION=Exported from NIST MS Search
##NAMES=HP
##CAS NAME=2H-Thiopyran, 5,6-dihydro-
##MOLFORM=C5H8S
##CAS REGISTRY NO=40697-99-2
##MP= -300
##BP= -300
##MW= 100
##$RETENTION INDEX=0
##$CONDENSED SPECTRUM=NO
##NPOINTS= 20
##XYDATA=(XY..XY) 1 
    45        190
    46        100
    47         30
    50         40
    51         40
    53         90
    54        350
    55         50
    58         50
    59         60
    65        160
    66         60
    67        230
    69         40
    71         90
    85        470
    86         40
    97         50
    99        949
   100        999