##TITLE=Library Entry 72727
##JCAMP-DX=Revision 4.10 
##DATA TYPE=MASS SPECTRUM
##SAMPLE DESCRIPTION=Exported from NIST MS Search
##NAMES=HP
##CAS NAME=8-Thiabicyclo[3.2.1]octan-3-one, 8-thiabicyclo[3.2.1]oct-3-yliden
ehydrazone
##MOLFORM=C14H20N2S2
##CAS REGISTRY NO=40697-29-8
##MP= -300
##BP= -300
##MW= 280
##$RETENTION INDEX=0
##$CONDENSED SPECTRUM=NO
##NPOINTS= 18
##XYDATA=(XY..XY) 1 
    65        430
    67        360
    69        240
    71        280
    77        100
    79        250
    81        200
    85        470
    97        330
    98        190
    99        999
   106        190
   139        609
   140        360
   141        250
   142        280
   247        290
   280        659