##TITLE=Library Entry 15339
##JCAMP-DX=Revision 4.10 
##DATA TYPE=MASS SPECTRUM
##SAMPLE DESCRIPTION=Japan AIST/NIMC Database- Spectrum MS-NW-3000
##NAMES=HP
##CAS NAME=L-Serine, dihydrogen phosphate
##MOLFORM=C3H8NO6P
##CAS REGISTRY NO=407-41-0
##MP= -300
##BP= -300
##MW= 185
##$RETENTION INDEX=0
##$CONDENSED SPECTRUM=NO
##NPOINTS= 119
##XYDATA=(XY..XY) 1 
    12         22
    13          7
    14         32
    15        199
    16        190
    17        155
    18        278
    19          9
    25          6
    26         45
    27         83
    28        142
    29         27
    30         26
    31         10
    32          8
    34          2
    35          1
    36          8
    37          3
    38         11
    39         29
    40         56
    41        116
    42        684
    43        947
    44        999
    45         75
    46          8
    47         47
    48          6
    50          1
    51          8
    52         10
    53          6
    54         15
    55         22
    56         22
    57         12
    58          4
    59          9
    60         15
    61          2
    63         82
    64         14
    65          8
    66          3
    67          8
    68        121
    69        208
    70         32
    71         48
    72         15
    73          7
    74         44
    75          2
    77          1
    79          1
    80         26
    81        437
    82          3
    83          9
    84         13
    85         89
    86        354
    87         54
    88         15
    89          2
    90          1
    92          1
    93          2
    94          3
    95          3
    96          6
    97          9
    98        290
    99          5
   100          4
   101          1
   102          3
   108          1
   109          3
   110          4
   111         14
   112         12
   113         40
   114         21
   115          3
   116          1
   119          1
   120          1
   121          1
   122          1
   123          2
   125          3
   126          1
   129          3
   131         13
   132          2
   136          2
   137          4
   138         18
   139         10
   140         47
   141          6
   143          3
   149          3
   151          1
   153          1
   154          2
   155          6
   156          2
   157          3
   163          1
   164          2
   182         21
   183          3
   185          1
   186          1