##TITLE=Library Entry 88291
##JCAMP-DX=Revision 4.10 
##DATA TYPE=MASS SPECTRUM
##SAMPLE DESCRIPTION=NIST Mass Spectrometry Data Center
##NAMES=HP
##CAS NAME=2-Fluoro-6-methylpyridine
##MOLFORM=C6H6FN
##CAS REGISTRY NO=407-22-7
##MP= -300
##BP= -300
##MW= 111
##$RETENTION INDEX=0
##$CONDENSED SPECTRUM=NO
##NPOINTS= 77
##XYDATA=(XY..XY) 1 
    12          2
    13          1
    14          3
    15         21
    16          2
    18          2
    19          1
    24          1
    25          6
    26         38
    27         41
    28         21
    31         72
    32          5
    33         22
    36          5
    37         57
    38         87
    39        164
    40         35
    41         39
    42         19
    44         28
    45         19
    46         26
    47          1
    48          3
    49         21
    50         73
    51         85
    52         36
    53          4
    54          5
    55         12
    56         21
    57         98
    58         30
    59          5
    60          5
    61         27
    62         32
    63         87
    64        148
    65         57
    66         15
    67          4
    68         35
    69         76
    70         51
    71         15
    72         14
    75         10
    76         72
    77          5
    78          4
    79          1
    80          4
    81         19
    82         25
    83        185
    84        273
    85         66
    86          3
    87          2
    88          2
    89          5
    91        460
    92         45
    93          2
    94          2
    96         89
    97          5
   108          3
   110        287
   111        999
   112         63
   113          2