##TITLE=Library Entry 35463
##JCAMP-DX=Revision 4.10 
##DATA TYPE=MASS SPECTRUM
##SAMPLE DESCRIPTION=NIST Mass Spectrometry Data Center
##NAMES=HP
##CAS NAME=Acetic acid, trifluoro-, 2,2,2-trifluoroethyl ester
##MOLFORM=C4H2F6O2
##CAS REGISTRY NO=407-38-5
##MP= -300
##BP= -300
##MW= 196
##$RETENTION INDEX=0
##$CONDENSED SPECTRUM=NO
##NPOINTS= 42
##XYDATA=(XY..XY) 1 
    12          4
    13          4
    14          5
    19          2
    20          2
    25          2
    26          5
    29        160
    30         33
    31        105
    33        324
    34          4
    44         23
    45         11
    47          6
    50        131
    51         53
    52          1
    54          1
    61         24
    62          1
    63         45
    64         39
    65          5
    66          1
    69        999
    70         11
    78         28
    79         12
    80          5
    81          2
    83        569
    84         13
    97         92
    99        109
   100          2
   127        303
   128         10
   129          3
   148          2
   177         49
   178          2