##TITLE=Library Entry 28096
##JCAMP-DX=Revision 4.10 
##DATA TYPE=MASS SPECTRUM
##SAMPLE DESCRIPTION=X-F. Pei, Chem. Dept., Georgetown Univ., DC 20057
##NAMES=HP
##CAS NAME=Oxindole, 1,3-dimethyl-3-[3-[N,N-dimethylamino]propyl]-5-methoxy-
##MOLFORM=C16H24N2O2
##CAS REGISTRY NO=40701-70-0
##MP= -300
##BP= -300
##MW= 276
##$RETENTION INDEX=0
##$CONDENSED SPECTRUM=NO
##NPOINTS= 159
##XYDATA=(XY..XY) 1 
    41         40
    42        143
    43        160
    44         39
    45        429
    46        180
    47        106
    48          2
    49          3
    50          2
    51          8
    52          5
    53          5
    54          3
    55         15
    56         21
    58        999
    59         35
    60          0
    62          1
    63          6
    64          3
    65          9
    66          7
    67          7
    68          5
    69          9
    70         29
    71         23
    72          8
    73          5
    74          2
    75          2
    76          3
    77         17
    78          8
    79          5
    80          3
    81          3
    82          3
    83          6
    84         36
    85         14
    86         16
    87         33
    88          3
    89          7
    90          5
    91         15
    92          4
    93          2
    94          2
    95          2
    96          1
    97          4
    98          1
    99          3
   101          1
   102          4
   103         10
   104          8
   105          4
   106          2
   107          1
   108          1
   109          1
   110          1
   111          2
   112          1
   113          2
   114          0
   115          5
   116          5
   117         13
   118         27
   119         13
   120          2
   121          2
   122          0
   123          1
   125          1
   126          0
   127          2
   128          2
   129          2
   130         10
   131         10
   132         10
   133          3
   134          1
   135          1
   136          1
   137          1
   138          0
   139          0
   140          0
   141          1
   142          0
   143          2
   144          3
   145          4
   146         10
   147         27
   148          8
   149          1
   154          1
   155          1
   157          0
   158          2
   159          7
   160         10
   161          5
   162          8
   163          1
   164          3
   165          0
   169          0
   172          1
   173          1
   174         15
   175         18
   176          8
   177          2
   178          0
   179          1
   182          0
   183          0
   186          0
   187          1
   188          5
   189          9
   190         63
   191         17
   192          4
   193          0
   197          0
   202          1
   203          9
   204          7
   205          4
   206          0
   207          2
   215          0
   216          0
   217          2
   218          2
   219         17
   220          2
   230          1
   231          1
   232          4
   233          1
   259          0
   261          3
   262          1
   275          3
   276         74
   277         22
   278          3