##TITLE=Library Entry 79793
##JCAMP-DX=Revision 4.10 
##DATA TYPE=MASS SPECTRUM
##SAMPLE DESCRIPTION=NIST Mass Spectrometry Data Center, 1994
##NAMES=HP
##CAS NAME=2-Butene-1,4-dione, 1,4-diphenyl-
##MOLFORM=C16H12O2
##CAS REGISTRY NO=4070-75-1
##MP= -300
##BP= -300
##MW= 236
##$RETENTION INDEX=0
##$CONDENSED SPECTRUM=NO
##NPOINTS= 64
##XYDATA=(XY..XY) 1 
    26          6
    27         11
    28          8
    32          1
    37          1
    38          4
    39         11
    50         64
    51        227
    52         14
    53         16
    54         10
    55          2
    61          1
    62          5
    63          9
    64          1
    65          1
    73          2
    74         19
    75         18
    76          1
    77        602
    78         43
    79          2
    82          3
    86          2
    87          2
    88          1
    89          4
    90          1
   101          2
   102         16
   103         36
   104          1
   105        999
   106         78
   107          4
   114          1
   115          9
   118          2
   130          9
   131         57
   132          6
   133          2
   152          3
   159         21
   160          1
   165          4
   178          5
   179          6
   180          4
   189          1
   191          3
   207         31
   208         97
   209         17
   210          1
   218          1
   220          8
   221          1
   236        279
   237         49
   238          4