##TITLE=Library Entry 43658
##JCAMP-DX=Revision 4.10 
##DATA TYPE=MASS SPECTRUM
##SAMPLE DESCRIPTION=Exported from NIST MS Search
##NAMES=HP
##CAS NAME=Octadecanoic acid, 9,10,18-tris[(trimethylsilyl)oxy]-, methyl est
er
##MOLFORM=C28H62O5Si3
##CAS REGISTRY NO=40707-76-4
##MP= -300
##BP= -300
##MW= 562
##$RETENTION INDEX=2771
##$CONDENSED SPECTRUM=NO
##NPOINTS= 88
##XYDATA=(XY..XY) 1 
    41        100
    43         70
    44         30
    45         30
    54         20
    55        170
    56         20
    57         40
    59         50
    61         20
    67        130
    68         20
    69         90
    70         10
    71         20
    72         10
    73        999
    74         70
    75        230
    76         20
    77         20
    79         20
    81        170
    82         20
    83         50
    85         20
    87         20
    89         30
    91         20
    93         20
    95         80
    96         10
    97         20
    99         20
   101         50
   103        150
   105         30
   107         20
   109        100
   115         20
   116         20
   117         20
   119         20
   121         10
   122         20
   123         50
   129        170
   130         30
   131         40
   133         40
   135         20
   137         20
   143         20
   146         30
   147        180
   148         40
   149         50
   155        150
   156         20
   157         10
   159         50
   163         20
   169         20
   170         20
   185         20
   187         20
   201         20
   212         30
   213         30
   215         20
   227         20
   229         10
   231         30
   243         40
   244         50
   245         30
   258         20
   259        550
   260        130
   261         50
   303        330
   304        100
   305         50
   332         60
   333         30
   531         10
   547         30
   548         10