##TITLE=Library Entry 33092
##JCAMP-DX=Revision 4.10 
##DATA TYPE=MASS SPECTRUM
##SAMPLE DESCRIPTION=NIST Mass Spectrometry Data Center, 1990.
##NAMES=HP
##CAS NAME=3-Cyclohexene-1-carboxaldehyde, 1,3,4-trimethyl-
##MOLFORM=C10H16O
##CAS REGISTRY NO=40702-26-9
##MP= -300
##BP= -300
##MW= 152
##$RETENTION INDEX=1154
##$CONDENSED SPECTRUM=NO
##NPOINTS= 80
##XYDATA=(XY..XY) 1 
    14         10
    15         48
    27        437
    28        100
    29        430
    30          9
    31         13
    32          9
    37         12
    38         61
    39        710
    40        149
    41        942
    42         75
    43        467
    44         15
    45         53
    50         65
    51        201
    52         90
    53        325
    54        106
    55        359
    56         28
    57        101
    59         15
    61         10
    62         21
    63         63
    64         10
    65        217
    66         88
    67        999
    68        124
    69        286
    70         23
    71         21
    75          8
    77        352
    78         83
    79        419
    80         90
    81        936
    82        442
    83         57
    84         11
    89         15
    91        464
    92         74
    93        339
    94        113
    95        394
    96         66
    97         36
   103         33
   104         22
   105        167
   106         63
   107        271
   108        183
   109        952
   110        118
   111         26
   115          9
   117         10
   119        197
   120         39
   121        161
   122         83
   123        673
   124        190
   125         17
   133         10
   134         25
   135         14
   136         10
   137        239
   138         25
   152        248
   153         23