##TITLE=Library Entry 15024
##JCAMP-DX=Revision 4.10 
##DATA TYPE=MASS SPECTRUM
##SAMPLE DESCRIPTION=A.RAAL INST. MED. BIOCHEM., UNIV. GOTEBORG, GOTEBORG, S
WEDE
##NAMES=HP
##CAS NAME=Hexacosanoic acid, propyl ester
##MOLFORM=C29H58O2
##CAS REGISTRY NO=40710-38-1
##MP= -300
##BP= -300
##MW= 438
##$RETENTION INDEX=3078
##$CONDENSED SPECTRUM=NO
##NPOINTS= 195
##XYDATA=(XY..XY) 1 
    15          4
    25          6
    26         19
    27         77
    28         38
    29        182
    30         14
    31         17
    32          2
    37          6
    38          6
    39         35
    40         58
    41        315
    42        132
    43        999
    44        137
    45         15
    50          6
    51          4
    52          4
    53         15
    54         46
    55        397
    56        126
    57        638
    58         43
    59         35
    60        222
    61        503
    62         17
    63          6
    65          4
    66          6
    67         66
    68         50
    69        271
    70         87
    71        290
    72         21
    73        222
    74         25
    75          8
    77          6
    78          6
    79         12
    80         10
    81         58
    82         43
    83        193
    84         58
    85        155
    86         15
    87         58
    88          8
    89          6
    91          4
    93          8
    94          8
    95         54
    96         27
    97        126
    98         58
    99         33
   100          6
   101         31
   102        348
   103        251
   104         17
   105          6
   107         10
   108          6
   109         27
   110         15
   111         58
   112         21
   113         17
   114          6
   115        232
   116         31
   117          6
   119          4
   121         12
   122          6
   123         15
   124          8
   125         35
   126         12
   127         12
   128          6
   129         68
   130         12
   135         12
   136          4
   137          8
   138          6
   139         21
   140          8
   141          8
   143         15
   144         12
   149         10
   151          6
   152          6
   153         15
   154          6
   155          8
   157         21
   158         10
   159          4
   163          6
   165          6
   166          4
   167         10
   168          6
   169          6
   171         48
   172          8
   177          6
   181          8
   182          4
   183          4
   185         15
   186          6
   187          4
   195          8
   196          4
   197          4
   199          8
   200          6
   208          2
   209          6
   210          4
   211          4
   213          8
   214          6
   223          6
   227          8
   228          4
   237          6
   238          4
   239          2
   241          8
   242          4
   251          4
   252          2
   255          6
   256          2
   264          4
   265          2
   269          6
   278          4
   279          4
   280          4
   283          6
   284          4
   292          2
   293          2
   297          8
   298          6
   311          6
   312          4
   325          4
   326          2
   334          4
   335          4
   336          2
   339          6
   340          4
   353         21
   354          8
   359          6
   360          4
   361          2
   367          6
   368          4
   369          4
   376         14
   377         15
   378          8
   379        116
   380         35
   381          8
   394          8
   395         29
   396         48
   397         87
   398         39
   399          6
   424          4
   437          8
   438        687
   439        222
   440         43
   441          8