##TITLE=Library Entry 24436
##JCAMP-DX=Revision 4.10 
##DATA TYPE=MASS SPECTRUM
##SAMPLE DESCRIPTION=A.RAAL, INST. MED. BIOCHEM., UNIV. GOTEBORG, GOTEBORG,
 SWEDEN
##NAMES=HP
##CAS NAME=1-Hentetracontanol
##MOLFORM=C41H84O
##CAS REGISTRY NO=40710-42-7
##MP= -300
##BP= -300
##MW= 592
##$RETENTION INDEX=0
##$CONDENSED SPECTRUM=NO
##NPOINTS= 367
##XYDATA=(XY..XY) 1 
    13          1
    14          2
    15          4
    16          3
    17         22
    18        102
    19          2
    20          1
    22          1
    24          1
    25          3
    26         13
    27         27
    28         64
    29         92
    30          5
    31         16
    32          5
    33          1
    36          2
    37          2
    38          3
    39         19
    40          7
    41        179
    42         66
    43        642
    44         27
    45         11
    46          3
    48          1
    49          2
    50          5
    51          3
    52          2
    53          9
    54         60
    55        444
    56        264
    57        999
    58         57
    59          7
    60          3
    61          1
    62          1
    63          1
    64          1
    65          3
    66         24
    67         94
    68        217
    69        453
    70        226
    71        566
    72         41
    73         10
    74          2
    75          1
    76          1
    77          3
    78          3
    79          9
    80         17
    81        113
    82        358
    83        576
    84        160
    85        368
    86         20
    87          5
    88          1
    89          1
    90          1
    91          5
    92          2
    93          6
    94         14
    95         98
    96        217
    97        564
    98        113
    99        123
   100         11
   101          1
   102          1
   103          1
   104          1
   105          2
   106          1
   107          3
   108          7
   109         56
   110         85
   111        283
   112         82
   113         75
   114          8
   115          2
   116          1
   117          1
   118          1
   119          1
   120          1
   121          3
   122          7
   123         39
   124         55
   125        170
   126         56
   127         52
   128          7
   129          2
   130          1
   131          1
   132          1
   133          1
   134          1
   135          2
   136          6
   137         25
   138         40
   139         84
   140         39
   141         36
   142          6
   143          1
   144          1
   145          1
   146          1
   147          1
   148          1
   149          1
   150          1
   151          9
   152         26
   153         52
   154         29
   155         26
   156          5
   157          1
   158          1
   159          1
   160          1
   161          1
   162          1
   163          1
   164          1
   165          5
   166         19
   167         36
   168         23
   169         20
   170          5
   171          1
   172          1
   173          1
   174          1
   175          1
   177          1
   178          1
   179          3
   180         16
   181         27
   182         19
   183         17
   184          3
   185          1
   191          1
   192          1
   193          3
   194         15
   195         20
   196         16
   197         14
   198          3
   199          1
   206          1
   207          2
   208         14
   209         17
   210         14
   211         11
   212          2
   213          1
   217          1
   220          1
   221          2
   222         14
   223         15
   224         11
   225          9
   226          2
   227          1
   229          1
   233          1
   234          1
   235          2
   236         13
   237         11
   238         10
   239          8
   240          2
   241          1
   243          1
   247          1
   248          1
   249          2
   250         11
   251         10
   252          8
   253          7
   254          1
   255          1
   256          1
   257          1
   263          2
   264         10
   265          8
   266          7
   267          6
   268          1
   269          1
   275          1
   276          1
   277          2
   278         10
   279          9
   280          7
   281          6
   282          1
   283          1
   284          1
   285          1
   290          1
   291          1
   292          9
   293          7
   294          7
   295          5
   296          1
   297          1
   305          1
   306          9
   307          7
   308          7
   309          5
   310          1
   311          1
   312          1
   313          1
   318          1
   319          1
   320          8
   321          6
   322          5
   323          3
   324          1
   333          1
   334          7
   335          5
   336          4
   337          2
   338          1
   342          1
   343          7
   344          5
   345          4
   346          3
   347          1
   361          1
   362          6
   363          5
   364          4
   365          3
   366          1
   375          1
   376          6
   377          5
   378          4
   379          2
   380          1
   389          1
   390          6
   391          5
   392          4
   393          2
   394          1
   403          1
   404          6
   405          4
   406          3
   407          2
   408          1
   418          5
   419          4
   420          3
   421          1
   431          1
   432          5
   433          4
   434          3
   435          2
   436          1
   437          1
   445          1
   446          5
   447          4
   448          3
   449          2
   450          1
   459          1
   460          4
   461          3
   462          3
   463          2
   464          1
   473          1
   474          4
   475          3
   476          3
   477          2
   478          1
   487          1
   488          4
   489          3
   490          3
   491          2
   492          1
   493          1
   501          1
   502          3
   503          3
   504          3
   505          2
   506          1
   515          1
   516          3
   517          3
   518          3
   519          1
   520          1
   529          1
   530          2
   531          2
   532          2
   533          1
   534          1
   543          1
   544          4
   545          3
   546          9
   547          5
   548          3
   549          1
   558          1
   559          1
   560          1
   572         25
   573         13
   574         23
   575         11
   576          3
   588          1
   589          1
   590          3
   591          2
   592          1