##TITLE=Library Entry 25330
##JCAMP-DX=Revision 4.10 
##DATA TYPE=MASS SPECTRUM
##SAMPLE DESCRIPTION=Exported from NIST MS Search
##NAMES=HP
##CAS NAME=Octatetracontane, 1-iodo-
##MOLFORM=C48H97I
##CAS REGISTRY NO=40710-70-1
##MP= -300
##BP= -300
##MW= 800
##$RETENTION INDEX=0
##$CONDENSED SPECTRUM=NO
##NPOINTS= 88
##XYDATA=(XY..XY) 1 
    26         23
    27         52
    28        144
    29         95
    30          5
    32          5
    35          5
    36         52
    37          2
    38         20
    39         40
    40         11
    41        173
    42         69
    43        626
    44         98
    50          5
    51          5
    53         11
    54         40
    55        336
    56        188
    57        999
    58         46
    65          5
    66          5
    67          2
    68         52
    69         63
    70        144
    71        666
    72         37
    77          5
    79          5
    80          2
    81         46
    82         81
    83        318
    84         78
    85        440
    86         29
    91         14
    95         34
    96         58
    97        260
    98         46
    99         95
   100          5
   109         14
   110         20
   111        113
   112         34
   113         63
   123          8
   124         11
   125         46
   126         20
   127         40
   138          5
   139         20
   140         17
   141         29
   153          8
   154         11
   155         23
   167          5
   168          8
   169         20
   181          2
   182          5
   183         14
   196          5
   197         17
   210          2
   211         11
   224          5
   225          8
   238          5
   239          8
   253          5
   266          2
   267          5
   281          2
   351          2
   672         31
   673         81
   674         49
   675         17