##TITLE=Library Entry 25577
##JCAMP-DX=Revision 4.10 
##DATA TYPE=MASS SPECTRUM
##SAMPLE DESCRIPTION=Exported from NIST MS Search
##NAMES=HP
##CAS NAME=Hexacontanoic acid
##MOLFORM=C60H120O2
##CAS REGISTRY NO=40710-31-4
##MP= -300
##BP= -300
##MW= 872
##$RETENTION INDEX=0
##$CONDENSED SPECTRUM=NO
##NPOINTS= 108
##XYDATA=(XY..XY) 1 
    17         20
    18        108
    26         14
    27         23
    28         50
    29         50
    39         20
    41        108
    42         38
    43        488
    44         44
    54         26
    55        250
    56        164
    57        999
    58         47
    59         14
    60         58
    61        129
    67         52
    68         61
    69        288
    70        132
    71        676
    72         35
    73        152
    74         11
    80          8
    81         58
    82        105
    83        373
    84         97
    85        499
    86         29
    87         32
    94          5
    95         52
    96         73
    97        311
    98        117
    99        117
   100         14
   101         20
   102         17
   103         29
   109         29
   110         23
   111        135
   112         38
   113         64
   115         47
   116         26
   121          5
   123         20
   124         17
   125         64
   126         20
   127         50
   129         97
   130          5
   135          8
   137          8
   138          8
   139         32
   140         14
   141         29
   143         14
   149          5
   151          2
   152          5
   153         23
   154         11
   155         23
   157          5
   167         14
   168          8
   169         20
   171         20
   172          5
   181         11
   182          2
   183         17
   185         23
   195          8
   196          5
   197         14
   199          5
   209          2
   210          5
   211          5
   222          2
   223          2
   224          5
   226          5
   238          5
   239          5
   241          5
   819         20
   820         14
   852         17
   853         20
   854         26
   855         20
   871          5
   872        617
   873        411
   874        135
   875         29