##TITLE=Library Entry 4840
##JCAMP-DX=Revision 4.10 
##DATA TYPE=MASS SPECTRUM
##SAMPLE DESCRIPTION=A.Pleshkova, Nesmeyanov Inst.Org.Elem.Cpds, Moscow
##NAMES=HP
##CAS NAME=Diaziridine,1,3,3-trimethyl-
##MOLFORM=C4H10N2
##CAS REGISTRY NO=40711-15-7
##MP= -300
##BP= -300
##MW= 86
##$RETENTION INDEX=0
##$CONDENSED SPECTRUM=NO
##NPOINTS= 27
##XYDATA=(XY..XY) 1 
    15         55
    27         74
    28        176
    29        104
    30        366
    31         51
    37         25
    38         46
    39        254
    40         84
    41        375
    42        999
    43        133
    44        151
    45        275
    46         56
    54         64
    55        124
    56        313
    57         94
    58         50
    70        854
    71        115
    72          7
    85        153
    86         23
    87          1