##TITLE=Library Entry 25323
##JCAMP-DX=Revision 4.10 
##DATA TYPE=MASS SPECTRUM
##SAMPLE DESCRIPTION=Exported from NIST MS Search
##NAMES=HP
##CAS NAME=Nonahexacontanoic acid, propyl ester
##MOLFORM=C72H144O2
##CAS REGISTRY NO=40710-41-6
##MP= -300
##BP= -300
##MW= 1040
##$RETENTION INDEX=0
##$CONDENSED SPECTRUM=NO
##NPOINTS= 90
##XYDATA=(XY..XY) 1 
    15          2
    17         17
    18         76
    26         11
    27         35
    28         61
    29         58
    31         17
    39         26
    41        126
    42         52
    43        549
    44         47
    54         35
    55        252
    56        164
    57        999
    58         44
    59         11
    60         64
    61        208
    67         55
    68         64
    69        291
    70        126
    71        649
    72         32
    73         97
    80          5
    81         58
    82         85
    83        329
    84         79
    85        435
    86         26
    87         20
    94          2
    95         55
    96         58
    97        291
    98         67
    99         97
   101         17
   102         88
   103        332
   104         20
   109         32
   110         23
   111        135
   112         23
   113         55
   115        176
   116         20
   121          5
   123         20
   124          8
   125         58
   126         14
   127         35
   129         47
   135          2
   137          5
   139         26
   140          5
   141         23
   143          8
   153         20
   155         20
   157         20
   167          8
   169          8
   171         35
   181          5
   183          5
   185          8
   211          2
   213          5
   771          2
   978         17
   979         23
   980         20
   981         17
   982          2
   998         26
   999         29
  1000         20
  1040        323
  1041        252
  1042        102
  1043         26