##TITLE=Library Entry 37426
##JCAMP-DX=Revision 4.10 
##DATA TYPE=MASS SPECTRUM
##SAMPLE DESCRIPTION=Exported from NIST MS Search
##NAMES=HP
##CAS NAME=Hexacontanoic acid, 18-oxo-
##MOLFORM=C60H118O3
##CAS REGISTRY NO=40710-27-8
##MP= -300
##BP= -300
##MW= 886
##$RETENTION INDEX=0
##$CONDENSED SPECTRUM=NO
##NPOINTS= 198
##XYDATA=(XY..XY) 1 
    15         12
    16          8
    17         53
    18        234
    19          2
    26         19
    27         38
    28        127
    29         85
    30          2
    36         10
    38          4
    39         31
    40          4
    41        161
    42         51
    43        489
    44        129
    45         12
    50          4
    51          4
    53         14
    54         38
    55        331
    56        125
    57        723
    58        129
    59        251
    60         61
    61         70
    66          6
    67        102
    68         83
    69        319
    70        999
    71        446
    72         36
    73        106
    74         12
    79         19
    80         29
    81        125
    82        146
    83        329
    84        100
    85        272
    86         19
    87         23
    91         12
    92          2
    93         19
    94         25
    95        148
    96        161
    97        274
    98        204
    99         70
   100         34
   101         17
   105          8
   107         17
   108         14
   109         89
   110         46
   111        127
   112         63
   113         42
   114         19
   115         23
   116         14
   117          4
   119          4
   121         25
   122          8
   123         46
   124         21
   125         66
   126         21
   127         34
   128         12
   129         63
   130          8
   135         23
   136          6
   137         27
   138         17
   139         27
   140         17
   141         17
   142          8
   143         12
   149         14
   151         14
   152         14
   153         17
   154         14
   155         17
   156         19
   164         10
   165          8
   166          4
   167         14
   168         14
   169         14
   170          6
   171         14
   177          4
   179          4
   180          4
   181         10
   182         29
   183         14
   185         17
   193          4
   194          6
   195         10
   196         59
   197         17
   208          8
   209         10
   210         14
   211         10
   213          6
   235          4
   236         31
   237         29
   238          8
   239          8
   241         10
   250          4
   251         19
   252         38
   253         29
   254         17
   255         10
   265          8
   266         14
   267         12
   268          4
   269         19
   275          2
   276          8
   277         12
   278          6
   279         40
   280         10
   281          8
   293          6
   294        119
   295         83
   296         17
   297         44
   298         10
   299          2
   307         19
   308         14
   309          6
   310          2
   311          2
   312        138
   313         48
   314          4
   350         12
   535          4
   572         14
   573         10
   591         14
   614         25
   615         17
   616         12
   617         57
   618         23
   619          8
   632         61
   633         74
   634        148
   635         63
   636         14
   637          4
   643          2
   645          4
   662          2
   699          4
   771          2
   772          4
   849          2
   850         17
   851         10
   852         10
   853          2
   854          2
   866          4
   867         23
   868         44
   869         25
   870         10
   886          6
   887          6