##TITLE=Library Entry 34433
##JCAMP-DX=Revision 4.10 
##DATA TYPE=MASS SPECTRUM
##SAMPLE DESCRIPTION=Chuck Anderson, Aldrich Chemical Co.
##NAMES=HP
##CAS NAME=1,6,10-Dodecatrien-3-ol, 3,7,11-trimethyl-, (E)-
##MOLFORM=C15H26O
##CAS REGISTRY NO=40716-66-3
##MP= -300
##BP= -300
##MW= 222
##$RETENTION INDEX=1564
##$CONDENSED SPECTRUM=NO
##NPOINTS= 99
##XYDATA=(XY..XY) 1 
    15          5
    17          2
    18          9
    26          5
    27        112
    28         17
    29         94
    30          0
    31          8
    36          5
    38          4
    39         98
    40         27
    41        586
    42         41
    43        410
    44         13
    45         11
    50          2
    51         13
    52          7
    53         96
    54         15
    55        272
    56         21
    57         46
    58         11
    59          8
    63          3
    65         36
    66         13
    67        249
    68         91
    69        999
    70         81
    71        370
    72         23
    73          3
    77         72
    78         12
    79        192
    80         97
    81        241
    82         76
    83         54
    84         11
    85          9
    91        119
    92         34
    93        560
    94         72
    95        109
    96         18
    97         37
    98          4
   103          4
   105         65
   106         15
   107        275
   108         39
   109        118
   110         13
   111         22
   112          0
   113          0
   115          3
   117          5
   119         94
   120         32
   121        131
   122         42
   123        139
   124         16
   125          5
   131          0
   133         45
   134         32
   135         54
   136        183
   137         30
   138          3
   139          5
   140          4
   147         18
   148         26
   149         11
   150          3
   151          5
   153          0
   161        127
   162         24
   163          3
   175          5
   176          5
   177          7
   179          9
   189         22
   190          3
   204          6