##TITLE=Library Entry 45297
##JCAMP-DX=Revision 4.10 
##DATA TYPE=MASS SPECTRUM
##SAMPLE DESCRIPTION=NIST Mass Spectrometry Data Center, 2009
##NAMES=HP
##CAS NAME=Ethyl (trimethylsilyl)acetate
##MOLFORM=C7H16O2Si
##CAS REGISTRY NO=4071-88-9
##MP= -300
##BP= -300
##MW= 160
##$RETENTION INDEX=942
##$CONDENSED SPECTRUM=NO
##NPOINTS= 80
##XYDATA=(XY..XY) 1 
    14          1
    15          6
    26          5
    27         37
    28         19
    29         80
    30          6
    31         23
    33          1
    39          4
    40          1
    41          7
    42         55
    43        203
    44         90
    45        226
    46         17
    47         70
    48          4
    49          3
    50          7
    51          2
    53         17
    54          5
    55         40
    56         10
    57         35
    58         30
    59        140
    60         23
    61         69
    62          5
    63          2
    65          5
    66          2
    67          2
    68          1
    69         11
    70         15
    71         19
    72        133
    73        956
    74        109
    75        999
    76         73
    77         41
    78          1
    79          1
    83          1
    84          2
    85          5
    86          1
    87         12
    88          6
    89          3
    90          5
    91          5
    92          1
    98          1
    99         45
   100          6
   101        110
   103        941
   104         89
   105         38
   106          2
   113          1
   115        419
   116        158
   117        446
   118         48
   119         23
   120          2
   129          1
   133          8
   134          1
   145        244
   146         28
   147         10
   148          1