##TITLE=Library Entry 25209
##JCAMP-DX=Revision 4.10 
##DATA TYPE=MASS SPECTRUM
##SAMPLE DESCRIPTION=Exported from NIST MS Search
##NAMES=HP
##CAS NAME=Nonahexacontanoic acid
##MOLFORM=C69H138O2
##CAS REGISTRY NO=40710-32-5
##MP= -300
##BP= -300
##MW= 998
##$RETENTION INDEX=0
##$CONDENSED SPECTRUM=NO
##NPOINTS= 190
##XYDATA=(XY..XY) 1 
    14          8
    15         20
    16         32
    17        135
    18        555
    19         32
    20         11
    25          5
    26         29
    27         70
    28        379
    29         91
    30          8
    31          5
    32         17
    35          5
    36         35
    37          5
    38         20
    39         64
    40         20
    41        194
    42         73
    43        420
    44        508
    45         11
    46          8
    50          8
    51          8
    52          5
    53         20
    54         38
    55        235
    56        223
    57        999
    58         50
    59          8
    60         17
    61         23
    64          8
    65          8
    66         11
    67         82
    68         88
    69        285
    70        170
    71        735
    72         44
    73         29
    74          5
    77          8
    78          8
    79         20
    80         23
    81          8
    82         17
    83        364
    84        111
    85        505
    86         38
    87         14
    91         23
    92         26
    93         14
    94         20
    95         70
    96         14
    97        411
    98        105
    99        214
   100         20
   101          2
   102          2
   104          8
   105         17
   106         11
   107          5
   108          8
   109         38
   110         52
   111        229
   112         52
   113        144
   114         17
   115          8
   116         11
   117          5
   118          5
   119          5
   120          5
   121          8
   122          8
   123         26
   124         38
   125        117
   126         32
   127        105
   128         11
   129         29
   130          5
   131          5
   132          5
   133          5
   134          5
   135          5
   136          5
   137         17
   138         26
   139         64
   140         23
   141         82
   142         11
   143          5
   149          8
   152          5
   153         17
   154         44
   155         20
   156         58
   157          5
   166         17
   167         32
   168         17
   169         50
   170          2
   171          2
   180          8
   181         23
   182         14
   183         38
   184          5
   185          8
   194          5
   195         20
   196          8
   197         32
   208          5
   209         14
   210         11
   211         23
   222          5
   223         11
   224          8
   225         20
   236          5
   237          8
   238          8
   239         17
   241          5
   250          5
   251          5
   252          5
   253         17
   264          5
   265          5
   266          8
   267         17
   278          5
   279          5
   280          5
   281         11
   291          5
   292          5
   293          5
   294          8
   306          5
   307          5
   308          5
   309          8
   320          5
   321          5
   322          5
   323          5
   334          2
   335          2
   336          5
   337          5
   349          5
   350         11
   899          0
   900          0
   955          1
   960          0
   979          0
   980          0
   981          0
   998         11
   999          8
  1000          3
  1001          0