##TITLE=Library Entry 47854
##JCAMP-DX=Revision 4.10 
##DATA TYPE=MASS SPECTRUM
##SAMPLE DESCRIPTION=E.SANTORO MONTEDISON S.P.A., RESEARCH CENTRE, MILAN, IT
ALY
##NAMES=HP
##CAS NAME=Butane, 1,1,1,2,2-pentafluoro-4-iodo-
##MOLFORM=C4H4F5I
##CAS REGISTRY NO=40723-80-6
##MP= -300
##BP= -300
##MW= 274
##$RETENTION INDEX=0
##$CONDENSED SPECTRUM=NO
##NPOINTS= 29
##XYDATA=(XY..XY) 1 
    26         81
    27        478
    31         89
    33        151
    37         10
    47         82
    51        490
    57         71
    59         72
    65        318
    69        380
    75         72
    77        999
    78         33
    95         77
   100         26
   108         22
   119         71
   127        502
   128        170
   141        181
   147        124
   154         11
   155         62
   205          5
   235          5
   255          5
   274        560
   275         22