##TITLE=Library Entry 49305
##JCAMP-DX=Revision 4.10 
##DATA TYPE=MASS SPECTRUM
##SAMPLE DESCRIPTION=E.SANTORO MONTEDISON S.P.A., RESEARCH CENTRE, MILAN, IT
ALY
##NAMES=HP
##CAS NAME=Decane, 3,3,4,4,7,7,8,8-octafluoro-
##MOLFORM=C10H14F8
##CAS REGISTRY NO=40723-69-1
##MP= -300
##BP= -300
##MW= 286
##$RETENTION INDEX=0
##$CONDENSED SPECTRUM=NO
##NPOINTS= 36
##XYDATA=(XY..XY) 1 
    27         26
    29         33
    33          8
    39          9
    41         15
    47         38
    51         96
    59         81
    64         22
    65         47
    69         10
    77        107
    78        155
    79        999
    80         33
    89          7
    91         13
    95         23
   103          7
   109         22
   110         10
   123         22
   127         72
   141         12
   147        175
   167         26
   187         34
   188         11
   206         12
   207         43
   227          2
   238          1
   247          3
   266          1
   267          1
   286          0