##TITLE=Library Entry 46540
##JCAMP-DX=Revision 4.10 
##DATA TYPE=MASS SPECTRUM
##SAMPLE DESCRIPTION=E.SANTORO MONTEDISON S.P.A., RESEARCH CENTRE, MILAN, IT
ALY
##NAMES=HP
##CAS NAME=1-Butene, 3,3,4,4-tetrafluoro-
##MOLFORM=C4H4F4
##CAS REGISTRY NO=40723-71-5
##MP= -300
##BP= -300
##MW= 128
##$RETENTION INDEX=0
##$CONDENSED SPECTRUM=NO
##NPOINTS= 17
##XYDATA=(XY..XY) 1 
    27        205
    31         68
    33         21
    39         70
    51        475
    57         59
    59         80
    69         11
    75         42
    77        999
    78         33
    82         23
    89        103
   100          4
   101          9
   109         31
   128         23