##TITLE=Library Entry 47886
##JCAMP-DX=Revision 4.10 
##DATA TYPE=MASS SPECTRUM
##SAMPLE DESCRIPTION=E.SANTORO MONTEDISON S.P.A., RESEARCH CENTRE, MILAN, IT
ALY
##NAMES=HP
##CAS NAME=1-Hexene, 3,3,4,4-tetrafluoro-6-iodo-
##MOLFORM=C6H7F4I
##CAS REGISTRY NO=40723-84-0
##MP= -300
##BP= -300
##MW= 282
##$RETENTION INDEX=0
##$CONDENSED SPECTRUM=NO
##NPOINTS= 28
##XYDATA=(XY..XY) 1 
    26         20
    27        130
    31         20
    33         11
    39         31
    41         21
    47         98
    51        171
    57         35
    59         40
    65         39
    75         30
    77        999
    78         33
    91         70
    95         30
   109         24
   115         39
   127         51
   128         10
   135         70
   141         58
   155        122
   185          5
   205         10
   263          1
   282        172
   283         12