##TITLE=Library Entry 73335
##JCAMP-DX=Revision 4.10 
##DATA TYPE=MASS SPECTRUM
##SAMPLE DESCRIPTION=Div. of Experiment Therapeutics WRAIR, WRAMC, Washingto
n DC 20307
##NAMES=HP
##CAS NAME=2-Bromo-6-(2-morpholinoethyl)phenanthridine N-oxide
##MOLFORM=C19H19BrN2O2
##CAS REGISTRY NO=40736-90-1
##MP= -300
##BP= -300
##MW= 386
##$RETENTION INDEX=0
##$CONDENSED SPECTRUM=NO
##NPOINTS= 138
##XYDATA=(XY..XY) 1 
    41         74
    42        257
    43         22
    44         50
    45         15
    47          1
    49         11
    50          5
    51         12
    52          3
    54         35
    55          9
    56        204
    57         11
    58          4
    62          4
    63         10
    64          1
    65          0
    68          6
    70        112
    72         53
    73          0
    74          5
    75          8
    76          5
    77          5
    81          1
    82          8
    84          5
    85          2
    86          6
    87          6
    88         11
    89          4
    95          8
    98        556
   100        999
   101         44
   102         19
   104          0
   108          0
   109          1
   110          0
   111          2
   112          2
   113          4
   114          3
   115          7
   116          2
   117          1
   122          0
   123          2
   124          1
   125          5
   126          5
   127          3
   137          2
   138          2
   139          7
   140          3
   142          4
   143          1
   149          2
   150         32
   151         31
   152         17
   153          4
   155          0
   156          0
   161          1
   162          5
   163         16
   164         12
   165          9
   166          3
   174          3
   175          2
   176         10
   177        120
   178         30
   179         11
   180          2
   187          2
   188          7
   189          2
   190         45
   191         23
   192          6
   193          3
   201          2
   202          7
   203         21
   204         24
   205          9
   206          8
   207          0
   215          0
   216          1
   217          3
   218          1
   229          2
   243          2
   256         14
   258         22
   259          4
   260          2
   270          5
   271          5
   272          2
   273          8
   274          2
   282          7
   284         26
   285          6
   286         17
   287          3
   288          0
   290          3
   296          2
   297          2
   298          2
   300          7
   302          8
   309          0
   310          1
   311          2
   313          2
   368          1
   369        116
   370          6
   371        102
   372         21
   373          3
   385          0
   386          9
   388          9
   389          0