##TITLE=Library Entry 27834
##JCAMP-DX=Revision 4.10 
##DATA TYPE=MASS SPECTRUM
##SAMPLE DESCRIPTION=Div. of Experiment Therapeutics WRAIR, WRAMC, Washingto
n DC 20307
##NAMES=HP
##CAS NAME=6-[.alpha.-Hydroxy-.beta.-N,N-dimethylaminoethyl]phenanthridine
##MOLFORM=C17H18N2O
##CAS REGISTRY NO=40736-97-8
##MP= -300
##BP= -300
##MW= 266
##$RETENTION INDEX=0
##$CONDENSED SPECTRUM=NO
##NPOINTS= 81
##XYDATA=(XY..XY) 1 
    41          1
    42         72
    43         17
    44         10
    45          1
    49          1
    50          2
    51          5
    52          1
    56          5
    58        999
    59         33
    62          1
    63          5
    64          0
    70          1
    72          1
    74          2
    75          4
    76          4
    77          5
    78          0
    82          0
    84          0
    86          2
    87          2
    88          2
    89          2
    90          1
    98          1
    99          2
   100          1
   101          2
   102          1
   113          1
   115          1
   116          0
   125          3
   126          4
   127          3
   128          0
   139          1
   140          1
   149          1
   150          9
   151         22
   152         29
   153          6
   163          1
   164          1
   165          2
   175          1
   176          3
   177         11
   178         29
   179         18
   180         14
   181          2
   190          1
   191          1
   192          2
   193          7
   194          1
   203          0
   204          5
   205          1
   206          6
   207          1
   208         16
   209          3
   218          2
   219          1
   220          1
   221          1
   222          1
   233          2
   247          0
   248          3
   249          3
   265          0
   266          1