##TITLE=Library Entry 57270
##JCAMP-DX=Revision 4.10 
##DATA TYPE=MASS SPECTRUM
##SAMPLE DESCRIPTION=Exported from NIST MS Search
##NAMES=HP
##CAS NAME=1,6-Dioxaspiro[4.5]decane, 9,9-dimethyl-
##MOLFORM=C10H18O2
##CAS REGISTRY NO=40730-61-8
##MP= -300
##BP= -300
##MW= 170
##$RETENTION INDEX=0
##$CONDENSED SPECTRUM=NO
##NPOINTS= 60
##XYDATA=(XY..XY) 1 
    39        330
    40        220
    41        559
    42        300
    43        559
    44        220
    45        310
    53        150
    54        250
    55        480
    56        909
    57        220
    58         80
    59        120
    67        200
    68        180
    69        879
    70        160
    71        140
    72         90
    77         60
    79         50
    81         40
    83        330
    84        859
    85        290
    86        509
    87        999
    88        290
    89         30
    91         50
    93         40
    95         40
    96         30
    97         20
    98         80
   105         50
   109         40
   111        360
   112        190
   113        430
   114        200
   125        490
   126        190
   127         30
   129        480
   130         20
   137        290
   138         20
   139         30
   140        200
   142         70
   147         80
   148        100
   152         70
   155        819
   156        120
   169         30
   170        519
   171        110