##TITLE=Library Entry 25161
##JCAMP-DX=Revision 4.10 
##DATA TYPE=MASS SPECTRUM
##SAMPLE DESCRIPTION=J.B.WESTMORE UNIV. OF MANITOBA, WINNIPEG, MANITOBA, CAN
ADA
##NAMES=HP
##CAS NAME=Propanoic acid, 2,2-dimethyl-, [2,3,3a,9a-tetrahydro-6-oxo-3-[(tr
ifluoroacetyl)oxy]-6H-furo[2',3':4,5]oxazolo[3,2-a]pyrimidin-2-yl]methyl est
er, [2R-(2.alpha.,3.beta.,3a.beta.,9a.beta.)]-
##MOLFORM=C16H17F3N2O7
##CAS REGISTRY NO=40732-71-6
##MP= -300
##BP= -300
##MW= 406
##$RETENTION INDEX=0
##$CONDENSED SPECTRUM=NO
##NPOINTS= 89
##XYDATA=(XY..XY) 1 
    53        114
    54         35
    55        135
    56         71
    57        999
    58         50
    59         28
    67         50
    68         92
    69        714
    70        142
    71         50
    77         78
    80         71
    81        264
    82         71
    83        135
    84         28
    85        407
    86         28
    95        135
    96        114
    97        135
    98         28
   108         64
   109         35
   110         28
   111         28
   112         50
   113        257
   114         28
   121         50
   122         71
   123         21
   135         28
   136        157
   137        221
   138         28
   148         50
   149         85
   150         35
   151         28
   152         28
   153         57
   154         42
   155         42
   156         50
   157         71
   158         28
   163         78
   164         35
   165         71
   166         85
   167         42
   177        264
   178         78
   179        707
   180        107
   181         85
   182         21
   191        264
   192         78
   193        707
   194        100
   195         78
   209         78
   210         21
   219         21
   220         85
   221         28
   237         92
   238         21
   263        164
   264         21
   293        264
   294         50
   295         14
   303         21
   305         85
   306         85
   307         21
   321        485
   322         78
   323         28
   391        307
   392         71
   406        157
   407         42
   408         14