##TITLE=Library Entry 73067
##JCAMP-DX=Revision 4.10 
##DATA TYPE=MASS SPECTRUM
##SAMPLE DESCRIPTION=Div. of Experiment Therapeutics WRAIR, WRAMC, Washingto
n DC 20307
##NAMES=HP
##CAS NAME=6-[.alpha.-Hydroxy-.beta.-morpholinoethyl]phenanthridine
##MOLFORM=C19H20N2O2
##CAS REGISTRY NO=40737-00-6
##MP= -300
##BP= -300
##MW= 308
##$RETENTION INDEX=0
##$CONDENSED SPECTRUM=NO
##NPOINTS= 102
##XYDATA=(XY..XY) 1 
    41         14
    42         37
    43         18
    44          8
    45          5
    49          2
    50          4
    51          8
    52          2
    54          4
    56         89
    57         15
    58          1
    61          0
    62          2
    63          5
    65          0
    68          1
    70         29
    71          5
    72         11
    74          4
    75          8
    76          6
    77          6
    78          1
    81          0
    82          3
    83          1
    84          1
    86          7
    87          9
    88          1
    89          4
    90          1
    96          1
    98         21
   100        999
   101         46
   102          5
   103          1
   110          1
   111          1
   112          0
   113          1
   114          0
   115          0
   116          0
   117          0
   124          1
   125          2
   126          4
   127          4
   128          1
   130          0
   139          2
   140          2
   149          1
   150         14
   151         36
   152         34
   153          9
   163          1
   164          2
   165          3
   166          0
   175          2
   176          4
   177         20
   178         48
   179         60
   180         31
   181          3
   190          2
   191          2
   192          4
   193         19
   194          3
   195          1
   203          0
   204         10
   205          3
   206          6
   207          4
   208         30
   209         11
   210          1
   217          2
   218          3
   219          1
   220         33
   221         27
   222          7
   223          2
   230          2
   231          1
   232          1
   233          2
   259          0
   290          3
   291          4
   308          2