##TITLE=Library Entry 25164
##JCAMP-DX=Revision 4.10 
##DATA TYPE=MASS SPECTRUM
##SAMPLE DESCRIPTION=J.B.WESTMORE UNIV. OF MANITOBA, WINNIPEG, MANITOBA, CAN
ADA
##NAMES=HP
##CAS NAME=Propanoic acid, 2,2-dimethyl-, (2,3,3a,9a-tetrahydro-3-hydroxy-6-
oxo-6H-furo[2',3':4,5]oxazolo[3,2-a]pyrimidin-2-yl)methyl ester, [2R-(2.alph
a.,3.beta.,3a.beta.,9a.beta.)]-
##MOLFORM=C14H18N2O6
##CAS REGISTRY NO=40732-65-8
##MP= -300
##BP= -300
##MW= 310
##$RETENTION INDEX=0
##$CONDENSED SPECTRUM=NO
##NPOINTS= 77
##XYDATA=(XY..XY) 1 
    51        120
    52        170
    53        190
    54        150
    55        560
    56        480
    57        999
    58        290
    59        130
    67        180
    68        260
    69        999
    70        330
    71        280
    79        210
    80         60
    81        550
    82        180
    83        290
    84        170
    85        650
    86         90
    87        140
    94        220
    95        310
    96        420
    97        660
    98        210
    99        150
   109        130
   110         80
   111        180
   112        390
   113        490
   114         90
   115         90
   136        100
   137        490
   138         90
   154        160
   155         40
   165        100
   166         50
   167        280
   168         60
   177        260
   178         60
   179        150
   180         60
   181         80
   182         60
   183         80
   191        160
   192         50
   193        140
   194         70
   195         70
   196         30
   197         40
   198         40
   199        760
   200        100
   208         80
   209        190
   210         80
   225        170
   226         50
   279         40
   280         20
   281         30
   293        110
   294         50
   295        310
   296         60
   309        110
   310        220
   311         40