##TITLE=Library Entry 36932
##JCAMP-DX=Revision 4.10 
##DATA TYPE=MASS SPECTRUM
##SAMPLE DESCRIPTION=J.B.WESTMORE UNIV. OF MANITOBA, WINNIPEG, MANITOBA, CAN
ADA
##NAMES=HP
##CAS NAME=Acetic acid, trifluoro-, [3-(acetyloxy)-2,3,3a,9a-tetrahydro-6-ox
o-6H-furo[2',3':4,5]oxazolo[3,2-a]pyrimidin-2-yl]methyl ester, [2R-(2.alpha.
,3.beta.,3a.beta.,9a.beta.)]-
##MOLFORM=C13H11F3N2O7
##CAS REGISTRY NO=40732-62-5
##MP= -300
##BP= -300
##MW= 364
##$RETENTION INDEX=0
##$CONDENSED SPECTRUM=NO
##NPOINTS= 80
##XYDATA=(XY..XY) 1 
    53        140
    54         60
    55         80
    67         50
    68         90
    69        999
    70        190
    71         40
    75         30
    76         30
    77         40
    80        140
    81        120
    82         60
    83        100
    84         30
    85         70
    86         30
    93         30
    94         40
    95        300
    96        810
    97        250
    98         50
    99         40
   108         50
   109         40
   110         50
   111         30
   112        110
   113        120
   114         30
   121         30
   122         80
   123         20
   136         40
   137        780
   138        110
   139         90
   140         50
   148        100
   149        150
   150         30
   151         30
   153         40
   155         60
   156         60
   157        430
   158        120
   162         70
   163         40
   164         40
   165         70
   166         30
   167         50
   177        500
   178         60
   179         40
   181         40
   190         80
   191        120
   193        120
   195         40
   209         50
   211         30
   226         50
   234         40
   235         50
   236         50
   237         50
   247         50
   261         40
   262        180
   263         30
   275         50
   305         70
   306         20
   364        930
   365        190
   366         20