##TITLE=Library Entry 27218
##JCAMP-DX=Revision 4.10 
##DATA TYPE=MASS SPECTRUM
##SAMPLE DESCRIPTION=J.B.WESTMORE UNIV. OF MANITOBA, WINNIPEG, MANITOBA, CAN
ADA
##NAMES=HP
##CAS NAME=Propanoic acid, 2,2-dimethyl-, [3-(acetyloxy)-2,3,3a,9a-tetrahydr
o-6-oxo-6H-furo[2',3':4,5]oxazolo[3,2-a]pyrimidin-2-yl]methyl ester, [2R-(2.
alpha.,3.beta.,3a.beta.,9a.beta.)]-
##MOLFORM=C16H20N2O7
##CAS REGISTRY NO=40732-64-7
##MP= -300
##BP= -300
##MW= 352
##$RETENTION INDEX=0
##$CONDENSED SPECTRUM=NO
##NPOINTS= 82
##XYDATA=(XY..XY) 1 
    53        110
    54         60
    55        240
    56        170
    57        999
    58         50
    67         90
    68        100
    69        330
    70        160
    71        130
    79         60
    80         50
    81        250
    82         80
    83        160
    84         60
    85        310
    86         30
    95        130
    96        130
    97        260
    98         90
    99        100
   108         60
   109         50
   110         60
   111         80
   112         70
   113        300
   114         30
   115         40
   135         40
   136        140
   137        500
   138         70
   139        160
   140         30
   141        110
   148        120
   154        120
   155         50
   167        280
   168         50
   169         20
   177        300
   178         40
   179        440
   180         80
   181         90
   191        260
   192         50
   193        580
   194         80
   195         40
   207         50
   208         60
   209        170
   221         40
   224         20
   225         20
   237         20
   238         40
   239         20
   251        190
   252        120
   253         20
   263         40
   267        480
   268         80
   269         30
   293        420
   294         80
   295         20
   309         50
   310         30
   337        330
   338         60
   339         20
   352        320
   353         70
   354         20