##TITLE=Library Entry 36654
##JCAMP-DX=Revision 4.10 
##DATA TYPE=MASS SPECTRUM
##SAMPLE DESCRIPTION=J.B.WESTMORE UNIV. OF MANITOBA, WINNIPEG, MANITOBA, CAN
ADA
##NAMES=HP
##CAS NAME=Acetic acid, trifluoro-, 2-[(acetyloxy)methyl]-2,3,3a,9a-tetrahyd
ro-6-oxo-6H-furo[2',3':4,5]oxazolo[3,2-a]pyrimidin-3-yl ester, [2R-(2.alpha.
,3.beta.,3a.beta.,9a.beta.)]-
##MOLFORM=C13H11F3N2O7
##CAS REGISTRY NO=40732-63-6
##MP= -300
##BP= -300
##MW= 364
##$RETENTION INDEX=0
##$CONDENSED SPECTRUM=NO
##NPOINTS= 83
##XYDATA=(XY..XY) 1 
    53        116
    54         37
    55         79
    56        116
    57        195
    68         74
    69        999
    70        144
    71         37
    77         79
    80        102
    81         79
    82         41
    83         93
    84         27
    85        116
    86         27
    94         37
    95        144
    96        153
    97        200
    98         23
    99         32
   100         65
   101         65
   102          9
   108         55
   109         27
   110         32
   111         27
   112         55
   113        204
   114         32
   136        144
   137        186
   138         23
   139         51
   140         27
   141         46
   142          9
   148         46
   149        102
   150         23
   153         88
   154         60
   155         46
   156         32
   157         23
   162         27
   163         32
   164         23
   165         46
   166         55
   167         32
   177        176
   178         27
   179        204
   180         41
   181         32
   191        111
   192         41
   193        465
   194         79
   195         14
   209         88
   210         23
   211         14
   216         27
   220         37
   235         18
   251         88
   252         23
   263         41
   291         18
   292         14
   305         37
   306         14
   319         27
   321        237
   322         37
   364        307
   365         55
   366         14