##TITLE=Library Entry 21346
##JCAMP-DX=Revision 4.10 
##DATA TYPE=MASS SPECTRUM
##SAMPLE DESCRIPTION=Japan AIST/NIMC Database- Spectrum MS-NW-4014
##NAMES=HP
##CAS NAME=Adipic acid divinyl ester
##MOLFORM=C10H14O4
##CAS REGISTRY NO=4074-90-2
##MP= -300
##BP= -300
##MW= 198
##$RETENTION INDEX=1295
##$CONDENSED SPECTRUM=NO
##NPOINTS= 78
##XYDATA=(XY..XY) 1 
    13          1
    14         10
    15         56
    16          1
    17          1
    18          3
    25          1
    26         25
    27        279
    28         90
    29        111
    30          2
    31         13
    32          3
    37          1
    38          3
    39         69
    40         11
    41        197
    42         86
    43        125
    44         30
    45         17
    50          3
    51          4
    52          3
    53         21
    54          8
    55        999
    56         66
    57         23
    58          5
    59         29
    60          2
    62          1
    65          1
    66          1
    67         29
    68          9
    69         42
    70          4
    71        187
    72          8
    73          5
    77          1
    79          4
    80          1
    81        135
    82         10
    83        336
    84         29
    85        110
    86          9
    87          3
    91          4
    93          3
    95          2
    97          1
    98          1
    99         11
   100          1
   101          5
   109        248
   110         21
   111        541
   112         38
   113         12
   114          1
   126          3
   127         92
   128          8
   129          3
   137         61
   138          6
   154          1
   155        376
   156         36
   157          4