##TITLE=Library Entry 72008
##JCAMP-DX=Revision 4.10 
##DATA TYPE=MASS SPECTRUM
##SAMPLE DESCRIPTION=NIST Mass Spectrometry Data Center
##NAMES=HP
##CAS NAME=Diethyleneglycol diacrylate
##MOLFORM=C10H14O5
##CAS REGISTRY NO=4074-88-8
##MP= -300
##BP= -300
##MW= 214
##$RETENTION INDEX=0
##$CONDENSED SPECTRUM=NO
##NPOINTS= 48
##XYDATA=(XY..XY) 1 
    15          8
    18          2
    26         16
    27        136
    28         49
    29         25
    30          3
    31         19
    32          4
    41          5
    42         41
    43         44
    44          5
    45         25
    49          1
    53          7
    55        918
    56         38
    57          9
    68          9
    70         32
    71         14
    73         15
    82          4
    85          5
    86         46
    87          7
    97          4
    99        999
   100         59
   101         12
   108          3
   112          3
   114         14
   115         11
   117         54
   126          5
   127        138
   128         10
   129         20
   142          4
   143          3
   170          4
   171         28
   172          3
   186         13
   201          4
   214          9