##TITLE=Library Entry 87769
##JCAMP-DX=Revision 4.10 
##DATA TYPE=MASS SPECTRUM
##SAMPLE DESCRIPTION=Japan AIST/NIMC Database- Spectrum MS-NW-9903
##NAMES=HP
##CAS NAME=Thiophene-2-glyoxylic acid
##MOLFORM=C6H4O3S
##CAS REGISTRY NO=4075-59-6
##MP= -300
##BP= -300
##MW= 156
##$RETENTION INDEX=0
##$CONDENSED SPECTRUM=NO
##NPOINTS= 57
##XYDATA=(XY..XY) 1 
    25          1
    26          3
    27          2
    28          9
    32          4
    34          1
    36          2
    37         10
    38         17
    39        241
    40          8
    41          6
    42          1
    44         34
    45         42
    46          1
    47          1
    48          1
    49          6
    50          9
    51          7
    52         11
    53         11
    55          6
    56          2
    57         35
    58         14
    59          2
    60          1
    61          1
    66          1
    68          1
    69          7
    77          2
    78          2
    79         15
    80          2
    81         12
    82         15
    83        114
    84         19
    85          6
    86          1
    91          2
   110          1
   111        999
   112         76
   113         49
   114          3
   118          2
   128          2
   136          5
   139          2
   154          1
   156         67
   157          5
   158          4