##TITLE=Library Entry 60318
##JCAMP-DX=Revision 4.10 
##DATA TYPE=MASS SPECTRUM
##SAMPLE DESCRIPTION=AGR., RES. COUNCIL, MEAT RES. INST., LANGFORD, BRISTOL,
 UK
##NAMES=HP
##CAS NAME=Androsta-4,16-dien-3-one
##MOLFORM=C19H26O
##CAS REGISTRY NO=4075-07-4
##MP= -300
##BP= -300
##MW= 270
##$RETENTION INDEX=0
##$CONDENSED SPECTRUM=NO
##NPOINTS= 96
##XYDATA=(XY..XY) 1 
    39        395
    41        665
    43        115
    51        120
    52         58
    53        295
    54         43
    55        428
    63         30
    65        235
    66         75
    67        400
    68         30
    69         60
    77        753
    78        220
    79        980
    80        175
    81        238
    84         15
    85         30
    89         15
    91        999
    92        220
    93        753
    94        220
    95        325
    96         30
    97         30
   103         45
   104         30
   105        650
   106        250
   107        325
   108         90
   109        135
   111         45
   113        150
   115        123
   116         75
   117        178
   118         30
   119        280
   120        105
   121        235
   122        178
   123        178
   124        500
   125         30
   128         90
   129        135
   131        503
   132        103
   133        395
   134        280
   135        150
   136         60
   137        103
   143         90
   144         45
   145        165
   146        878
   147        795
   148        295
   149        208
   155         45
   156         15
   157         75
   159        150
   160         60
   161         75
   162         75
   169         30
   170         30
   171         60
   172         45
   173         73
   174         90
   175         90
   176         45
   177         18
   183         30
   185        150
   197         45
   199         30
   211         30
   213        138
   214         30
   228        310
   237         75
   242         30
   252         75
   255        445
   256         90
   270        533
   271        105