##TITLE=Library Entry 79517
##JCAMP-DX=Revision 4.10 
##DATA TYPE=MASS SPECTRUM
##SAMPLE DESCRIPTION=Exported from NIST MS Search
##NAMES=HP
##CAS NAME=Methanone, (5-methyl-1,2,3-thiadiazol-4-yl)phenyl-
##MOLFORM=C10H8N2OS
##CAS REGISTRY NO=40757-62-8
##MP= -300
##BP= -300
##MW= 204
##$RETENTION INDEX=0
##$CONDENSED SPECTRUM=NO
##NPOINTS= 17
##XYDATA=(XY..XY) 1 
    50        100
    51        280
    63         70
    67        100
    77        670
    78         20
   105        999
   106         80
   115        290
   116        200
   144         80
   147         80
   148         90
   176        300
   177         40
   204        100
   205         20