##TITLE=Library Entry 55602
##JCAMP-DX=Revision 4.10 
##DATA TYPE=MASS SPECTRUM
##SAMPLE DESCRIPTION=A.A.Kutin, Moscow, Russia
##NAMES=HP
##CAS NAME=Benzene, 1-chlorodifluoromethoxy-4-nitro-
##MOLFORM=C7H4ClF2NO3
##CAS REGISTRY NO=40750-71-8
##MP= -300
##BP= -300
##MW= 223
##$RETENTION INDEX=0
##$CONDENSED SPECTRUM=NO
##NPOINTS= 95
##XYDATA=(XY..XY) 1 
    33          8
    35         13
    36         14
    37         64
    38        168
    39         36
    40         14
    41          1
    42          0
    43          0
    44          5
    45          3
    46         24
    47         17
    50        450
    51         62
    52         35
    53         27
    54         14
    55          1
    57          1
    60          4
    61         41
    62        106
    63        311
    64        308
    65         18
    66         12
    67          5
    68         10
    69          4
    71          0
    73         30
    74        154
    75        368
    76        281
    77         19
    78          2
    79          6
    80          9
    82          5
    85        999
    87        325
    89          3
    92        369
    93         21
    95        133
    96          9
    99          6
   101          1
   106          5
   108          1
   109          3
   111        138
   112         12
   113         69
   114         35
   115          1
   122        348
   123         23
   124          2
   127         14
   128          0
   129         11
   130          3
   131          1
   132          0
   141          2
   142          3
   149          0
   176          2
   177         67
   178          6
   179         20
   180          1
   185          0
   186          3
   188        296
   189         26
   190          1
   192          4
   193         94
   194          7
   195         31
   196          1
   204          1
   207         17
   208          1
   209          4
   220          4
   223        502
   224         43
   225        151
   226         11
   227          0