##TITLE=Library Entry 9164
##JCAMP-DX=Revision 4.10 
##DATA TYPE=MASS SPECTRUM
##SAMPLE DESCRIPTION=Exported from NIST MS Search
##NAMES=HP
##CAS NAME=Ethanone, 1-(5-methyl-1,2,3-thiadiazol-4-yl)-
##MOLFORM=C5H6N2OS
##CAS REGISTRY NO=40757-61-7
##MP= -300
##BP= -300
##MW= 142
##$RETENTION INDEX=0
##$CONDENSED SPECTRUM=NO
##NPOINTS= 18
##XYDATA=(XY..XY) 1 
    37         40
    38         50
    39        150
    43        999
    44         15
    45        160
    59         70
    67        140
    69         70
    70         30
    71        260
    72        330
    73         40
    76         40
    99         30
   114        300
   115         30
   142         10