##TITLE=Library Entry 80171
##JCAMP-DX=Revision 4.10 
##DATA TYPE=MASS SPECTRUM
##SAMPLE DESCRIPTION=LAC, NIDDK, NIH, Bethesda, MD 20892
##NAMES=HP
##CAS NAME=5-Androsten-3.beta.,17.alpha.-diol, 17-benzoate
##MOLFORM=C26H34O3
##CAS REGISTRY NO=40768-04-5
##MP= -300
##BP= -300
##MW= 394
##$RETENTION INDEX=0
##$CONDENSED SPECTRUM=NO
##NPOINTS= 187
##XYDATA=(XY..XY) 1 
    41         68
    43         65
    44          0
    45          4
    49          5
    50          3
    51         27
    53         23
    55         73
    57         17
    59          2
    65          8
    67         44
    69         25
    71          9
    75          0
    77        196
    79         92
    81         72
    83         11
    84          2
    85          4
    86          1
    88          0
    91         60
    93         59
    94         11
    95         36
    96          3
    97         11
    98          0
    99          1
   103          2
   105        999
   106         80
   107         86
   108          9
   109         11
   110          0
   111          5
   115          9
   117         28
   118          3
   119         34
   120         22
   121         24
   122          2
   123         13
   124          8
   125         14
   127          1
   128          6
   129         13
   130          2
   131         42
   133         72
   134         16
   135         10
   136          1
   137          3
   138          2
   139          0
   141          5
   142          5
   143         31
   144         12
   145         36
   146         16
   147         24
   148         19
   149          9
   150          2
   151          3
   153          1
   154          0
   155          4
   156          2
   157         18
   158         13
   159         38
   160         46
   161        102
   162         14
   163          5
   164          0
   165          2
   167          1
   169          8
   170          2
   171         13
   172          6
   173         20
   174          7
   175          5
   176          2
   177          4
   178          3
   179          1
   181          1
   183          8
   184          1
   185         14
   186          8
   187         31
   188          5
   189          3
   190          2
   191          2
   195          1
   196          0
   197         18
   198          4
   199         10
   200          3
   201          3
   202          2
   203          3
   205          1
   209          0
   211         11
   212          6
   213         19
   214          5
   215         11
   216          1
   217          1
   223          0
   225          8
   226          3
   227          4
   228          2
   229          5
   230          5
   231          4
   237          0
   238          0
   239         62
   240         12
   241          1
   243          2
   244          1
   253          8
   254         23
   255          8
   257         51
   258         10
   269          2
   270          3
   271          9
   272         34
   273          8
   274          0
   282          7
   283         16
   284          3
   289          0
   297          0
   308          2
   309         41
   310         11
   311          1
   321          3
   322          3
   323          0
   334          7
   335          4
   336          2
   337          2
   339          0
   347          1
   348          2
   350          3
   351          1
   361          5
   362          1
   366          1
   376         75
   377         19
   378          2
   379          9
   380          5
   381          1
   392          0
   393          1
   394        147
   395         37
   396          4