##TITLE=Library Entry 21911
##JCAMP-DX=Revision 4.10 
##DATA TYPE=MASS SPECTRUM
##SAMPLE DESCRIPTION=Exported from NIST MS Search
##NAMES=HP
##CAS NAME=1H-Tetrazole, 5-methyl-
##MOLFORM=C2H4N4
##CAS REGISTRY NO=4076-36-2
##MP= -300
##BP= -300
##MW= 84
##$RETENTION INDEX=0
##$CONDENSED SPECTRUM=NO
##NPOINTS= 18
##XYDATA=(XY..XY) 1 
    27        770
    28        270
    29        350
    30         20
    38         50
    39         50
    40         70
    41         60
    42        220
    43         60
    44         10
    53         40
    54         20
    55        220
    56        999
    57         40
    84        100
    85         10