##TITLE=Library Entry 70742
##JCAMP-DX=Revision 4.10 
##DATA TYPE=MASS SPECTRUM
##SAMPLE DESCRIPTION=Div. of Experiment Therapeutics WRAIR, WRAMC, Washingto
n DC 20307
##NAMES=HP
##CAS NAME=Ethanethiol, 2-(5-(3,5-dichloro-2-pyridyloxy)pentyl)amino-, hydro
gen sulfate
##MOLFORM=C12H18Cl2N2O4S2
##CAS REGISTRY NO=40771-32-2
##MP= -300
##BP= -300
##MW= 388
##$RETENTION INDEX=0
##$CONDENSED SPECTRUM=NO
##NPOINTS= 95
##XYDATA=(XY..XY) 1 
    41        463
    42        291
    43        154
    44        303
    45         46
    47         34
    48        204
    49         11
    50         30
    51         13
    53         50
    54         30
    55         88
    56        157
    57         41
    58         27
    59         45
    60         36
    61        172
    62         20
    64        232
    65         20
    66          9
    67         43
    69        202
    70         83
    72         67
    73         55
    74         21
    75         24
    76         24
    80         28
    81          8
    82         27
    83         18
    84         49
    85         30
    86         68
    88         59
    90         89
    92          4
    94          3
    96         42
    98        999
    99         63
   100         23
   101          7
   102         18
   106          3
   107         34
   108         24
   109         12
   110         49
   111         20
   112         69
   114         51
   116          8
   120          7
   126         18
   128         16
   129          6
   130          4
   131          3
   134          8
   135         93
   137         52
   138          3
   139         10
   140          8
   141          9
   142          8
   144         16
   146         62
   148         32
   150          3
   152          6
   154         19
   161         23
   163         73
   164         52
   165         25
   166         43
   167          6
   168          9
   176          8
   178          4
   188          3
   190          3
   261         45
   263         29
   265          3
   273          9
   275          6
   309          7
   340          3