##TITLE=Library Entry 1926
##JCAMP-DX=Revision 4.10 
##DATA TYPE=MASS SPECTRUM
##SAMPLE DESCRIPTION=A.A.Kutin, Moscow, Russia
##NAMES=HP
##CAS NAME=[1,2,4]Triazolo[1,5-a]pyrimidin-7-ol, 2-amino-5-methyl-
##MOLFORM=C6H7N5O
##CAS REGISTRY NO=40775-79-9
##MP= -300
##BP= -300
##MW= 165
##$RETENTION INDEX=0
##$CONDENSED SPECTRUM=NO
##NPOINTS= 84
##XYDATA=(XY..XY) 1 
    33          1
    34          5
    35          1
    37         95
    38        213
    39        999
    40        576
    41        297
    42        647
    43        530
    44         66
    45         55
    46          1
    47          3
    49          3
    50         13
    51         39
    52        103
    53        147
    54         93
    55        123
    56         18
    57         20
    58          4
    60         27
    61          3
    62          2
    63          8
    64         33
    65         32
    66        161
    67        397
    68        457
    69        173
    70         55
    71          8
    73          2
    75          2
    76          2
    77         12
    78          8
    79         12
    81         39
    82        301
    83        278
    84         44
    85          7
    88          1
    91          5
    92          5
    93         37
    94        133
    95        103
    96         34
    97         11
    98          9
    99         40
   100          2
   105          2
   106          1
   107          7
   108         24
   109        202
   110        194
   111         16
   112          1
   120          5
   121          8
   122          6
   123         10
   124         12
   125          1
   126          4
   134          3
   136        183
   137        343
   138         23
   139          1
   150         17
   151          2
   163         12
   165        837
   166         66
   167          4