##TITLE=Library Entry 12328
##JCAMP-DX=Revision 4.10 
##DATA TYPE=MASS SPECTRUM
##SAMPLE DESCRIPTION=Chuck Anderson, Aldrich Chemical Co.
##NAMES=HP
##CAS NAME=3(2H)-Furanone, 4-methoxy-2,5-dimethyl-
##MOLFORM=C7H10O3
##CAS REGISTRY NO=4077-47-8
##MP= -300
##BP= -300
##MW= 142
##$RETENTION INDEX=1057
##$CONDENSED SPECTRUM=NO
##NPOINTS= 66
##XYDATA=(XY..XY) 1 
    13          1
    14         12
    15        107
    16          2
    18          0
    25          2
    26         38
    27        137
    28         56
    29         41
    30          1
    31          7
    37         12
    38         24
    39         71
    40         18
    41        128
    42         55
    43        999
    44         36
    45         15
    50          2
    51          1
    52          2
    53         35
    54         28
    55        134
    56         50
    57         19
    58          2
    59          5
    66          5
    67         13
    68          7
    69         75
    70         35
    71         79
    72          9
    81         14
    82          7
    83         35
    84         28
    85         37
    86          5
    87          8
    95          5
    96          6
    97         14
    98          4
    99         54
   100          4
   109          6
   110          3
   111          7
   112         16
   113         11
   114          0
   123          1
   125         21
   126          1
   127         28
   128          1
   141         42
   142        521
   143         43
   144          5