##TITLE=Library Entry 22739
##JCAMP-DX=Revision 4.10 
##DATA TYPE=MASS SPECTRUM
##SAMPLE DESCRIPTION=Div. of Experiment Therapeutics WRAIR, WRAMC, Washingto
n DC 20307
##NAMES=HP
##CAS NAME=2-Pyridinol, 5-chloro-O-[5-[1-cycloazapropyl]]-n-pentyl-
##MOLFORM=C12H17ClN2O
##CAS REGISTRY NO=40771-36-6
##MP= -300
##BP= -300
##MW= 240
##$RETENTION INDEX=0
##$CONDENSED SPECTRUM=NO
##NPOINTS= 114
##XYDATA=(XY..XY) 1 
    41        643
    42        665
    43        191
    44        214
    45          6
    47         13
    49         27
    50         29
    51         40
    52         17
    53         52
    54         71
    56        999
    57        373
    58         94
    59          7
    60          4
    61          7
    62          9
    63          8
    64         22
    65         14
    66         19
    67         54
    68         48
    69        108
    70         54
    71         41
    73        102
    74         16
    75         26
    76         60
    77         15
    78         27
    79          9
    80          7
    82        336
    83        311
    84        104
    85         40
    86          7
    87          6
    88          2
    91          4
    92          3
    93          3
    94          8
    96        110
    98        129
    99        141
   101        104
   102          3
   103         27
   104          1
   106          0
   107          0
   108          3
   110        116
   112        902
   113         78
   114         43
   115         12
   116          6
   117          1
   121          0
   123          2
   124          0
   125          3
   127         64
   129        108
   130         53
   131         27
   132         19
   133          2
   135          0
   138          1
   140         11
   141          2
   142         23
   143          5
   144          6
   145          2
   149          1
   150          1
   151          0
   152          2
   154         11
   155         12
   156         14
   157          5
   158          5
   167          0
   168          5
   169          4
   170          4
   171          2
   182          3
   184          6
   185          4
   186          2
   187          2
   196          3
   198          7
   200          0
   205          1
   211          5
   212          2
   213          2
   214          1
   239         11
   240        116
   241         18
   242         40
   243          4