##TITLE=Library Entry 4839
##JCAMP-DX=Revision 4.10 
##DATA TYPE=MASS SPECTRUM
##SAMPLE DESCRIPTION=Div. of Experiment Therapeutics WRAIR, WRAMC, Washingto
n DC 20307
##NAMES=HP
##CAS NAME=1-Aziridinepropanenitrile, .beta.-methyl-
##MOLFORM=C6H10N2
##CAS REGISTRY NO=4078-19-7
##MP= -300
##BP= -300
##MW= 110
##$RETENTION INDEX=0
##$CONDENSED SPECTRUM=NO
##NPOINTS= 30
##XYDATA=(XY..XY) 1 
    41        371
    42        999
    43        248
    44         34
    45         25
    47          6
    51         12
    52         43
    53         35
    54         58
    55         30
    56         38
    57         35
    64         23
    65         41
    66         47
    67        171
    68        118
    69        111
    70        430
    71         23
    77         25
    84         41
    85         11
    93          8
    94        334
    95         51
   109         25
   110         27
   111          4