##TITLE=Library Entry 69108
##JCAMP-DX=Revision 4.10 
##DATA TYPE=MASS SPECTRUM
##SAMPLE DESCRIPTION=Exported from NIST MS Search
##NAMES=HP
##CAS NAME=2-Propyn-1-amine, N,N-diethyl-
##MOLFORM=C7H13N
##CAS REGISTRY NO=4079-68-9
##MP= -300
##BP= -300
##MW= 111
##$RETENTION INDEX=757
##$CONDENSED SPECTRUM=NO
##NPOINTS= 78
##XYDATA=(XY..XY) 1 
    13          4
    15         53
    16          2
    17          1
    18          2
    24          1
    25          5
    26         47
    27        169
    28        258
    29        142
    30         41
    31          2
    32          5
    36          2
    37         16
    38         41
    39        188
    40         32
    41        156
    42        164
    43         11
    44         19
    45          4
    46          1
    47          3
    48          2
    49          1
    50          5
    51         10
    52         29
    53         22
    54         54
    55         20
    56        174
    57         14
    58         21
    59          1
    61          1
    62          1
    63          2
    64          2
    65          8
    66         22
    67         18
    68         97
    69          7
    70         29
    71         13
    72         10
    73          1
    74          1
    75          1
    76          1
    77          1
    78          2
    79          1
    80         17
    81          6
    82         19
    83          2
    84          3
    85          2
    86         65
    87          4
    92          1
    93          4
    94          5
    95          2
    96        999
    97         69
    98          2
   108          2
   109          1
   110         44
   111        145
   112         12
   113          1