##TITLE=Library Entry 67335
##JCAMP-DX=Revision 4.10 
##DATA TYPE=MASS SPECTRUM
##SAMPLE DESCRIPTION=NIST Mass Spectrometry Data Center, 1994
##NAMES=HP
##CAS NAME=2-Isoamylpyrazine
##MOLFORM=C9H14N2
##CAS REGISTRY NO=40790-22-5
##MP= -300
##BP= -300
##MW= 150
##$RETENTION INDEX=1157
##$CONDENSED SPECTRUM=NO
##NPOINTS= 69
##XYDATA=(XY..XY) 1 
    13          0
    14          2
    15         21
    16          0
    25          2
    26         66
    27        124
    28         81
    29         63
    30          2
    37          6
    38         23
    39        160
    40         42
    41        129
    42         35
    43         43
    44          1
    49          1
    50         12
    51         29
    52         75
    53         68
    54         27
    55         18
    56          4
    57          3
    62          1
    63          4
    64          8
    65         11
    66         39
    67         44
    68         18
    69          3
    75          1
    76          1
    77          5
    78          6
    79         30
    80         29
    81         12
    82          2
    91          2
    93         72
    94        999
    95         68
    96          2
   104          1
   105          3
   107        182
   108         30
   109          1
   117          0
   118          4
   119         12
   120          5
   121         15
   122          4
   131          2
   132          1
   133          5
   134          0
   135         53
   136          5
   147          0
   149         12
   150          7
   151          1