##TITLE=Library Entry 41042
##JCAMP-DX=Revision 4.10 
##DATA TYPE=MASS SPECTRUM
##SAMPLE DESCRIPTION=Chemical Concepts
##NAMES=HP
##CAS NAME=Silane, trimethyl-2-pentenyl-, (E)-
##MOLFORM=C8H18Si
##CAS REGISTRY NO=40795-28-6
##MP= -300
##BP= -300
##MW= 142
##$RETENTION INDEX=0
##$CONDENSED SPECTRUM=NO
##NPOINTS= 54
##XYDATA=(XY..XY) 1 
    26          7
    27         18
    28         49
    29         23
    30          1
    31         24
    32         10
    38          1
    39         19
    40          2
    41         29
    42          5
    43         74
    44         25
    45        105
    46          5
    47          4
    50          1
    51          2
    53          8
    54          3
    55         14
    56          2
    57          9
    58         14
    59        111
    60          6
    61          2
    66          1
    67          4
    68          5
    69          6
    70          1
    71          7
    72         13
    73        999
    74         77
    75         34
    77          1
    83          4
    85         20
    86          1
    95          2
    97          2
    98          1
    99         61
   100          5
   101          1
   111          4
   127         18
   128          2
   142         71
   143         11
   144          3