##TITLE=Library Entry 35008
##JCAMP-DX=Revision 4.10 
##DATA TYPE=MASS SPECTRUM
##SAMPLE DESCRIPTION=D.Burke ET AL.JAOAC,72,503(1989)
##NAMES=HP
##CAS NAME=Fluoroacetic acid, dodecyl ester
##MOLFORM=C14H27FO2
##CAS REGISTRY NO=408-14-0
##MP= -300
##BP= -300
##MW= 246
##$RETENTION INDEX=0
##$CONDENSED SPECTRUM=NO
##NPOINTS= 76
##XYDATA=(XY..XY) 1 
    28         10
    29        140
    30         15
    33         80
    34         15
    35         17
    36         17
    39        136
    40         37
    41        601
    42        162
    43        435
    44         26
    45         13
    46         17
    48         13
    49         13
    50         17
    51         11
    52         17
    53         78
    54        112
    55        976
    56        631
    57        644
    58         43
    59         15
    61        644
    62         22
    63         30
    65         22
    66         22
    67        209
    68        263
    69        999
    70        718
    71        276
    72         24
    73         13
    76         13
    78         15
    79        103
    81         60
    82        366
    83        774
    84        392
    85        175
    91         73
    92         15
    95         24
    96        131
    97        634
    98        265
    99         56
   100         17
   101         15
   109         17
   110         69
   111        336
   112        129
   113         37
   114         15
   115         17
   124         19
   125         86
   126         52
   138         17
   139         26
   140        103
   141         13
   142         17
   155         17
   168         23
   169         10
   213         25
   214         10