##TITLE=Library Entry 11544
##JCAMP-DX=Revision 4.10 
##DATA TYPE=MASS SPECTRUM
##SAMPLE DESCRIPTION=Japan AIST/NIMC Database- Spectrum MS-NW-4004
##NAMES=HP
##CAS NAME=2-Hydroxyethyl isopropyl sulfide
##MOLFORM=C5H12OS
##CAS REGISTRY NO=40811-49-2
##MP= -300
##BP= -300
##MW= 120
##$RETENTION INDEX=0
##$CONDENSED SPECTRUM=NO
##NPOINTS= 78
##XYDATA=(XY..XY) 1 
    14          5
    15         38
    16          1
    17          1
    18          3
    25          2
    26         17
    27        252
    28         59
    29         37
    30          3
    31        127
    32         13
    33          4
    34          7
    35         17
    36          1
    37          6
    38         13
    39        130
    40         20
    41        433
    42         78
    43        999
    44         83
    45        170
    46         79
    47        508
    48        164
    49         41
    50          8
    51          2
    53         17
    54          2
    55        284
    56         24
    57         22
    58         31
    59        179
    60        409
    61        258
    62         25
    63         12
    67          2
    69          2
    70          1
    71          4
    72          1
    73         12
    74        103
    75        196
    76         71
    77         94
    78         47
    79         13
    80          3
    85          6
    86          1
    87        152
    88          9
    89        575
    90         35
    91         29
    92          2
    98          2
   101          3
   102          4
   103          3
   105        111
   106          8
   107          7
   108          2
   118          1
   119          1
   120        596
   121         41
   122         29
   123          2