##TITLE=Library Entry 42272
##JCAMP-DX=Revision 4.10 
##DATA TYPE=MASS SPECTRUM
##SAMPLE DESCRIPTION=STER PREG TMSI L 00 0000 E M.HORN
##NAMES=HP
##CAS NAME=Pregn-5-en-20-one, 3,16-bis[(trimethylsilyl)oxy]-, (3.beta.,16.al
pha.)-
##MOLFORM=C27H48O3Si2
##CAS REGISTRY NO=40822-79-5
##MP= -300
##BP= -300
##MW= 476
##$RETENTION INDEX=0
##$CONDENSED SPECTRUM=NO
##NPOINTS= 347
##XYDATA=(XY..XY) 1 
    41        145
    42         20
    43        645
    44         50
    45        145
    46         10
    47         50
    48          5
    49          5
    50         20
    51         20
    52         30
    53         40
    54         15
    55        185
    56         25
    57         55
    58         15
    59         90
    60         15
    61         60
    62         10
    63         10
    64          5
    65         20
    66         10
    67        140
    68         20
    69         85
    70         20
    71         40
    72         30
    73        999
    74        170
    75        900
    76         65
    77        120
    78         25
    79        185
    80         30
    81        200
    82         25
    83         65
    84         15
    85         75
    86          5
    87         15
    88          5
    89         35
    90          5
    91        230
    92         40
    93        210
    94         40
    95        150
    96        130
    97         60
    98         30
    99         30
   100          5
   101         70
   102         10
   103         70
   104         20
   105        250
   106         55
   107        185
   108         40
   109        355
   110         30
   111         80
   112         15
   113         35
   114          5
   115         65
   116         40
   117        200
   118         45
   119        300
   120         95
   121        125
   122         35
   123         45
   124         15
   125         25
   126          5
   127         25
   128         35
   129        999
   130        185
   131        225
   132         55
   133        140
   134         30
   135         85
   136         25
   137         40
   138          5
   139         10
   140          5
   141         45
   142         50
   143        510
   144        105
   145        250
   146         65
   147        155
   148         35
   149         55
   150         15
   151         25
   152          5
   153         15
   154         15
   155         85
   156         75
   157        530
   158        135
   159        500
   160         95
   161         75
   162         15
   163         20
   164         10
   165         20
   166         10
   167         30
   168         70
   169        100
   170         45
   171        115
   172        550
   173        170
   174         50
   175         45
   176         25
   177         20
   178         10
   179         20
   180         15
   181         50
   182         30
   183        120
   184         35
   185         85
   186        160
   187         65
   188         25
   189         20
   190          5
   191         40
   192         15
   193         35
   194         20
   195         45
   196         35
   197         80
   198         90
   199         95
   200         40
   201         25
   202         15
   203         25
   204         15
   205         15
   206         10
   207         65
   208         30
   209         40
   210         25
   211         60
   212         35
   213        120
   214         40
   215         60
   216         15
   217         25
   218         10
   219         15
   220         10
   221         30
   222         15
   223         60
   224         20
   225         30
   226         15
   227         25
   228         15
   229         20
   230          5
   231         20
   232         10
   233         20
   234         10
   235         15
   236         10
   237         40
   238         40
   239         85
   240         25
   241         15
   242          5
   243         10
   244         10
   245         10
   246         10
   247         20
   248         10
   249         15
   250         10
   251         30
   252         20
   253        185
   254         40
   255         35
   256         55
   257        230
   258         45
   259         15
   260          5
   261         10
   262          5
   263         25
   264         10
   265         15
   266         15
   267         20
   268         15
   269         10
   270         10
   271         10
   272          5
   273         35
   274         10
   275         25
   276         15
   277         10
   278         15
   279         35
   280         10
   281        195
   282         45
   283         15
   284          5
   285          5
   286          5
   287         10
   288         35
   289         25
   290         10
   291          5
   295         15
   296        260
   297         70
   298         15
   299         10
   300          5
   301         10
   302         10
   303         20
   304         15
   305         10
   313         10
   314          5
   315         10
   316          5
   317         10
   318         10
   319          5
   320         15
   321          5
   327         10
   328         25
   329         25
   330        115
   331         35
   332         15
   333         10
   334          5
   339          5
   340          5
   341         15
   342         10
   343         60
   344         25
   345         15
   346         15
   347         10
   348          5
   355         15
   356         10
   357         10
   358         10
   359         10
   360          5
   361          5
   363          5
   368         10
   369         10
   370         10
   371        135
   372         45
   373         20
   374          5
   378         15
   379         10
   380          5
   385         10
   386        180
   387         95
   388         30
   389          5
   391         10
   392          5
   393          5
   417         10
   418         15
   419         10
   420         15
   421          5
   429         10
   430         10
   431         25
   432         20
   433         15
   434          5
   443         10
   444          5
   445         10
   446         10
   447         15
   448         10
   449         10
   450          5
   458         20
   459         15
   460         20
   461        190
   462         75
   463         35
   464         10
   474         10
   475         10
   476         90
   477         40
   478         15
   479          5