##TITLE=Library Entry 44352
##JCAMP-DX=Revision 4.10 
##DATA TYPE=MASS SPECTRUM
##SAMPLE DESCRIPTION=STER PREG TMSI L SE30 01 3079 E M.HORN
##NAMES=HP
##CAS NAME=Pregn-5-en-11-one, 3,17,20-tris[(trimethylsilyl)oxy]-, (3.beta.,2
0S)-
##MOLFORM=C30H56O4Si3
##CAS REGISTRY NO=40822-87-5
##MP= -300
##BP= -300
##MW= 564
##$RETENTION INDEX=0
##$CONDENSED SPECTRUM=NO
##NPOINTS= 290
##XYDATA=(XY..XY) 1 
    41         50
    42         10
    43         75
    44         20
    45         80
    46          5
    47         25
    50          5
    51          5
    52          5
    53         15
    54          5
    55         90
    56         10
    57         25
    58         10
    59         40
    60         10
    61         25
    63          5
    65         10
    66          5
    67         45
    68         10
    69         35
    70          5
    71         20
    72         25
    73        999
    74        155
    75        430
    76         35
    77         35
    78          5
    79         45
    80         10
    81         85
    82         15
    83         25
    84          5
    85         15
    87         10
    89         10
    91        120
    92         15
    93        105
    94         15
    95         80
    96         10
    97         15
    98          5
    99         10
   101         25
   102          5
   103         40
   104         10
   105        120
   106         25
   107        125
   108         15
   109         20
   110          5
   111         10
   113         15
   114          5
   115         35
   116         15
   117        435
   118         60
   119        115
   120         20
   121         70
   122         10
   123         30
   124          5
   125         10
   127         15
   128         15
   129        260
   130         55
   131        120
   132         25
   133         90
   134         15
   135         20
   136          5
   137         10
   141         25
   142         15
   143        125
   144         30
   145        185
   146         45
   147        330
   148         50
   149         50
   150         10
   151         10
   152          5
   153          5
   154          5
   155         40
   156         25
   157         75
   158         20
   159         35
   160         10
   161         30
   162          5
   163         10
   165         10
   166          5
   167         25
   168         20
   169         95
   170         25
   171         50
   172         15
   173         35
   174         10
   175         25
   176          5
   177         10
   178          5
   179         25
   180         10
   181         25
   182         20
   183         45
   184         15
   185         35
   186         15
   187         30
   188          5
   189         10
   190          5
   191         40
   192         10
   193         30
   194         15
   195         40
   196         15
   197         40
   198         15
   199         25
   200         10
   201         25
   202         10
   203         10
   204          5
   205         15
   206          5
   207         35
   208         15
   209         40
   210         15
   211        120
   212         25
   213         25
   214          5
   215         10
   216         10
   217         30
   218         40
   219         25
   220         10
   221         25
   222         10
   223         35
   224         15
   225         95
   226         25
   227         15
   228          5
   229          5
   230          5
   231         35
   232         15
   233         15
   234          5
   235         15
   236          5
   237         45
   238         15
   239         65
   240         20
   241         10
   243          5
   244          5
   245         20
   246         10
   247         10
   248          5
   249         55
   250         15
   251         20
   252         10
   253         10
   254          5
   255         10
   257          5
   259          5
   260          5
   261          5
   263         10
   264          5
   265         10
   266         10
   267        395
   268         85
   269         15
   270          5
   277         10
   278          5
   279         15
   280          5
   281         10
   282          5
   283          5
   284          5
   285         15
   286          5
   287          5
   294         50
   295         30
   296         10
   297          5
   299         10
   300          5
   301         10
   302          5
   303          5
   313         10
   314          5
   315         15
   316          5
   317          5
   318         10
   319          5
   341         10
   342          5
   343          5
   355         10
   356         15
   357        325
   358         95
   359         35
   360         10
   368          5
   369         20
   370         10
   371          5
   384         45
   385         20
   386         10
   387          5
   390         10
   391          5
   415         10
   416          5
   429          5
   430          5
   431          5
   441          5
   442          5
   443         10
   444         15
   445         20
   446         65
   447        999
   448        380
   449        165
   450         35
   451         10
   458          5
   459         45
   460         20
   461         10
   462          5
   474         15
   475         10
   476          5
   516          5
   549         15
   550         10
   551          5
   563          5
   564         25
   565         10
   566          5