##TITLE=Library Entry 62559
##JCAMP-DX=Revision 4.10 
##DATA TYPE=MASS SPECTRUM
##SAMPLE DESCRIPTION=Japan AIST/NIMC Database- Spectrum MS-NW-8524
##NAMES=HP
##CAS NAME=Benzenesulfonyl isocyanate, 4-methyl-
##MOLFORM=C8H7NO3S
##CAS REGISTRY NO=4083-64-1
##MP= -300
##BP= -300
##MW= 197
##$RETENTION INDEX=0
##$CONDENSED SPECTRUM=NO
##NPOINTS= 89
##XYDATA=(XY..XY) 1 
    12          3
    16         10
    26          3
    27         15
    28         26
    29          1
    30          2
    32          2
    36          1
    37          5
    38         16
    39        124
    40          9
    41         31
    42          6
    43          6
    44        243
    45         11
    46          5
    48          6
    49          2
    50         41
    51         57
    52         21
    53         11
    54          1
    55          1
    57          1
    58          1
    60          4
    61          9
    62         29
    63         87
    64         24
    65        249
    66         14
    67          4
    69          6
    70          1
    71          2
    73          2
    74          9
    75          9
    76          7
    77         41
    78         21
    79         14
    80          1
    82          1
    84          1
    85          3
    86          6
    87          5
    88          2
    89         67
    90         38
    91        999
    92         78
    93          3
    95          2
    97          1
   104          9
   105          3
   106          4
   107          9
   108          2
   109          1
   111          2
   112          5
   114          1
   121          3
   122          2
   123          3
   124          5
   125          1
   132          5
   133          1
   138          2
   139          9
   140          2
   153          2
   155        356
   156         29
   157         17
   158          1
   171          1
   197        186
   198         17
   199          9