##TITLE=Library Entry 35377
##JCAMP-DX=Revision 4.10 
##DATA TYPE=MASS SPECTRUM
##SAMPLE DESCRIPTION=B. Derendyaev, Novosibirsk Institute of Organic Chemist
ry
##NAMES=HP
##CAS NAME=1,6:2,3-Dianhydro-4-deoxy-.beta.-d-ribo-hexopyranose
##MOLFORM=C6H8O3
##CAS REGISTRY NO=40838-15-1
##MP= -300
##BP= -300
##MW= 128
##$RETENTION INDEX=0
##$CONDENSED SPECTRUM=NO
##NPOINTS= 15
##XYDATA=(XY..XY) 1 
    40        109
    41        779
    42        289
    43        659
    44        539
    53        279
    54        549
    55        209
    57        269
    69        999
    70        129
    71        119
    81        819
    82        729
    83         99