##TITLE=Library Entry 42945
##JCAMP-DX=Revision 4.10 
##DATA TYPE=MASS SPECTRUM
##SAMPLE DESCRIPTION=Exported from NIST MS Search
##NAMES=HP
##CAS NAME=24-Norchola-20,22-dien-14-ol, 21,23-epoxy-3,23-bis[(trimethylsily
l)oxy]-, (3.beta.,5.beta.,14.beta.)-
##MOLFORM=C29H50O4Si2
##CAS REGISTRY NO=40837-83-0
##MP= -300
##BP= -300
##MW= 518
##$RETENTION INDEX=0
##$CONDENSED SPECTRUM=NO
##NPOINTS= 85
##XYDATA=(XY..XY) 1 
    73        999
    75        430
    77         53
    79         51
    81         55
    91         62
    93         64
    95         58
    97         29
   105         88
   107        102
   109         47
   117         44
   119         66
   121         51
   129         53
   130          9
   131         64
   133         80
   135         46
   140         66
   147        159
   149         88
   155         40
   157         77
   159         36
   160         14
   161         36
   169         33
   170        720
   171         84
   172         31
   173         46
   182         47
   183        180
   184         47
   189         33
   196         62
   197         80
   199         79
   200         25
   201         36
   203         68
   213         66
   215         84
   216         49
   221         73
   223         58
   225         36
   239         22
   250         23
   251         40
   252         29
   267         29
   293         33
   303         25
   304         18
   321         31
   322         20
   338         71
   339         18
   340          9
   356         25
   357         11
   395         42
   396         20
   397         11
   410         36
   411         51
   412         12
   413         16
   428         25
   429         16
   430          5
   485         23
   486         14
   500        143
   501         75
   502         31
   503         51
   504         14
   518        375
   519        150
   520         75
   521         16