##TITLE=Library Entry 49395
##JCAMP-DX=Revision 4.10 
##DATA TYPE=MASS SPECTRUM
##SAMPLE DESCRIPTION=Chemical Concepts
##NAMES=HP
##CAS NAME=Bicyclo[3.2.1]octan-3-one, 6-hydroxy-, exo-(.+-.)-
##MOLFORM=C8H12O2
##CAS REGISTRY NO=40830-59-9
##MP= -300
##BP= -300
##MW= 140
##$RETENTION INDEX=0
##$CONDENSED SPECTRUM=NO
##NPOINTS= 79
##XYDATA=(XY..XY) 1 
    26         49
    27        599
    28        152
    29        507
    30         35
    31        182
    37         33
    38         64
    39        690
    40        177
    41        817
    42        303
    43        672
    44        315
    45        169
    46         24
    47         29
    50         34
    51         92
    52         37
    53        323
    54        223
    55        474
    56         94
    57        443
    58        167
    59         57
    60         47
    61         26
    63         33
    64         43
    65        102
    66        152
    67        484
    68        301
    69        195
    70        257
    71        149
    72         29
    73         40
    77        159
    78        106
    79        604
    80        999
    81        546
    82         92
    83        269
    84        229
    85         57
    86         44
    88         24
    91         63
    92         45
    93         93
    94        199
    95        729
    96        541
    97        315
    98         84
    99        100
   101         45
   104         32
   105         34
   107         90
   108         42
   109         29
   110         21
   111        101
   112        297
   113         41
   121         23
   122         77
   123         23
   124         37
   125        211
   126         31
   139         33
   140        481
   141         68