##TITLE=Library Entry 39807
##JCAMP-DX=Revision 4.10 
##DATA TYPE=MASS SPECTRUM
##SAMPLE DESCRIPTION=NIST Mass Spectrometry Data Center
##NAMES=HP
##CAS NAME=3-Amino-2,4-dimethylpentane
##MOLFORM=C7H17N
##CAS REGISTRY NO=4083-57-2
##MP= -300
##BP= -300
##MW= 115
##$RETENTION INDEX=0
##$CONDENSED SPECTRUM=NO
##NPOINTS= 39
##XYDATA=(XY..XY) 1 
    15          4
    18         14
    26          2
    27         42
    28         25
    29         32
    30         79
    31          1
    38          3
    39         42
    40          5
    41         61
    42         25
    43         42
    44         41
    45          1
    51          2
    52          2
    53         10
    54         12
    55        387
    56         92
    57         50
    58         12
    65          1
    67          2
    68          2
    69          1
    70         12
    71          6
    72        999
    73         51
    74          1
    82          1
    83          5
    84          7
    98          2
   100          4
   114          2