##TITLE=Library Entry 8533
##JCAMP-DX=Revision 4.10 
##DATA TYPE=MASS SPECTRUM
##SAMPLE DESCRIPTION=Japan AIST/NIMC Database- Spectrum MS-IW-2164
##NAMES=HP
##CAS NAME=1-Hexanol, 5-methyl-2-(1-methylethyl)-, acetate
##MOLFORM=C12H24O2
##CAS REGISTRY NO=40853-55-2
##MP= -300
##BP= -300
##MW= 200
##$RETENTION INDEX=1260
##$CONDENSED SPECTRUM=NO
##NPOINTS= 84
##XYDATA=(XY..XY) 1 
    14          1
    15         16
    26          2
    27         64
    28          9
    29         76
    30          2
    31          5
    38          1
    39         51
    40          9
    41        258
    42         49
    43        999
    44         28
    45          7
    50          1
    51          3
    52          2
    53         22
    54         23
    55        445
    56        593
    57        534
    58         24
    59          4
    60          1
    61         86
    62          2
    63          1
    65          3
    66          2
    67         27
    68         32
    69        649
    70        293
    71        374
    72         21
    73         45
    74         17
    75          3
    77          3
    79          4
    80          1
    81         24
    82         38
    83        190
    84        587
    85        228
    86         22
    87          3
    91          1
    93          1
    95          9
    96         31
    97        250
    98         38
    99          7
   100         12
   101          4
   103          2
   109          2
   110          2
   111          7
   112         36
   113          6
   114          4
   115          8
   116          1
   123          3
   124          1
   125         34
   126          9
   127         15
   128          2
   129          1
   138          1
   139          5
   140        123
   141         13
   143          6
   157         53
   158          5
   167          1