##TITLE=Library Entry 109771
##JCAMP-DX=Revision 4.10 
##DATA TYPE=MASS SPECTRUM
##SAMPLE DESCRIPTION=NIST Mass Spectrometry Data Center, 1994
##NAMES=HP
##CAS NAME=N,N-Bis(4-chlorobenzyl)hydroxylamine
##MOLFORM=C14H13Cl2NO
##CAS REGISTRY NO=40861-08-3
##MP= -300
##BP= -300
##MW= 281
##$RETENTION INDEX=0
##$CONDENSED SPECTRUM=NO
##NPOINTS= 128
##XYDATA=(XY..XY) 1 
     6          0
     7          0
     8          1
    13          1
    17          1
    18          3
    23          0
    25          0
    27          4
    28        142
    30          9
    33          0
    35          3
    36          2
    37          4
    38         17
    39         71
    40          9
    41          8
    42          3
    47          0
    49          7
    50         71
    51         86
    52         12
    53          2
    54          2
    59          2
    60          1
    61          7
    62         29
    63        118
    64         24
    65         38
    66          2
    67          1
    69          0
    70          1
    73         36
    74         17
    75         94
    76         26
    77         94
    78         16
    79          1
    81          1
    82          2
    84          3
    85         13
    86          7
    87         11
    88          1
    89        317
    90        103
    91        254
    92         18
    93          1
    96          1
    97          5
    99         93
   100          6
   101         29
   102         13
   103          3
   104         15
   105         10
   106          2
   110          1
   111         33
   112         22
   113         30
   114         11
   115         10
   116          3
   117         14
   118         15
   119          3
   123          7
   125        999
   126        153
   127        331
   128         42
   129          2
   138         36
   140        446
   141         37
   142        129
   143         11
   150          2
   151         12
   152         63
   153         23
   154         65
   155          9
   156         15
   157          1
   162          0
   163          3
   164          2
   165          8
   166          2
   167          1
   178          1
   190          0
   191          1
   192          0
   193          1
   194          1
   199          2
   201          1
   214          0
   227          2
   228          2
   230         69
   231          9
   232         18
   233          3
   235          0
   260          0
   262         10
   263         19
   264         94
   265        101
   266         67
   267         65
   268         17
   269         10
   270          1