##TITLE=Library Entry 73355
##JCAMP-DX=Revision 4.10 
##DATA TYPE=MASS SPECTRUM
##SAMPLE DESCRIPTION=Chemical Concepts
##NAMES=HP
##CAS NAME=1,4,8,11-Tetraoxadispiro[4.1.4.2]tridecane
##MOLFORM=C9H14O4
##CAS REGISTRY NO=4086-01-5
##MP= -300
##BP= -300
##MW= 186
##$RETENTION INDEX=0
##$CONDENSED SPECTRUM=NO
##NPOINTS= 94
##XYDATA=(XY..XY) 1 
    25          1
    26         37
    27        164
    28        218
    29        118
    30         16
    31         25
    35          0
    37          0
    38          6
    39         83
    40         21
    41         45
    42        326
    43        250
    44         17
    45         49
    46          1
    49          0
    50          7
    51         16
    52         13
    53         86
    54         22
    55        197
    56        200
    57         19
    58          2
    59          0
    60          0
    61          0
    62          0
    63          2
    64          1
    65          5
    66          2
    67          6
    68         10
    69         54
    70          4
    71          9
    72         15
    73         12
    74          0
    79          4
    80          0
    81         18
    82          5
    83         26
    84         20
    86        308
    87        327
    88         14
    89          6
    94          0
    95          2
    96          6
    97         16
    99        653
   100        999
   101         51
   102          7
   103          0
   108          0
   111          4
   112          4
   113         29
   114          3
   115          0
   119          0
   121          0
   123          0
   124         10
   125         14
   126          5
   127          9
   128          4
   129          1
   131          0
   138          1
   139          0
   141         31
   142          3
   143          3
   155         20
   156          9
   157         47
   158          4
   159          0
   183          0
   185          2
   186          3
   187          0
   188          0