##TITLE=Library Entry 51406
##JCAMP-DX=Revision 4.10 
##DATA TYPE=MASS SPECTRUM
##SAMPLE DESCRIPTION=Exported from NIST MS Search
##NAMES=HP
##CAS NAME=1(4H)-Naphthalenone, 4-[2-(3-furanyl)ethyl]-4a,5,6,7,8,8a-hexahyd
ro-4-hydroxy-3,4a,8,8-tetramethyl-
##MOLFORM=C20H28O3
##CAS REGISTRY NO=40883-07-6
##MP= -300
##BP= -300
##MW= 316
##$RETENTION INDEX=0
##$CONDENSED SPECTRUM=NO
##NPOINTS= 145
##XYDATA=(XY..XY) 1 
    15          5
    17         32
    18        143
    27        113
    28         22
    29        103
    30          3
    35          5
    39        133
    40         41
    41        411
    42         28
    43        260
    44          9
    45          7
    50          7
    51         22
    52         13
    53        233
    54         39
    55        218
    56         24
    57         20
    58          5
    63          5
    65         90
    66         28
    67        201
    68         49
    69        201
    70         13
    71         15
    77         92
    78         20
    79         86
    80         22
    81        622
    82        999
    83        188
    84         13
    85         11
    89          5
    91        118
    92         24
    93         71
    94         37
    95        305
    96         56
    97         20
    98         18
   103         20
   104         13
   105         58
   106         18
   107         98
   108         43
   109        245
   110         37
   111        320
   112         30
   115         24
   116         13
   117         28
   118          3
   119         39
   120         15
   121         56
   122         24
   123        117
   124         22
   125          7
   127          5
   128         18
   129         17
   130          9
   131         26
   132         18
   133         32
   134          7
   135         75
   136         20
   137         49
   138         20
   139         13
   141          9
   142          9
   143         11
   144          9
   145         22
   146         18
   147         35
   148         20
   149         34
   150         22
   151        107
   152         20
   153          7
   157          9
   158          5
   159         18
   161         37
   163         18
   164         18
   165         62
   166         20
   171          5
   172          5
   173         17
   174         22
   175         20
   176          9
   177         11
   179         11
   188         13
   189         17
   191          7
   192        264
   193         96
   194         15
   201         18
   203         20
   204         18
   205         58
   206          9
   215         15
   217         22
   218          9
   219         56
   220          7
   221         24
   222         18
   233          7
   234          9
   235         56
   236          5
   245         18
   246          7
   283         22
   284          5
   298         24
   299          7
   301         18
   302          9
   316        101
   317         26