##TITLE=Library Entry 23076
##JCAMP-DX=Revision 4.10 
##DATA TYPE=MASS SPECTRUM
##SAMPLE DESCRIPTION=NIST Mass Spectrometry Data Center, 1990.
##NAMES=HP
##CAS NAME=2-Buten-1-ol, (Z)-
##MOLFORM=C4H8O
##CAS REGISTRY NO=4088-60-2
##MP= -300
##BP= -300
##MW= 72
##$RETENTION INDEX=597
##$CONDENSED SPECTRUM=NO
##NPOINTS= 41
##XYDATA=(XY..XY) 1 
    13          6
    14         17
    15         57
    16          6
    17          5
    18          2
    24          3
    25         22
    26        112
    27        413
    28        106
    29        714
    30         35
    31        289
    32          8
    36         11
    37         68
    38        132
    39        552
    40         74
    41        295
    42         89
    43        424
    44        101
    45         29
    48          4
    49         22
    50         77
    51         65
    52         23
    53        143
    54        128
    55         76
    56          4
    57        999
    58         32
    69         20
    70         16
    71         64
    72        203
    73         10