##TITLE=Library Entry 22299
##JCAMP-DX=Revision 4.10 
##DATA TYPE=MASS SPECTRUM
##SAMPLE DESCRIPTION=Chuck Anderson, Aldrich Chemical Co.
##NAMES=HP
##CAS NAME=3-Bromo-2,2-dimethyl-1-propanol
##MOLFORM=C5H11BrO
##CAS REGISTRY NO=40894-00-6
##MP= -300
##BP= -300
##MW= 166
##$RETENTION INDEX=0
##$CONDENSED SPECTRUM=NO
##NPOINTS= 81
##XYDATA=(XY..XY) 1 
    14          1
    15         10
    17          0
    18          0
    19          2
    25          0
    26         12
    27        130
    28         40
    29        195
    30          9
    31        139
    32          2
    33          1
    35          0
    36          2
    37          5
    38         16
    39        156
    40         26
    41        299
    42         15
    43        137
    44          6
    45         70
    46          1
    49          1
    50          9
    51         12
    52          3
    53         43
    54          5
    55        467
    56        999
    57        207
    58         12
    59          1
    63          0
    65          1
    66          0
    67          5
    68          1
    69         51
    70          2
    71         27
    72          3
    73         47
    74          1
    79          1
    80          1
    81          2
    82          1
    83          0
    85          0
    86        129
    87         10
    88          0
    91          0
    92          0
    93          8
    94          0
    95          8
   105          0
   107         21
   109         20
   111          0
   119          1
   121          3
   123          3
   125          0
   133          1
   134         24
   135         86
   136         29
   137         87
   138          6
   148          0
   150          0
   151          2
   153          1
   167          0