##TITLE=Library Entry 66527
##JCAMP-DX=Revision 4.10 
##DATA TYPE=MASS SPECTRUM
##SAMPLE DESCRIPTION=Exported from NIST MS Search
##NAMES=HP
##CAS NAME=Bicyclo[4.1.0]heptan-3-ol, 4,7,7-trimethyl-, [1R-(1.alpha.,3.beta
.,4.alpha.,6.alpha.)]-
##MOLFORM=C10H18O
##CAS REGISTRY NO=4089-03-6
##MP= -300
##BP= -300
##MW= 154
##$RETENTION INDEX=0
##$CONDENSED SPECTRUM=NO
##NPOINTS= 66
##XYDATA=(XY..XY) 1 
    15         17
    27        208
    29        242
    30         17
    31         50
    39        233
    40         50
    41        558
    42         58
    43        658
    44         33
    45         25
    51         33
    52         17
    53        167
    54         75
    55        608
    56        142
    57        200
    58        317
    59         83
    63         17
    65         50
    66         33
    67        308
    68        108
    69        358
    70        108
    71        133
    72         33
    77        117
    78         33
    79        283
    80         83
    81        700
    82        158
    83        192
    84        133
    85         92
    86          8
    91        108
    92        233
    93        999
    94        133
    95        250
    96        350
    97        400
    98         42
   105         58
   106         25
   107        392
   108         83
   109         50
   110         67
   111         92
   112         42
   119          8
   121        942
   122         92
   123         83
   135         25
   136        883
   137        100
   138          8
   139         25
   154         33