##TITLE=Library Entry 28819
##JCAMP-DX=Revision 4.10 
##DATA TYPE=MASS SPECTRUM
##SAMPLE DESCRIPTION=T. KAWAI, SHIONO KORYO KAISHA LTD., NIITAKAKITA, OSAKA,
 JAPAN
##NAMES=HP
##CAS NAME=N,N'-Dipropylidene-1,1-diaminopropane
##MOLFORM=C9H18N2
##CAS REGISTRY NO=40899-13-6
##MP= -300
##BP= -300
##MW= 154
##$RETENTION INDEX=0
##$CONDENSED SPECTRUM=NO
##NPOINTS= 33
##XYDATA=(XY..XY) 1 
    39         10
    40         30
    41        100
    42         60
    43         30
    44         20
    54         20
    55        100
    56         90
    57         30
    58        999
    59         50
    68         90
    69         30
    70        130
    71         20
    81         20
    82         80
    83         20
    84         50
    96         40
    97         60
    98        240
    99         30
   108         20
   112         20
   122         20
   125        110
   126         20
   127        210
   128         20
   137         20
   154         50