##TITLE=Library Entry 36063
##JCAMP-DX=Revision 4.10 
##DATA TYPE=MASS SPECTRUM
##SAMPLE DESCRIPTION=Div. of Experiment Therapeutics WRAIR, WRAMC, Washingto
n DC 20307
##NAMES=HP
##CAS NAME=ICN 3847
##MOLFORM=C8H13N4O8P
##CAS REGISTRY NO=40925-28-8
##MP= -300
##BP= -300
##MW= 324
##$RETENTION INDEX=0
##$CONDENSED SPECTRUM=NO
##NPOINTS= 59
##XYDATA=(XY..XY) 1 
    41         17
    42        417
    43         19
    44        289
    45          5
    47          1
    51          3
    52          6
    53         45
    54         21
    55          5
    56          8
    57          8
    58          5
    60          1
    63          2
    65          5
    66          3
    67         14
    69        999
    70         11
    71          4
    73          1
    81          5
    82          3
    83          9
    84         56
    85          8
    86          4
    87          1
    95          4
    96         27
    97          3
    98          2
    99          3
   107          3
   108          2
   109          3
   110          3
   112        436
   113         34
   114          8
   125          1
   126          6
   127          3
   136          2
   137          4
   141          1
   163          3
   164          4
   165         15
   166          3
   167          1
   191          6
   205          1
   208         10
   209          3
   214          1
   243          1