##TITLE=Library Entry 668
##JCAMP-DX=Revision 4.10 
##DATA TYPE=MASS SPECTRUM
##SAMPLE DESCRIPTION=Chemical Concepts
##NAMES=HP
##CAS NAME=Tetraethoxyethylene
##MOLFORM=C10H20O4
##CAS REGISTRY NO=40923-93-1
##MP= -300
##BP= -300
##MW= 204
##$RETENTION INDEX=0
##$CONDENSED SPECTRUM=NO
##NPOINTS= 98
##XYDATA=(XY..XY) 1 
    25          0
    27        267
    28         62
    29        999
    30         32
    31        169
    33         15
    36          0
    37          0
    38          1
    39          9
    40          2
    41         33
    42         11
    43         63
    44         12
    45        111
    46          5
    47        219
    48          4
    49          1
    50          1
    51          1
    52          0
    53          0
    54          0
    55          3
    56          6
    57         24
    58          9
    59         46
    60          4
    61          2
    63          8
    64          0
    65          0
    66          0
    67          0
    69          0
    70          0
    71          0
    72          0
    73         11
    74         32
    75         56
    76          2
    77          2
    78          0
    79          0
    81          0
    82          0
    83          0
    84          0
    85          6
    86          1
    87          0
    88          0
    89          1
    91        285
    92          5
    93          2
    97          0
    98          0
   101          1
   102          3
   103         51
   104          3
   105          5
   113          0
   115          0
   116          0
   117          1
   119        105
   120          5
   121          1
   123          0
   128          0
   129          0
   130          0
   131          8
   132          0
   133          1
   134          0
   145          0
   147         59
   148          4
   149          0
   150          0
   151          0
   156          0
   159          1
   161          0
   175         26
   176          2
   177          0
   204         15
   205          2
   206          0