##TITLE=Library Entry 13828
##JCAMP-DX=Revision 4.10 
##DATA TYPE=MASS SPECTRUM
##SAMPLE DESCRIPTION=Exported from NIST MS Search
##NAMES=HP
##CAS NAME=4-Hexadecynoic acid, 2-propoxy-, propyl ester
##MOLFORM=C22H40O3
##CAS REGISTRY NO=40924-19-4
##MP= -300
##BP= -300
##MW= 352
##$RETENTION INDEX=0
##$CONDENSED SPECTRUM=NO
##NPOINTS= 181
##XYDATA=(XY..XY) 1 
    26         27
    27         13
    28         40
    29         17
    30          5
    31         15
    39         12
    40         12
    41         29
    42         26
    43        999
    44          8
    45         31
    50         12
    52          5
    54         17
    55         60
    56         17
    57        229
    58         20
    59         12
    61         17
    67        120
    68         29
    69        132
    70         17
    71        104
    72         12
    73         26
    74          7
    75         57
    76         12
    78         13
    79         47
    80         22
    81        201
    82         55
    83        262
    84         31
    85         55
    86         34
    87         33
    89         24
    91          8
    92         12
    93         62
    94         38
    95        248
    96         64
    97        191
    98         29
    99         52
   100         13
   101         10
   102         10
   105         13
   106         17
   107         90
   108         31
   109        203
   110         93
   111        114
   112         62
   113         31
   115         26
   117        591
   118        100
   119         48
   120         29
   121        177
   122         33
   123        168
   124         59
   125        193
   126         50
   127         22
   128         17
   129         12
   131         29
   132          8
   133         33
   134         47
   135        130
   136         34
   137         73
   138         55
   139         36
   140         12
   141         66
   142         13
   147         26
   148         17
   149         52
   150         24
   151         66
   152         80
   153         31
   154         29
   155         31
   156         12
   159         38
   160        201
   161         31
   162          8
   163         27
   164         12
   165         48
   166         34
   167         34
   168         22
   169         31
   170         31
   171         12
   173          7
   175         12
   177         74
   178         24
   179         69
   180         22
   181         17
   183         69
   184         17
   190         31
   191         17
   192         17
   193         47
   194         38
   195        154
   196         22
   197        160
   198         52
   199         12
   203         12
   204         29
   205        186
   206         34
   207         22
   208         15
   209         12
   211        342
   212         69
   213         13
   221         29
   222         15
   223        813
   224        139
   225         22
   232          7
   234          5
   235         76
   236         29
   237         13
   239         12
   247         17
   249         22
   250         38
   251        240
   252         62
   253         36
   254         12
   256          7
   263         34
   264         22
   265        445
   266         88
   267         40
   268         10
   281         33
   282          8
   292         41
   293         66
   294         40
   295         38
   296          8
   309         31
   310         12
   323         76
   324         22
   325          3
   352         17
   353          7