##TITLE=Library Entry 30931
##JCAMP-DX=Revision 4.10 
##DATA TYPE=MASS SPECTRUM
##SAMPLE DESCRIPTION=Chemical Concepts
##NAMES=HP
##CAS NAME=.alpha.-d-Lyxo-hexopyranoside, methyl 2,6-dideoxy-
##MOLFORM=C7H14O4
##CAS REGISTRY NO=4092-45-9
##MP= -300
##BP= -300
##MW= 162
##$RETENTION INDEX=0
##$CONDENSED SPECTRUM=NO
##NPOINTS= 110
##XYDATA=(XY..XY) 1 
    26         20
    27        161
    28         60
    29        315
    30         37
    31        191
    33        129
    34          2
    36          0
    37          3
    38          7
    39         71
    40         18
    41        128
    42         75
    43        318
    44         40
    45        267
    46          8
    47          9
    48          1
    49          1
    50          5
    51          8
    52          4
    53         13
    54          4
    55         95
    56         47
    57        206
    58        310
    59        964
    60        999
    61        134
    62          9
    63          4
    64          1
    65          5
    66          2
    67         32
    68          7
    69         48
    70          6
    71        117
    72          7
    73         68
    74         24
    75          7
    76          1
    77          3
    78          9
    79          1
    80          4
    81          2
    82          1
    83         13
    84         11
    85         65
    86         19
    87         60
    88         40
    89          8
    90          3
    91          2
    92          0
    93          2
    94          1
    95         12
    96          1
    97          5
    98          2
    99         79
   100         35
   101          7
   102          5
   103         28
   104        285
   105         40
   106          4
   107          1
   108          0
   109          0
   110          0
   111          8
   112          2
   113         96
   114          7
   115          9
   116          2
   117         40
   118         86
   119          5
   120          0
   124          7
   125          5
   126          0
   127          1
   128          2
   129          6
   130          7
   131        132
   132          8
   133          1
   134          0
   136          0
   143          2
   144          1
   160          0
   161          1
   163          0