##TITLE=Library Entry 48825
##JCAMP-DX=Revision 4.10 
##DATA TYPE=MASS SPECTRUM
##SAMPLE DESCRIPTION=D. Rasala, Inst. Chem., Pedagogical Univ., Kielce, Pola
nd
##NAMES=HP
##CAS NAME=2-Pyridinamine, N-methyl-3-nitro-
##MOLFORM=C6H7N3O2
##CAS REGISTRY NO=4093-88-3
##MP= -300
##BP= -300
##MW= 153
##$RETENTION INDEX=0
##$CONDENSED SPECTRUM=NO
##NPOINTS= 29
##XYDATA=(XY..XY) 1 
    50        140
    51        220
    52        270
    53        150
    55         40
    64        180
    65        150
    66        100
    67         80
    76         50
    78        500
    79        999
    80        270
    81         60
    92        150
    93        110
   105         80
   106        100
   107        100
   108        140
   109         30
   123         60
   136        460
   137         30
   139         30
   152          2
   153        350
   154         45
   155          4