##TITLE=Library Entry 56443
##JCAMP-DX=Revision 4.10 
##DATA TYPE=MASS SPECTRUM
##SAMPLE DESCRIPTION=NIST Mass Spectrometry Data Center, 1998.
##NAMES=HP
##CAS NAME=Bromopride
##MOLFORM=C14H22BrN3O2
##CAS REGISTRY NO=4093-35-0
##MP= -300
##BP= -300
##MW= 343
##$RETENTION INDEX=2742
##$CONDENSED SPECTRUM=NO
##NPOINTS= 161
##XYDATA=(XY..XY) 1 
    15          2
    26          1
    27          8
    28         19
    29         31
    30         79
    31          1
    37          1
    38          1
    39          4
    40          2
    41          8
    42         38
    43         12
    44         14
    45          1
    50          4
    51         10
    52         14
    53          5
    54          5
    55          3
    56         44
    57         15
    58        118
    59          5
    61          1
    62          4
    63         11
    64          7
    65          8
    66          5
    67          1
    68          5
    69          3
    70         19
    71         36
    72         14
    73          1
    74          1
    75          1
    76          5
    77          5
    78         34
    79          6
    80          2
    81          1
    82          1
    83          1
    84         27
    85          1
    86        999
    87         95
    88          4
    89          3
    90         33
    91         18
    92          5
    93          9
    94          3
    95          1
    96          1
    97          1
    99        326
   100         25
   101          1
   103          1
   104          2
   105          3
   106          6
   107          3
   108          1
   113          3
   114          1
   115          2
   116          1
   117          1
   118          1
   119          2
   120          4
   121          7
   122          2
   123          1
   129          1
   131          1
   132          1
   133          4
   134          2
   135          2
   136          1
   141          1
   143          3
   144          1
   145          3
   146          1
   147          1
   148          4
   149          6
   150          4
   156          1
   157         11
   158          3
   159         11
   160          2
   162          3
   163          1
   164          3
   165          1
   169          2
   170          9
   171          3
   172          8
   173          1
   174          1
   176          1
   184          2
   185         18
   186          3
   187         17
   188          2
   191          1
   192          1
   197          1
   198          5
   199          2
   200          5
   201          2
   202          1
   212          2
   213          7
   214          4
   215          7
   216          3
   226          1
   227          3
   228         77
   229         10
   230         75
   231          7
   232          1
   235          1
   241          1
   244          1
   245         26
   246          3
   247         25
   248          2
   256          2
   257          1
   258          2
   259          1
   270          1
   271         11
   272          3
   273         11
   274          2
   275          1
   314          1
   316          1
   343          1
   345          1