##TITLE=Library Entry 61991
##JCAMP-DX=Revision 4.10 
##DATA TYPE=MASS SPECTRUM
##SAMPLE DESCRIPTION=D.HENNEBERG, MAX-PLANCK INSTITUTE, MULHEIM, WEST GERMAN
Y
##NAMES=HP
##CAS NAME=Benzene, 1,1'-(2-pentene-1,5-diyl)bis-
##MOLFORM=C17H18
##CAS REGISTRY NO=40939-59-1
##MP= -300
##BP= -300
##MW= 222
##$RETENTION INDEX=0
##$CONDENSED SPECTRUM=NO
##NPOINTS= 133
##XYDATA=(XY..XY) 1 
    26          0
    27         30
    29          1
    36          0
    37          0
    38          1
    39         62
    40          1
    41         18
    42          0
    43          0
    44          0
    45          0
    47          1
    48          0
    49          1
    50          8
    51         55
    52          8
    53         55
    54          1
    56          0
    57          0
    58          0
    59          0
    61          1
    62          3
    63         30
    64          5
    65        145
    66         10
    67          1
    68          0
    70          0
    71          0
    72          0
    73          0
    74          1
    75          5
    76          6
    77         81
    78         26
    79         14
    80          0
    81          0
    82          0
    83          0
    84          0
    85          0
    86          0
    87          3
    88          1
    89         20
    90         10
    91        999
    92        283
    93         14
    94          1
    95          0
    96          0
    98          0
    99          0
   101          5
   102         14
   103         54
   104        263
   105         78
   106          5
   107          0
   108          0
   109          0
   112          1
   113          3
   115        126
   116        122
   117        183
   118         96
   119          5
   120          0
   123          1
   124          2
   125          3
   126          4
   127         28
   128         63
   129        135
   130        163
   131        884
   132         91
   133          3
   139          1
   140          0
   141          2
   143          4
   144         38
   145          3
   147          0
   149          0
   151          0
   152          1
   153          1
   164          0
   165          3
   166          2
   167          4
   168         10
   169          0
   177          0
   178          1
   179          2
   180          1
   181          4
   182          0
   189          0
   190          0
   191          0
   193          1
   194          1
   200          0
   202          0
   206          0
   207          0
   208          0
   213          0
   215          0
   216          0
   217          1
   218          1
   220          0
   221          2
   222        150
   223         25
   224          1