##TITLE=Library Entry 51450
##JCAMP-DX=Revision 4.10 
##DATA TYPE=MASS SPECTRUM
##SAMPLE DESCRIPTION=W.Jennings, T.Shibamoto
##NAMES=HP
##CAS NAME=Cyclopentanone, 3-(2-oxopropyl)-2-pentyl-
##MOLFORM=C13H22O2
##CAS REGISTRY NO=40942-73-2
##MP= -300
##BP= -300
##MW= 210
##$RETENTION INDEX=0
##$CONDENSED SPECTRUM=NO
##NPOINTS= 44
##XYDATA=(XY..XY) 1 
    41         32
    43        453
    48         11
    54         22
    55        115
    56         11
    57         22
    58         87
    59         43
    67         33
    68         33
    69         97
    70          9
    71         19
    79         21
    80          8
    81         53
    82        999
    83        473
    84         34
    91          9
    93         22
    95         75
    96         65
    97        115
    98         11
   107          8
   109         32
   110          9
   111         43
   112          9
   123         22
   125         94
   134          9
   135          8
   137          8
   139          8
   140        145
   141          8
   151          8
   152         85
   153        377
   154         43
   210         22