##TITLE=Library Entry 49608
##JCAMP-DX=Revision 4.10 
##DATA TYPE=MASS SPECTRUM
##SAMPLE DESCRIPTION=M. IKEDA
##NAMES=HP
##CAS NAME=Pyridinium, 1-[[(4-methylphenyl)sulfonyl]amino]-, hydroxide, inne
r salt
##MOLFORM=C12H12N2O2S
##CAS REGISTRY NO=40949-56-2
##MP= -300
##BP= -300
##MW= 248
##$RETENTION INDEX=0
##$CONDENSED SPECTRUM=NO
##NPOINTS= 55
##XYDATA=(XY..XY) 1 
    41         70
    42         40
    44         20
    45         20
    49         20
    50        120
    51        220
    52        310
    53         80
    62         50
    63        190
    64        110
    65        520
    66        470
    67         60
    75         20
    76         20
    77        120
    78        270
    79        490
    80        999
    81         70
    89         80
    90         40
    91        400
    92         90
    93        590
    94         60
   104        220
   105        660
   106         80
   107         40
   108         30
   111         20
   115         40
   128         20
   129         20
   139         50
   140         20
   141        220
   142         20
   155         70
   156         20
   157         70
   168         90
   169         40
   171         50
   182         20
   183        210
   184        500
   185         70
   247        140
   248        540
   249        110
   250         40