##TITLE=Library Entry 88518
##JCAMP-DX=Revision 4.10 
##DATA TYPE=MASS SPECTRUM
##SAMPLE DESCRIPTION=AP-2094
##NAMES=HP
##CAS NAME=Thiophene, 2-(1-methylethyl)-
##MOLFORM=C7H10S
##CAS REGISTRY NO=4095-22-1
##MP= -300
##BP= -300
##MW= 126
##$RETENTION INDEX=976
##$CONDENSED SPECTRUM=NO
##NPOINTS= 98
##XYDATA=(XY..XY) 1 
    12          0
    13          0
    14          2
    15         22
    16          1
    25          0
    26          6
    27         52
    28         13
    29          4
    32          2
    33          1
    34          1
    35          0
    36          0
    37         10
    38         25
    39        136
    40         12
    41         62
    42          3
    43          6
    44          2
    45        160
    46          5
    47         12
    48          1
    49          4
    50         25
    51         47
    52         11
    53         29
    54          5
    55          6
    56          1
    57         23
    58         42
    59         22
    60          4
    61          8
    62         17
    63         21
    64          3
    65         41
    66         18
    67         60
    68          4
    69         35
    70          8
    71         25
    72          2
    73          3
    74          6
    75          3
    76          2
    77         95
    78         40
    79          7
    80          1
    81          8
    82         11
    83          8
    84         23
    85         61
    86          5
    87          3
    89          1
    90          0
    91         12
    92          2
    93          5
    94          0
    95          6
    96          2
    97         30
    98          2
    99          2
   105          2
   106          0
   107          0
   108          4
   109         31
   110         26
   111        999
   112         77
   113         48
   114          3
   115          0
   120          0
   121          1
   122          0
   123          2
   124          1
   125         20
   126        301
   127         27
   128         14
   129          1