##TITLE=Library Entry 75
##JCAMP-DX=Revision 4.10 
##DATA TYPE=MASS SPECTRUM
##SAMPLE DESCRIPTION=J. SHAW, BORRISTON RESEARCH, ROCKVILLE, MD, USA
##NAMES=HP
##CAS NAME=Phenol, 2-(1-methylbutyl)-4,6-dinitro-
##MOLFORM=C11H14N2O5
##CAS REGISTRY NO=4097-36-3
##MP= -300
##BP= -300
##MW= 254
##$RETENTION INDEX=0
##$CONDENSED SPECTRUM=NO
##NPOINTS= 195
##XYDATA=(XY..XY) 1 
    12          9
    14         17
    15         90
    16         21
    17         55
    18        184
    19          3
    25          3
    26         67
    27        999
    28        276
    29        801
    30        535
    31         12
    32          4
    36          2
    37         16
    38         58
    39        590
    40         95
    41        842
    42         97
    43        955
    44         42
    45         25
    46         31
    47          1
    48          4
    50        133
    51        354
    52        167
    53        431
    54         48
    55        268
    56         24
    57         32
    58          4
    59          3
    60          1
    61         19
    62        113
    63        341
    64        179
    65        325
    66         91
    67         71
    68         52
    69        165
    70         23
    71         25
    72          6
    73          4
    74         44
    75        146
    76        141
    77        487
    78        200
    79        127
    80         60
    81         30
    82          9
    83         15
    84          3
    85          4
    86         13
    87         29
    88         31
    89        349
    90        142
    91        281
    92         68
    93         45
    94         22
    95         20
    96         14
    97         11
    98          7
    99         11
   101         88
   102         85
   103        217
   104        110
   105        159
   106         45
   107         33
   108         11
   109          9
   110          4
   111          8
   112          2
   113          6
   114          9
   115         90
   116        101
   117        302
   118        151
   119        177
   120         39
   121         16
   122          9
   123          7
   124          2
   125          3
   126          4
   127          9
   128         14
   129         15
   130        101
   131        221
   132         76
   133         86
   134         28
   135         27
   136          9
   137          3
   138          2
   139          5
   140          2
   141          2
   142          3
   143         15
   144         40
   145         37
   146         53
   147        360
   148         68
   149         35
   150         17
   151         84
   152         16
   153          3
   154          6
   155          1
   156          1
   157          2
   158          7
   159          6
   160         23
   161        104
   163        448
   164         44
   165         69
   166         16
   167          5
   168         10
   169          1
   170          1
   171          1
   172         10
   173         22
   174          9
   175          9
   177        414
   178         45
   179         24
   180         20
   181         11
   182          3
   184          9
   185          1
   189         14
   190         23
   191         47
   192         10
   193         42
   194        102
   195         61
   197        329
   198         25
   199          3
   202          1
   204          4
   205          4
   206          3
   207         34
   208         26
   209         10
   211        674
   212         87
   213         11
   219          4
   220          0
   221          1
   222          0
   225         49
   226          4
   227          0
   236         21
   237         15
   238          9
   239         15
   240          3
   254        112
   255         31
   256          3