##TITLE=Library Entry 48804
##JCAMP-DX=Revision 4.10 
##DATA TYPE=MASS SPECTRUM
##SAMPLE DESCRIPTION=Chemical Concepts
##NAMES=HP
##CAS NAME=3-Pyridinamine, N-[(3-nitrophenyl)methylene]-
##MOLFORM=C12H9N3O2
##CAS REGISTRY NO=40989-88-6
##MP= -300
##BP= -300
##MW= 227
##$RETENTION INDEX=0
##$CONDENSED SPECTRUM=NO
##NPOINTS= 78
##XYDATA=(XY..XY) 1 
    26          6
    27         29
    28         30
    29          5
    30         10
    37          6
    39         49
    40          6
    42          2
    43         10
    44         10
    49          3
    50         53
    51        166
    52        143
    53         18
    54          3
    56          4
    62         18
    63         42
    64         13
    65         13
    66          7
    67         35
    68          3
    76         45
    77         63
    78        247
    79        999
    80         73
    81          5
    83          4
    85          3
    86          3
    88          6
    90         15
    91          6
    92          4
    93          4
    94         38
    95          9
    97          5
   101          7
   103         10
   105         27
   106          2
   114          3
   115          7
   121          3
   125          4
   126         10
   127         41
   128         12
   129          6
   142          6
   149          6
   150         25
   152         11
   153         19
   154         71
   155         11
   167          4
   168         10
   169          5
   170          6
   171          2
   179         25
   180         83
   181         26
   182          5
   194          7
   196          7
   200          2
   210         46
   211         10
   226         80
   227         93
   228         14