##TITLE=Library Entry 29825
##JCAMP-DX=Revision 4.10 
##DATA TYPE=MASS SPECTRUM
##SAMPLE DESCRIPTION=Chemical Concepts
##NAMES=HP
##CAS NAME=D-Ribofuranose, 2,3-O-(1-methylethylidene)-
##MOLFORM=C8H14O5
##CAS REGISTRY NO=4099-88-1
##MP= -300
##BP= -300
##MW= 190
##$RETENTION INDEX=0
##$CONDENSED SPECTRUM=NO
##NPOINTS= 86
##XYDATA=(XY..XY) 1 
    26         17
    27        105
    28          0
    29        178
    30         13
    31        298
    37          5
    38         15
    39        140
    40         43
    41        210
    42         66
    43        915
    44         48
    45         74
    47         27
    49          3
    50         17
    51         20
    52         14
    53         10
    54         15
    55        128
    56         25
    57        352
    58         60
    59        999
    60         67
    61         67
    63          4
    68        352
    69        176
    70         11
    71        117
    72         16
    73        294
    74         21
    75          7
    76          6
    77         16
    78         82
    79          6
    83         16
    84         23
    85        232
    86        179
    87         36
    88          2
    89         14
    95         12
    97        125
    98          9
    99         11
   100         24
   101        127
   102         28
   103          8
   104          3
   105          3
   111          8
   113         65
   114        104
   115        130
   116          8
   123          9
   126          3
   129         67
   130          4
   131         22
   132         11
   133          3
   141          8
   142         11
   143          4
   157        152
   158         12
   159        149
   160         28
   161          3
   173         60
   174          5
   175        554
   176         43
   177          7
   189          2
   191          2