##TITLE=Library Entry 9595
##JCAMP-DX=Revision 4.10 
##DATA TYPE=MASS SPECTRUM
##SAMPLE DESCRIPTION=CARL DJERASSI DEPT OF CHEM STANFORD UNIV STANFORD CALIF
 94305
##NAMES=HP
##CAS NAME=Cyclopentanol, 2-methyl-, acetate, cis-
##MOLFORM=C8H14O2
##CAS REGISTRY NO=40991-93-3
##MP= -300
##BP= -300
##MW= 142
##$RETENTION INDEX=0
##$CONDENSED SPECTRUM=NO
##NPOINTS= 33
##XYDATA=(XY..XY) 1 
    41        170
    42         80
    43        999
    44         50
    45         50
    50         10
    51         20
    52         10
    53         40
    54         30
    55        140
    56         30
    57         80
    58         40
    59         10
    60         20
    65         20
    66         10
    67        260
    68         20
    70         10
    71         50
    72        150
    73         10
    79         10
    81         80
    82        340
    83         70
    85         30
    86         10
    98         10
    99         50
   100         80