##TITLE=Library Entry 9596
##JCAMP-DX=Revision 4.10 
##DATA TYPE=MASS SPECTRUM
##SAMPLE DESCRIPTION=CARL DJERASSI DEPT OF CHEM STANFORD UNIV STANFORD CALIF
 94305
##NAMES=HP
##CAS NAME=Cyclopentanol, 2-methyl-, acetate, trans-
##MOLFORM=C8H14O2
##CAS REGISTRY NO=40991-94-4
##MP= -300
##BP= -300
##MW= 142
##$RETENTION INDEX=0
##$CONDENSED SPECTRUM=NO
##NPOINTS= 21
##XYDATA=(XY..XY) 1 
    41        118
    42         29
    43        999
    44         39
    53         19
    54         19
    55        138
    56         19
    57         79
    58         39
    67        227
    68          9
    71         59
    72        178
    81         89
    82        386
    83         59
    85         29
    98          9
    99         49
   100         99