##TITLE=Library Entry 91024
##JCAMP-DX=Revision 4.10 
##DATA TYPE=MASS SPECTRUM
##SAMPLE DESCRIPTION=H.W.ROESKY, FRANKFURT UNIV., FRANKFURT, GERMANY, F.R.G
##NAMES=HP
##CAS NAME=Methanamine, N-(difluorophosphinoyl)-N-(chlorofluorothiophosphino
yl)-
##MOLFORM=CH3ClF3NOP2S
##CAS REGISTRY NO=41006-38-6
##MP= -300
##BP= -300
##MW= 231
##$RETENTION INDEX=0
##$CONDENSED SPECTRUM=NO
##NPOINTS= 12
##XYDATA=(XY..XY) 1 
    47         50
    50         70
    69        170
    82         90
    85        330
    87         70
   114        999
   117        220
   118        190
   164        110
   196        120
   231        260