##TITLE=Library Entry 28077
##JCAMP-DX=Revision 4.10 
##DATA TYPE=MASS SPECTRUM
##SAMPLE DESCRIPTION=A.A.Kutin, Moscow, Russia
##NAMES=HP
##CAS NAME=1,2,3-Thiadiazole-4-carboxamide
##MOLFORM=C3H3N3OS
##CAS REGISTRY NO=4100-20-3
##MP= -300
##BP= -300
##MW= 129
##$RETENTION INDEX=0
##$CONDENSED SPECTRUM=NO
##NPOINTS= 60
##XYDATA=(XY..XY) 1 
    33          8
    34          6
    35          1
    36          6
    38         28
    39         23
    40         55
    41         13
    42         14
    43         45
    44        649
    45        164
    46         58
    47         10
    48          4
    49          0
    50          5
    51          8
    52         18
    53         53
    54          5
    56         69
    57        320
    58        999
    59         51
    60         51
    61          3
    65          0
    66          0
    67          3
    69          9
    70         15
    71          7
    72          8
    73         11
    74          1
    77          0
    78          0
    79          1
    81          1
    82          4
    83         12
    84         62
    85         31
    86          6
    87          2
    88          0
    91          1
    92          6
    94          2
    95          1
    96          1
    97          0
    98          1
    99          2
   101        626
   102         26
   103         28
   104          1
   105          0