##TITLE=Library Entry 19251
##JCAMP-DX=Revision 4.10 
##DATA TYPE=MASS SPECTRUM
##SAMPLE DESCRIPTION=NIST Mass Spectrometry Data Center, 1990.
##NAMES=HP
##CAS NAME=Decane, 1,10-dibromo-
##MOLFORM=C10H20Br2
##CAS REGISTRY NO=4101-68-2
##MP= -300
##BP= -300
##MW= 298
##$RETENTION INDEX=1735
##$CONDENSED SPECTRUM=NO
##NPOINTS= 57
##XYDATA=(XY..XY) 1 
    27        160
    28         12
    29        159
    39        229
    40         64
    41        716
    42        123
    43        292
    44         13
    51         18
    52         12
    53         99
    54         12
    55        999
    56        126
    57        371
    58         16
    65         16
    66         11
    67        124
    68         61
    69        558
    70         56
    71        313
    72         18
    77         13
    79         28
    80         15
    81         60
    82         40
    83        421
    84         32
    85         93
    93         24
    95         46
    97        209
    98         15
   106          8
   107         67
   109         76
   121         30
   123         24
   135        273
   136         27
   137        287
   138         13
   139         26
   148         26
   149         63
   150         27
   151         60
   162          8
   163         78
   164         13
   165         72
   177         55
   179         53