##TITLE=Library Entry 64763
##JCAMP-DX=Revision 4.10 
##DATA TYPE=MASS SPECTRUM
##SAMPLE DESCRIPTION=Exported from NIST MS Search
##NAMES=HP
##CAS NAME=4-Hexadecynoic acid, 2-(phenylmethoxy)-, phenylmethyl ester
##MOLFORM=C30H40O3
##CAS REGISTRY NO=41011-99-8
##MP= -300
##BP= -300
##MW= 448
##$RETENTION INDEX=0
##$CONDENSED SPECTRUM=NO
##NPOINTS= 173
##XYDATA=(XY..XY) 1 
    18         10
    26          7
    27          1
    28         10
    39          7
    41          3
    42          1
    43         21
    44          3
    50          5
    52          5
    54          3
    55         17
    56          3
    57         47
    65          3
    67         22
    68          3
    69         38
    70          8
    71         35
    73          8
    77          3
    78          7
    79         12
    81         40
    82         17
    83         56
    84          3
    85         26
    90         29
    91        999
    92        105
    93         14
    94          5
    95         43
    96         14
    97         57
    98          3
    99          3
   104          8
   105         80
   106         15
   107         47
   108         14
   109         31
   110          8
   111         42
   112          3
   113          3
   115          3
   116          3
   117         40
   118         14
   119         10
   120          7
   121         29
   122          1
   123         21
   124         12
   125         12
   126          1
   127          1
   128          1
   129         52
   130         35
   131         31
   132         10
   133         12
   134          1
   135         21
   136          1
   137         10
   138          1
   139          3
   141         14
   142         12
   143         47
   144         22
   145         24
   149         12
   150          7
   151         10
   152          1
   153         12
   154          1
   155         15
   156          3
   157         28
   158          3
   159         14
   160          7
   161          7
   163          7
   165         14
   166          3
   167          7
   168          5
   169         14
   171         17
   172          3
   173          8
   174         12
   175         10
   176          3
   177          7
   179         10
   180          7
   181         10
   182          3
   183         10
   184          3
   185          5
   187         35
   188         31
   189         14
   190          1
   191         17
   192          5
   193          5
   195         14
   197          5
   199          7
   200          7
   201         28
   202         24
   203         12
   204          3
   205         21
   206          3
   209          3
   215         12
   216          7
   217         31
   218          5
   221          3
   223          3
   229          3
   234         15
   235          7
   236          7
   238          7
   250          8
   251         80
   252         14
   255          5
   267          7
   269         22
   270         12
   271          3
   282          3
   283          3
   285          8
   293         54
   294         14
   295          3
   296          3
   297         15
   298          5
   311          5
   312          3
   313         29
   314         10
   339          8
   340          1
   341         19
   342         26
   343          3
   357        228
   358         56
   359         10
   448          3
   449          1