##TITLE=Library Entry 33095
##JCAMP-DX=Revision 4.10 
##DATA TYPE=MASS SPECTRUM
##SAMPLE DESCRIPTION=Chemical Concepts
##NAMES=HP
##CAS NAME=Cyclooctene, 1-bromo-
##MOLFORM=C8H13Br
##CAS REGISTRY NO=4103-11-1
##MP= -300
##BP= -300
##MW= 188
##$RETENTION INDEX=0
##$CONDENSED SPECTRUM=NO
##NPOINTS= 90
##XYDATA=(XY..XY) 1 
    27        234
    29         86
    30          1
    37          6
    38         24
    39        321
    40         62
    41        457
    42         31
    43         85
    44          0
    45          8
    46          2
    49          2
    50         34
    51         80
    52         55
    53        401
    54        107
    55        267
    56         35
    57          2
    60          1
    61          3
    62          7
    63         19
    64          5
    65        111
    66         76
    67        999
    68        178
    69         36
    70          1
    71          0
    73          1
    74          4
    75          4
    76          2
    77         74
    78         26
    79        151
    80         66
    81        338
    82         29
    83          1
    89          1
    90          0
    91         29
    92          4
    93         42
    94          9
    95         13
    96          1
   103          1
   104          0
   105          3
   106          1
   107         12
   108         11
   109        500
   110         45
   111          1
   117          1
   119         10
   120          7
   121         11
   122          7
   123          4
   132         53
   133         13
   134         52
   135         12
   136          1
   138          0
   141          0
   145          3
   146         18
   147          5
   148         18
   149          2
   159          1
   160         57
   161          5
   162         52
   163          3
   173          0
   188        117
   189         10
   190        108
   191          9