##TITLE=Library Entry 47050
##JCAMP-DX=Revision 4.10 
##DATA TYPE=MASS SPECTRUM
##SAMPLE DESCRIPTION=A.A.Kutin, Moscow, Russia
##NAMES=HP
##CAS NAME=Ethanone, 2-dimethylphosphinato-1-phenyl-
##MOLFORM=C10H13O2P
##CAS REGISTRY NO=41032-24-0
##MP= -300
##BP= -300
##MW= 196
##$RETENTION INDEX=0
##$CONDENSED SPECTRUM=NO
##NPOINTS= 150
##XYDATA=(XY..XY) 1 
    33         10
    34          2
    35          2
    36          5
    37          6
    38         20
    39         74
    40         23
    41         42
    42         23
    43         48
    44         18
    45         59
    46         43
    47        164
    48         26
    49         90
    50        120
    51        288
    52         27
    53          9
    55         51
    56         13
    57         53
    58         11
    59         26
    60          5
    61         28
    62         34
    63         75
    64         14
    65         50
    66          5
    67          8
    68          6
    69         19
    70          7
    71         21
    73         13
    74         36
    75         60
    77        999
    78         75
    79         25
    80          4
    81         13
    82          6
    83         13
    84          6
    85         11
    86          3
    87          4
    88          2
    89         27
    90         21
    91        139
    92         19
    93          5
    94         25
    95         17
    96          5
    97         17
    98          5
    99          6
   100          1
   102        133
   103        159
   105        586
   106         42
   107          7
   108          2
   109          7
   110          3
   111          6
   112          2
   113          2
   115         30
   116         10
   117         14
   119        362
   120         20
   121          6
   122          1
   123          4
   124          2
   125          5
   126          1
   127          3
   128          2
   129          1
   130          0
   131          2
   133         37
   134          4
   135          3
   136          2
   137          3
   138          2
   139          5
   140          2
   141          1
   143          0
   144          0
   145          1
   146          0
   147          1
   148          0
   149          3
   150          1
   151          5
   152          2
   153          2
   154          1
   155          1
   157          0
   159          0
   160          0
   161          1
   162          1
   163          9
   164          2
   165          5
   167        133
   168         71
   169          7
   170          0
   171          0
   173          0
   175          0
   176          1
   177          2
   178          4
   179         54
   180          8
   181          7
   182          1
   183          0
   185          0
   188          0
   189          1
   190          0
   191          1
   192          1
   193          3
   195         47
   196        258
   197         28
   198          2
   199          1
   200          0