##TITLE=Library Entry 85743
##JCAMP-DX=Revision 4.10 
##DATA TYPE=MASS SPECTRUM
##SAMPLE DESCRIPTION=Chemical Concepts
##NAMES=HP
##CAS NAME=1-Cyclooctene-1-carboxylic acid
##MOLFORM=C9H14O2
##CAS REGISTRY NO=4103-09-7
##MP= -300
##BP= -300
##MW= 154
##$RETENTION INDEX=0
##$CONDENSED SPECTRUM=NO
##NPOINTS= 126
##XYDATA=(XY..XY) 1 
    25          0
    26         30
    27        430
    28         39
    29        198
    30          3
    31         28
    36          1
    37          3
    38         22
    39        419
    40         86
    41        724
    42         95
    43        127
    44          9
    45         68
    46          4
    47          5
    49          0
    50         30
    51         93
    52         64
    53        269
    54        134
    55        240
    56         86
    57         38
    58         14
    59         16
    60          7
    61          4
    62         10
    63         30
    64          7
    65        137
    66        114
    67        938
    68        234
    69        328
    70         63
    71         40
    72         10
    73         94
    74         15
    75          7
    76          5
    77        161
    78         58
    79        409
    80        192
    81        437
    82        217
    83         74
    84         24
    85         25
    86        248
    87         74
    88          5
    89          9
    90          7
    91         98
    92         35
    93        198
    94        294
    95        149
    96         24
    97        161
    98        120
    99        139
   100         87
   101          7
   102          2
   103         11
   104          3
   105         60
   106         11
   107        114
   108        369
   109        999
   110        108
   111        275
   112        150
   113        293
   114         22
   115          6
   116          1
   117          6
   118         19
   119          5
   120          1
   121         63
   122          6
   123         16
   124          9
   125        196
   126        324
   127         29
   128          4
   129          2
   130          0
   131          2
   132          2
   133          6
   134          2
   135         40
   136        292
   137         74
   138          8
   139        120
   140         11
   141          3
   142          3
   143          1
   144          4
   145          1
   147          0
   149          2
   150         31
   151          4
   152          7
   153         11
   154        593
   155         73
   156          5
   157          0