##TITLE=Library Entry 50356
##JCAMP-DX=Revision 4.10 
##DATA TYPE=MASS SPECTRUM
##SAMPLE DESCRIPTION=S.A. Rang et al., IR & MS of Unsatd. Hydrocarbons, 1977
##NAMES=HP
##CAS NAME=Cyclohexene, 3-(2-methylpropyl)-
##MOLFORM=C10H18
##CAS REGISTRY NO=4104-56-7
##MP= -300
##BP= -300
##MW= 138
##$RETENTION INDEX=1001
##$CONDENSED SPECTRUM=NO
##NPOINTS= 93
##XYDATA=(XY..XY) 1 
    15          6
    16          1
    24          0
    25          1
    26          9
    27        183
    28         36
    29        128
    37          2
    38          7
    39        210
    40         33
    41        476
    42         35
    43        174
    44         18
    45          3
    46          0
    50          7
    51         31
    52         23
    53        152
    54         86
    55        201
    56         55
    57        119
    58          8
    59          3
    60          1
    62          1
    63          6
    64          2
    65         52
    66         36
    67        421
    68         97
    69         42
    70         40
    71          8
    72          1
    73          1
    74          1
    75          3
    76          1
    77        102
    78         22
    79        265
    80        102
    81        999
    82        531
    83         52
    84          9
    85          4
    86          1
    87          1
    89          1
    90          0
    91         38
    92          7
    93         50
    94         31
    95        439
    96        192
    97         80
    98         16
    99          2
   100          1
   101          1
   102          0
   103          1
   104          0
   105          3
   106          1
   107          6
   108          3
   109         17
   110         16
   111         15
   112          2
   113          3
   114          0
   121          0
   122          1
   123         34
   124          7
   125          2
   134          1
   135          1
   136          8
   137         10
   138        127
   139         13
   140          1