##TITLE=Library Entry 62537
##JCAMP-DX=Revision 4.10 
##DATA TYPE=MASS SPECTRUM
##SAMPLE DESCRIPTION=Humboldt-Universitat zu Berlin, Department of Chemistry
, Analytical Group
##NAMES=HP
##CAS NAME=N-Sulfinyl-p-toluenesulfonamide
##MOLFORM=C7H7NO3S2
##CAS REGISTRY NO=4104-47-6
##MP= -300
##BP= -300
##MW= 217
##$RETENTION INDEX=0
##$CONDENSED SPECTRUM=NO
##NPOINTS= 129
##XYDATA=(XY..XY) 1 
    12          1
    13          0
    14          2
    15          6
    16          7
    17         13
    18         42
    19          0
    24          0
    25          0
    26         10
    27         43
    28         14
    29          6
    30         39
    31          1
    32         15
    33          0
    34          1
    36          1
    37         10
    38         34
    39        232
    40         18
    41         50
    42          3
    43          6
    44          7
    45         16
    46         73
    47          3
    48         70
    49          6
    50         68
    51         90
    52         32
    53         17
    54          2
    55          3
    56          1
    57          3
    58          2
    59          1
    60          1
    61         11
    62         45
    63        121
    64         56
    65        328
    66         21
    67          6
    68          1
    69          8
    70          2
    71          3
    72          0
    73          2
    74         12
    75         10
    76          8
    77         44
    78         22
    79         11
    80          4
    81          2
    82          2
    83          1
    84          2
    85          5
    86          8
    87          7
    89         83
    90         39
    91        999
    92         82
    93          5
    94          1
    95          2
    96          1
    97          2
    98          1
    99          0
   100          0
   102          0
   103          0
   104          6
   105          4
   106          6
   107         22
   108          9
   109          2
   110          4
   111          3
   112          1
   113          0
   115          0
   120          0
   121          4
   122          2
   123          2
   124          2
   125          2
   126          3
   127          0
   129          0
   135          0
   136          2
   137          2
   138          5
   139          7
   140          1
   141          0
   149          0
   152          2
   153          6
   155        395
   156         36
   157         21
   158          1
   171         17
   172          1
   173          1
   190          0
   215          0
   217         87
   218          8
   219          8
   220          0
   221          0