##TITLE=Library Entry 16015
##JCAMP-DX=Revision 4.10 
##DATA TYPE=MASS SPECTRUM
##SAMPLE DESCRIPTION=Exported from NIST MS Search
##NAMES=HP
##CAS NAME=1-Butanamine, N,3-dimethyl-
##MOLFORM=C6H15N
##CAS REGISTRY NO=4104-44-3
##MP= -300
##BP= -300
##MW= 101
##$RETENTION INDEX=751
##$CONDENSED SPECTRUM=NO
##NPOINTS= 32
##XYDATA=(XY..XY) 1 
    15          9
    17          1
    18          2
    27         20
    28         40
    29         20
    30         30
    31         10
    41         30
    42         30
    43         40
    44        999
    45         30
    46          1
    55         10
    56         10
    57          9
    58         30
    59          3
    69          2
    70          9
    71          3
    72          6
    73          1
    84          3
    85          1
    86          5
    87          3
    98          2
    99          1
   100          6
   101        100