##TITLE=Library Entry 21031
##JCAMP-DX=Revision 4.10 
##DATA TYPE=MASS SPECTRUM
##SAMPLE DESCRIPTION=D.HENNEBERG, MAX-PLANCK INSTITUTE, MULHEIM, WEST GERMAN
Y
##NAMES=HP
##CAS NAME=1,5-Heptadiene, 2-methyl-, (E)-
##MOLFORM=C8H14
##CAS REGISTRY NO=41044-63-7
##MP= -300
##BP= -300
##MW= 110
##$RETENTION INDEX=0
##$CONDENSED SPECTRUM=NO
##NPOINTS= 66
##XYDATA=(XY..XY) 1 
    25          1
    26          3
    27         91
    28         10
    29        139
    30          4
    33          1
    35          1
    38          9
    39        158
    40         24
    41        109
    42         12
    43          8
    46          0
    47          1
    48          0
    49          1
    50          9
    51         24
    52         10
    53         93
    54         65
    55        999
    56         94
    57          3
    60          3
    61          1
    62          2
    63          5
    64          1
    65         19
    66         13
    67        118
    68        126
    69         27
    70          2
    71          0
    73          1
    77         22
    78          5
    79         29
    80         13
    81        299
    82         54
    83          3
    84          0
    87          1
    88          0
    89          1
    90          0
    91         12
    92          2
    93         14
    94          4
    95        460
    96         39
    97          1
    98          0
   103          0
   105          0
   107          1
   108          1
   109          7
   110         22
   111          4