##TITLE=Library Entry 67685
##JCAMP-DX=Revision 4.10 
##DATA TYPE=MASS SPECTRUM
##SAMPLE DESCRIPTION=A.A.Kutin, Moscow, Russia
##NAMES=HP
##CAS NAME=4-(2-Furamido)phenyl 2-furoate
##MOLFORM=C16H11NO5
##CAS REGISTRY NO=4104-25-0
##MP= -300
##BP= -300
##MW= 297
##$RETENTION INDEX=0
##$CONDENSED SPECTRUM=NO
##NPOINTS= 120
##XYDATA=(XY..XY) 1 
    35          0
    36          2
    37         19
    38         57
    39        207
    40         16
    41         10
    42          3
    43          3
    44          5
    45          1
    46          0
    48          0
    49          1
    50          4
    51         15
    52         19
    53         18
    54          2
    55          2
    56          0
    57          1
    60          0
    61          0
    62          2
    63          7
    64          4
    65          4
    66          9
    67         31
    68          3
    69          1
    70          0
    71          0
    72          0
    73          0
    74          0
    75          1
    76          1
    77          4
    78          2
    79          2
    80          2
    81          2
    82          0
    83          0
    84          0
    85          0
    88          0
    89          1
    90          1
    91          2
    92          1
    93          1
    95        999
    96         51
    97          5
    98          0
    99          0
   101          0
   102          0
   103          0
   104          0
   105          2
   106          0
   107          0
   108          1
   109          0
   110          0
   112          0
   115          0
   116          0
   117          1
   118          1
   119          0
   120          0
   121          0
   127          0
   128          0
   129          0
   130          0
   131          0
   132          0
   133          0
   134          0
   135          0
   136          0
   141          0
   144          0
   145          0
   146          0
   147          0
   149          0
   154          0
   156          0
   162          0
   163          0
   168          0
   171          0
   172          0
   173          0
   174          0
   177          0
   185          0
   186          0
   187          0
   198          0
   201          0
   202          5
   203          4
   204          0
   205          0
   223          0
   229          0
   240          0
   296          0
   297         81
   298         14
   299          2
   300          0