##TITLE=Library Entry 37491
##JCAMP-DX=Revision 4.10 
##DATA TYPE=MASS SPECTRUM
##SAMPLE DESCRIPTION=V.Zaikin,Topchiev Inst.Petrochem.Synth.,Moscow
##NAMES=HP
##CAS NAME=6-Bromohexanoic acid, pentyl ester
##MOLFORM=C11H21BrO2
##CAS REGISTRY NO=41049-09-6
##MP= -300
##BP= -300
##MW= 264
##$RETENTION INDEX=0
##$CONDENSED SPECTRUM=NO
##NPOINTS= 116
##XYDATA=(XY..XY) 1 
    27        213
    28         64
    29        229
    30         14
    31         24
    35          7
    36         26
    37         12
    38         30
    39        296
    40         75
    41        826
    42        561
    43        781
    44         37
    45         51
    48         12
    49          7
    50         18
    51         22
    52         11
    53         67
    54         58
    55        725
    56         82
    57         50
    58         14
    59          8
    60        332
    61        111
    62          6
    63          6
    65         14
    66          7
    67         56
    68         67
    69        904
    70        999
    71        233
    72         16
    73        167
    74          8
    75          3
    77          4
    78          2
    79          6
    80          8
    81         11
    82         24
    83         33
    84          6
    85         16
    86          9
    87         43
    88         11
    91          3
    92          2
    93         19
    95         23
    96          6
    97        221
    98         29
    99         10
   100          4
   101          5
   102         15
   105          3
   106          5
   107         41
   108          7
   109         41
   110          3
   111          9
   113         15
   114          8
   115        150
   116          8
   117          2
   119          3
   120          2
   121          8
   123          2
   125          3
   127          3
   128          5
   129         36
   130         87
   131          8
   132          3
   133          4
   134          6
   135          4
   137          3
   143          6
   148          6
   149         14
   150          6
   151         16
   155          2
   167          2
   176          8
   177        267
   178         25
   179        257
   180         16
   181          2
   185          5
   194         14
   195        195
   196         29
   197        187
   198         14
   221          3
   223          3
   235          2
   237          2