##TITLE=Library Entry 30910
##JCAMP-DX=Revision 4.10 
##DATA TYPE=MASS SPECTRUM
##SAMPLE DESCRIPTION=V.A.Korolev, Moscow, Russia
##NAMES=HP
##CAS NAME=9-Bromononanoic acid
##MOLFORM=C9H17BrO2
##CAS REGISTRY NO=41059-02-3
##MP= -300
##BP= -300
##MW= 236
##$RETENTION INDEX=0
##$CONDENSED SPECTRUM=NO
##NPOINTS= 132
##XYDATA=(XY..XY) 1 
    34          2
    36          3
    37         35
    38         11
    39        445
    40         56
    41        666
    42        621
    43        326
    45        773
    46         10
    47         14
    50         52
    51         87
    52         34
    53        273
    54         79
    55        953
    56         91
    57        281
    58          9
    60        999
    61         36
    62          7
    63         18
    64         12
    65         39
    66          1
    67        245
    68        186
    69        629
    70         79
    71         89
    73        805
    74         59
    75         15
    77         22
    79         76
    80         44
    81        181
    82         72
    83        216
    84        100
    85        114
    86          5
    87        185
    88         23
    89          2
    91         11
    93         95
    94         30
    95        203
    96         84
    97        620
    98         86
    99         28
   100         20
   101         73
   102         14
   105          5
   106          2
   107         90
   108          3
   109        137
   110         35
   111         81
   112         11
   113         29
   114         19
   115        101
   116          6
   119         17
   120          8
   121         79
   122          9
   123         22
   124          1
   125          7
   127          9
   128          1
   129        126
   130          9
   133          3
   134          1
   135         62
   136          7
   137         97
   138         84
   139        498
   140         51
   141          5
   143          1
   147          2
   148          6
   149          6
   150          6
   151          3
   154          5
   155          1
   156         21
   157        206
   158         20
   162          1
   163          1
   166          2
   174         12
   176         72
   177        132
   178         66
   179        126
   180          9
   181          3
   182          2
   183          7
   189          1
   191          3
   193        121
   194          9
   195        120
   196          8
   207         28
   209         28
   219         27
   220          3
   221         26
   222          3
   235          6
   236         56
   237         10
   238         55
   239         10
   240          1