##TITLE=Library Entry 56669
##JCAMP-DX=Revision 4.10 
##DATA TYPE=MASS SPECTRUM
##SAMPLE DESCRIPTION=RADIAN CORP
##NAMES=HP
##CAS NAME=1-Propanamine, N,N-diethyl-3-(trimethoxysilyl)-
##MOLFORM=C10H25NO3Si
##CAS REGISTRY NO=41051-80-3
##MP= -300
##BP= -300
##MW= 235
##$RETENTION INDEX=0
##$CONDENSED SPECTRUM=NO
##NPOINTS= 71
##XYDATA=(XY..XY) 1 
    15          1
    27          8
    28          3
    29         23
    30         29
    31          1
    39          2
    41         10
    42         28
    43         12
    44          3
    45          5
    47          2
    54          2
    55          2
    56         21
    57          8
    58         62
    59         31
    60          8
    61         32
    62          2
    70          6
    71          4
    72         19
    73          1
    74          3
    75          3
    76          1
    77          6
    80          1
    84         16
    85          3
    86        999
    87         70
    88          3
    90         12
    91        117
    92          9
    93          5
    95          2
    98          5
    99          1
   100          2
   104          1
   105          1
   107          1
   112          5
   114          2
   116          1
   117          1
   118          2
   121        149
   122         13
   123          6
   128          2
   130          4
   131          2
   142          1
   144          5
   160          3
   162          2
   163          2
   174          4
   204          6
   206          1
   220         13
   221          2
   234          1
   235         14
   236          2