##TITLE=Library Entry 71510
##JCAMP-DX=Revision 4.10 
##DATA TYPE=MASS SPECTRUM
##SAMPLE DESCRIPTION=Chemical Concepts
##NAMES=HP
##CAS NAME=1,4-Di(methyl-d3)benzene-d4
##MOLFORM=C8D10
##CAS REGISTRY NO=41051-88-1
##MP= -300
##BP= -300
##MW= 116
##$RETENTION INDEX=869
##$CONDENSED SPECTRUM=NO
##NPOINTS= 80
##XYDATA=(XY..XY) 1 
    26          0
    27          0
    28          1
    29          1
    30         59
    31          1
    34          2
    38          4
    39          0
    40         15
    41          3
    42        106
    43          4
    44          8
    45          0
    46         14
    47          0
    49          2
    50          2
    51          0
    52         34
    53          2
    54         88
    55          5
    56         34
    57          3
    58         24
    59          0
    60          0
    62          3
    64         12
    65          1
    66         36
    67          2
    68          6
    69          3
    70         74
    71          3
    72          4
    73          0
    74          0
    76          6
    77          0
    78          4
    79          0
    80          4
    81          3
    82         95
    83          7
    84         34
    85          4
    86         51
    87          3
    88          1
    90          1
    91          0
    92          0
    93          0
    94         13
    95          1
    96          4
    97         42
    98        999
    99         71
   100          2
   105          0
   106          0
   108          4
   109          1
   110         30
   111          3
   112          8
   113          9
   114        151
   115         43
   116        488
   117         40
   118          1
   119          1
   120          0