##TITLE=Library Entry 17473
##JCAMP-DX=Revision 4.10 
##DATA TYPE=MASS SPECTRUM
##SAMPLE DESCRIPTION=Japan AIST/NIMC Database- Spectrum MS-IW-3488
##NAMES=HP
##CAS NAME=Methyl 4-methoxyacetoacetate
##MOLFORM=C6H10O4
##CAS REGISTRY NO=41051-15-4
##MP= -300
##BP= -300
##MW= 146
##$RETENTION INDEX=0
##$CONDENSED SPECTRUM=NO
##NPOINTS= 67
##XYDATA=(XY..XY) 1 
    13          2
    14         13
    15        147
    16          3
    18          2
    25          1
    26         10
    27         40
    28         30
    29        170
    30         11
    31         66
    32         29
    33         13
    37          2
    38          4
    39          9
    40          3
    41         19
    42        139
    43         92
    44         32
    45        999
    46         41
    47          7
    53          4
    54          1
    55         26
    56          8
    57         94
    58         40
    59        281
    60          9
    61          4
    68          1
    69        178
    70          7
    71          5
    72         31
    73          4
    74         13
    75          9
    83          8
    84         35
    85          7
    86          6
    87         13
    88         88
    89          5
    90          1
    99          7
   100          3
   101        379
   102         16
   103         55
   104          3
   113          2
   114         99
   115        191
   116         47
   117          3
   118         89
   119          5
   131          5
   146        105
   147          7
   148          1