##TITLE=Library Entry 11518
##JCAMP-DX=Revision 4.10 
##DATA TYPE=MASS SPECTRUM
##SAMPLE DESCRIPTION=NIST Mass Spectrometry Data Center
##NAMES=HP
##CAS NAME=Butanoic acid, 4-chloro-3-oxo-, 1-methylethyl ester
##MOLFORM=C7H11ClO3
##CAS REGISTRY NO=41051-20-1
##MP= -300
##BP= -300
##MW= 178
##$RETENTION INDEX=0
##$CONDENSED SPECTRUM=NO
##NPOINTS= 93
##XYDATA=(XY..XY) 1 
    13          1
    14          8
    15         22
    16          1
    19          2
    25          2
    26         21
    27        158
    29         34
    30          1
    31         16
    35          1
    36          2
    37          6
    38         14
    39         89
    40         15
    41        264
    42        243
    43        999
    44         40
    45         64
    46          1
    47          2
    48          6
    49        104
    50          4
    51         33
    52          1
    53          3
    54          1
    55         28
    56         10
    57         16
    58          5
    59         62
    60         16
    61          5
    62          3
    63          3
    64          1
    65          1
    67          1
    69         85
    70          9
    71          3
    72          1
    73         11
    74          1
    76         12
    77        215
    78          8
    79         69
    80          1
    83          9
    84         11
    85         12
    86          3
    87        324
    88         11
    89          2
    90          2
    91          1
    92         12
    94          3
    99          1
   100         21
   101         14
   102          8
   103          4
   105          1
   111        171
   112         11
   113          1
   118         35
   119        503
   120         33
   121        167
   122          7
   123          1
   129        230
   130         15
   131          2
   136        149
   137         19
   138         48
   139          6
   142          6
   144          1
   160          1
   163          1
   178          8
   180          2