##TITLE=Library Entry 47894
##JCAMP-DX=Revision 4.10 
##DATA TYPE=MASS SPECTRUM
##SAMPLE DESCRIPTION=Chemical Concepts
##NAMES=HP
##CAS NAME=2,1-Benzisoxazole-6-carboxylic acid, 5-chloro-3-phenyl-, methyl e
ster
##MOLFORM=C15H10ClNO3
##CAS REGISTRY NO=41052-03-3
##MP= -300
##BP= -300
##MW= 287
##$RETENTION INDEX=0
##$CONDENSED SPECTRUM=NO
##NPOINTS= 144
##XYDATA=(XY..XY) 1 
    27         19
    28          0
    29         18
    30          1
    31          7
    37          7
    38          4
    39         33
    40         14
    44          3
    50         65
    51        354
    52         24
    53         21
    58          1
    59         73
    61         21
    62         26
    63         31
    64          8
    65          7
    68          2
    69          9
    72         10
    73          8
    74         29
    75         30
    76         44
    77        999
    78         59
    79          1
    81          3
    82         10
    83         10
    85          3
    86         18
    87         41
    88        108
    89         22
    90          4
    91          8
    92          2
    96          3
    97         46
    98         11
    99         20
   100         24
   101         10
   102          7
   103          6
   104          7
   105        240
   106         13
   109          3
   110          9
   111         16
   112          4
   113         16
   114         19
   115         12
   116          2
   119          2
   122          7
   123         10
   124          5
   125         17
   126         27
   127          6
   128         49
   129         19
   130          5
   134          1
   137         19
   138         36
   139         28
   140         21
   141          1
   144          5
   145          2
   149          7
   150          3
   151         13
   152         12
   153         71
   154          9
   155         21
   161          4
   162          9
   163         14
   164        153
   165        123
   166         41
   167         10
   172          1
   173         56
   174         27
   175         13
   176         10
   179          4
   180          9
   181         10
   184          1
   188          1
   192         12
   193         87
   194         33
   195          5
   196          4
   197          3
   198          1
   199         21
   200        343
   201         56
   202        109
   203         17
   208         16
   209          5
   214          6
   215          2
   216          4
   218          4
   221          3
   222         11
   224          3
   227         21
   228        363
   229         70
   230        125
   231         27
   232          4
   244          3
   252         34
   253          4
   255         31
   256        858
   257        122
   258        292
   259         35
   260          6
   287        883
   288        146
   289        327
   290         43
   291          6