##TITLE=Library Entry 89418
##JCAMP-DX=Revision 4.10 
##DATA TYPE=MASS SPECTRUM
##SAMPLE DESCRIPTION=A.A.Kutin, Moscow, Russia
##NAMES=HP
##CAS NAME=Piperidine, N-(diphenylmethyl)carbonyl-
##MOLFORM=C19H21NO
##CAS REGISTRY NO=4107-00-0
##MP= -300
##BP= -300
##MW= 279
##$RETENTION INDEX=0
##$CONDENSED SPECTRUM=NO
##NPOINTS= 162
##XYDATA=(XY..XY) 1 
    33          5
    34          9
    35          0
    36          1
    37          1
    39        101
    40        129
    41        399
    42         99
    43         58
    44         33
    45          3
    46          0
    48          2
    50         18
    51         39
    52         11
    53         17
    54         22
    55         69
    56        104
    57         13
    58          2
    59          0
    60          1
    62         10
    63         34
    64          9
    65         23
    67         20
    69        551
    70         60
    71          5
    72          4
    74          8
    75          8
    76         11
    77         24
    78         19
    79          3
    80          3
    82         23
    83         28
    84         42
    85          5
    86          3
    87          8
    89         35
    90         16
    91         22
    92          3
    93          1
    94          0
    95          2
    96          0
    97          1
    98          3
    99          2
   100          1
   101          3
   102          9
   103          3
   104          3
   105          4
   106          1
   107          0
   108          1
   109          1
   112        999
   113         69
   115         47
   116          6
   117          3
   118          6
   119          1
   120          0
   121          0
   122          0
   123          0
   125          1
   126          7
   127          5
   128         18
   129          3
   130          1
   131          0
   132          1
   133          0
   135          0
   136          0
   137          2
   138          2
   139         28
   140          4
   141          8
   142          1
   143          0
   144          1
   145          1
   146          0
   148          0
   149          1
   150          3
   152        124
   153         15
   154          1
   155          0
   156          0
   157          0
   158          0
   159          0
   160          1
   161          0
   162          2
   163         23
   165        312
   166         97
   167        145
   168         21
   169          0
   170          0
   171          1
   172          1
   174          1
   175          0
   176          0
   178          1
   179          1
   180          1
   181          2
   182          1
   183          0
   184          0
   186          1
   188          2
   189          0
   190          0
   191          0
   193          0
   194          1
   195          0
   196          0
   198          0
   199          0
   200          0
   201          6
   202          1
   206          0
   207          0
   209          0
   212          0
   216          0
   220          0
   223          0
   239          0
   250          0
   277          1
   278          1
   279         51
   280          9
   281          0
   283          0