##TITLE=Library Entry 23445
##JCAMP-DX=Revision 4.10 
##DATA TYPE=MASS SPECTRUM
##SAMPLE DESCRIPTION=Chemical Concepts
##NAMES=HP
##CAS NAME=Heptanoic acid, 1,1-dimethylethyl ester
##MOLFORM=C11H22O2
##CAS REGISTRY NO=41084-78-0
##MP= -300
##BP= -300
##MW= 186
##$RETENTION INDEX=0
##$CONDENSED SPECTRUM=NO
##NPOINTS= 64
##XYDATA=(XY..XY) 1 
    26          8
    27        106
    28         51
    29        206
    30          6
    31         11
    37          2
    38          7
    39         99
    40         21
    41        369
    42         63
    43        251
    44         13
    45         10
    47          0
    49          1
    50          4
    51          7
    52          2
    53         15
    54          3
    55         88
    56        204
    57        999
    58         50
    59         20
    60         53
    61         11
    65          1
    67          3
    68          5
    69         14
    70         36
    71          9
    72          1
    73         19
    74          2
    75          3
    77          1
    81          1
    83         13
    84          9
    85         66
    86          4
    87         16
    88          1
    89         15
    90          1
    94          1
    95          5
    96          2
   101          4
   108          1
   110          2
   111          4
   113        166
   114         12
   115          3
   128          1
   130         20
   131         81
   132          6
   171          3