##TITLE=Library Entry 27578
##JCAMP-DX=Revision 4.10 
##DATA TYPE=MASS SPECTRUM
##SAMPLE DESCRIPTION=K.OLSSON INST. OF ORG. CHEM., GOTEBORG 5, SWEDEN
##NAMES=HP
##CAS NAME=Benzene, 1,3,5-tris(2,2-dimethylpropyl)-2-iodo-4-nitro-
##MOLFORM=C21H34INO2
##CAS REGISTRY NO=41080-95-9
##MP= -300
##BP= -300
##MW= 459
##$RETENTION INDEX=0
##$CONDENSED SPECTRUM=NO
##NPOINTS= 27
##XYDATA=(XY..XY) 1 
    29        200
    39         30
    41        250
    43         50
    55         20
    57        999
    58         50
    77         20
    91         20
   115         30
   128         20
   143         20
   273         20
   274         40
   291         30
   330        400
   331         60
   346         30
   347        140
   348         20
   386        400
   403        220
   404         40
   444         70
   459         51
   460         13
   461          2