##TITLE=Library Entry 27591
##JCAMP-DX=Revision 4.10 
##DATA TYPE=MASS SPECTRUM
##SAMPLE DESCRIPTION=K.OLSSON INST. OF ORG. CHEM., GOTEBORG 5, SWEDEN
##NAMES=HP
##CAS NAME=Benzene, 1,3,5-tris(2,2-dimethylpropyl)-2-iodo-4-methyl-6-nitro-
##MOLFORM=C22H36INO2
##CAS REGISTRY NO=41080-94-8
##MP= -300
##BP= -300
##MW= 473
##$RETENTION INDEX=0
##$CONDENSED SPECTRUM=NO
##NPOINTS= 32
##XYDATA=(XY..XY) 1 
    29        180
    39         20
    41        250
    43         80
    55         30
    56         20
    57        999
    58         60
    71         20
    91         20
   115         20
   130         20
   157         20
   243         20
   287         30
   288         80
   304         40
   305         60
   344        480
   345         80
   360         60
   361        310
   362         30
   386         20
   400        300
   401         70
   417        160
   418         30
   458         50
   473         79
   474         23
   475          3