##TITLE=Library Entry 58801
##JCAMP-DX=Revision 4.10 
##DATA TYPE=MASS SPECTRUM
##SAMPLE DESCRIPTION=Frank Antolasic, RMIT Applied Chemistry Department, Vic
toria Australia 3001
##NAMES=HP
##CAS NAME=Benzene, 2-bromo-1-methyl-3-nitro-
##MOLFORM=C7H6BrNO2
##CAS REGISTRY NO=41085-43-2
##MP= -300
##BP= -300
##MW= 215
##$RETENTION INDEX=0
##$CONDENSED SPECTRUM=NO
##NPOINTS= 157
##XYDATA=(XY..XY) 1 
    11          2
    12          1
    13          3
    14          4
    15          9
    16          8
    17          1
    18          3
    20          1
    24          1
    25          1
    26         23
    27         46
    28         16
    30        238
    31          6
    32          2
    35          0
    37         45
    38        104
    39        231
    40         26
    41         11
    43         21
    44          9
    46         57
    47          1
    48          3
    49         25
    50        117
    51        156
    52         53
    53         66
    54          3
    55          4
    56          1
    57          2
    61         79
    62        221
    63        552
    64        143
    65         32
    66          2
    67          4
    68          2
    69          0
    70          1
    71          3
    73         15
    74         64
    75         54
    77        229
    78        418
    79         48
    80         30
    81         24
    82          6
    84          9
    85         27
    86         50
    87         46
    89        846
    90        999
    91         81
    92         14
    93          5
    94          1
    95          3
    96          0
    97          1
    98          1
    99          2
   100          1
   102          2
   103          2
   105         55
   106        130
   107         16
   108         11
   109          1
   112          0
   114          1
   116         10
   117         29
   118         10
   119         29
   120          1
   121          3
   127          2
   128          8
   129          6
   130          7
   131          7
   132          3
   133          3
   134          2
   136         77
   137          7
   138          1
   140          2
   141          8
   143         33
   145         28
   146          2
   147          0
   151          0
   152          1
   153          1
   154          1
   157         91
   159         86
   160          9
   161          1
   162          1
   163          1
   164          1
   165          1
   166          2
   169        218
   170         47
   171        201
   172         19
   173          1
   175          0
   178          0
   179          1
   182          1
   185        166
   187        151
   188         13
   189          2
   196          0
   198          9
   199         13
   200         13
   201         11
   202          1
   203          0
   207          1
   208          0
   209          1
   210          1
   211          3
   212          4
   215        487
   217        462
   218         42
   219          2
   235          0
   240          1
   252          1
   254          0
   258          0
   283          0
   320          0
   414          0
   418          0