##TITLE=Library Entry 19529
##JCAMP-DX=Revision 4.10 
##DATA TYPE=MASS SPECTRUM
##SAMPLE DESCRIPTION=Leung Pu, NIH, Bethesda, Maryland, U.S.
##NAMES=HP
##CAS NAME=1H-1,2,4-Triazole, 1-(tricyclohexylstannyl)-
##MOLFORM=C20H35N3Sn
##CAS REGISTRY NO=41083-11-8
##MP= -300
##BP= -300
##MW= 437
##$RETENTION INDEX=0
##$CONDENSED SPECTRUM=NO
##NPOINTS= 232
##XYDATA=(XY..XY) 1 
    41        733
    42        121
    43         84
    44          5
    47         32
    48         15
    49         14
    50         13
    51          7
    52         11
    53        113
    54         94
    55        999
    56         42
    57          4
    58          2
    63          3
    65         13
    66          5
    67         53
    68          6
    69         92
    70        114
    71          6
    77         17
    78          4
    79         42
    80          2
    81        148
    83        477
    84         85
    85          4
    86         42
    88         13
   112          1
   113          4
   115          4
   116         35
   117         82
   118         67
   119         77
   120         57
   121         97
   122          8
   123         20
   124         11
   125         26
   131          4
   132          5
   133         14
   134         10
   135         18
   136          6
   137          9
   139          2
   141          3
   143          2
   144          2
   145          2
   147          2
   152          2
   153          2
   156          6
   157          8
   158         18
   159         18
   160         32
   161         20
   162         15
   163          5
   164          3
   165          3
   166          1
   171          1
   180          4
   182          9
   184         43
   185         34
   186        267
   187        168
   188        500
   189        162
   190        340
   191          9
   192         47
   194         65
   195          5
   196          2
   197         10
   198         12
   199         29
   200         18
   201         48
   202         35
   203         89
   204         26
   205         80
   206          9
   207         19
   209          7
   216          2
   217          2
   219          2
   221          3
   232          2
   241          1
   247          3
   249         16
   250         13
   251         46
   252         33
   253         64
   254         28
   255         53
   256         22
   257         63
   258         11
   259         37
   260          7
   261         24
   263          3
   264          2
   265          1
   266          3
   268         68
   269         43
   270        111
   271         32
   272         73
   273          7
   274         13
   275          2
   276         24
   277          3
   279          2
   281          1
   282          3
   283         13
   284         14
   285         26
   286         24
   287         37
   288          5
   289          3
   291          3
   292          2
   299          6
   300          3
   301         13
   302          7
   303         23
   304          4
   305          4
   307          3
   319          2
   320          2
   321          5
   322          3
   323          4
   327          2
   328          2
   329          5
   330          3
   331         11
   333         15
   334          6
   335         16
   336         12
   337         40
   338         28
   339         61
   340         27
   341         56
   342          8
   343         15
   344          2
   345          8
   346         12
   347          4
   348         11
   349          9
   350        267
   351        173
   352        272
   353        126
   354        352
   355         94
   356         80
   357         18
   358        107
   359         23
   360          2
   361          1
   363          2
   364          4
   365         17
   366         16
   367         33
   368         24
   369         32
   370          5
   371          3
   372          2
   373          4
   413          3
   414          2
   415          8
   416          6
   417         18
   418         20
   419         54
   420         40
   421         76
   422         35
   423         56
   424         10
   425         14
   426          4
   427         12
   428          1
   429          3
   431          2
   433          8
   434          8
   435         16
   436         17
   437         29
   438         19
   439          8
   440          3
   441          4
   442          2