##TITLE=Library Entry 66004
##JCAMP-DX=Revision 4.10 
##DATA TYPE=MASS SPECTRUM
##SAMPLE DESCRIPTION=CARL DJERASSI DEPT OF CHEM STANFORD UNIV STANFORD CALIF
 94305
##NAMES=HP
##CAS NAME=Cholesta-20,24-diene-3,6-diol, (3.beta.,5.alpha.,6.alpha.)-
##MOLFORM=C27H44O2
##CAS REGISTRY NO=41084-19-9
##MP= -300
##BP= -300
##MW= 400
##$RETENTION INDEX=0
##$CONDENSED SPECTRUM=NO
##NPOINTS= 147
##XYDATA=(XY..XY) 1 
    41        570
    42         30
    43        140
    53         90
    54         20
    55        390
    56         40
    57         60
    65         30
    66         40
    67        380
    68        110
    69        890
    70         70
    71         20
    77         90
    78         30
    79        270
    80        130
    81        600
    82        130
    83         80
    91        190
    92         90
    93        999
    94        270
    95        760
    96        100
    97         50
   105        180
   106         60
   107        410
   108        190
   109        650
   110        120
   111         30
   117         40
   118         30
   119        130
   120         70
   121        240
   122         90
   123        150
   124         30
   131         80
   132         20
   133        410
   134        110
   135        190
   136        180
   137         50
   141         50
   142         10
   143         30
   144         20
   145         80
   146         40
   147        140
   148         50
   149        110
   150        110
   151         60
   157         30
   158         10
   159         70
   160         20
   161         70
   162         20
   163         60
   164         40
   165         20
   171         20
   172         10
   173         40
   174         20
   175         50
   176         10
   177         30
   185         20
   186         10
   187         40
   188         10
   189         30
   190         10
   191         10
   199         20
   200         10
   201         30
   202         10
   203         30
   204         40
   205         10
   213         40
   214         10
   215         30
   216         10
   217         20
   218         10
   219         20
   227         30
   228         10
   229         30
   230         20
   231         60
   232         20
   233         30
   243         30
   244         10
   245         50
   246         10
   247         60
   248         30
   253         30
   254         20
   255         70
   256         20
   257         40
   258         20
   259         20
   261         20
   262         20
   271        230
   272         80
   273        300
   274         60
   275         20
   276         40
   277         10
   288        180
   289        710
   290        410
   291         70
   299         50
   301         20
   302         10
   313         50
   314         10
   315         10
   339         50
   340         10
   357         20
   367         40
   368         10
   385        190
   386         50
   400        300
   401         80