##TITLE=Library Entry 20522
##JCAMP-DX=Revision 4.10 
##DATA TYPE=MASS SPECTRUM
##SAMPLE DESCRIPTION=LAC, NIDDK, NIH, Bethesda, MD 20892
##NAMES=HP
##CAS NAME=Cholestane-3,6-diol, (3.beta.,5.alpha.,6.alpha.,17.alpha.,20S)-
##MOLFORM=C27H48O2
##CAS REGISTRY NO=41083-77-6
##MP= -300
##BP= -300
##MW= 404
##$RETENTION INDEX=0
##$CONDENSED SPECTRUM=NO
##NPOINTS= 134
##XYDATA=(XY..XY) 1 
    41        557
    43        720
    45         98
    49         27
    51         13
    53        114
    55        999
    57        371
    59         70
    65         34
    67        506
    69        752
    70         39
    71         81
    73          4
    77        108
    79        503
    81        843
    82         31
    83        193
    84         13
    85         75
    86          8
    87          4
    91        260
    93        459
    95        685
    96         45
    97        132
    98          4
    99         28
   101          5
   103         11
   105        279
   107        720
   108        336
   109        256
   110         52
   111         52
   113          4
   115         25
   117         52
   119        185
   121        376
   122        117
   123        226
   124         96
   125         34
   126          3
   127         19
   128         15
   129         23
   131         73
   133        208
   135        286
   136         75
   137         47
   138         27
   142          6
   143         22
   145        106
   147        218
   149        219
   150         20
   151         31
   157         17
   159         85
   161        180
   162         38
   163         41
   165        302
   166         77
   167         12
   168          7
   171         13
   173         57
   175         72
   177         47
   178         19
   179         13
   185         11
   187         47
   188         15
   189         55
   190         36
   191         42
   192          8
   199         22
   201         70
   202         15
   203         30
   204          4
   205         26
   206         20
   207          4
   212          4
   213          5
   214          5
   215        632
   216         62
   217        169
   219         77
   220          5
   224          9
   229         20
   230         51
   231         23
   233        548
   234        254
   235          6
   243          4
   248        105
   249          5
   257         34
   259          3
   261          4
   263          4
   273          9
   274         15
   278         62
   279         11
   285         10
   292          8
   304         32
   347         16
   371         90
   372         24
   386         80
   387         23
   389         69
   390          8
   404        440
   405        114
   406         13