##TITLE=Library Entry 4672
##JCAMP-DX=Revision 4.10 
##DATA TYPE=MASS SPECTRUM
##SAMPLE DESCRIPTION=A.Pleshkova, Nesmeyanov Inst.Org.Elem.Cpds, Moscow
##NAMES=HP
##CAS NAME=N-(2-Propynyl)aziridine
##MOLFORM=C5H7N
##CAS REGISTRY NO=41104-29-4
##MP= -300
##BP= -300
##MW= 81
##$RETENTION INDEX=0
##$CONDENSED SPECTRUM=NO
##NPOINTS= 19
##XYDATA=(XY..XY) 1 
    26         14
    27         63
    28         99
    29          8
    38         14
    39        110
    40         11
    41         68
    42        999
    43         63
    44          5
    51          9
    52         38
    53         56
    54        178
    55         11
    80         16
    81         31
    82          2