##TITLE=Library Entry 45562
##JCAMP-DX=Revision 4.10 
##DATA TYPE=MASS SPECTRUM
##SAMPLE DESCRIPTION=Japan AIST/NIMC Database- Spectrum MS-NW-2889
##NAMES=HP
##CAS NAME=Sulfide, ethyl propyl
##MOLFORM=C5H12S
##CAS REGISTRY NO=4110-50-3
##MP= -300
##BP= -300
##MW= 104
##$RETENTION INDEX=794
##$CONDENSED SPECTRUM=NO
##NPOINTS= 60
##XYDATA=(XY..XY) 1 
    14          1
    15          9
    25          1
    26         18
    27        198
    28         27
    29        152
    30          3
    31          1
    32          5
    33          2
    34         11
    35         45
    36          1
    37          4
    38          7
    39         80
    40         10
    41        262
    42        112
    43        229
    44          9
    45         91
    46         89
    47        460
    48         23
    49         20
    50          1
    51          1
    53          1
    55         11
    56          1
    57          6
    58         23
    59         37
    60         35
    61        182
    62        441
    63        117
    64         21
    65          5
    69          3
    70          1
    71          5
    72          1
    73          9
    74         10
    75        999
    76         66
    77         44
    78          3
    85          1
    89         93
    90          8
    91          5
   103          7
   104        530
   105         35
   106         23
   107          1