##TITLE=Library Entry 1063
##JCAMP-DX=Revision 4.10 
##DATA TYPE=MASS SPECTRUM
##SAMPLE DESCRIPTION=MASS SPECTROMETRY CENTER, UNIV. OF UTAH; ALDRICH D19500
-6
##NAMES=HP
##CAS NAME=Benzonitrile, 3,5-dinitro-
##MOLFORM=C7H3N3O4
##CAS REGISTRY NO=4110-35-4
##MP= -300
##BP= -300
##MW= 193
##$RETENTION INDEX=0
##$CONDENSED SPECTRUM=NO
##NPOINTS= 61
##XYDATA=(XY..XY) 1 
    12         11
    25          2
    26         22
    27         47
    29         19
    30        999
    31         28
    36         15
    37         99
    38        151
    39         24
    40         15
    42          0
    45         18
    46         84
    48          7
    49         45
    50        786
    51         66
    52         30
    53         18
    60         11
    61         59
    62        205
    63         72
    64         82
    65         11
    66         10
    72         11
    73         74
    74        183
    75        343
    76         95
    77         18
    78          1
    79          4
    85          7
    86         18
    87         23
    88         56
    89         91
    90         15
    91          2
    98         11
    99        138
   100        541
   101        566
   102         62
   103          5
   115          2
   116          7
   117        186
   118         20
   131          0
   147        249
   148         24
   163          2
   177         21
   193        746
   194         65
   195         13