##TITLE=Library Entry 82599
##JCAMP-DX=Revision 4.10 
##DATA TYPE=MASS SPECTRUM
##SAMPLE DESCRIPTION=G. LUNN,ENVIRON. CONTROL,NATL. CANCER INST.,FREDERICK,M
D.,USA
##NAMES=HP
##CAS NAME=N-Ethyl-4-pyridinecarboxamide
##MOLFORM=C8H10N2O
##CAS REGISTRY NO=41116-48-7
##MP= -300
##BP= -300
##MW= 150
##$RETENTION INDEX=0
##$CONDENSED SPECTRUM=NO
##NPOINTS= 99
##XYDATA=(XY..XY) 1 
    36          6
    37          3
    38          8
    39         15
    40         19
    41         19
    42         18
    43         19
    44         59
    45          3
    49          9
    50        111
    51        334
    52         73
    53         19
    54          4
    55         21
    56         16
    57         33
    58          7
    59          1
    60          3
    61          1
    62          1
    63          3
    64          3
    65          7
    66          5
    67         10
    68          5
    69          8
    70          4
    71          7
    72         14
    73          2
    74          2
    75          9
    76         17
    77         29
    78        645
    79        134
    80         20
    81         11
    82         10
    83         10
    84         30
    85          6
    86         18
    87          1
    91          7
    92          5
    93         11
    94         14
    95          9
    96          3
    97          4
    98          1
    99          3
   100          2
   103          1
   104         11
   105         38
   106        999
   107        104
   108         12
   109          5
   110          3
   111          3
   112          2
   113          1
   114          3
   115          2
   117          5
   119          2
   120          3
   121         11
   122        107
   123         17
   124          1
   125          1
   127          1
   128          1
   129          1
   131         16
   132         16
   133          8
   134          3
   135         55
   136          5
   137          1
   139          1
   141          2
   142          2
   147          1
   148          3
   149        342
   150        338
   151         31
   152          2