##TITLE=Library Entry 67437
##JCAMP-DX=Revision 4.10 
##DATA TYPE=MASS SPECTRUM
##SAMPLE DESCRIPTION=Philip Morris R&D
##NAMES=HP
##CAS NAME=2-(3-Methyl-2-pyrazinyl)-2-propanol
##MOLFORM=C8H12N2O
##CAS REGISTRY NO=41110-31-0
##MP= -300
##BP= -300
##MW= 152
##$RETENTION INDEX=0
##$CONDENSED SPECTRUM=NO
##NPOINTS= 86
##XYDATA=(XY..XY) 1 
    36          1
    37          7
    38         22
    39         70
    40         46
    41         91
    42        149
    43        125
    44          5
    45          2
    47          0
    49          0
    50          4
    51         17
    52         52
    53         53
    54         18
    55          6
    56          1
    57          2
    58         10
    59        364
    60         10
    61          1
    62          1
    63          6
    64          7
    65         18
    66         39
    67        172
    68         82
    69          8
    70          2
    72          0
    73          0
    74          0
    75          0
    76          0
    77          2
    78         36
    79         28
    80          5
    81          2
    82          3
    83          4
    87          0
    88          0
    89          0
    90          0
    91          0
    92         15
    93        267
    94        999
    95        344
    96         19
    97          0
   101          0
   103          0
   104          0
   105          0
   106          0
   107          9
   108         11
   109         21
   110          9
   111          0
   117          1
   118          7
   119        205
   120         17
   121          3
   122          1
   125          0
   131          1
   132          2
   133         28
   134          8
   135         21
   136          3
   137        701
   138         64
   139          2
   151          2
   152         25
   153          3
   154          0