##TITLE=Library Entry 57960
##JCAMP-DX=Revision 4.10 
##DATA TYPE=MASS SPECTRUM
##SAMPLE DESCRIPTION=Japan AIST/NIMC Database- Spectrum MS-NW-8309
##NAMES=HP
##CAS NAME=Pentadecanoic acid, ethyl ester
##MOLFORM=C17H34O2
##CAS REGISTRY NO=41114-00-5
##MP= -300
##BP= -300
##MW= 270
##$RETENTION INDEX=1894
##$CONDENSED SPECTRUM=NO
##NPOINTS= 131
##XYDATA=(XY..XY) 1 
    14          1
    15          2
    17          1
    18          3
    26          3
    27         44
    28         17
    29        169
    30          5
    31          7
    32          1
    39         21
    40          6
    41        191
    42         49
    43        302
    44          9
    45         69
    46          2
    47          1
    53          9
    54         14
    55        193
    56         49
    57        188
    58         10
    59         10
    60        105
    61        129
    62          3
    65          1
    66          1
    67         24
    68         15
    69        119
    70        152
    71         83
    72          5
    73        177
    74         27
    75          6
    77          1
    79          6
    80          2
    81         21
    82         11
    83         82
    84         41
    85         41
    86          4
    87         29
    88        999
    89        129
    90          8
    91          1
    93          4
    94          1
    95         19
    96          8
    97         59
    98         34
    99          9
   100          1
   101        539
   102         47
   103          4
   107          3
   108          1
   109          9
   110          4
   111         24
   112          9
   113          5
   114          1
   115         55
   116          6
   121          4
   123          5
   124          2
   125         12
   126          3
   127          2
   129         25
   130          9
   131          1
   135          4
   137          2
   138          1
   139          6
   140          1
   141          1
   143         47
   144          9
   149          2
   151          1
   152          1
   153          3
   154          1
   157         96
   158         10
   159          1
   163          1
   167          2
   168          1
   171         22
   172          4
   177          1
   180          1
   181          1
   185         16
   186          3
   195          1
   196          1
   199         20
   200          3
   205          1
   213         19
   214          3
   223          2
   224          1
   225         63
   226          9
   227         54
   228          9
   229          1
   241         13
   242          4
   243          1
   270         50
   271         10
   272          1