##TITLE=Library Entry 81736
##JCAMP-DX=Revision 4.10 
##DATA TYPE=MASS SPECTRUM
##SAMPLE DESCRIPTION=Exported from NIST MS Search
##NAMES=HP
##CAS NAME=2,4(1H,3H)-Quinazolinedione, 3-methoxy-1-methyl-
##MOLFORM=C10H10N2O3
##CAS REGISTRY NO=41120-19-8
##MP= -300
##BP= -300
##MW= 206
##$RETENTION INDEX=0
##$CONDENSED SPECTRUM=NO
##NPOINTS= 23
##XYDATA=(XY..XY) 1 
    39         80
    50         70
    51        130
    63        100
    64        100
    77        360
    78        250
    90        100
    92        100
   104        699
   105        999
   106        100
   119         90
   131         70
   132        340
   133        290
   134        190
   146         50
   147        110
   176        509
   177        100
   206        819
   207         90