##TITLE=Library Entry 100566
##JCAMP-DX=Revision 4.10 
##DATA TYPE=MASS SPECTRUM
##SAMPLE DESCRIPTION=Exported from NIST MS Search
##NAMES=HP
##CAS NAME=2,4(1H,3H)-Quinazolinedione, 3-methoxy-
##MOLFORM=C9H8N2O3
##CAS REGISTRY NO=41120-18-7
##MP= -300
##BP= -300
##MW= 192
##$RETENTION INDEX=0
##$CONDENSED SPECTRUM=NO
##NPOINTS= 14
##XYDATA=(XY..XY) 1 
    39         60
    63        110
    64        130
    90        200
    91         90
    92        300
   119        999
   120        120
   146         46
   147          6
   162        410
   163         70
   192        310
   193         33