##TITLE=Library Entry 80540
##JCAMP-DX=Revision 4.10 
##DATA TYPE=MASS SPECTRUM
##SAMPLE DESCRIPTION=MINISTRY OF DEFENCE ERDE, WALTHAM ABBEY, ESSEX, UK
##NAMES=HP
##CAS NAME=Benzene, 1-azido-3-methyl-
##MOLFORM=C7H7N3
##CAS REGISTRY NO=4113-72-8
##MP= -300
##BP= -300
##MW= 133
##$RETENTION INDEX=0
##$CONDENSED SPECTRUM=NO
##NPOINTS= 47
##XYDATA=(XY..XY) 1 
    14         10
    15         50
    26         80
    27        210
    28        200
    37        120
    38        220
    39        620
    41        130
    42         50
    43         20
    44         30
    49         40
    50        260
    51        350
    52        480
    53         80
    54         30
    61         40
    62         80
    63        220
    64        120
    65        310
    66         50
    73         10
    74         40
    75         50
    76        110
    77        380
    78        670
    79        260
    80         20
    85         10
    86         10
    87         10
    88         20
    89         20
    90         60
    91         30
   102         20
   103         80
   104        820
   105        999
   106        110
   107         30
   133        320
   134         30