##TITLE=Library Entry 1575
##JCAMP-DX=Revision 4.10 
##DATA TYPE=MASS SPECTRUM
##SAMPLE DESCRIPTION=Japan AIST/NIMC Database- Spectrum MS-NW-6555
##NAMES=HP
##CAS NAME=Hydrazinecarboxylic acid, ethyl ester
##MOLFORM=C3H8N2O2
##CAS REGISTRY NO=4114-31-2
##MP= -300
##BP= -300
##MW= 104
##$RETENTION INDEX=0
##$CONDENSED SPECTRUM=NO
##NPOINTS= 50
##XYDATA=(XY..XY) 1 
    12          2
    13          3
    14         10
    15         38
    16         11
    17         27
    18         34
    25          5
    26         42
    27        438
    28        230
    29        823
    30         86
    31        695
    32        999
    33          8
    39          1
    40          1
    41          4
    42         16
    43         60
    44         69
    45        686
    46         36
    47          3
    48          5
    50          1
    56          1
    57          1
    58         19
    59        191
    60          5
    61          1
    62          5
    63          1
    64         13
    69          1
    71          2
    73          1
    74          3
    75          3
    76         43
    77          3
    78          1
    79          1
    89          5
   103          3
   104        214
   105         13
   106          1