##TITLE=Library Entry 71090
##JCAMP-DX=Revision 4.10 
##DATA TYPE=MASS SPECTRUM
##SAMPLE DESCRIPTION=Chemical Concepts
##NAMES=HP
##CAS NAME=Hex-4-ynoic acid, methyl ester
##MOLFORM=C7H10O2
##CAS REGISTRY NO=41143-13-9
##MP= -300
##BP= -300
##MW= 126
##$RETENTION INDEX=0
##$CONDENSED SPECTRUM=NO
##NPOINTS= 76
##XYDATA=(XY..XY) 1 
    25          1
    26         19
    27        157
    28         20
    29         37
    30          6
    31         17
    33          4
    37         16
    38         46
    39        361
    40         95
    41        612
    42         62
    43        124
    44          8
    45         17
    49          6
    50         57
    51         98
    52         69
    53        277
    54         24
    55        117
    56         12
    57         35
    58          3
    59         95
    60          6
    61         12
    62         22
    63         43
    64         13
    65        183
    66        272
    67        774
    68         46
    69         48
    70          7
    71         11
    72          4
    73          2
    74         20
    77          7
    78          2
    79          9
    80          2
    81          7
    82         16
    83         54
    84         27
    85          7
    87          5
    90          2
    91          3
    92          1
    93         22
    94         18
    95        311
    96         33
    97        172
    98        999
    99         77
   100          2
   101          2
   105          2
   107          1
   109          4
   110          4
   111        179
   112         19
   113          6
   123          2
   124         12
   125         94
   126         39