##TITLE=Library Entry 22387
##JCAMP-DX=Revision 4.10 
##DATA TYPE=MASS SPECTRUM
##SAMPLE DESCRIPTION=Japan AIST/NIMC Database- Spectrum MS-NW- 951
##NAMES=HP
##CAS NAME=Propanoic acid, 2-bromo-, butyl ester
##MOLFORM=C7H13BrO2
##CAS REGISTRY NO=41145-84-0
##MP= -300
##BP= -300
##MW= 208
##$RETENTION INDEX=1100
##$CONDENSED SPECTRUM=NO
##NPOINTS= 68
##XYDATA=(XY..XY) 1 
    14          1
    15          7
    17          1
    18          3
    25          2
    26         41
    27        296
    28        172
    29        541
    30         12
    31         27
    32          4
    36          3
    37          1
    38          5
    39         67
    40         12
    41        596
    42         32
    43         62
    44          9
    45         11
    50          2
    51          3
    53          8
    54          5
    55        101
    56        999
    57        928
    58         41
    59          2
    69          2
    71          9
    72          3
    73         21
    74         16
    75          3
    79          3
    80          5
    81          3
    82          5
    83          7
    85          1
    87          1
    93          1
    99          1
   100          2
   101          5
   105          2
   106          4
   107        128
   108          7
   109        124
   110          3
   121          2
   123          2
   129          3
   134          2
   135         89
   136          5
   137         86
   138          3
   153         59
   154          2
   155         61
   156          2
   165          4
   167          5