##TITLE=Library Entry 50115
##JCAMP-DX=Revision 4.10 
##DATA TYPE=MASS SPECTRUM
##SAMPLE DESCRIPTION=D.HENNEBERG, MAX-PLANCK INSTITUTE, MULHEIM, WEST GERMAN
Y
##NAMES=HP
##CAS NAME=Cyclopentane, 1-methyl-2-methylene-
##MOLFORM=C7H12
##CAS REGISTRY NO=41158-41-2
##MP= -300
##BP= -300
##MW= 96
##$RETENTION INDEX=732
##$CONDENSED SPECTRUM=NO
##NPOINTS= 60
##XYDATA=(XY..XY) 1 
    22          0
    25          1
    26         10
    27        119
    28         25
    29         54
    30          1
    37          5
    38         13
    39        180
    40         45
    41        161
    42         20
    43          5
    44          1
    45          4
    46          4
    49          2
    50         19
    51         39
    52         22
    53        154
    54        130
    55        210
    56         17
    57          0
    61          2
    62          4
    63         11
    64          2
    65         31
    66         33
    67        247
    68        213
    69         12
    70          0
    72          0
    73          1
    74          2
    75          4
    77         46
    78          9
    79        117
    80         17
    81        999
    82         53
    83          1
    85          0
    86          0
    87          0
    89          0
    90          0
    91          9
    92          1
    93          7
    94          2
    95         76
    96        210
    97         14
    98          0