##TITLE=Library Entry 43618
##JCAMP-DX=Revision 4.10 
##DATA TYPE=MASS SPECTRUM
##SAMPLE DESCRIPTION=Exported from NIST MS Search
##NAMES=HP
##CAS NAME=Pregn-5-ene-3,17,20-triol, (3.beta.,20S)-, 3TMS derivative
##MOLFORM=C30H58O3Si3
##CAS REGISTRY NO=41164-19-6
##MP= -300
##BP= -300
##MW= 550
##$RETENTION INDEX=2955
##$CONDENSED SPECTRUM=NO
##NPOINTS= 105
##XYDATA=(XY..XY) 1 
    41         60
    43         39
    45         48
    47         15
    55         90
    57         15
    59         27
    61         15
    67         69
    68         39
    69         39
    73        999
    74        100
    75        296
    76         21
    77         39
    78         15
    79         78
    81        151
    82         15
    83         39
    91         97
    92         15
    93        109
    94         15
    95         69
   101         15
   103         21
   105        115
   106         15
   107         84
   109         45
   115         21
   117        315
   118         36
   119        103
   120         21
   121         54
   129        121
   130         30
   131         90
   132         21
   133         90
   134          6
   135         24
   141         21
   142         15
   143        151
   144         27
   145        121
   146         21
   147        245
   148         36
   149         36
   155         27
   156         15
   157        136
   158         21
   159         75
   160          6
   161         21
   169         54
   170         15
   171         84
   172         30
   173         48
   181         15
   182          3
   183         30
   184          3
   185         36
   186         12
   187         12
   191         45
   192          6
   209         33
   210          9
   211         78
   212         12
   213         45
   214         15
   217         21
   218         21
   225         60
   226         15
   231         18
   253        806
   254        166
   255         21
   265          6
   301         15
   343        218
   344         60
   345         21
   370          9
   433        412
   434        154
   435         60
   445         21
   535         47
   536         20
   537          7
   550         34
   551         16
   552          7