##TITLE=Library Entry 61560
##JCAMP-DX=Revision 4.10 
##DATA TYPE=MASS SPECTRUM
##SAMPLE DESCRIPTION=Japan AIST/NIMC Database- Spectrum MS-NW-5997
##NAMES=HP
##CAS NAME=2,8-Decadiyne
##MOLFORM=C10H14
##CAS REGISTRY NO=4116-93-2
##MP= -300
##BP= -300
##MW= 134
##$RETENTION INDEX=0
##$CONDENSED SPECTRUM=NO
##NPOINTS= 104
##XYDATA=(XY..XY) 1 
    14          2
    15          5
    25          1
    26         21
    27        354
    28          5
    29         50
    30          2
    31          1
    36          1
    37          9
    38         32
    39        400
    40         99
    41        554
    42         37
    43          9
    44          6
    45          1
    46          1
    48          1
    49          4
    50         87
    51        217
    52        137
    53        731
    54         98
    55        165
    56         17
    57          4
    58          3
    59          1
    60          1
    61          7
    62         21
    63         54
    64         20
    65        194
    66        156
    67        257
    68        163
    69         24
    70          3
    71          2
    72          1
    73          2
    74         11
    75          9
    76          8
    77        466
    78        130
    79        548
    80         80
    81         57
    82         17
    83          3
    84          2
    85          2
    86          3
    87          3
    88          2
    89         10
    90          6
    91        999
    92        149
    93        131
    94         33
    95         18
    96          3
    97          2
    98          3
    99          1
   100          1
   101          2
   102          9
   103         91
   104         73
   105        485
   106        552
   107         63
   108          7
   109          2
   110          1
   111          2
   112          1
   113          1
   114          2
   115         43
   116         18
   117        124
   118         28
   119        828
   120         86
   121          7
   127          3
   128          6
   129          5
   130          2
   131         15
   132          5
   133        124
   134         18
   135          5
   136          1