##TITLE=Library Entry 79083
##JCAMP-DX=Revision 4.10 
##DATA TYPE=MASS SPECTRUM
##SAMPLE DESCRIPTION=Organic Synthesis Lab, MSU, Moscow.TRC 1132
##NAMES=HP
##CAS NAME=1,3-Propanedione,2,2-dimethyl-1,3-diphenyl-
##MOLFORM=C17H16O2
##CAS REGISTRY NO=41169-42-0
##MP= -300
##BP= -300
##MW= 252
##$RETENTION INDEX=0
##$CONDENSED SPECTRUM=NO
##NPOINTS= 70
##XYDATA=(XY..XY) 1 
    37          0
    38          2
    39         22
    40          3
    41         47
    42         16
    43          3
    49          0
    50         30
    51        113
    52         10
    53          1
    55          1
    57          0
    62          2
    63          5
    64          0
    65          3
    69          5
    70          5
    73          0
    74          8
    75          9
    76         20
    77        386
    78         51
    79          7
    86          0
    87          0
    89          2
    90          0
    91         41
    92          3
   101          0
   102          2
   103          6
   104          4
   105        999
   106        146
   107         10
   115          9
   116          2
   117          2
   118          1
   119         15
   120          1
   126          0
   127          2
   128          4
   129         10
   130          5
   131          4
   132          1
   133          1
   135          0
   145          1
   146          2
   147         12
   148          3
   151          0
   152          3
   153          1
   154          0
   165          1
   178          0
   181          1
   237          0
   252        104
   253         20
   254          1