##TITLE=Library Entry 51847
##JCAMP-DX=Revision 4.10 
##DATA TYPE=MASS SPECTRUM
##SAMPLE DESCRIPTION=M.G.HORNING,INST.FOR LIPID RES,BAYLOR COLL.OF MED,HOUST
ON,TEX
##NAMES=HP
##CAS NAME=4-Pyrimidinecarboxylic acid, 1,2,3,6-tetrahydro-1,3-dimethyl-2,6-
dioxo-, methyl ester
##MOLFORM=C8H10N2O4
##CAS REGISTRY NO=4116-39-6
##MP= -300
##BP= -300
##MW= 198
##$RETENTION INDEX=0
##$CONDENSED SPECTRUM=NO
##NPOINTS= 35
##XYDATA=(XY..XY) 1 
    41         10
    42         25
    45         10
    52         40
    53         65
    54         65
    55         60
    56         25
    58         10
    59         15
    67         15
    68         10
    72         30
    80         10
    81         40
    82        999
    83         65
    98         10
   111         15
   112         10
   113         25
   114         10
   126         10
   139         40
   140         15
   141         40
   142         10
   152         10
   153         20
   167         25
   169         20
   170         10
   183         20
   198        320
   199         35