##TITLE=Library Entry 29447
##JCAMP-DX=Revision 4.10 
##DATA TYPE=MASS SPECTRUM
##SAMPLE DESCRIPTION=Div. of Experiment Therapeutics WRAIR, WRAMC, Washingto
n DC 20307
##NAMES=HP
##CAS NAME=6-Chloro-2-methoxy-9-[N'-[2-dimethylaminoethyl]-N'-methyl]hydrazi
noacridine
##MOLFORM=C19H23ClN4O
##CAS REGISTRY NO=41173-51-7
##MP= -300
##BP= -300
##MW= 358
##$RETENTION INDEX=0
##$CONDENSED SPECTRUM=NO
##NPOINTS= 191
##XYDATA=(XY..XY) 1 
    42        100
    43         33
    44         27
    45          9
    47          1
    49          6
    50          2
    51          7
    52          5
    53          2
    54          2
    56         26
    58        999
    59         29
    60          0
    62          4
    63          8
    64          2
    65          2
    66          0
    68          0
    70         13
    71         12
    72         17
    73          2
    74          2
    75          5
    76          2
    77          2
    78          2
    79          2
    80          1
    82          0
    83          3
    84          7
    85          7
    86          4
    87          2
    88          2
    89          2
    90          1
    95          0
    97          2
    99         24
   100         28
   101         22
   102          3
   103          0
   104          0
   106          1
   109          0
   110          1
   111          1
   112          1
   113          2
   114          2
   115          0
   117          0
   118          0
   120          1
   121          0
   123          1
   124          1
   125          2
   126          2
   127          2
   128          1
   129          0
   130          0
   134          0
   135          0
   136          3
   137          4
   138          3
   139          2
   140          1
   141          0
   147          0
   149          1
   150          3
   151          6
   152          7
   153          4
   154          0
   160          0
   161          2
   162          2
   163          1
   164         17
   165          6
   166          2
   167          1
   173          5
   174          2
   175          2
   176          2
   177          4
   178          6
   179         24
   180          4
   181          0
   182          0
   187         10
   188          5
   189          4
   190          3
   191          4
   192          4
   193          3
   194          4
   195          0
   198          0
   200         26
   201          5
   202          7
   203          1
   205          0
   206          0
   207         29
   208          6
   209          0
   213         13
   214          9
   215          8
   216          8
   217          2
   218          2
   221          8
   222         22
   223          3
   225          1
   226          7
   227          7
   228          7
   229         10
   230          3
   231          3
   233          0
   235          0
   236          0
   239          1
   241         12
   242         15
   243         16
   244          9
   245          5
   246          1
   249          1
   250          0
   251          1
   253          0
   254          2
   255          7
   256          6
   257         56
   258         41
   259         34
   260         12
   261          6
   262          0
   263          0
   264          5
   265          3
   266          0
   267          0
   268         17
   269         24
   270         12
   271         11
   272          7
   273          1
   274          1
   284         27
   285         60
   286         21
   287         20
   288         10
   289         13
   290          2
   297          0
   298          5
   300        122
   301         21
   302         40
   303          7
   357          5
   358         52
   359         10
   360         17
   361          8
   362          1