##TITLE=Library Entry 18670
##JCAMP-DX=Revision 4.10 
##DATA TYPE=MASS SPECTRUM
##SAMPLE DESCRIPTION=Chemical Concepts
##NAMES=HP
##CAS NAME=6-Hepten-1-ol
##MOLFORM=C7H14O
##CAS REGISTRY NO=4117-10-6
##MP= -300
##BP= -300
##MW= 114
##$RETENTION INDEX=0
##$CONDENSED SPECTRUM=NO
##NPOINTS= 69
##XYDATA=(XY..XY) 1 
    24          0
    25          1
    26         33
    27        445
    29        367
    30         14
    31        673
    33          1
    35          0
    37          7
    38         28
    39        507
    40         94
    41        837
    42        381
    43        409
    44        135
    45         79
    46          2
    47          0
    49          2
    50         19
    51         33
    52         18
    53        175
    54        999
    55        873
    56         99
    57        260
    58         30
    59          3
    60          0
    61          1
    62          3
    63          6
    64          1
    65         20
    66         52
    67        731
    68        658
    69         58
    70         35
    71         60
    72         21
    73         15
    74          1
    75          0
    77         12
    78          2
    79         33
    80          6
    81        431
    82         30
    83          8
    84          3
    85         11
    86         11
    87          0
    91          1
    92          0
    93          2
    94          3
    95         23
    96         68
    97          6
    99          2
   112          0
   113          0
   114          3