##TITLE=Library Entry 19194
##JCAMP-DX=Revision 4.10 
##DATA TYPE=MASS SPECTRUM
##SAMPLE DESCRIPTION=NIST Mass Spectrometry Data Center, 1990.
##NAMES=HP
##CAS NAME=2-Decyn-1-ol
##MOLFORM=C10H18O
##CAS REGISTRY NO=4117-14-0
##MP= -300
##BP= -300
##MW= 154
##$RETENTION INDEX=0
##$CONDENSED SPECTRUM=NO
##NPOINTS= 52
##XYDATA=(XY..XY) 1 
    26         32
    27        307
    28        153
    29        382
    30         32
    31         57
    32          4
    39        565
    40        165
    41        931
    42        275
    43        625
    44         35
    50         55
    51        154
    52        165
    53        257
    54        159
    55        999
    56        236
    57        228
    58         17
    63         34
    64         14
    65        120
    66        136
    67        911
    68        222
    69        452
    70        617
    71         62
    77        205
    79        600
    80        144
    81        653
    82        185
    83        402
    84         88
    91        174
    93        454
    94        144
    95        146
    96         26
    97         78
   105         23
   107        168
   108         35
   109         27
   110         26
   111        152
   121         88
   123         91