##TITLE=Library Entry 21604
##JCAMP-DX=Revision 4.10 
##DATA TYPE=MASS SPECTRUM
##SAMPLE DESCRIPTION=NIST Mass Spectrometry Data Center
##NAMES=HP
##CAS NAME=Panaxynone
##MOLFORM=C17H22O
##CAS REGISTRY NO=4117-11-7
##MP= -300
##BP= -300
##MW= 242
##$RETENTION INDEX=2018
##$CONDENSED SPECTRUM=NO
##NPOINTS= 169
##XYDATA=(XY..XY) 1 
    26          4
    27         79
    28          9
    29         93
    30          2
    37          1
    38          4
    39        112
    40         14
    41        318
    42         31
    43        271
    44          9
    49          3
    50         30
    51         80
    52         27
    53         65
    54        128
    55        999
    56         60
    57         65
    58          3
    61         21
    62         76
    63        175
    64         24
    65         81
    66         31
    67        174
    68         71
    69         72
    70         12
    71          9
    72          3
    73          5
    74         46
    75         88
    76         76
    77        284
    78         82
    79         99
    80         22
    81        109
    82         42
    83         27
    84          4
    85          6
    86         16
    87         30
    88         26
    89        137
    90         57
    91        184
    92         27
    93         29
    94         26
    95         51
    96         43
    97          8
    98         10
    99          6
   100          4
   101         54
   102        208
   103        270
   104         44
   105         96
   106         17
   107         46
   108         11
   109         31
   110         36
   111          5
   112          1
   113         12
   114         15
   115        529
   116        152
   117        315
   118        103
   119         38
   120         25
   121         17
   122          6
   123          5
   124          1
   125          2
   126         21
   127        201
   128        583
   129        641
   130        121
   131        233
   132         37
   133         35
   134         11
   135          6
   136          2
   137          2
   138         11
   139         17
   140          6
   141         81
   142         44
   143        105
   144        113
   145        134
   146         27
   147         12
   148          3
   149          5
   150          1
   151          4
   152         26
   153         41
   154         14
   155         25
   156         77
   157        823
   158        195
   159         69
   160         13
   161          5
   162          1
   163          2
   165         17
   166         10
   167         25
   168          6
   169         13
   170         11
   171        123
   172         56
   173         17
   174          3
   175          1
   177          1
   178          1
   179          2
   180          2
   181          7
   182          2
   183          6
   184          5
   185         44
   186         11
   187         10
   188          2
   189          1
   193          1
   194          1
   195          2
   196          1
   197          2
   198          2
   199         20
   200          4
   201          3
   213         15
   214          3
   215         19
   216          3
   225          1
   227          7
   228          1
   241          4
   242          4
   243          1