##TITLE=Library Entry 98124
##JCAMP-DX=Revision 4.10 
##DATA TYPE=MASS SPECTRUM
##SAMPLE DESCRIPTION=J.Gal, ET AL.Canadian J.Chem., 51,132 (1973)
##NAMES=HP
##CAS NAME=Methanaminium, N-(bromophenylmethylene)-N-methyl-, bromide
##MOLFORM=C9H11Br2N
##CAS REGISTRY NO=41182-91-6
##MP= -300
##BP= -300
##MW= 291
##$RETENTION INDEX=0
##$CONDENSED SPECTRUM=NO
##NPOINTS= 35
##XYDATA=(XY..XY) 1 
    15         70
    39         60
    50        160
    51        160
    52         50
    59         30
    63         50
    74         40
    75         80
    76        290
    77        370
    78         50
    79         40
    80         70
    81         40
    82         60
    89         40
    91         80
    93        100
    94        430
    95         70
    96        530
   103        740
   104         80
   105         40
   116         20
   117         30
   118        999
   119        110
   121         30
   133         60
   212        200
   213         20
   214        190
   215         20