##TITLE=Library Entry 97889
##JCAMP-DX=Revision 4.10 
##DATA TYPE=MASS SPECTRUM
##SAMPLE DESCRIPTION=J.Gal, ET AL.Canadian J.Chem., 51,132 (1973)
##NAMES=HP
##CAS NAME=Benzenecarboximidoyl bromide, N-methyl-
##MOLFORM=C8H8BrN
##CAS REGISTRY NO=41182-85-8
##MP= -300
##BP= -300
##MW= 197
##$RETENTION INDEX=0
##$CONDENSED SPECTRUM=NO
##NPOINTS= 15
##XYDATA=(XY..XY) 1 
    39         40
    50         80
    51        180
    52         20
    59         30
    63         30
    75         30
    76         90
    77        310
    78         30
    91         50
   103        190
   104         20
   118        999
   119         90