##TITLE=Library Entry 35924
##JCAMP-DX=Revision 4.10 
##DATA TYPE=MASS SPECTRUM
##SAMPLE DESCRIPTION=J.Gal, ET AL.Canadian J.Chem., 51,132 (1973)
##NAMES=HP
##CAS NAME=Piperidinium, 1-(bromophenylmethylene)-, bromide
##MOLFORM=C12H15Br2N
##CAS REGISTRY NO=41182-92-7
##MP= -300
##BP= -300
##MW= 331
##$RETENTION INDEX=0
##$CONDENSED SPECTRUM=NO
##NPOINTS= 61
##XYDATA=(XY..XY) 1 
    26         30
    27        150
    29         60
    36         40
    37         30
    38         40
    39        190
    40         40
    41        590
    42         90
    43        120
    49         20
    50        130
    51        120
    52         60
    53         40
    55        120
    56         30
    63         40
    67         60
    68         60
    69        999
    70         60
    74         40
    75         70
    76        340
    77        170
    78         30
    79         50
    80        140
    81         40
    82        130
    84         30
    91         60
    95         30
   102         30
   103        950
   104        430
   105         60
   106         20
   107         70
   109         80
   117         50
   118         30
   121         20
   130         40
   148        130
   149        150
   150        120
   151        160
   152         20
   172         40
   173         30
   174         30
   228         10
   230         20
   232         10
   252        140
   253         20
   254        130
   255         20