##TITLE=Library Entry 66209
##JCAMP-DX=Revision 4.10 
##DATA TYPE=MASS SPECTRUM
##SAMPLE DESCRIPTION=Chemical Concepts
##NAMES=HP
##CAS NAME=Bicyclo[3.3.1]non-6-en-3-ol, 7-methyl-, endo-
##MOLFORM=C10H16O
##CAS REGISTRY NO=41189-07-5
##MP= -300
##BP= -300
##MW= 152
##$RETENTION INDEX=0
##$CONDENSED SPECTRUM=NO
##NPOINTS= 79
##XYDATA=(XY..XY) 1 
    26          2
    27         39
    28          7
    29         27
    31          6
    38          4
    39         67
    40         15
    41         88
    42          9
    43         35
    44          6
    45          6
    50          6
    51         22
    52         10
    53         37
    54          8
    55         33
    56         11
    57          7
    58          3
    59          2
    61          2
    62          4
    63         10
    64          5
    65         39
    66         20
    67         36
    68         10
    69         13
    70          5
    71          4
    74          2
    75          3
    76          2
    77        126
    78         36
    79        116
    80         51
    81         23
    82          5
    83          6
    84          6
    89          7
    90          5
    91        255
    92        222
    93        999
    94        113
    95         25
    96          5
    97          3
   102          2
   103          7
   104          4
   105         71
   106         48
   107         20
   108          5
   109         12
   110          2
   111          2
   115          5
   116          2
   117          8
   118          5
   119         68
   120          8
   121          2
   132          7
   134        108
   135         16
   136          2
   137          2
   152        108
   153         10
   154          2