##TITLE=Library Entry 76749
##JCAMP-DX=Revision 4.10 
##DATA TYPE=MASS SPECTRUM
##SAMPLE DESCRIPTION=J.Gal, ET AL.Canadian J.Chem., 51,132 (1973)
##NAMES=HP
##CAS NAME=Benzenecarboximidoyl bromide, N-(5-bromopentyl)-
##MOLFORM=C12H15Br2N
##CAS REGISTRY NO=41182-89-2
##MP= -300
##BP= -300
##MW= 331
##$RETENTION INDEX=0
##$CONDENSED SPECTRUM=NO
##NPOINTS= 46
##XYDATA=(XY..XY) 1 
    27        100
    28         70
    29         50
    32         40
    36         40
    39        180
    40         30
    41        420
    42         60
    43         90
    44         30
    50        120
    51        150
    53         40
    55         50
    63         40
    67         40
    69        340
    70         50
    75         50
    76        130
    77        210
    78         40
    79         40
    80         80
    81         30
    82         60
    89         40
    91         60
   103        330
   104        999
   105        110
   116         30
   117        120
   118         50
   130         40
   148         40
   149        150
   150         20
   151        130
   152         40
   169         30
   252        250
   253         50
   254        240
   255         30