##TITLE=Library Entry 77708
##JCAMP-DX=Revision 4.10 
##DATA TYPE=MASS SPECTRUM
##SAMPLE DESCRIPTION=Exported from NIST MS Search
##NAMES=HP
##CAS NAME=Benzenecarboximidoyl chloride, N-butyl-
##MOLFORM=C11H14ClN
##CAS REGISTRY NO=41182-88-1
##MP= -300
##BP= -300
##MW= 195
##$RETENTION INDEX=0
##$CONDENSED SPECTRUM=NO
##NPOINTS= 39
##XYDATA=(XY..XY) 1 
    15         71
    27        106
    28         39
    29        203
    36         92
    38         45
    39         78
    41        171
    42         35
    43         43
    49         47
    50         90
    51        100
    52         31
    55         39
    56         59
    57        110
    63         35
    74         23
    75         33
    76        100
    77        203
    78         43
    89         45
    91         59
   103        256
   104        999
   105         92
   116         33
   117         39
   118         25
   152         92
   153         23
   154         25
   155         13
   160        431
   161         55
   166         25
   168          7