##TITLE=Library Entry 4541
##JCAMP-DX=Revision 4.10 
##DATA TYPE=MASS SPECTRUM
##SAMPLE DESCRIPTION=Div. of Experiment Therapeutics WRAIR, WRAMC, Washingto
n DC 20307
##NAMES=HP
##CAS NAME=2,3,4,5,6,7-Hexahydro-3,6-dihexyl-10,11-diphenyl-bis[1,3]oxazino[
6,5-f:5',6'-H]quinoxaline
##MOLFORM=C36H44N4O2
##CAS REGISTRY NO=41193-11-7
##MP= -300
##BP= -300
##MW= 564
##$RETENTION INDEX=0
##$CONDENSED SPECTRUM=NO
##NPOINTS= 168
##XYDATA=(XY..XY) 1 
    41        383
    42        999
    43        849
    44        596
    45         15
    46          0
    47          0
    49          4
    50          3
    51         17
    52          8
    53         27
    54         13
    55        117
    56        138
    57        107
    58          5
    59          0
    60          2
    62          2
    63          5
    64          1
    65         13
    67         12
    68          5
    70        133
    71         36
    72          8
    73          1
    76          5
    77          9
    78          3
    79          1
    80          2
    81          4
    82          8
    84        222
    85         22
    86          2
    89          2
    91         36
    92          6
    93          1
    94          1
    95          2
    96          2
    98         12
    99          5
   100          1
   101          0
   102          3
   103          3
   104         13
   105          8
   106          2
   107          0
   110          1
   112         94
   114         23
   115          5
   116          0
   117          6
   118          0
   120          0
   121          0
   124          0
   125          0
   126          1
   127          1
   128          2
   129          2
   130          6
   131          3
   132          1
   133          0
   134          1
   135          0
   136          0
   139          0
   140          1
   141          0
   142          2
   143          2
   144          1
   145          2
   146          4
   147          1
   148          0
   151          1
   152          2
   153          2
   154          1
   155          3
   157          1
   159          0
   161          0
   162          0
   163          1
   165          3
   166          1
   167          2
   168          2
   169          0
   171          1
   173          7
   174          1
   175          1
   176          6
   177          2
   178          5
   179          2
   180          1
   182          2
   183          1
   184          1
   189          0
   191         30
   193          0
   203          1
   204          2
   205          2
   206          0
   226          0
   227          2
   281          0
   283          4
   284          0
   309          0
   311          3
   312          1
   325          1
   327          0
   336          0
   337          1
   338          3
   339          6
   340         27
   341          7
   342          5
   343          1
   351          1
   352          2
   353          5
   354          1
   355          2
   364          3
   365          4
   366          3
   367          1
   368          4
   369          0
   380          7
   381          2
   382         40
   383         14
   384          2
   434          1
   435          6
   436         18
   437          5
   438          1
   449          0
   450          1
   451          2
   452          5
   453         11
   454          5
   455          1