##TITLE=Library Entry 61696
##JCAMP-DX=Revision 4.10 
##DATA TYPE=MASS SPECTRUM
##SAMPLE DESCRIPTION=CARL DJERASSI DEPT OF CHEM STANFORD UNIV STANFORD CALIF
 94305
##NAMES=HP
##CAS NAME=Benzene, (3-iodopropyl)-
##MOLFORM=C9H11I
##CAS REGISTRY NO=4119-41-9
##MP= -300
##BP= -300
##MW= 246
##$RETENTION INDEX=0
##$CONDENSED SPECTRUM=NO
##NPOINTS= 61
##XYDATA=(XY..XY) 1 
    40         13
    41        100
    42         10
    43         13
    44         13
    45          6
    50         26
    51         53
    52         20
    53         10
    55          6
    57          6
    58         10
    61          6
    62         16
    63         40
    64         13
    65        116
    66         13
    67          6
    69          6
    71          6
    74         10
    75         10
    76         10
    77         36
    78         20
    79         16
    84          6
    85          6
    86          6
    87          6
    89         33
    90         20
    91        999
    92         96
    93          6
   102          6
   103         16
   104         10
   105         10
   108          6
   109         10
   110         16
   115         33
   116         10
   117         53
   118         23
   119        226
   120         26
   123          6
   127         23
   128         10
   135          6
   154         10
   155         16
   185         10
   186          6
   218         13
   246        220
   247         26