##TITLE=Library Entry 64545
##JCAMP-DX=Revision 4.10 
##DATA TYPE=MASS SPECTRUM
##SAMPLE DESCRIPTION=Div. of Experiment Therapeutics WRAIR, WRAMC, Washingto
n DC 20307
##NAMES=HP
##CAS NAME=Bis-[1,3]-oxazino[6,5-a:6',5'-f]naphthalene,2,8-dibenzyl-2,3,8,9(
1H,7H)-tetrahydro-
##MOLFORM=C28H26N2O2
##CAS REGISTRY NO=41193-15-1
##MP= -300
##BP= -300
##MW= 422
##$RETENTION INDEX=0
##$CONDENSED SPECTRUM=NO
##NPOINTS= 93
##XYDATA=(XY..XY) 1 
    41         52
    42         59
    43          6
    44          1
    45          3
    47          3
    49         16
    50         17
    51         53
    52         10
    53          4
    55          1
    59          5
    61          1
    62          1
    63         57
    65        129
    66          5
    74          4
    75          6
    77         35
    78         18
    79          5
    83          3
    84          8
    85          2
    86          8
    87          3
    89         48
    91        999
    92         51
    93          2
   101          6
   102         23
   103          3
   104          1
   106          9
   107          4
   113          2
   115         16
   118        194
   119         28
   120         16
   126          1
   127         60
   128         94
   129         21
   130          2
   131          5
   133          1
   139          5
   140          3
   141          5
   145          6
   154          5
   156        118
   157         22
   158          3
   165          1
   166          1
   167          5
   168          1
   169          4
   170          1
   182          4
   184        433
   185         84
   186         14
   198          2
   202          1
   204          1
   210          1
   212        113
   213         14
   214          1
   215          1
   226          1
   273          2
   274          7
   275          1
   286         11
   287          2
   288          1
   302         28
   303        537
   304        110
   305         10
   331          9
   332          1
   421          1
   422        245
   423         66
   424          9