##TITLE=Library Entry 109587
##JCAMP-DX=Revision 4.10 
##DATA TYPE=MASS SPECTRUM
##SAMPLE DESCRIPTION=Div. of Experiment Therapeutics WRAIR, WRAMC, Washingto
n DC 20307
##NAMES=HP
##CAS NAME=Bis-[1,3]-oxazion[5,6-f:6',5'-H]quinoline,3,10-bis(4-chlorobenzyl
)-6-trifluoromethyl-3,4,9,10(2H,11H)-tetrahydro-
##MOLFORM=C28H22Cl2F3N3O2
##CAS REGISTRY NO=41193-02-6
##MP= -300
##BP= -300
##MW= 559
##$RETENTION INDEX=0
##$CONDENSED SPECTRUM=NO
##NPOINTS= 104
##XYDATA=(XY..XY) 1 
    41         83
    42        113
    43          8
    44         26
    45         12
    47          3
    49         15
    50         42
    51         50
    52          8
    53          2
    55          2
    56          2
    57          3
    58         27
    60          1
    61         14
    62         38
    63        112
    64         20
    65         20
    66          1
    69          4
    72          1
    73         32
    74         19
    75         51
    76         16
    77         17
    78          1
    79          1
    84          8
    85          9
    86         12
    87          8
    88          5
    89        123
    90         43
    91         15
    97          4
    99         38
   101         28
   102          7
   103          1
   111          6
   112          2
   113          2
   114          2
   116          3
   117          8
   118          2
   120          2
   123          6
   124         15
   125        999
   127        375
   128         50
   129          4
   132          3
   134          1
   140          1
   147          1
   150          1
   151          4
   152         17
   153         93
   154         39
   155         34
   156         12
   158          2
   165          3
   166          1
   176          9
   177          4
   178          8
   179          1
   184          2
   196          6
   197          8
   198         11
   206          4
   224         31
   225         22
   226          9
   227          4
   234          2
   236          1
   253         83
   254         14
   255         19
   256          4
   281          7
   283          2
   378          1
   389          1
   405          2
   406         57
   407         13
   408         25
   409          5
   410          2
   559          8
   560          2
   561          5