##TITLE=Library Entry 51160
##JCAMP-DX=Revision 4.10 
##DATA TYPE=MASS SPECTRUM
##SAMPLE DESCRIPTION=Div. of Experiment Therapeutics WRAIR, WRAMC, Washingto
n DC 20307
##NAMES=HP
##CAS NAME=2,3,4,5,6,7-Hexahydro-3,6-dicyclohexyl-10,11-diphenyl-bis-[1,3]-o
xazino[6,5-f:5',6'-H]quinoxaline
##MOLFORM=C36H40N4O2
##CAS REGISTRY NO=41193-09-3
##MP= -300
##BP= -300
##MW= 560
##$RETENTION INDEX=0
##$CONDENSED SPECTRUM=NO
##NPOINTS= 44
##XYDATA=(XY..XY) 1 
    41        661
    42        161
    43         67
    44         27
    49         44
    50         17
    51         45
    52         22
    53         86
    54        159
    55        983
    56        155
    57         95
    65         19
    66          4
    67        177
    68        500
    69         54
    70         58
    77         33
    79         50
    80         21
    81         50
    82        999
    83        476
    84         79
    86         23
    91          8
    96         99
   104          5
   110         58
   111         17
   112         60
   178         15
   203          5
   204         22
   311          4
   340         56
   341         20
   342         18
   408         18
   434         20
   450          5
   451         27