##TITLE=Library Entry 28343
##JCAMP-DX=Revision 4.10 
##DATA TYPE=MASS SPECTRUM
##SAMPLE DESCRIPTION=Chuck Anderson, Aldrich Chemical Co.
##NAMES=HP
##CAS NAME=1,4,8,11-Tetraazacyclotetradecane, 1,4,8,11-tetramethyl-
##MOLFORM=C14H32N4
##CAS REGISTRY NO=41203-22-9
##MP= -300
##BP= -300
##MW= 256
##$RETENTION INDEX=0
##$CONDENSED SPECTRUM=NO
##NPOINTS= 72
##XYDATA=(XY..XY) 1 
    15          5
    17          0
    18          2
    27          5
    28         14
    29          5
    30          9
    32          1
    39          3
    40          2
    41         36
    42        146
    43         50
    44         45
    45          0
    54          3
    55          6
    56         28
    57        117
    58        999
    59         35
    64          1
    67          2
    68          9
    69          8
    70        188
    71        127
    72        120
    73          5
    81          1
    82         68
    83         22
    84        187
    85         27
    86         25
    87          2
    94          1
    95          3
    96         20
    97         43
    98         20
    99         19
   100          4
   101         14
   103          2
   110          1
   111          2
   112          8
   113         54
   114          5
   115         34
   116          1
   125          2
   126          5
   127         25
   128         19
   129         23
   130          3
   131          4
   139          2
   140          1
   141         35
   142          3
   143          5
   144          1
   153          1
   154         18
   155          6
   156          3
   160          6
   186          2
   256          1