##TITLE=Library Entry 57565
##JCAMP-DX=Revision 4.10 
##DATA TYPE=MASS SPECTRUM
##SAMPLE DESCRIPTION=NIST Mass Spectrometry Data Center
##NAMES=HP
##CAS NAME=Fluoromide
##MOLFORM=C10H4Cl2FNO2
##CAS REGISTRY NO=41205-21-4
##MP= -300
##BP= -300
##MW= 259
##$RETENTION INDEX=1745
##$CONDENSED SPECTRUM=NO
##NPOINTS= 182
##XYDATA=(XY..XY) 1 
    24          5
    25          1
    26          6
    27          6
    28          9
    29          1
    31         42
    32          2
    33         10
    35          8
    36          7
    37         24
    38         44
    39         32
    40          4
    41          2
    42          1
    44          3
    45          8
    46          3
    47         30
    48          2
    49         19
    50         61
    51         44
    52         72
    53          9
    54          5
    55          5
    56         64
    57        155
    58         30
    59         61
    60         10
    61         55
    62         98
    63        123
    64         41
    65         11
    66          1
    67          3
    68         26
    69         37
    70         15
    71          6
    72          2
    73         12
    74         37
    75        125
    76         24
    77          3
    78          4
    79          2
    80         14
    81        120
    82        384
    83         65
    84         18
    85         14
    87        999
    88         58
    89        452
    90         42
    91          9
    92          7
    93          5
    94        365
    95        130
    96        226
    97         11
    98         45
    99          7
   100          3
   101         48
   102         30
   103          6
   105          4
   106         16
   107         14
   108         80
   109        761
   110         61
   111         12
   112          2
   113          1
   114          2
   115         21
   116         13
   118          3
   119          1
   120          5
   122        364
   123         16
   124        235
   125         10
   126         40
   127          2
   129         14
   130          9
   132         21
   133         13
   134          2
   137        949
   138         76
   139          5
   140          1
   141         11
   142          3
   143          4
   144          2
   145          3
   146          2
   148          5
   149          1
   150          5
   151          1
   152          3
   153          1
   154          3
   155          1
   156          1
   157          1
   158          1
   160          1
   161          9
   162          1
   164          1
   166          1
   167         10
   168         56
   169          8
   170         17
   171          2
   175          1
   176          1
   177          3
   178          1
   180        961
   181        102
   182        312
   183         31
   184          3
   186          1
   188          9
   189          2
   191          1
   194          1
   195         14
   196         65
   197         12
   198         20
   199          2
   202          3
   203          3
   204          3
   205          2
   206          1
   215          3
   216          1
   217         12
   218          1
   219          6
   221          1
   223          1
   224         24
   225          6
   226          8
   227          3
   231          3
   233          2
   240          2
   242          1
   254          1
   255          1
   256          1
   259        998
   260        118
   261        651
   262         72
   263        104
   264         12
   265          1