##TITLE=Library Entry 610
##JCAMP-DX=Revision 4.10 
##DATA TYPE=MASS SPECTRUM
##SAMPLE DESCRIPTION=NIST Mass Spectrometry Data Center
##NAMES=HP
##CAS NAME=N-Propionylimidazole
##MOLFORM=C6H8N2O
##CAS REGISTRY NO=4122-52-5
##MP= -300
##BP= -300
##MW= 124
##$RETENTION INDEX=0
##$CONDENSED SPECTRUM=NO
##NPOINTS= 45
##XYDATA=(XY..XY) 1 
    13          8
    14         33
    15         30
    16          5
    18          3
    25         18
    26        171
    27        503
    28        398
    29        999
    30         28
    31          9
    32         13
    37         11
    38         67
    39        150
    40        611
    41        337
    42        117
    43         14
    44          6
    48          5
    50          2
    51         18
    52         41
    53         26
    54         34
    55         66
    56        109
    57        825
    58         30
    65          3
    66         16
    67        108
    68        723
    69        934
    70         46
    79          2
    81         30
    82          4
    95         92
    96        387
    97         23
   124        297
   125         23