##TITLE=Library Entry 6177
##JCAMP-DX=Revision 4.10 
##DATA TYPE=MASS SPECTRUM
##SAMPLE DESCRIPTION=Chemical Concepts
##NAMES=HP
##CAS NAME=1-Imidazol-1-yl-2-methylpropan-1-one
##MOLFORM=C7H10N2O
##CAS REGISTRY NO=4122-53-6
##MP= -300
##BP= -300
##MW= 138
##$RETENTION INDEX=0
##$CONDENSED SPECTRUM=NO
##NPOINTS= 63
##XYDATA=(XY..XY) 1 
    25          2
    26         32
    27        184
    28         77
    29          8
    30          0
    31          0
    32          1
    37          4
    38         15
    39        111
    40        183
    41        315
    42        100
    43        999
    44         31
    45          2
    47          0
    50          2
    51          4
    52          8
    53          8
    54          5
    55         27
    56          7
    57          1
    64          0
    65          1
    66          4
    67         34
    68        278
    69        285
    70        130
    71        276
    72         13
    73          3
    74          0
    77          3
    78          1
    79          2
    80          1
    81          4
    82          2
    83          1
    88          1
    91          0
    92          0
    93          1
    94          0
    95         21
    96          2
    97          0
   105          2
   107          1
   109          3
   110         21
   111          2
   123          1
   125          0
   137          1
   138        124
   139         12
   140          0