##TITLE=Library Entry 50584
##JCAMP-DX=Revision 4.10 
##DATA TYPE=MASS SPECTRUM
##SAMPLE DESCRIPTION=NIST Mass Spectrometry Data Center
##NAMES=HP
##CAS NAME=Furan, 2,5-diethyltetrahydro-
##MOLFORM=C8H16O
##CAS REGISTRY NO=41239-48-9
##MP= -300
##BP= -300
##MW= 128
##$RETENTION INDEX=897
##$CONDENSED SPECTRUM=NO
##NPOINTS= 45
##XYDATA=(XY..XY) 1 
    26          5
    27         72
    28         24
    29        132
    30          4
    31         21
    38          4
    39         97
    40         10
    41        197
    42        198
    43        232
    44         11
    45         11
    51          8
    52          5
    53         41
    54         24
    55        633
    56         37
    57        216
    58         20
    59        113
    60          4
    62          2
    65          6
    66          3
    67         19
    68         12
    69         50
    70        246
    71         46
    72          4
    77          3
    81        999
    82         69
    83         15
    84          5
    97          3
    98         43
    99        634
   100         56
   127         11
   128         25
   129          3