##TITLE=Library Entry 75924
##JCAMP-DX=Revision 4.10 
##DATA TYPE=MASS SPECTRUM
##SAMPLE DESCRIPTION=E. UCCIANI UNIV. OF PROVENCE, MARSEILLES, FRANCE
##NAMES=HP
##CAS NAME=Heptadecanedioic acid, 2-ethyl-, dimethyl ester
##MOLFORM=C21H40O4
##CAS REGISTRY NO=41240-35-1
##MP= -300
##BP= -300
##MW= 356
##$RETENTION INDEX=0
##$CONDENSED SPECTRUM=NO
##NPOINTS= 133
##XYDATA=(XY..XY) 1 
    27         49
    28        160
    29        111
    31         25
    32         37
    39         37
    40         12
    41        309
    42         62
    43        259
    45         49
    53         12
    54         37
    55        457
    56         74
    57        148
    58         12
    59        148
    67         74
    68         49
    69        272
    70         49
    71         74
    72         12
    73         49
    74        259
    75         86
    79         12
    80         12
    81         74
    82         37
    83        198
    84        111
    85         49
    87        333
    88         37
    93         12
    94         12
    95         74
    96         49
    97        136
    98        321
    99         37
   101         49
   102        999
   103         62
   104         12
   107         12
   108         12
   109         49
   110         25
   111         74
   112        259
   113         37
   114         12
   115         74
   116         25
   121         12
   122         25
   123         25
   124         25
   125         49
   126        296
   127         37
   129         37
   130         12
   135         25
   136         12
   137         25
   138         12
   139         25
   140        111
   141         25
   143         25
   144         12
   149         12
   151         12
   152         12
   153         12
   154         25
   157         12
   158         12
   165         12
   166         12
   167         12
   168         49
   171         12
   172         25
   180         12
   181         12
   182         37
   186         25
   196         25
   199         12
   200         25
   205         12
   209         12
   210         49
   211         12
   213         12
   222         25
   223         37
   224         25
   227         12
   228         12
   239         12
   241         12
   250         12
   251         25
   254         25
   255        148
   256         37
   263         12
   264         37
   265         25
   268         12
   269         12
   270         12
   271         12
   282         12
   283         99
   284         25
   292         25
   296         25
   297         74
   298         25
   324         74
   325         86
   326         25
   327         12
   328         37
   329         12
   356         12