##TITLE=Library Entry 97470
##JCAMP-DX=Revision 4.10 
##DATA TYPE=MASS SPECTRUM
##SAMPLE DESCRIPTION=Japan AIST/NIMC Database- Spectrum MS-NW-5061
##NAMES=HP
##CAS NAME=Acetic acid, trichloro-, anhydride
##MOLFORM=C4Cl6O3
##CAS REGISTRY NO=4124-31-6
##MP= -300
##BP= -300
##MW= 306
##$RETENTION INDEX=1471
##$CONDENSED SPECTRUM=NO
##NPOINTS= 103
##XYDATA=(XY..XY) 1 
    12         19
    13          3
    14          1
    16         12
    28        112
    29          2
    32          1
    35         71
    36          1
    37         22
    40          7
    41          7
    42          4
    43          3
    44        371
    45          5
    46          2
    47        239
    48         31
    49         76
    50          9
    51          1
    52          1
    55          2
    56          2
    58          2
    59          7
    60          3
    61          3
    63        118
    64          4
    65         40
    66          1
    70          5
    72          3
    75          5
    76         13
    77          4
    78          3
    79          4
    80          1
    81          3
    82        303
    83         10
    84        198
    85          6
    86         32
    87          1
    90          6
    91          9
    92          4
    93          2
    94          9
    95          1
    96          6
    97          1
    98          2
   100          1
   101          1
   103          1
   104          3
   105          3
   106          2
   107          2
   109          1
   110         79
   111         15
   112         50
   113         10
   114          9
   115          2
   116          1
   117        999
   118         15
   119        947
   120         13
   121        305
   122          5
   123         33
   124          1
   126          2
   127          4
   128          3
   129          9
   130          1
   131          9
   133          3
   134          2
   136          2
   138          1
   145         70
   146          2
   147         64
   148          2
   149         20
   151          2
   161          9
   163         10
   164         12
   165          6
   166         14
   167          2
   168          8