##TITLE=Library Entry 1542
##JCAMP-DX=Revision 4.10 
##DATA TYPE=MASS SPECTRUM
##SAMPLE DESCRIPTION=Japan AIST/NIMC Database- Spectrum MS-NW-1925
##NAMES=HP
##CAS NAME=DL-Xylose
##MOLFORM=C5H10O5
##CAS REGISTRY NO=41247-05-6
##MP= -300
##BP= -300
##MW= 150
##$RETENTION INDEX=0
##$CONDENSED SPECTRUM=NO
##NPOINTS= 90
##XYDATA=(XY..XY) 1 
    12          6
    13         16
    14         72
    15        304
    16          7
    17         29
    18        112
    19         11
    24          3
    25         12
    26         52
    27        135
    28        111
    29        631
    30        141
    31        999
    32        226
    33         31
    36          3
    37          7
    38          9
    39         48
    40         24
    41         42
    42        340
    43        689
    44        239
    45        150
    46          4
    47         43
    49          5
    50          2
    51          2
    52          2
    53         11
    54         22
    55        100
    56         56
    57        164
    58         55
    59         18
    60        853
    61        496
    62         25
    63          2
    67          3
    68         35
    69         28
    70          7
    71        164
    72        192
    73        927
    74         65
    75          9
    76          1
    77          4
    79          1
    80          1
    81          2
    82          2
    83          9
    84          9
    85         48
    86         58
    87          9
    88          7
    89         15
    90         19
    91         49
    92          2
    95          6
    96          9
    97          4
    98          3
    99          1
   101         28
   102         14
   103         43
   104          5
   110          1
   111          1
   112          1
   113          1
   114         11
   115          2
   119         24
   120          2
   121          2
   132          2
   133          1