##TITLE=Library Entry 62532
##JCAMP-DX=Revision 4.10 
##DATA TYPE=MASS SPECTRUM
##SAMPLE DESCRIPTION=Japan AIST/NIMC Database- Spectrum MS-IW- 630
##NAMES=HP
##CAS NAME=p-Toluenesulfonic anhydride
##MOLFORM=C14H14O5S2
##CAS REGISTRY NO=4124-41-8
##MP= -300
##BP= -300
##MW= 326
##$RETENTION INDEX=0
##$CONDENSED SPECTRUM=NO
##NPOINTS= 84
##XYDATA=(XY..XY) 1 
    27          4
    28          7
    38          2
    39         35
    40          3
    41         12
    44          4
    45          4
    48          5
    50          7
    51         16
    52          6
    53          5
    55          1
    61          1
    62          5
    63         25
    64         23
    65        161
    66          9
    67          6
    69          1
    71          1
    74          1
    75          2
    76          2
    77         35
    78          9
    79         20
    80          3
    86          1
    87          1
    89         42
    90         28
    91        999
    92         99
    93          4
    95          2
   105          1
   106          2
   107         66
   108         22
   109          2
   111          4
   115          1
   121          2
   122          2
   123          4
   124          4
   128          1
   138          1
   139         55
   140          9
   141          4
   152          2
   153          2
   154          2
   155        621
   156         65
   157         33
   158          3
   163          1
   165          6
   166          3
   167          2
   170          2
   172         50
   173          4
   174          3
   178          1
   181          2
   182          2
   183          2
   198          2
   214          1
   262        132
   263         21
   264          8
   265          1
   278          1
   326         59
   327          9
   328          7
   329          1