##TITLE=Library Entry 20940
##JCAMP-DX=Revision 4.10 
##DATA TYPE=MASS SPECTRUM
##SAMPLE DESCRIPTION=E.UCCIANI UNIV. OF PROVENCE, MARSEILLES, FRANCE
##NAMES=HP
##CAS NAME=Octanedioic acid, 2-undecyl-, dimethyl ester
##MOLFORM=C21H40O4
##CAS REGISTRY NO=41240-32-8
##MP= -300
##BP= -300
##MW= 356
##$RETENTION INDEX=0
##$CONDENSED SPECTRUM=NO
##NPOINTS= 158
##XYDATA=(XY..XY) 1 
    27        190
    28        121
    29        431
    31         52
    39        138
    40         52
    41        828
    42        155
    43        915
    44         52
    45        121
    50         17
    51         17
    52         17
    53         86
    54        121
    55        999
    56        155
    57        397
    58         34
    59        310
    60         17
    65         17
    66         17
    67        276
    68        121
    69        569
    70         86
    71        172
    72         34
    73         86
    74        414
    75        138
    76         17
    77         34
    78         17
    79         69
    80         52
    81        293
    82        121
    83        328
    84        190
    85        121
    87        931
    88         86
    91         34
    92         17
    93         69
    94         34
    95        224
    96        103
    97        362
    98        345
    99         69
   100         69
   101         86
   102         17
   105         17
   107         52
   108         34
   109        121
   110        121
   111        121
   112        190
   113         86
   114         86
   115         52
   116         52
   119         17
   120         17
   121         34
   122         17
   123         86
   124         52
   125         69
   126         17
   127         52
   128         86
   129        241
   130         34
   132         52
   133         34
   134         17
   135         34
   136         34
   137         69
   138        621
   139         86
   140         34
   141         52
   142        138
   143        121
   144         34
   145         52
   147         17
   148         17
   149         17
   150         17
   151         52
   152         69
   153         34
   154         34
   155         34
   156         34
   157         52
   160        121
   161         17
   162         17
   163         17
   165         34
   166         34
   169         17
   170        345
   171         52
   172         17
   180         34
   183         17
   184         52
   185         69
   186         34
   194         34
   195         17
   196        190
   197         52
   199         34
   202        724
   203         86
   204         17
   210         17
   212         69
   214         34
   221         17
   222         17
   226         86
   227         52
   228        638
   229        121
   230         17
   240         34
   241         34
   263         17
   264         52
   265         34
   268         17
   269         17
   270         17
   282         17
   283         86
   284         34
   293         34
   297         17
   298        103
   299         34
   324         69
   325        103
   326         34
   356         34
   357         17