##TITLE=Library Entry 52871
##JCAMP-DX=Revision 4.10 
##DATA TYPE=MASS SPECTRUM
##SAMPLE DESCRIPTION=Japan AIST/NIMC Database- Spectrum MS-NW-6388
##NAMES=HP
##CAS NAME=Dichloroacetic anhydride
##MOLFORM=C4H2Cl4O3
##CAS REGISTRY NO=4124-30-5
##MP= -300
##BP= -300
##MW= 238
##$RETENTION INDEX=1248
##$CONDENSED SPECTRUM=NO
##NPOINTS= 76
##XYDATA=(XY..XY) 1 
    12          7
    13         19
    24          1
    25          3
    26          2
    27          1
    28         88
    29         34
    30          1
    35         37
    36        150
    37         11
    38         51
    39          1
    40          3
    41         28
    42          3
    43          2
    44        101
    45         38
    46          1
    47         84
    48        243
    49         78
    50         81
    51         20
    52          1
    55          1
    56          2
    57          2
    59          1
    60          2
    61          1
    62          1
    63         29
    64          3
    65         11
    66          1
    67          1
    69          1
    70          1
    75          1
    76         84
    77          5
    78         29
    79          2
    82         33
    83        999
    84         80
    85        614
    86         48
    87         98
    88          7
    93          3
    94          1
    95          2
    96          1
    97          1
   110         18
   111        391
   112         20
   113        247
   114          7
   115         41
   116          1
   117          1
   119          1
   127          1
   129          2
   130          1
   131          1
   132          1
   146          1
   148          1
   159          1
   161          1