##TITLE=Library Entry 18985
##JCAMP-DX=Revision 4.10 
##DATA TYPE=MASS SPECTRUM
##SAMPLE DESCRIPTION=Japan AIST/NIMC Database- Spectrum MS-NW-2225
##NAMES=HP
##CAS NAME=3-Nonenoic acid
##MOLFORM=C9H16O2
##CAS REGISTRY NO=4124-88-3
##MP= -300
##BP= -300
##MW= 156
##$RETENTION INDEX=0
##$CONDENSED SPECTRUM=NO
##NPOINTS= 122
##XYDATA=(XY..XY) 1 
    14          2
    15         14
    16          2
    17          3
    18         10
    25          1
    26         22
    27        369
    28         58
    29        591
    30         14
    31         16
    32          9
    36          1
    37          5
    38         17
    39        330
    40         57
    41        953
    42        384
    43        458
    44         31
    45         88
    46          3
    47          2
    49          1
    50         16
    51         41
    52         24
    53        185
    54        406
    55        999
    56        405
    57        228
    58         91
    59         37
    60        211
    61         24
    62          4
    63          8
    64          2
    65         30
    66         22
    67        277
    68        184
    69        332
    70        295
    71        208
    72         22
    73        312
    74         28
    75          3
    76          2
    77         30
    78         11
    79         49
    80         22
    81        325
    82         92
    83        117
    84        178
    85         64
    86        108
    87        142
    88         23
    89          2
    91         14
    92          5
    93         12
    94        103
    95         97
    96        538
    97        193
    98         18
    99        144
   100        181
   101         99
   102          9
   103          2
   104          2
   105         14
   106          8
   107         11
   108          3
   109         72
   110         58
   111         21
   112          8
   113         56
   114         85
   115         10
   116          1
   118          1
   119          1
   120         22
   121          5
   122          9
   123         41
   124          5
   125         19
   126          5
   127         35
   128          5
   129          1
   130          1
   131          1
   132          1
   133          1
   134          1
   135          5
   136          3
   137          5
   138        296
   139         39
   140          4
   141          3
   152          3
   153          9
   154          8
   155          1
   156         27
   157          4