##TITLE=Library Entry 48779
##JCAMP-DX=Revision 4.10 
##DATA TYPE=MASS SPECTRUM
##SAMPLE DESCRIPTION=Chemical Concepts
##NAMES=HP
##CAS NAME=1,3-Cyclopentadiene, 5,5-dimethyl-
##MOLFORM=C7H10
##CAS REGISTRY NO=4125-18-2
##MP= -300
##BP= -300
##MW= 94
##$RETENTION INDEX=0
##$CONDENSED SPECTRUM=NO
##NPOINTS= 43
##XYDATA=(XY..XY) 1 
    26          7
    27         69
    29          6
    31          2
    37          7
    38         20
    39        117
    40         19
    41         33
    42          4
    43          2
    44          1
    45          2
    46          5
    49          3
    50         40
    51         98
    52         43
    53         61
    54         16
    55         10
    61          3
    62          9
    63         17
    64          1
    65         40
    66         25
    67         11
    71          0
    73          1
    74         15
    75          7
    76          3
    77        466
    78         84
    79        999
    80         74
    89          3
    91        167
    92         13
    93        178
    94        347
    95         23