##TITLE=Library Entry 57938
##JCAMP-DX=Revision 4.10 
##DATA TYPE=MASS SPECTRUM
##SAMPLE DESCRIPTION=A.A.Kutin, Moscow, Russia
##NAMES=HP
##CAS NAME=Pentanoic acid, 4-methyl-2-methylamino-
##MOLFORM=C7H15NO2
##CAS REGISTRY NO=4125-95-5
##MP= -300
##BP= -300
##MW= 145
##$RETENTION INDEX=0
##$CONDENSED SPECTRUM=NO
##NPOINTS= 101
##XYDATA=(XY..XY) 1 
    33          3
    39         74
    40         33
    41        219
    42        547
    43         87
    44        278
    45         39
    46         10
    47          1
    48          0
    49          0
    50          3
    51          6
    52          5
    53         13
    54         17
    55         29
    56         54
    57         44
    58         65
    59          6
    60         24
    61          1
    62          0
    63          0
    64          0
    65          3
    66          2
    67          9
    68         23
    69        137
    70        203
    71        112
    72         47
    73          8
    74         96
    75          3
    76          1
    77          1
    78          0
    79          1
    80          2
    81          2
    82          6
    83          4
    84         27
    85         10
    86         35
    88        999
    89         92
    90          7
    91          2
    92          0
    93          0
    94          1
    95          1
    96          1
    97          3
    98         15
   100        942
   101         64
   102          3
   103          0
   104          0
   105          1
   106          0
   107          0
   109          0
   110          1
   111          1
   112          1
   113          0
   114          1
   115          3
   116          3
   117          1
   118          0
   119          0
   120          0
   121          1
   123          0
   125          1
   126          0
   127          0
   128          0
   129          0
   130          0
   131          0
   133          1
   134          0
   135          1
   137          0
   138          0
   139          0
   141          0
   142          0
   144          1
   145         10
   146          2
   147          0