##TITLE=Library Entry 56269
##JCAMP-DX=Revision 4.10 
##DATA TYPE=MASS SPECTRUM
##SAMPLE DESCRIPTION=V.G.Zaikin, TIPS, Russian Acad. Sci.
##NAMES=HP
##CAS NAME=Azetidine, TMS derivative
##MOLFORM=C6H15NSi
##CAS REGISTRY NO=41268-75-1
##MP= -300
##BP= -300
##MW= 129
##$RETENTION INDEX=0
##$CONDENSED SPECTRUM=NO
##NPOINTS= 28
##XYDATA=(XY..XY) 1 
    29         50
    43        160
    44         10
    45        190
    46         20
    53        620
    60         50
    61         30
    70        120
    71         20
    72         35
    73        820
    74         60
    75         35
    86        999
    87        100
    88         50
   101        330
   102         30
   103         20
   114        500
   115         50
   116         30
   128         35
   129        440
   130         54
   131         17
   132          1