##TITLE=Library Entry 66027
##JCAMP-DX=Revision 4.10 
##DATA TYPE=MASS SPECTRUM
##SAMPLE DESCRIPTION=NIST Mass Spectrometry Data Center
##NAMES=HP
##CAS NAME=Trichloroethanol, TMS derivative
##MOLFORM=C5H11Cl3OSi
##CAS REGISTRY NO=41262-38-8
##MP= -300
##BP= -300
##MW= 220
##$RETENTION INDEX=1020
##$CONDENSED SPECTRUM=NO
##NPOINTS= 117
##XYDATA=(XY..XY) 1 
    14          1
    15          5
    25          1
    26          4
    27          4
    28          4
    29         11
    30          1
    31          3
    35          2
    36          1
    37          1
    38          1
    39          2
    41          3
    42         16
    43         58
    44         17
    45         82
    46          6
    47         19
    48          5
    49         31
    50          2
    51          9
    52          1
    53          7
    54          2
    55         11
    56          3
    57          9
    58         28
    59         30
    60         10
    61         26
    62          3
    63         40
    64          4
    65         45
    66          3
    67         12
    68          1
    69          2
    70          3
    71          4
    72         16
    73        474
    74         42
    75         36
    76          5
    77         70
    78          8
    79         52
    80          5
    81         11
    82          8
    83          4
    84          5
    85         12
    86          7
    87          3
    88          7
    89          1
    90          1
    91          1
    93        999
    94         87
    95        409
    96         39
    97         17
    98          8
    99          3
   100          2
   101          2
   103        160
   104         15
   105          7
   106          1
   107          1
   111          1
   112          1
   113         22
   114          2
   115         16
   116          1
   117         24
   119         21
   121          7
   123          3
   125          1
   133          1
   135          2
   137          1
   139          1
   141          1
   155          1
   157          1
   169         33
   170          3
   171         22
   172          2
   173          4
   184          1
   185         11
   186          2
   187          8
   188          1
   189          2
   191          1
   204          6
   205         57
   206         11
   207         57
   208          7
   209         19
   210          2
   211          2