##TITLE=Library Entry 58205
##JCAMP-DX=Revision 4.10 
##DATA TYPE=MASS SPECTRUM
##SAMPLE DESCRIPTION=A.A.Kutin, Moscow, Russia
##NAMES=HP
##CAS NAME=4-Thiazolidinone, 3-methyl-5-(3-methyl-4-oxo-2-thioxo-5-thiazolid
inylidene)-2-thioxo-
##MOLFORM=C8H6N2O2S4
##CAS REGISTRY NO=41270-34-2
##MP= -300
##BP= -300
##MW= 290
##$RETENTION INDEX=0
##$CONDENSED SPECTRUM=NO
##NPOINTS= 191
##XYDATA=(XY..XY) 1 
    33          7
    34          7
    35          0
    36          4
    37          3
    38          9
    39         11
    40         33
    41         12
    42         14
    44        106
    45        215
    46         50
    47         16
    48          2
    49          0
    50          3
    51          8
    52         18
    53          9
    54          4
    55          6
    56         69
    57         27
    58         32
    59          9
    60          6
    61          5
    62          2
    64        155
    65          9
    66         15
    67          2
    68          8
    69         10
    70         41
    72        357
    73        216
    74         39
    75         13
    76         98
    77         36
    78         13
    79          4
    80          9
    81          3
    82          6
    84         94
    85         26
    86         50
    88        999
    89         59
    90         93
    91          6
    92          3
    93          2
    94          7
    95          6
    96          7
    97          7
    98          2
   100         15
   101          2
   102         17
   103          3
   104         22
   105        305
   106         14
   107         27
   108          2
   109          1
   110          2
   111          1
   112          2
   113          2
   114          3
   116        389
   117         29
   118         33
   119          3
   120          2
   121          1
   122          0
   125          0
   126          0
   127          0
   128          3
   129          2
   130          5
   131          4
   132          2
   133          2
   134          1
   135          2
   136          0
   137          1
   139          1
   140          0
   141          2
   142          1
   143          0
   144          0
   145         11
   146          8
   147          2
   148          4
   149          2
   150          0
   151          0
   152          1
   153          0
   154          0
   155          0
   156          0
   158          0
   159          1
   160          2
   161          6
   162          1
   163          1
   164          1
   165          0
   166          0
   167          2
   168          2
   169         10
   170          1
   171          2
   172          1
   173          5
   174          0
   175          0
   176          0
   177          0
   178          0
   180          0
   181          0
   182          0
   184          0
   185          1
   186          2
   187          5
   189        413
   190         43
   191         59
   192          5
   193          4
   194          0
   195          1
   201          1
   202          0
   203          1
   204          0
   205          0
   207          1
   208          0
   209          0
   211          1
   214          0
   215          1
   217         43
   218          5
   219          6
   220          1
   221          1
   222          2
   223          0
   232          0
   235          0
   236          0
   243          0
   247          0
   248          1
   249          2
   250          0
   251          0
   262          1
   263          4
   264          0
   265          0
   274          2
   275          0
   286          0
   287          2
   288          2
   290        218
   291         29
   292         42
   293          4
   294          3
   295          0