##TITLE=Library Entry 20742
##JCAMP-DX=Revision 4.10 
##DATA TYPE=MASS SPECTRUM
##SAMPLE DESCRIPTION=NIST Mass Spectrometry Data Center, 1990.
##NAMES=HP
##CAS NAME=Cyclopropane, 1,1,2,2-tetramethyl-
##MOLFORM=C7H14
##CAS REGISTRY NO=4127-47-3
##MP= -300
##BP= -300
##MW= 98
##$RETENTION INDEX=621
##$CONDENSED SPECTRUM=NO
##NPOINTS= 36
##XYDATA=(XY..XY) 1 
    14         18
    15         42
    16          8
    27        150
    28         11
    29         88
    37          8
    38         32
    39        321
    40         67
    41        536
    42         40
    43        137
    44          5
    50         15
    51         32
    52         11
    53         64
    54          5
    55        999
    56        105
    57         16
    63          7
    65         21
    66          7
    67         51
    68          7
    69         19
    70          6
    77          8
    79         12
    81         15
    83        666
    84         46
    98        150
    99         13