##TITLE=Library Entry 3445
##JCAMP-DX=Revision 4.10 
##DATA TYPE=MASS SPECTRUM
##SAMPLE DESCRIPTION=Exported from NIST MS Search
##NAMES=HP
##CAS NAME=Cyclopropane, 1,1,2-trimethyl-
##MOLFORM=C6H12
##CAS REGISTRY NO=4127-45-1
##MP= -300
##BP= -300
##MW= 84
##$RETENTION INDEX=550
##$CONDENSED SPECTRUM=NO
##NPOINTS= 59
##XYDATA=(XY..XY) 1 
     1          6
     2          1
    12          1
    13          2
    14          9
    15         56
    16          2
    25          1
    26         24
    27        181
    28         29
    29         71
    30          1
    31          1
    32          1
    33          1
    36          1
    37         11
    38         27
    39        254
    40         51
    41        999
    42         99
    43         56
    44          2
    49          2
    50         13
    51         21
    52          7
    53         60
    54         11
    55        103
    56         64
    57         13
    60          1
    61          1
    62          3
    63          5
    64          1
    65          8
    66          4
    67         36
    68         11
    69        613
    70         35
    71          1
    73          1
    74          1
    75          1
    77          2
    78          1
    79          1
    80          1
    81          1
    82          1
    83          5
    84        290
    85         19
    86          1