##TITLE=Library Entry 99891
##JCAMP-DX=Revision 4.10 
##DATA TYPE=MASS SPECTRUM
##SAMPLE DESCRIPTION=Chemical Concepts
##NAMES=HP
##CAS NAME=Benzoic acid, 2-(formylamino)-, methyl ester
##MOLFORM=C9H9NO3
##CAS REGISTRY NO=41270-80-8
##MP= -300
##BP= -300
##MW= 179
##$RETENTION INDEX=1564
##$CONDENSED SPECTRUM=NO
##NPOINTS= 95
##XYDATA=(XY..XY) 1 
    31         64
    33          8
    34          4
    36          1
    37         36
    38        117
    39        385
    40         75
    41         81
    42         20
    43          9
    44         34
    45         27
    46         35
    47          3
    49          3
    50         97
    51         77
    52        138
    53         49
    54         12
    55          6
    56          2
    57          0
    58          4
    59         21
    60         11
    61         19
    62         54
    63        245
    64        299
    65        552
    66         71
    67          5
    68          1
    69          2
    70          1
    73          4
    74         25
    75         27
    76         43
    77         98
    78         18
    79         11
    80          6
    81          2
    83          0
    85          0
    86          0
    87          1
    88          5
    89          9
    90        198
    91        154
    92        713
    93         84
    94          8
    95          3
    97          0
    99          1
   101          0
   102          7
   103          6
   104          7
   105          8
   106          1
   107          3
   108          0
   117          4
   118         18
   119        999
   120        209
   121         20
   122          0
   130          6
   131          1
   134          1
   135          1
   136          0
   144          0
   146         73
   147         18
   148         56
   149          6
   150          4
   151        397
   152         39
   153          3
   154          0
   160          0
   161          0
   162          0
   177          1
   179         81
   180          9