##TITLE=Library Entry 63709
##JCAMP-DX=Revision 4.10 
##DATA TYPE=MASS SPECTRUM
##SAMPLE DESCRIPTION=LAC, NIDDK, NIH, Bethesda, MD 20892
##NAMES=HP
##CAS NAME=1-Benzyl-3-carbethoxy-4-piperidone
##MOLFORM=C15H19NO3
##CAS REGISTRY NO=41276-30-6
##MP= -300
##BP= -300
##MW= 261
##$RETENTION INDEX=0
##$CONDENSED SPECTRUM=NO
##NPOINTS= 57
##XYDATA=(XY..XY) 1 
    41         78
    42         92
    43         33
    45         16
    47         10
    49          4
    50          7
    51         55
    52         12
    53         23
    54         33
    55         74
    56         16
    63         21
    64          3
    65        147
    66          7
    67         14
    68         32
    69         41
    70         13
    77         23
    78          7
    82         12
    89         31
    90         22
    91        999
    92        108
    96         33
    97         18
    98          7
    99         12
   104         16
   105          3
   114         12
   117          3
   118         18
   120         22
   123          3
   124        109
   132         12
   133          3
   138         18
   170         22
   184          3
   186          3
   187          3
   188        173
   189         21
   214        692
   215        100
   216         56
   232        127
   233         18
   260         96
   261        183
   262         30