##TITLE=Library Entry 71281
##JCAMP-DX=Revision 4.10 
##DATA TYPE=MASS SPECTRUM
##SAMPLE DESCRIPTION=Div. of Experiment Therapeutics WRAIR, WRAMC, Washingto
n DC 20307
##NAMES=HP
##CAS NAME=2-Quinolinol, 4-methyl-O-(4-aziridinobutyl)-
##MOLFORM=C16H20N2O
##CAS REGISTRY NO=41288-75-9
##MP= -300
##BP= -300
##MW= 256
##$RETENTION INDEX=0
##$CONDENSED SPECTRUM=NO
##NPOINTS= 134
##XYDATA=(XY..XY) 1 
    41        180
    42        337
    43        112
    44         48
    45          2
    47          1
    49          3
    50         10
    51         21
    52          9
    53         20
    54         36
    55        123
    56        218
    57         49
    58          7
    62          4
    63         20
    64          5
    65          8
    66          1
    67         12
    68         44
    69        146
    70         32
    71         26
    72          2
    73          3
    74          2
    75          7
    76          5
    77         38
    78          7
    79          3
    80          3
    82         87
    83         16
    84         34
    85         17
    86          2
    87          3
    88          2
    89         18
    90          5
    91          5
    92          0
    93          1
    94          2
    96        132
    97        446
    98        999
    99         62
   100          3
   101          6
   102         15
   103         24
   104          4
   105          1
   107          0
   109          3
   110          1
   111          4
   112          2
   113          7
   114         21
   115         68
   116         35
   117          6
   118          0
   123          2
   124          1
   125          2
   126          2
   127          3
   128          9
   130        105
   131         19
   132          4
   135          2
   137          0
   140         21
   142         60
   143         33
   144         20
   145          2
   151          0
   153          1
   154          0
   156          2
   157          7
   159         77
   160         56
   161          6
   167          1
   168          2
   170         20
   171        181
   172         55
   173         10
   174          1
   177          1
   178          0
   179          0
   182          1
   183          1
   184         12
   185          7
   186         46
   187          6
   194          1
   197          0
   198          2
   200         15
   201         21
   202          6
   203         12
   204          2
   211          0
   212          6
   213          5
   214          9
   215          2
   227          9
   228         13
   229          2
   230          0
   231          0
   239          0
   243          0
   254          6
   255         20
   256         78
   257         12
   258          3