##TITLE=Library Entry 71622
##JCAMP-DX=Revision 4.10 
##DATA TYPE=MASS SPECTRUM
##SAMPLE DESCRIPTION=Div. of Experiment Therapeutics WRAIR, WRAMC, Washingto
n DC 20307
##NAMES=HP
##CAS NAME=Ethanethiol, 2-(5-(2-quinolyloxy)pentyl)amino-, hydrogen sulfate
##MOLFORM=C16H22N2O4S2
##CAS REGISTRY NO=41287-30-3
##MP= -300
##BP= -300
##MW= 370
##$RETENTION INDEX=0
##$CONDENSED SPECTRUM=NO
##NPOINTS= 132
##XYDATA=(XY..XY) 1 
    41        184
    42        168
    43         44
    44         97
    45         30
    47         12
    48        139
    49          8
    50         53
    51         55
    52         32
    53         18
    54         30
    55        146
    56         83
    57         27
    58         37
    59         74
    60         14
    61         56
    62         51
    63        123
    64        272
    65         25
    66         16
    67         13
    68         13
    69         51
    70         51
    71          3
    73         18
    74         17
    75         20
    76         15
    77         10
    78         10
    79          3
    80          5
    81          2
    82         16
    83         22
    84         82
    85         42
    86         19
    87         15
    88         19
    89        216
    90        235
    91         23
    92          3
    93          2
    94          1
    95          0
    96         28
    98        999
    99         97
   100          4
   101          9
   102          6
   103          1
   104          0
   107          0
   108          1
   109          0
   110         19
   111         24
   112        128
   113         16
   114         10
   115          7
   116         71
   117        415
   118         39
   119          2
   124          1
   125          0
   126          1
   127          1
   128         21
   129          8
   130          2
   131          0
   132          0
   139          0
   140          1
   141          1
   142         15
   143         26
   144         87
   145        619
   146        216
   147         19
   148          3
   154          1
   156          1
   157          1
   158          3
   159          0
   168          0
   169          0
   170          0
   171          0
   172          2
   175          3
   176          4
   177        195
   178         19
   179         17
   180          2
   181          0
   186          2
   196          1
   200          0
   204          1
   206          0
   208          0
   209          1
   226          0
   231          0
   234          0
   243          1
   256          0
   257          4
   258          0
   273          0
   287          1
   289          8
   290          1
   291          1
   301          0
   314          0
   322          0