##TITLE=Library Entry 89304
##JCAMP-DX=Revision 4.10 
##DATA TYPE=MASS SPECTRUM
##SAMPLE DESCRIPTION=Div. of Experiment Therapeutics WRAIR, WRAMC, Washingto
n DC 20307
##NAMES=HP
##CAS NAME=Ethanethiol, 2-(6-(3,5-dibromo-2-pyridyloxy)hexyl)amino-, hydroge
n sulfate
##MOLFORM=C13H20Br2N2O4S2
##CAS REGISTRY NO=41287-09-6
##MP= -300
##BP= -300
##MW= 490
##$RETENTION INDEX=0
##$CONDENSED SPECTRUM=NO
##NPOINTS= 79
##XYDATA=(XY..XY) 1 
    41        370
    42        227
    43        137
    44        376
    45         54
    47         27
    48        203
    49         13
    50         37
    51         11
    53         39
    54         21
    55        346
    56        192
    57         79
    58         96
    59         46
    60         36
    61        165
    63          9
    64        364
    65         13
    66         24
    67         45
    68         23
    69         41
    70         62
    76         42
    77          9
    79         34
    80         37
    81         39
    82         49
    83         64
    84         60
    86         41
    88        107
    90        136
    96         23
    97         48
    98         46
   100         44
   102         12
   110         47
   112        999
   113         85
   114         77
   116         21
   117         10
   119         12
   126         43
   127          9
   144         32
   146         38
   154          9
   155          9
   156         22
   157          9
   158         20
   160         33
   172         32
   174         21
   223         21
   225         48
   227          9
   236         29
   238         11
   251         41
   252         41
   253         77
   254         85
   255         32
   256         52
   266         11
   331         44
   333         47
   363         71
   365        143
   367         74