##TITLE=Library Entry 71662
##JCAMP-DX=Revision 4.10 
##DATA TYPE=MASS SPECTRUM
##SAMPLE DESCRIPTION=Div. of Experiment Therapeutics WRAIR, WRAMC, Washingto
n DC 20307
##NAMES=HP
##CAS NAME=Ethanethiol, 2-(5-(7-chloro-4-quinolyloxy)pentyl)amino-, hydrogen
 sulfate
##MOLFORM=C16H21ClN2O4S2
##CAS REGISTRY NO=41287-43-8
##MP= -300
##BP= -300
##MW= 404
##$RETENTION INDEX=0
##$CONDENSED SPECTRUM=NO
##NPOINTS= 118
##XYDATA=(XY..XY) 1 
    41        117
    42        105
    43         25
    44         62
    45         12
    46          2
    47          5
    48         95
    49          6
    50         16
    51          9
    52         11
    53         15
    54         19
    55         99
    56         53
    57         48
    59         11
    60         12
    61         31
    62         26
    63         43
    64        194
    65          9
    66         10
    67          8
    68         11
    69         32
    70         31
    71          3
    72          3
    73         13
    74         16
    75         63
    76         20
    78          2
    79          2
    80          4
    81          2
    82         11
    83         18
    84         68
    85         33
    86         12
    87         13
    88         16
    89         57
    90         12
    91          2
    92          0
    93          1
    94          1
    96         24
    98        999
    99         69
   100          4
   101          3
   102          3
   108          1
   109          2
   110         18
   111         19
   112         76
   113         12
   114         12
   115         13
   116         31
   117          4
   118          1
   122          0
   123         22
   124         28
   125         10
   126         17
   127          2
   128          4
   129          0
   132          0
   135          1
   136          1
   137          1
   138          4
   139          5
   140          2
   141          3
   142         14
   143         15
   144         71
   145         23
   146         23
   147          2
   148          1
   150         25
   151        168
   152         21
   153         55
   154          5
   155          1
   156          0
   162          1
   163          1
   164          1
   175          4
   177        158
   178         10
   179        298
   180         46
   181         89
   182         13
   183          1
   192          0
   195          0
   204          1
   206          0
   209          3
   287          0
   289          2
   404          0