##TITLE=Library Entry 70768
##JCAMP-DX=Revision 4.10 
##DATA TYPE=MASS SPECTRUM
##SAMPLE DESCRIPTION=Div. of Experiment Therapeutics WRAIR, WRAMC, Washingto
n DC 20307
##NAMES=HP
##CAS NAME=Ethanethiol, 2-(5-(6-bromo-2-pyridyloxy)pentyl)amino-, hydrogen s
ulfate
##MOLFORM=C12H19BrN2O4S2
##CAS REGISTRY NO=41287-05-2
##MP= -300
##BP= -300
##MW= 398
##$RETENTION INDEX=0
##$CONDENSED SPECTRUM=NO
##NPOINTS= 203
##XYDATA=(XY..XY) 1 
    41        421
    42        239
    43        151
    44        233
    45         50
    46         10
    47         27
    48        240
    49          6
    50         30
    51         16
    52         10
    53         27
    54         25
    55        101
    56        289
    57         56
    58         29
    59         54
    60         36
    61        152
    62          8
    63         11
    64        392
    65         65
    66        113
    67         55
    68         29
    69        149
    70         86
    71         11
    72         13
    73         14
    74          5
    75          6
    76         44
    77         18
    78         28
    79         14
    80         15
    81         12
    82         27
    83         24
    84        107
    85         50
    86        142
    87         16
    88         30
    89          4
    90         71
    91          7
    92          9
    93         36
    94        180
    95         22
    96         45
    97         17
    98        999
    99         95
   100          8
   101         10
   102         20
   103          3
   104          3
   105          3
   106          7
   107          5
   108         10
   109         19
   110         18
   111         61
   112         92
   113         12
   114         40
   115          8
   116         12
   117          3
   118          3
   119          3
   120         11
   121          3
   122          5
   123          4
   124          7
   125          4
   126          9
   127          5
   128          8
   129          5
   130          3
   131          3
   132          2
   133          2
   134          3
   135          4
   136          5
   137          2
   138          3
   139          3
   140          8
   141          8
   142         10
   143          5
   144         21
   145         10
   146         51
   147         11
   148          4
   149          2
   150         22
   151          3
   152          4
   153          2
   154         18
   155          3
   156         26
   157          7
   158         28
   159          7
   160          4
   161          0
   162          1
   163          1
   164          1
   165          0
   166          1
   167          2
   168          3
   169          4
   170          7
   171         18
   172          2
   173         61
   174         40
   175         41
   176         37
   177          5
   178          2
   179          2
   180          2
   181          1
   182          3
   183          0
   184          3
   185          2
   186          9
   187          4
   188          7
   189          1
   192          1
   194          0
   196          0
   198          0
   199          3
   200          6
   201          4
   202          5
   205          1
   208          0
   210          0
   226          0
   228          1
   229          1
   230          1
   239          5
   242          1
   244          1
   251          0
   259          3
   261          2
   264          1
   271         30
   272          3
   273         27
   274          3
   284          2
   285          4
   286          2
   287          4
   314          0
   317          0
   319         13
   320          2
   321         12
   322          1
   327          1
   329          4
   331          2
   342          2
   343          1
   344          2
   345          1
   350          3
   351          0
   352          2
   353          1
   355          2
   357          2
   376          0
   382          0
   384          0
   398          1
   400          1