##TITLE=Library Entry 89256
##JCAMP-DX=Revision 4.10 
##DATA TYPE=MASS SPECTRUM
##SAMPLE DESCRIPTION=Div. of Experiment Therapeutics WRAIR, WRAMC, Washingto
n DC 20307
##NAMES=HP
##CAS NAME=4-Chloro-2-quinolinol, o-[5-[1-cycloazapropyl]-n-pentyl]-
##MOLFORM=C16H19ClN2O
##CAS REGISTRY NO=41288-72-6
##MP= -300
##BP= -300
##MW= 290
##$RETENTION INDEX=0
##$CONDENSED SPECTRUM=NO
##NPOINTS= 175
##XYDATA=(XY..XY) 1 
    41        629
    42        718
    43        334
    44        211
    45          5
    49          2
    50         15
    51         25
    52         10
    53         47
    54         69
    55        314
    56        632
    57        417
    58         82
    59          7
    62         25
    63         32
    64          9
    65         11
    67         74
    68         62
    69        181
    70         89
    71         89
    72          3
    73         10
    74          9
    75         21
    76         11
    77         12
    78          1
    79         14
    80         11
    81         24
    82        272
    83        461
    84        105
    85         61
    86          8
    87         13
    88         29
    89         60
    90         10
    91          6
    92          1
    93          5
    94          6
    96        273
    97         79
    98        230
    99        117
   100         19
   101         15
   102          5
   105          3
   107          5
   108          5
   110        132
   111        493
   112        999
   113         92
   114         34
   115         54
   116         44
   117          9
   119          1
   121          4
   123         37
   124         25
   125         46
   126         63
   127         59
   128         57
   129          8
   130          3
   133          1
   135          9
   136          1
   137          9
   138          4
   139         14
   140          7
   141          8
   142          2
   143         19
   144         21
   145          9
   146          3
   148          2
   150         48
   151         76
   152         22
   153         27
   154          5
   155          4
   156          1
   157          2
   158          3
   160          3
   162        129
   163         29
   164         39
   165         13
   166          5
   167         12
   168          4
   169          5
   170          8
   171          3
   172          3
   177        104
   179        247
   180         89
   181         62
   182         23
   183          5
   185          2
   187          1
   190         20
   191          8
   192         32
   193         11
   194         12
   195          5
   196          3
   197          4
   198          1
   204         15
   205         22
   206         53
   207         13
   208         14
   209          2
   212          4
   214          1
   216          1
   218          3
   219          3
   220          4
   221          4
   222          3
   223          4
   225          6
   228          1
   232          3
   234          8
   235         31
   236          5
   237         10
   238          3
   239          1
   242          1
   243          1
   246          3
   248          8
   249          1
   250          3
   253          6
   255         16
   256          4
   257          6
   258          5
   259          1
   261         10
   262          7
   263          4
   264          3
   288          9
   289          9
   290        150
   291         32
   292         50
   293         15
   294          3