##TITLE=Library Entry 34708
##JCAMP-DX=Revision 4.10 
##DATA TYPE=MASS SPECTRUM
##SAMPLE DESCRIPTION=Exported from NIST MS Search
##NAMES=HP
##CAS NAME=2,6,10-Dodecatrien-1-ol, 3,7,11-trimethyl-, acetate, (E,E)-
##MOLFORM=C17H28O2
##CAS REGISTRY NO=4128-17-0
##MP= -300
##BP= -300
##MW= 264
##$RETENTION INDEX=1843
##$CONDENSED SPECTRUM=NO
##NPOINTS= 113
##XYDATA=(XY..XY) 1 
    15          7
    17          1
    18          4
    24          2
    27         32
    28          7
    29         44
    38          1
    39         51
    40         24
    41        393
    42         23
    43        426
    44          9
    48          1
    50          1
    51          7
    52          4
    53         86
    54          8
    55        109
    56         12
    57         16
    61          1
    63          2
    64          2
    65         19
    66         20
    67        111
    68        238
    69        999
    70         50
    71         13
    72          1
    75          1
    77         35
    78          8
    79         79
    80        122
    81        253
    82         40
    83         13
    84         39
    85         22
    86          3
    89          1
    90          1
    91         46
    92         43
    93        308
    94         62
    95         78
    96         11
    97         12
    98          4
   104          2
   105         35
   106         13
   107        138
   108         28
   109         59
   110          7
   111          5
   112          2
   116          1
   118          1
   119         58
   120         21
   121         83
   122         46
   123         96
   124         17
   125          2
   126          7
   127          7
   132          1
   133         23
   134         27
   135         83
   136        101
   137         54
   138          7
   139          2
   140          6
   147         18
   148         20
   149         12
   150          3
   151          1
   153          1
   154          1
   159          1
   160          1
   161         58
   162         15
   163          2
   175          4
   176          8
   177          2
   189         26
   190          6
   191          2
   195          1
   203          1
   204         48
   205         12
   206          2
   221          4
   222          3
   223          1
   264         27
   265          7
   266          1