##TITLE=Library Entry 71426
##JCAMP-DX=Revision 4.10 
##DATA TYPE=MASS SPECTRUM
##SAMPLE DESCRIPTION=Div. of Experiment Therapeutics WRAIR, WRAMC, Washingto
n DC 20307
##NAMES=HP
##CAS NAME=Ethanethiol, 2-(5-(4-methyl-2-pyridyloxy)pentyl)amino-, hydrogen
 sulfate
##MOLFORM=C13H22N2O4S2
##CAS REGISTRY NO=41287-10-9
##MP= -300
##BP= -300
##MW= 334
##$RETENTION INDEX=0
##$CONDENSED SPECTRUM=NO
##NPOINTS= 142
##XYDATA=(XY..XY) 1 
    41        110
    42         83
    43         26
    44         53
    45         26
    46          5
    47         11
    48         66
    49         12
    50         27
    51         35
    52         29
    53         81
    54         34
    55         88
    56         48
    57         18
    58         18
    59         28
    60         29
    61         32
    62          7
    63         10
    64        203
    65         22
    66         25
    67         22
    68         15
    69         44
    70         38
    71          5
    72          3
    73          2
    74          3
    75          3
    76          7
    77          3
    78          9
    79         12
    80        359
    81         67
    82         22
    83         18
    84         63
    85         28
    86         16
    87          8
    88         11
    89          2
    90          6
    91          3
    92         22
    93         10
    94         10
    95          4
    96         29
    97         11
    98        999
    99         71
   100          5
   101          4
   102         12
   103          2
   104          2
   105          1
   106          2
   107          8
   108          4
   109        525
   110        121
   111         47
   112         81
   113         11
   114          8
   115          3
   116         16
   117          3
   118          3
   119          1
   120          3
   121          4
   122         10
   123         12
   124          5
   125          2
   126          2
   127          2
   128          3
   129          2
   130          3
   131          1
   132          9
   133          1
   134          4
   135          3
   136         12
   137          3
   138          3
   139          1
   140          2
   141          3
   142          9
   143         17
   144         29
   145         30
   146         15
   147          3
   148          6
   149          2
   150          5
   151          1
   152          1
   154          2
   156          1
   157          1
   160          4
   161          3
   162          4
   164          3
   165          2
   166          0
   167          2
   168          2
   169          2
   170          1
   171          0
   174          1
   175          1
   176          3
   177         53
   178          8
   179          5
   180          0
   191          1
   193          0
   207          3
   213          0
   219          0
   221          3
   254          2
   334          2
   335          1