##TITLE=Library Entry 54261
##JCAMP-DX=Revision 4.10 
##DATA TYPE=MASS SPECTRUM
##SAMPLE DESCRIPTION=Div. of Experiment Therapeutics WRAIR, WRAMC, Washingto
n DC 20307
##NAMES=HP
##CAS NAME=Ethanethiol, 2-(4-(4-methyl-2-quinolyloxy)butyl)amino-, hydrogen
 sulfate
##MOLFORM=C16H22N2O4S2
##CAS REGISTRY NO=41287-32-5
##MP= -300
##BP= -300
##MW= 370
##$RETENTION INDEX=0
##$CONDENSED SPECTRUM=NO
##NPOINTS= 91
##XYDATA=(XY..XY) 1 
    41         81
    42        261
    43         54
    44         32
    45         19
    46          5
    47         10
    48         85
    49          2
    50         25
    51         46
    52         24
    53         13
    54         25
    55        124
    56         60
    57         16
    58          9
    59         17
    60         13
    61         33
    62         12
    63         12
    64        257
    65         77
    66          5
    67          8
    68         17
    69         22
    70         78
    71         21
    72          3
    73          5
    74          8
    75         10
    76         11
    77         49
    78         12
    80         19
    81          0
    82         14
    84        999
    85         46
    86          3
    87          4
    88          6
    89         14
    90          7
    91          6
    92          1
    93          2
    94          1
    96         20
    97         13
    98         50
    99          9
   101         10
   102         18
   103         33
   104         10
   105          3
   110          2
   113          1
   114          3
   115          5
   116          3
   117          2
   120          2
   128         16
   129         16
   130        319
   131        106
   132         24
   133          2
   134          1
   136          0
   140          0
   141          1
   144          1
   152          4
   157          4
   159        297
   160         38
   161          4
   163         60
   164          2
   165          7
   190          0
   212          0
   261          2
   294          0