##TITLE=Library Entry 37487
##JCAMP-DX=Revision 4.10 
##DATA TYPE=MASS SPECTRUM
##SAMPLE DESCRIPTION=Div. of Experiment Therapeutics WRAIR, WRAMC, Washingto
n DC 20307
##NAMES=HP
##CAS NAME=Ethanethiol, 2-(3-(3-chloro-2-pyridyloxy)propyl)amino-, hydrogen
 sulfate
##MOLFORM=C10H15ClN2O4S2
##CAS REGISTRY NO=41286-95-7
##MP= -300
##BP= -300
##MW= 326
##$RETENTION INDEX=0
##$CONDENSED SPECTRUM=NO
##NPOINTS= 212
##XYDATA=(XY..XY) 1 
    41        403
    42        470
    43        182
    44        204
    45         74
    46         20
    47         54
    48        330
    49         37
    50         71
    51         69
    52         25
    53         23
    54         35
    55         32
    56        221
    57        213
    58        121
    59         66
    60         63
    61        104
    62         18
    63          6
    64        572
    65         48
    66        118
    67         26
    68         50
    69         13
    70        999
    71         68
    72         31
    73         85
    74         75
    75         44
    76         86
    77         13
    78         25
    79         10
    80         10
    81          6
    82         29
    83         52
    84        166
    85         33
    86         27
    87         17
    88        158
    89         14
    90         30
    91          6
    92          6
    93         10
    94         33
    95          9
    96         18
    97          9
    98          9
    99          8
   100         31
   101        214
   102         58
   103         71
   104         12
   105          4
   106          5
   107          3
   108          7
   109          4
   110          4
   111          3
   112         67
   113         11
   114         43
   115         19
   116         60
   117         33
   118         23
   119          4
   120          5
   121          4
   122          4
   123          4
   124          6
   125          3
   126          6
   127          5
   128          6
   129        348
   130        157
   131        112
   132         46
   133          5
   134          4
   135          5
   136          5
   137          3
   138          3
   139          2
   140          6
   141          7
   142         18
   143         27
   144         11
   145          9
   146          3
   147          2
   148          6
   149         35
   150         15
   151          8
   152          3
   153          2
   154          5
   155          1
   156         21
   157          4
   158          8
   159          4
   160          8
   161          1
   162          2
   163          1
   164          2
   165          1
   166          1
   167          2
   168          4
   169          6
   170         40
   171          7
   172         13
   173          3
   174          1
   175          1
   176          1
   177          5
   178          1
   179          1
   181          2
   182          1
   183          1
   184          1
   185          1
   186          1
   187          8
   188          3
   189          3
   190          1
   192          5
   193          1
   194          1
   195          1
   196          1
   197          1
   199        117
   200         11
   201         38
   202          4
   203          1
   204          0
   205          0
   207          0
   209          0
   210          3
   211         12
   212         16
   213         40
   214          8
   215         13
   216          1
   219          0
   223          2
   225          1
   226          0
   227          3
   228          0
   229          1
   241          0
   243          0
   244          0
   245         10
   246          5
   247         20
   248          3
   249          6
   250          0
   255          1
   257          2
   259          2
   260          0
   261          0
   270          3
   271          1
   272          1
   273          0
   276          0
   278         42
   279          6
   280         17
   281          2
   282          1
   284          2
   285          0
   286          1
   302          0
   304          1
   310          1
   312          0
   326          1
   327          0
   328          0