##TITLE=Library Entry 1591
##JCAMP-DX=Revision 4.10 
##DATA TYPE=MASS SPECTRUM
##SAMPLE DESCRIPTION=NIST Mass Spectrometry Data Center, 1994
##NAMES=HP
##CAS NAME=Stearic acid hydrazide
##MOLFORM=C18H38N2O
##CAS REGISTRY NO=4130-54-5
##MP= -300
##BP= -300
##MW= 298
##$RETENTION INDEX=0
##$CONDENSED SPECTRUM=NO
##NPOINTS= 87
##XYDATA=(XY..XY) 1 
     4          3
    14          2
    16          2
    17          2
    18          9
    26          1
    27         31
    28         27
    29         96
    30          9
    31          1
    32        999
    33         27
    39         23
    41        226
    42         46
    43        306
    44         21
    45          4
    51          1
    53         10
    54         16
    55        183
    56         41
    57        252
    58         19
    59         90
    60         10
    65          2
    67         32
    68         10
    69         83
    70         21
    71        128
    72         37
    73          2
    74        155
    75          7
    77          2
    79          7
    80          3
    81         33
    82          9
    83         57
    84         17
    85         72
    86         10
    87         29
    88          2
    91          1
    93          4
    95         42
    96          7
    97         52
    98         15
    99         15
   100          3
   101          7
   107          3
   109         27
   110          4
   111         20
   112          3
   113          6
   114          3
   115          7
   121          2
   123         12
   124          3
   125          5
   126          1
   127          3
   128          5
   129          3
   135          2
   137          6
   139          1
   151          2
   165          1
   184          2
   213          1
   240          2
   267         37
   268          8
   283          1
   297          1
   298          2