##TITLE=Library Entry 53750
##JCAMP-DX=Revision 4.10 
##DATA TYPE=MASS SPECTRUM
##SAMPLE DESCRIPTION=A.A.Kutin, Moscow, Russia
##NAMES=HP
##CAS NAME=Butanoic acid, 4-(2-oxocyclopentyl)-, ethyl ester
##MOLFORM=C11H18O3
##CAS REGISTRY NO=41301-56-8
##MP= -300
##BP= -300
##MW= 198
##$RETENTION INDEX=0
##$CONDENSED SPECTRUM=NO
##NPOINTS= 127
##XYDATA=(XY..XY) 1 
    36          0
    37          3
    38         14
    39        283
    40         57
    41        436
    42        136
    43        112
    44          9
    45        136
    46          0
    47          0
    49          0
    50         13
    51         28
    52         16
    53         91
    54        107
    55        519
    56         90
    57         41
    58         12
    59         13
    60        280
    61         37
    62          3
    64          1
    65         32
    66         19
    67        157
    68        156
    69        126
    70         54
    71         33
    72          5
    73         96
    74         15
    75          4
    77         24
    79         77
    80         39
    81        102
    82        100
    83        304
    84        999
    85         66
    86         16
    87         18
    88         65
    89          6
    90          1
    91         18
    92         24
    93         19
    94          4
    95         76
    96        166
    97        356
    98         43
    99         26
   100          6
   101         16
   102          4
   103          0
   104          4
   105         11
   106         23
   107        163
   108         20
   109         28
   110         75
   111         69
   112          6
   113         16
   114         18
   115         36
   116          3
   117          1
   118          0
   119          1
   120          0
   121          1
   122          1
   123         34
   124        210
   125         30
   126         11
   127          4
   128          2
   129          0
   131          0
   132          0
   133          6
   134         39
   135        128
   136         12
   137        140
   138         13
   139          2
   140          0
   141          6
   142          7
   143          1
   144          0
   149          0
   150          1
   152        420
   153        181
   154         17
   155          3
   156          0
   165          1
   166          1
   167          0
   168          0
   169          0
   170         17
   171          2
   179          0
   180          1
   181          2
   182          1
   183          5
   184          1
   198         66
   199          8
   200          1