##TITLE=Library Entry 57235
##JCAMP-DX=Revision 4.10 
##DATA TYPE=MASS SPECTRUM
##SAMPLE DESCRIPTION=Chemical Concepts
##NAMES=HP
##CAS NAME=Cyclobutene, 3,4-dichloro-
##MOLFORM=C4H4Cl2
##CAS REGISTRY NO=41326-64-1
##MP= -300
##BP= -300
##MW= 122
##$RETENTION INDEX=0
##$CONDENSED SPECTRUM=NO
##NPOINTS= 67
##XYDATA=(XY..XY) 1 
    26        219
    27         67
    28         14
    29          0
    30          0
    31          0
    35         25
    36         34
    37         49
    38         31
    39         29
    40          1
    41          0
    42          1
    43         22
    44          7
    45          1
    47         11
    48         17
    49         83
    50        230
    51        740
    52         81
    53          3
    59          2
    60         35
    61         83
    62         35
    63         31
    64          8
    65          0
    68          0
    71          1
    72          3
    73         44
    74          2
    75         14
    76          0
    77          0
    80          0
    82          0
    83          4
    84          7
    85         24
    86         34
    87        999
    88         49
    89        305
    90         13
    91          0
    94          0
    95          1
    96         32
    97          1
    98         21
    99          0
   100          3
   107          2
   109          1
   111          0
   120          0
   122        176
   123          9
   124        114
   125          5
   126         19
   127          0