##TITLE=Library Entry 6607
##JCAMP-DX=Revision 4.10 
##DATA TYPE=MASS SPECTRUM
##SAMPLE DESCRIPTION=LAC, NIDDK, NIH, Bethesda, MD 20892
##NAMES=HP
##CAS NAME=Triacetyl d-galactosan(1,5).beta.(1,3)
##MOLFORM=C12H16O8
##CAS REGISTRY NO=4132-24-5
##MP= -300
##BP= -300
##MW= 288
##$RETENTION INDEX=0
##$CONDENSED SPECTRUM=NO
##NPOINTS= 102
##XYDATA=(XY..XY) 1 
    42        211
    43        999
    44          4
    45         10
    48          4
    52          2
    53          7
    54          4
    55         17
    56          5
    57         29
    58          2
    59          1
    60          9
    61         21
    63          0
    65          0
    67          1
    68          7
    69         84
    70         89
    71         20
    72          0
    73         52
    74          2
    75          0
    77          0
    78          1
    79          0
    80         12
    81        157
    82          9
    83          8
    85         28
    86         37
    87          3
    88          2
    89          4
    91          1
    95          1
    96          2
    97         64
    98        173
    99         30
   101         11
   102         12
   103         54
   104          1
   105          1
   106          0
   109          3
   110          0
   111          1
   112        108
   113          8
   114          1
   115        151
   116          9
   117          1
   122          0
   123          0
   124          0
   125          4
   126         17
   127         24
   128          4
   129          1
   131          6
   132          0
   133          0
   139          8
   140         43
   141         16
   143         34
   144         22
   145         27
   146          1
   156          1
   157        158
   158         12
   159          1
   161          1
   168          3
   169          7
   170          0
   171          0
   185          2
   186         56
   187          7
   188          1
   200          0
   203          3
   204          0
   211          0
   228         10
   229         17
   230          1
   243          3
   244          0
   245          2
   288          4
   289          0