##TITLE=Library Entry 37638
##JCAMP-DX=Revision 4.10 
##DATA TYPE=MASS SPECTRUM
##SAMPLE DESCRIPTION=Chemical Concepts
##NAMES=HP
##CAS NAME=L-Proline, phenylmethyl ester
##MOLFORM=C12H15NO2
##CAS REGISTRY NO=41324-66-7
##MP= -300
##BP= -300
##MW= 205
##$RETENTION INDEX=0
##$CONDENSED SPECTRUM=NO
##NPOINTS= 36
##XYDATA=(XY..XY) 1 
    26          3
    27         14
    28        112
    29          4
    31          4
    35         11
    36         84
    37          4
    38         27
    39         29
    40          5
    41         50
    42         12
    43         67
    44          6
    50          5
    51         15
    52          5
    53          4
    63          9
    64          3
    65         45
    66          3
    68         34
    69         12
    70        999
    71         48
    77         15
    78          3
    79          4
    86          3
    89          7
    90          4
    91        118
    92         11
   105          3