##TITLE=Library Entry 57387
##JCAMP-DX=Revision 4.10 
##DATA TYPE=MASS SPECTRUM
##SAMPLE DESCRIPTION=E. Zissis, LC, NIDDK, NIH, Bethesda, MD 20892
##NAMES=HP
##CAS NAME=2-Methyl-d-glucose
##MOLFORM=C7H14O6
##CAS REGISTRY NO=4132-40-5
##MP= -300
##BP= -300
##MW= 194
##$RETENTION INDEX=0
##$CONDENSED SPECTRUM=NO
##NPOINTS= 135
##XYDATA=(XY..XY) 1 
    41         54
    42         43
    43        118
    44        146
    45        126
    46         11
    47         14
    48          2
    49         32
    50         20
    51         45
    52         25
    53         20
    54         11
    55         54
    56         45
    57         93
    58         26
    59         99
    60         53
    61         54
    62          9
    63         19
    64          6
    65         22
    66          9
    67         13
    68         12
    69         52
    70         34
    71        133
    72         20
    73         93
    74        549
    75         79
    76         14
    77         93
    78        302
    79         30
    80          3
    81         14
    82         10
    83         21
    84         13
    85         90
    86         21
    87        999
    88         57
    89         13
    90          3
    91         13
    92          4
    93          7
    94          6
    95         24
    96          7
    97         21
    98         11
    99         49
   100         14
   101         15
   102          4
   103         17
   104          3
   105         21
   106        166
   107         36
   108          4
   109          6
   110          2
   111         17
   112         15
   113         11
   114          2
   115        108
   116        100
   117         19
   118          2
   119          3
   120          1
   121         11
   122          3
   123          8
   124        153
   125         15
   126          3
   127          8
   128          2
   129         12
   130         33
   131          6
   132          1
   133         29
   134          2
   135          2
   136          1
   137          4
   138          1
   139          2
   140          1
   141          5
   142          1
   143          1
   144          2
   145         55
   146          4
   147          4
   148          0
   149          4
   150          1
   151          2
   152          1
   153          1
   154          1
   155          1
   157          3
   158         11
   159         16
   160          1
   161          1
   162          1
   163          3
   164          1
   165          1
   166          1
   167          1
   168          1
   169          1
   171          1
   173          1
   175          1
   176          2
   177         11
   178          2
   194          0