##TITLE=Library Entry 8946
##JCAMP-DX=Revision 4.10 
##DATA TYPE=MASS SPECTRUM
##SAMPLE DESCRIPTION=M.Lounasmaa ET AL.Acta.Chem.Scand.,25,3428(1971)
##NAMES=HP
##CAS NAME=Butyrylfilicinic acid
##MOLFORM=C12H16O4
##CAS REGISTRY NO=4133-77-1
##MP= -300
##BP= -300
##MW= 224
##$RETENTION INDEX=0
##$CONDENSED SPECTRUM=NO
##NPOINTS= 60
##XYDATA=(XY..XY) 1 
    38         28
    39        161
    40         68
    41        613
    42        386
    43        999
    50         34
    51         36
    52         22
    53         85
    54         19
    55        173
    56         19
    57         42
    65         42
    66         39
    67        142
    68        142
    69        394
    70        636
    71        829
    72         39
    77         14
    79         14
    83         93
    84        164
    85         59
    86         42
    97        110
    98        184
   111        213
   112        386
   113        116
   121         14
   125         34
   126        125
   135         14
   136         22
   137         14
   138         14
   139        255
   140         22
   153         82
   154        318
   155         45
   157        164
   163         53
   164         36
   167         17
   168         17
   181        215
   182         68
   191         65
   196         36
   206        116
   207         22
   209        599
   210         93
   224        511
   225         76