##TITLE=Library Entry 18388
##JCAMP-DX=Revision 4.10 
##DATA TYPE=MASS SPECTRUM
##SAMPLE DESCRIPTION=Chemical Concepts
##NAMES=HP
##CAS NAME=Chromium, tricarbonyl[(1,10,11,12,13,14-.eta.)-tricyclo[8.2.2.2(4
,7)]hexadeca-4,6,10,12,13,15-hexaene]-
##MOLFORM=C19H16CrO3
##CAS REGISTRY NO=41354-64-7
##MP= -300
##BP= -300
##MW= 344
##$RETENTION INDEX=0
##$CONDENSED SPECTRUM=NO
##NPOINTS= 198
##XYDATA=(XY..XY) 1 
    26          1
    27          5
    28         57
    29          3
    32          5
    35          0
    36          3
    37          1
    38          0
    39         12
    40          1
    41          7
    42          1
    43          9
    44          1
    45          1
    47          2
    48          1
    49         13
    50         50
    51         10
    52        999
    53        117
    54         29
    55         10
    56          2
    57         12
    58          1
    59          0
    60          0
    62          0
    63          5
    64          1
    65          7
    66          0
    67          3
    68          1
    69          7
    70          1
    71          5
    73          0
    74          1
    75          1
    76          2
    77         15
    78         31
    79          3
    80         18
    81          4
    82          1
    83          4
    84          6
    85          2
    86          4
    87          0
    88          0
    89          5
    90          4
    91          8
    92          1
    93          2
    94          3
    95          4
    96          1
    97          4
    98          1
    99          2
   101          2
   102          4
   103         30
   104        170
   105         20
   106          1
   107          1
   108          1
   109          2
   110          0
   111          2
   112          0
   113          1
   115          7
   116          1
   117          1
   118          0
   119          1
   120          0
   121          0
   122          0
   123          0
   125          1
   126          1
   127          1
   128          1
   129          6
   130         18
   131          5
   132          0
   133          1
   135          0
   136          0
   137          1
   139          1
   141          1
   142          1
   143          1
   144          1
   147          0
   149          1
   150          0
   151          1
   152          2
   153          2
   154         18
   155          6
   156        330
   157         69
   158         14
   159          2
   160          0
   162          0
   163          0
   164          0
   165          2
   166          1
   167          0
   169          0
   173          0
   176          1
   177          0
   178          2
   179          2
   181          0
   183          0
   187          0
   189          2
   190          1
   191          2
   192          2
   193          1
   194          0
   195          0
   202          1
   203          1
   204          0
   205          1
   206          0
   207          2
   208         17
   209          3
   210          0
   213          0
   219          0
   229          0
   231          0
   232          0
   233          1
   234          0
   235          1
   236          1
   241          0
   242          0
   244          0
   249          0
   253          0
   254          1
   255          1
   256          1
   257          2
   258         27
   259         18
   260        463
   261        134
   262         33
   263          4
   264          2
   265          0
   266          0
   268          0
   269          0
   283          0
   284          0
   285          0
   286          5
   287          3
   288         78
   289         23
   290          6
   291          1
   326          0
   336          0
   340          0
   341          0
   342          3
   343          3
   344         56
   345         20
   346          5
   347          0