##TITLE=Library Entry 48006
##JCAMP-DX=Revision 4.10 
##DATA TYPE=MASS SPECTRUM
##SAMPLE DESCRIPTION=Chemical Concepts
##NAMES=HP
##CAS NAME=1-(5-Phenyl-2-oxazolyl)-4-(2-phenyl-5-oxazolyl)benzene
##MOLFORM=C24H16N2O2
##CAS REGISTRY NO=4136-43-0
##MP= -300
##BP= -300
##MW= 364
##$RETENTION INDEX=0
##$CONDENSED SPECTRUM=NO
##NPOINTS= 169
##XYDATA=(XY..XY) 1 
    33         37
    34          7
    36          6
    37         16
    39        128
    40        142
    41         32
    42         27
    43         48
    44         24
    45          2
    49          3
    50         70
    51        327
    52         12
    53          8
    55         30
    56         14
    57         14
    58          4
    60          5
    62         91
    63        166
    64         66
    65          9
    67          8
    68          4
    69         11
    70          8
    71         13
    72          6
    74         87
    75         45
    77        999
    79          7
    80          5
    82          6
    83          7
    84          9
    85         11
    87         38
    88        237
    89        383
    90        149
    91         40
    92          5
    93          4
    94          3
    95          5
    96          5
    97          5
    98         10
   100         60
   102         72
   103         15
   105        419
   107          2
   109          3
   110          3
   111          5
   112         10
   114         61
   115         22
   116         34
   117         14
   118          6
   119          5
   120          3
   121          5
   122          5
   123          3
   124          4
   125          4
   127         26
   128          6
   129          8
   130          7
   133          2
   135          3
   137          2
   139          6
   140          6
   141         22
   142          3
   147          2
   149         10
   150         10
   151         38
   152         10
   153          5
   154         15
   162          9
   164         60
   165         95
   166          8
   167          2
   169          2
   171          4
   175         12
   176         84
   177         39
   178         15
   179          8
   180          5
   182        174
   183          2
   188          2
   189          4
   190         64
   191         48
   192         44
   193         12
   194          2
   201          4
   202          7
   203         20
   204         44
   205         10
   206          2
   217          3
   218         11
   219         10
   220          9
   221          2
   229          4
   231         12
   232        111
   233         17
   234          3
   239          2
   245          2
   246         10
   247          3
   248          5
   249          2
   251          3
   252         23
   253         51
   254         18
   255          2
   259         28
   260          4
   264          2
   265          4
   266          2
   278          6
   280         15
   281         21
   282          3
   290          2
   291          3
   306          4
   307          9
   308         36
   309         43
   310          9
   334          2
   335          7
   336         17
   337          7
   358          3
   359          7
   360         11
   361         21
   362         45
   364        817
   365        181
   366         27
   367          2