##TITLE=Library Entry 45864
##JCAMP-DX=Revision 4.10 
##DATA TYPE=MASS SPECTRUM
##SAMPLE DESCRIPTION=DS16-158-3A
##NAMES=HP
##CAS NAME=Propanamide, N-(3,4-dichlorophenyl)-2,3-dihydroxy-2-methyl-
##MOLFORM=C10H11Cl2NO3
##CAS REGISTRY NO=41362-84-9
##MP= -300
##BP= -300
##MW= 263
##$RETENTION INDEX=0
##$CONDENSED SPECTRUM=NO
##NPOINTS= 48
##XYDATA=(XY..XY) 1 
    70         18
    71         42
    72         13
    73         57
    74         57
    75        999
    76         39
    77         28
    78         10
    79         10
    81         26
    82         13
    83         26
   124         47
   125         52
   126         86
   127        176
   128         31
   129         52
   130          7
   133         47
   153         18
   154          7
   155         21
   159         10
   160         57
   161        960
   162        105
   163        400
   164         47
   165         68
   187         71
   188         26
   189         73
   190         18
   191         26
   229         26
   230          5
   231         23
   232         15
   233         47
   234         13
   235         18
   263        289
   264         23
   265        142
   266         21
   267         31