##TITLE=Library Entry 1059
##JCAMP-DX=Revision 4.10 
##DATA TYPE=MASS SPECTRUM
##SAMPLE DESCRIPTION=Japan AIST/NIMC Database- Spectrum MS-IW-2621
##NAMES=HP
##CAS NAME=3,3-Diethoxypropylamine
##MOLFORM=C7H17NO2
##CAS REGISTRY NO=41365-75-7
##MP= -300
##BP= -300
##MW= 147
##$RETENTION INDEX=0
##$CONDENSED SPECTRUM=NO
##NPOINTS= 66
##XYDATA=(XY..XY) 1 
    14          2
    15         16
    17          2
    18          7
    19          1
    25          1
    26         12
    27        112
    28         84
    29        224
    30        999
    31         85
    32          1
    39          4
    40          3
    41         13
    42         45
    43        136
    44        390
    45        231
    46         45
    47        659
    48          8
    49          2
    52          1
    53          1
    54         11
    55         19
    56        201
    57        415
    58        110
    59          9
    60         43
    61         43
    62          1
    68          3
    69          2
    70         10
    71          4
    72        571
    73        486
    74         46
    75        322
    76         19
    77          2
    82          1
    83          1
    84          7
    85          8
    86         21
    87          6
    89         12
    98          3
   100         49
   101        344
   102        127
   103        233
   104         12
   105          1
   117          9
   118        107
   119          6
   128          4
   130          1
   144          5
   146          1