##TITLE=Library Entry 11859
##JCAMP-DX=Revision 4.10 
##DATA TYPE=MASS SPECTRUM
##SAMPLE DESCRIPTION=LAC, NIDDK, NIH, Bethesda, MD 20892
##NAMES=HP
##CAS NAME=Histidine, N-acetyl-4-nitro-
##MOLFORM=C8H10N4O5
##CAS REGISTRY NO=41367-00-4
##MP= -300
##BP= -300
##MW= 242
##$RETENTION INDEX=0
##$CONDENSED SPECTRUM=NO
##NPOINTS= 74
##XYDATA=(XY..XY) 1 
    41        150
    42        215
    43        999
    44        204
    45        100
    46         77
    51         19
    52         87
    53        112
    54        151
    55         93
    56         36
    57         47
    58         23
    59         44
    60        111
    62          5
    64         16
    65         15
    66         23
    67         41
    68         38
    69        111
    70         34
    71          5
    74         89
    77         11
    78         18
    79         24
    80         74
    81        141
    82         63
    83         43
    85          8
    93         14
    94         38
    95         32
    96         20
    97         41
    99         13
   107         16
   108         44
   109         62
   110         72
   111         92
   112         21
   120         24
   121         87
   122         76
   123         12
   124          5
   126         13
   127        236
   128         12
   136         47
   137         66
   138         76
   139         47
   150          5
   154         17
   155         48
   163          5
   164         13
   165         28
   166         14
   179         40
   181         26
   182          5
   183          9
   196         30
   197         15
   224         21
   225         49
   242          5