##TITLE=Library Entry 11858
##JCAMP-DX=Revision 4.10 
##DATA TYPE=MASS SPECTRUM
##SAMPLE DESCRIPTION=LAC, NIDDK, NIH, Bethesda, MD 20892
##NAMES=HP
##CAS NAME=Histamine, N-acetyl-5-nitro-
##MOLFORM=C7H10N4O3
##CAS REGISTRY NO=41366-97-6
##MP= -300
##BP= -300
##MW= 198
##$RETENTION INDEX=0
##$CONDENSED SPECTRUM=NO
##NPOINTS= 50
##XYDATA=(XY..XY) 1 
    41        214
    42        250
    43        999
    44         57
    45         18
    46         35
    51         15
    52        126
    53        149
    54        192
    55         95
    56         38
    57         12
    58         31
    60         83
    64          9
    65         11
    66         30
    67         21
    68         25
    69         88
    70         18
    72         97
    73          6
    79          8
    80         72
    81         90
    82         40
    83         15
    94         22
    95         15
    96         16
    97         51
    98          3
   109         15
   110         52
   111         25
   121         38
   122         33
   123         21
   126         36
   127        276
   128         13
   139         20
   152         55
   153          2
   181        180
   182         15
   198         23
   199          8