##TITLE=Library Entry 30643
##JCAMP-DX=Revision 4.10 
##DATA TYPE=MASS SPECTRUM
##SAMPLE DESCRIPTION=K.OHARA INST. OF FOOD CHEM., KITAKU, OSAKA, JAPAN
##NAMES=HP
##CAS NAME=Tricyclo[4.4.0.0(2,7)]dec-8-ene-3-methanol, .alpha.,.alpha.,6,8-t
etramethyl-, stereoisomer
##MOLFORM=C15H24O
##CAS REGISTRY NO=41370-56-3
##MP= -300
##BP= -300
##MW= 220
##$RETENTION INDEX=1540
##$CONDENSED SPECTRUM=NO
##NPOINTS= 131
##XYDATA=(XY..XY) 1 
    15         27
    17         13
    18         50
    26          6
    27         96
    28         24
    29         88
    31        110
    38          7
    39        142
    40         25
    41        322
    42         26
    43        301
    44         20
    45         20
    50          7
    51         42
    52         24
    53        109
    54         12
    55        149
    56         11
    57         26
    58         14
    59        999
    60         39
    61          6
    62          5
    63         25
    64         11
    65         65
    66         20
    67        118
    68         34
    69         87
    70         17
    71         47
    72         13
    73          6
    75         12
    76          5
    77        170
    78         55
    79        148
    80         48
    81        132
    82         18
    83         40
    84          8
    85         18
    86          8
    87          6
    89         15
    90          9
    91        352
    92        140
    93        192
    94        159
    95         82
    96         15
    97         11
    99          5
   101          6
   102         11
   103         39
   104         27
   105        474
   106        275
   107        140
   108         74
   109         68
   110         15
   111         13
   113          6
   114          6
   115         64
   116         28
   117         85
   118         61
   119        396
   120        191
   121         70
   122         15
   123         13
   124          5
   125          9
   126          6
   127         24
   128         37
   129         43
   130         27
   131        196
   132        365
   133        208
   134         81
   135         23
   136          7
   137         13
   139          6
   141         17
   142         11
   143         24
   144         28
   145        201
   146         94
   147        262
   148         31
   149         10
   150          5
   152          6
   155          5
   157         13
   158         26
   159        393
   160         91
   161         55
   162        571
   163         73
   164          8
   172          5
   173         18
   174         19
   175          4
   177          9
   187         96
   188         16
   202         85
   203         20
   205         18
   220          6