##TITLE=Library Entry 34437
##JCAMP-DX=Revision 4.10 
##DATA TYPE=MASS SPECTRUM
##SAMPLE DESCRIPTION=P.A.HEDIN U.S. DEP. OF AGRI., STATE COLLEGE, MISS., USA
##NAMES=HP
##CAS NAME=Ethanol, 2-(3,3-dimethylcyclohexylidene)-
##MOLFORM=C10H18O
##CAS REGISTRY NO=41370-29-0
##MP= -300
##BP= -300
##MW= 154
##$RETENTION INDEX=0
##$CONDENSED SPECTRUM=NO
##NPOINTS= 45
##XYDATA=(XY..XY) 1 
    27        330
    28        100
    29        230
    32         90
    39        440
    41        880
    42        120
    43        200
    50         80
    51         60
    52         90
    53        180
    54        100
    55        350
    56        160
    57        110
    65         90
    67        240
    68        370
    69        999
    70         90
    77        130
    79        530
    80        240
    81        250
    82        100
    83        120
    84        100
    91        180
    92         80
    93        630
    94        110
    95        230
    96         80
   107        250
   108        100
   109        130
   110        150
   111        150
   121        480
   123        100
   136        400
   137         70
   139         50
   154         70