##TITLE=Library Entry 82578
##JCAMP-DX=Revision 4.10 
##DATA TYPE=MASS SPECTRUM
##SAMPLE DESCRIPTION=A.A.Kutin, Moscow, Russia
##NAMES=HP
##CAS NAME=Pyridine-2-carbohydrazide, N2-(2-hydroxy-5-bromobenzylideno)-
##MOLFORM=C13H10BrN3O2
##CAS REGISTRY NO=41377-52-0
##MP= -300
##BP= -300
##MW= 319
##$RETENTION INDEX=0
##$CONDENSED SPECTRUM=NO
##NPOINTS= 208
##XYDATA=(XY..XY) 1 
    33          0
    34          1
    35          0
    36          3
    37          7
    38         25
    39         32
    40         28
    41          7
    42          3
    43         12
    44         21
    45          1
    46          0
    48          0
    49          7
    50        102
    51        324
    52         78
    53         41
    54          4
    55          7
    56          1
    57          3
    58          0
    60          2
    61          6
    62         21
    63         57
    64         19
    65          9
    66          5
    67          3
    68          2
    69          2
    70          1
    71          2
    72          0
    73          3
    74         14
    75         29
    76         34
    77         88
    78        684
    79        256
    80         25
    81          4
    82          6
    83          1
    84          1
    85          1
    86          2
    87          3
    88          8
    89          4
    90         10
    91          8
    92          5
    93          3
    94          5
    95          2
    96          0
    97          0
    98          0
    99          1
   100          3
   101          3
   102          1
   103          3
   105        183
   106        999
   107        108
   108          8
   109          1
   110          0
   111          0
   112          1
   113          1
   114          0
   115          1
   116          1
   117          6
   118          2
   119         10
   120          3
   122        376
   123        196
   124         14
   125          2
   126          1
   127          1
   128          1
   129          1
   130          0
   131          1
   132          0
   133          3
   134         45
   135          4
   136          0
   137          0
   138          0
   139          0
   140          0
   141          1
   142          2
   143          8
   144          2
   145          7
   146          0
   147          1
   148         12
   149          3
   150          0
   151          0
   152          0
   153          0
   154          3
   155         11
   156          4
   157         10
   158          5
   159          1
   160          1
   161          1
   163          0
   164          0
   165          0
   166          0
   167          1
   168          2
   169          7
   170          3
   171          9
   172          2
   173          2
   174          0
   175          0
   176          0
   180          2
   182          3
   183          7
   184          2
   185         10
   186          2
   187          4
   188          0
   189          0
   190          0
   192          0
   193          0
   194          0
   195          0
   196          2
   197         37
   198          8
   199         35
   200          6
   201          2
   202          0
   204          0
   206          0
   208          0
   210          0
   211          2
   212          1
   213          1
   214          0
   215          0
   216          0
   218          0
   220          0
   222          0
   223          0
   224          0
   225          0
   227          0
   236          0
   238          0
   240          1
   241          0
   246          0
   248          2
   249          0
   250          1
   262          0
   263          0
   264          0
   265          0
   267          0
   273          0
   274          0
   275          0
   276          0
   277          0
   279          0
   301          0
   302          7
   303          1
   304          7
   305          1
   307          0
   318          1
   319         43
   320          8
   321         46
   322          6
   323          0