##TITLE=Library Entry 114092
##JCAMP-DX=Revision 4.10 
##DATA TYPE=MASS SPECTRUM
##SAMPLE DESCRIPTION=Exported from NIST MS Search
##NAMES=HP
##CAS NAME=2(1H)-Naphthalenone, 1-methyl-1-(2-propynyl)-
##MOLFORM=C14H12O
##CAS REGISTRY NO=41389-92-8
##MP= -300
##BP= -300
##MW= 196
##$RETENTION INDEX=0
##$CONDENSED SPECTRUM=NO
##NPOINTS= 8
##XYDATA=(XY..XY) 1 
    77        170
   102        100
   115        100
   129        999
   167        280
   168        260
   181        290
   196        539