##TITLE=Library Entry 87044
##JCAMP-DX=Revision 4.10 
##DATA TYPE=MASS SPECTRUM
##SAMPLE DESCRIPTION=E. PICQUENARD, UNIV. PIERRE MARIE CURIE, PARIS, FR.
##NAMES=HP
##CAS NAME=2(1H)-Pyrimidinone, 5-methyl-
##MOLFORM=C5H6N2O
##CAS REGISTRY NO=41398-85-0
##MP= -300
##BP= -300
##MW= 110
##$RETENTION INDEX=0
##$CONDENSED SPECTRUM=NO
##NPOINTS= 19
##XYDATA=(XY..XY) 1 
    40        100
    41         85
    43         70
    44         90
    52         60
    53         50
    54        150
    55        480
    56         90
    57         80
    69         70
    71         50
    81        115
    82        370
    83         70
    95         50
   109        115
   110        999
   111         80