##TITLE=Library Entry 48831
##JCAMP-DX=Revision 4.10 
##DATA TYPE=MASS SPECTRUM
##SAMPLE DESCRIPTION=Exported from NIST MS Search
##NAMES=HP
##CAS NAME=Tricyclo[3.3.1.1(3,7)]decanone, 4-methoxy-, (1.alpha.,3.beta.,4.a
lpha.,5.alpha.,7.beta.)-
##MOLFORM=C11H16O2
##CAS REGISTRY NO=41398-33-8
##MP= -300
##BP= -300
##MW= 180
##$RETENTION INDEX=0
##$CONDENSED SPECTRUM=NO
##NPOINTS= 66
##XYDATA=(XY..XY) 1 
    40         25
    41        288
    42         20
    43         52
    44         15
    45        120
    51         52
    52         32
    53         80
    54         36
    55        102
    56         17
    57         44
    58         10
    59         24
    65         50
    66         68
    67        127
    68         38
    69         64
    70         12
    71        176
    72         20
    74         18
    77        117
    78        764
    79        999
    80        124
    81        105
    82         16
    83         21
    84         47
    85         27
    87         88
    88         25
    91        148
    92        132
    93        108
    94         41
    95         18
    97         27
   100         32
   101         18
   104         35
   105         70
   106         51
   107         58
   108         21
   109         70
   110         47
   111         23
   113         15
   115         24
   116         32
   117         96
   118         89
   119         15
   120         14
   131         23
   148        609
   149         96
   150         55
   151         21
   180        244
   181         44
   182          9