##TITLE=Library Entry 38017
##JCAMP-DX=Revision 4.10 
##DATA TYPE=MASS SPECTRUM
##SAMPLE DESCRIPTION=Exported from NIST MS Search
##NAMES=HP
##CAS NAME=Tricyclo[3.3.1.1(3,7)]decane-2,6-dione, 4-(methylamino)-
##MOLFORM=C11H15NO2
##CAS REGISTRY NO=41398-36-1
##MP= -300
##BP= -300
##MW= 193
##$RETENTION INDEX=0
##$CONDENSED SPECTRUM=NO
##NPOINTS= 76
##XYDATA=(XY..XY) 1 
    40        126
    41        164
    42        267
    43         29
    44        158
    50         14
    51         22
    52         73
    53         46
    54        119
    55         44
    56        107
    57         29
    63         14
    65         57
    66         34
    67         64
    68        177
    69         30
    70        999
    71        109
    72         11
    77         77
    78         45
    79        125
    80         46
    81         45
    82         67
    83        332
    84        288
    85         23
    86         57
    87          8
    91         73
    92         34
    93         14
    94         67
    95         64
    96        183
    97         73
    98         28
    99         25
   105         32
   106         52
   107         57
   108        119
   109         57
   110        164
   111         54
   112         15
   119         21
   120         16
   121          8
   122         26
   123         40
   124         57
   125         14
   133         33
   134        110
   135         26
   136         67
   137         55
   138         32
   148         38
   149          8
   150         30
   151          8
   152         32
   165         65
   166         27
   167          2
   191         14
   192         46
   193        511
   194         69
   195          8