##TITLE=Library Entry 77823
##JCAMP-DX=Revision 4.10 
##DATA TYPE=MASS SPECTRUM
##SAMPLE DESCRIPTION=ACCUSTANDARD Chemicals / NIST MS Data Center.
##NAMES=HP
##CAS NAME=Metamitron
##MOLFORM=C10H10N4O
##CAS REGISTRY NO=41394-05-2
##MP= -300
##BP= -300
##MW= 202
##$RETENTION INDEX=2193
##$CONDENSED SPECTRUM=NO
##NPOINTS= 105
##XYDATA=(XY..XY) 1 
    12          2
    13          4
    14          9
    15         89
    16         10
    17          2
    18          4
    25          4
    26         23
    27         42
    28         81
    29         73
    30        283
    31         12
    32          6
    36          2
    37         17
    38         30
    39        124
    40         34
    41         43
    42        423
    43         36
    44          3
    48          2
    49         12
    50         95
    51        131
    52         33
    53         12
    54          7
    55         16
    56         37
    57        125
    58         62
    59          3
    60          2
    61         23
    62         75
    63        198
    64         25
    65         11
    66          4
    67          2
    69          4
    71          3
    74         23
    75         39
    76        142
    77        306
    78         29
    79          9
    80          2
    82          2
    83          9
    84          4
    85          9
    86         18
    87         30
    88         24
    89        155
    90         33
    91         63
    92          7
    93          2
    98          2
    99          5
   100          2
   101         12
   102         20
   103        146
   104        999
   105         96
   106         42
   107          4
   114          2
   115          4
   116          4
   117         11
   118         14
   119          6
   128          2
   129          3
   130          8
   131          6
   132         23
   133         93
   134         10
   144          2
   145         11
   146          3
   147          3
   158         15
   159          5
   160          3
   173        187
   174        456
   175         50
   176          2
   186         93
   187         32
   188          4
   202        864
   203        101
   204          9