##TITLE=Library Entry 67222
##JCAMP-DX=Revision 4.10 
##DATA TYPE=MASS SPECTRUM
##SAMPLE DESCRIPTION=NIST Mass Spectrometry Data Center
##NAMES=HP
##CAS NAME=(+)-Epi-.beta.-santalyl acetate
##MOLFORM=C17H26O2
##CAS REGISTRY NO=41414-75-9
##MP= -300
##BP= -300
##MW= 262
##$RETENTION INDEX=1788
##$CONDENSED SPECTRUM=NO
##NPOINTS= 104
##XYDATA=(XY..XY) 1 
    27         38
    28         11
    29         86
    31         21
    37          1
    38          6
    39         90
    40         23
    41        330
    42         13
    43        812
    44         27
    47          1
    51         33
    52         13
    53        124
    54         16
    55        219
    56         15
    57         16
    61         15
    63          6
    64          4
    65         91
    66         42
    67        210
    68        115
    69         36
    71         10
    72         11
    73          4
    74          3
    75          6
    76          3
    77        313
    78         46
    79        386
    80         80
    81         71
    83         25
    84         28
    85         10
    89          7
    91        415
    92        103
    93        934
    94        999
    95        239
    96        135
    97         49
    98         17
    99          4
   103         52
   104         11
   105        316
   106        104
   107        448
   108        150
   109         24
   113          4
   115         29
   116          9
   117         66
   118         29
   119        275
   120        195
   121        498
   122        355
   123         41
   124          9
   126          3
   127          9
   129         10
   130          3
   131         87
   132         99
   133        130
   134         45
   135        145
   138         87
   140          9
   144         11
   145         79
   146         69
   147         37
   148         30
   150          8
   153          5
   158          4
   159         85
   160         39
   161         55
   168          4
   173         19
   174         33
   177          2
   179          3
   187        168
   188         27
   189         16
   201          8
   202        219
   247          2
   262          2