##TITLE=Library Entry 14001
##JCAMP-DX=Revision 4.10 
##DATA TYPE=MASS SPECTRUM
##SAMPLE DESCRIPTION=Humboldt-Universitat zu Berlin, Department of Chemistry
, Analytical Group
##NAMES=HP
##CAS NAME=2-(4-Bromophenyl)-5-methyl-[1,3,4]oxadiazole
##MOLFORM=C9H7BrN2O
##CAS REGISTRY NO=41421-03-8
##MP= -300
##BP= -300
##MW= 238
##$RETENTION INDEX=0
##$CONDENSED SPECTRUM=NO
##NPOINTS= 132
##XYDATA=(XY..XY) 1 
    12          7
    13          9
    14         47
    15        199
    16         14
    17         80
    18        301
    24          4
    25         23
    26        187
    27        310
    28         76
    29         30
    30          8
    32          7
    36          5
    37         69
    38        131
    39        105
    40         40
    41         44
    42         50
    43        999
    44         38
    45         13
    48          7
    49         47
    50        454
    51        125
    52         34
    53         33
    54         13
    55         28
    56         24
    57         17
    60         10
    61         68
    62        194
    63        156
    64         44
    65         15
    67          5
    68          4
    69         12
    70          7
    71         10
    72          5
    73         47
    74        202
    75        378
    76        347
    77        171
    78         15
    79         15
    80         16
    81         17
    82         11
    83         13
    84         11
    85         37
    86         71
    87         86
    88        178
    89        474
    90        132
    91         26
    92          5
    93          7
    95          7
    97          9
    99         12
   100          9
   101         13
   102        146
   103        416
   104         69
   105         15
   106          7
   107          8
   109          3
   111          6
   112          5
   116          8
   117         61
   118         20
   119         34
   120          6
   121          5
   125          4
   128          8
   129         16
   130         14
   131         17
   141          8
   143          7
   149          7
   152          4
   153          4
   154         10
   155        336
   156         47
   157        369
   158         37
   159          4
   160         12
   167         50
   168        191
   169         78
   170        197
   171         37
   172          4
   181         29
   182        231
   183        596
   184        272
   185        579
   186         46
   187          3
   196         45
   197          6
   198         43
   199          5
   200         47
   201          4
   202         51
   203          6
   223          3
   238        918
   239        107
   240        920
   241        106
   242          7