##TITLE=Library Entry 60945
##JCAMP-DX=Revision 4.10 
##DATA TYPE=MASS SPECTRUM
##SAMPLE DESCRIPTION=NIST Mass Spectrometry Data Center
##NAMES=HP
##CAS NAME=.beta.-Longipinene
##MOLFORM=C15H24
##CAS REGISTRY NO=41432-70-6
##MP= -300
##BP= -300
##MW= 204
##$RETENTION INDEX=1403
##$CONDENSED SPECTRUM=NO
##NPOINTS= 105
##XYDATA=(XY..XY) 1 
    27         97
    28         23
    29        103
    30          3
    31          3
    38          4
    39        234
    40         39
    41        589
    42         51
    44          9
    50         18
    51         84
    52         48
    53        291
    54         36
    55        421
    56         46
    57        127
    62          4
    63         23
    64         16
    65        224
    66         55
    67        360
    68         59
    69        288
    70         47
    71        107
    73         11
    76          9
    77        540
    78        161
    79        660
    80        219
    81        292
    82        163
    83         31
    84         12
    89         18
    91        999
    92        341
    93        702
    94        149
    95        124
    96         62
    97         27
    98          7
   101         10
   102         18
   103         58
   104         56
   105        714
   106        224
   107        485
   108        162
   109        287
   110         17
   112         70
   114          5
   115        139
   116         46
   117        215
   118        120
   119        501
   120        410
   121        284
   122        109
   123         56
   127         18
   128         85
   129         94
   130         26
   131        104
   132         44
   133        535
   134        234
   135        186
   136         76
   137         18
   142          8
   143         20
   144         18
   145         83
   146         19
   147        210
   148        154
   149         49
   151          5
   152          7
   157          5
   158          5
   159         60
   160         35
   161        436
   162         77
   169          3
   175         78
   176         44
   189        242
   190         34
   191         12
   202          8
   204        191
   205         34