##TITLE=Library Entry 34543
##JCAMP-DX=Revision 4.10 
##DATA TYPE=MASS SPECTRUM
##SAMPLE DESCRIPTION=Philip Morris R&D
##NAMES=HP
##CAS NAME=2-Buten-1-one, 1-(2,6,6-trimethyl-3-cyclohexen-1-yl)-
##MOLFORM=C13H20O
##CAS REGISTRY NO=41436-42-4
##MP= -300
##BP= -300
##MW= 192
##$RETENTION INDEX=0
##$CONDENSED SPECTRUM=NO
##NPOINTS= 75
##XYDATA=(XY..XY) 1 
    36          8
    38          5
    39         99
    40         19
    41        299
    42         14
    43        100
    44          4
    51         13
    52          5
    53         44
    54          4
    55         90
    56          5
    57         36
    59          3
    63          4
    65         25
    66          6
    67         70
    68         47
    69        999
    70         49
    71         17
    77         41
    78          7
    79         38
    80          9
    81        199
    82         73
    83         81
    84         10
    85          4
    91         51
    92          7
    93         67
    94         15
    95         58
    96         42
    97         15
    98          7
   105         16
   106          4
   107         68
   108         66
   109        116
   110         37
   111         39
   112         26
   117          2
   119          6
   120          8
   121         46
   122         55
   123        268
   124         59
   125         41
   126          3
   131          3
   133          5
   134          4
   135         41
   136         25
   137         56
   138          7
   149         39
   150          9
   151          2
   159          8
   163         25
   164         12
   177         55
   178          7
   192        105
   193         15