##TITLE=Library Entry 39305
##JCAMP-DX=Revision 4.10 
##DATA TYPE=MASS SPECTRUM
##SAMPLE DESCRIPTION=CARL DJERASSI DEPT OF CHEM STANFORD UNIV STANFORD CALIF
 94305
##NAMES=HP
##CAS NAME=Nonanoic acid, 6-oxo-, ethyl ester
##MOLFORM=C11H20O3
##CAS REGISTRY NO=4144-59-6
##MP= -300
##BP= -300
##MW= 200
##$RETENTION INDEX=0
##$CONDENSED SPECTRUM=NO
##NPOINTS= 49
##XYDATA=(XY..XY) 1 
    41        300
    42         50
    43        790
    44         20
    45         40
    53         20
    55        290
    56         40
    57         30
    58        130
    59         70
    60         30
    61         10
    67         50
    68         20
    69         40
    70         30
    71        999
    72         40
    73         80
    83        210
    84         70
    85         10
    86         60
    87         40
    88         30
    97         30
    98         10
    99         40
   101        280
   102         20
   109        370
   110         30
   111        910
   112         70
   113         10
   115        320
   116         10
   126         70
   127         10
   129         90
   137         60
   154        100
   155        170
   156         10
   157        190
   158         10
   172         30
   200         70