##TITLE=Library Entry 19102
##JCAMP-DX=Revision 4.10 
##DATA TYPE=MASS SPECTRUM
##SAMPLE DESCRIPTION=S.A. Rang et al., IR & MS of Unsatd. Hydrocarbons, 1977
##NAMES=HP
##CAS NAME=4-Tetradecene, (Z)-
##MOLFORM=C14H28
##CAS REGISTRY NO=41446-65-5
##MP= -300
##BP= -300
##MW= 196
##$RETENTION INDEX=1378
##$CONDENSED SPECTRUM=NO
##NPOINTS= 106
##XYDATA=(XY..XY) 1 
    15          6
    24          0
    25          3
    26         21
    27        214
    28         25
    29        416
    30         11
    31         86
    37          2
    38          5
    39        154
    40         28
    41        931
    42        214
    43        689
    44         18
    45         33
    46         10
    47          0
    49          1
    50         11
    51         17
    52         15
    53         82
    54        172
    55        999
    56        499
    57        588
    58          8
    59          9
    61          1
    62          0
    63          2
    65         18
    66         15
    67        202
    68         90
    69        558
    70        398
    71        196
    72         26
    73          6
    74          2
    75          1
    76          2
    77         22
    78         29
    79         35
    80          9
    81        111
    82         98
    83        398
    84        202
    85         98
    86          8
    87          1
    88          0
    91          6
    92          1
    93          7
    94          2
    95         50
    96         48
    97        255
    98         95
    99         53
   103          0
   105          0
   107          2
   108          0
   109         22
   110         18
   111         92
   112         49
   113          6
   114          3
   115          1
   121          1
   123          8
   124          9
   125         32
   126         21
   127          5
   128          1
   137          2
   138          5
   139         10
   140          9
   141         10
   142          1
   151          1
   152          1
   153          4
   154          4
   155          1
   156          1
   165          1
   167          4
   168          8
   169          4
   170          0
   181          4
   194          1
   196         73
   197          9