##TITLE=Library Entry 20160
##JCAMP-DX=Revision 4.10 
##DATA TYPE=MASS SPECTRUM
##SAMPLE DESCRIPTION=D.HENNEBERG, MAX-PLANCK INSTITUTE, MULHEIM, WEST GERMAN
Y
##NAMES=HP
##CAS NAME=5-Tetradecene, (E)-
##MOLFORM=C14H28
##CAS REGISTRY NO=41446-66-6
##MP= -300
##BP= -300
##MW= 196
##$RETENTION INDEX=1378
##$CONDENSED SPECTRUM=NO
##NPOINTS= 84
##XYDATA=(XY..XY) 1 
    22          1
    25          2
    26          7
    27        135
    28          9
    29        231
    30          5
    32          1
    34          0
    35          1
    36          1
    37          4
    38          3
    39        105
    40         18
    41        540
    42        175
    43        534
    44          9
    45          1
    46          0
    47          0
    49          1
    50          4
    51          7
    52          4
    53         49
    54        163
    55        999
    56        578
    57        494
    58         20
    63          3
    65         11
    66         14
    67        136
    68         74
    69        640
    70        443
    71        166
    72          8
    75          0
    77         11
    78          4
    79         18
    80          6
    81         60
    82         91
    83        435
    84        224
    85         70
    86          3
    91          4
    92          1
    93          4
    94          1
    95         20
    96         38
    97        282
    98        103
    99         11
   105          0
   107          0
   109          5
   110         15
   111         94
   112         46
   113          3
   123          1
   124          6
   125         28
   126         19
   127          2
   138          2
   139          6
   140          6
   141          0
   153          3
   154          3
   168          5
   194          1
   195          0
   196         59
   197          9