##TITLE=Library Entry 19086
##JCAMP-DX=Revision 4.10 
##DATA TYPE=MASS SPECTRUM
##SAMPLE DESCRIPTION=S.A. Rang et al., IR & MS of Unsatd. Hydrocarbons, 1977
##NAMES=HP
##CAS NAME=2-Tridecene, (E)-
##MOLFORM=C13H26
##CAS REGISTRY NO=41446-58-6
##MP= -300
##BP= -300
##MW= 182
##$RETENTION INDEX=1297
##$CONDENSED SPECTRUM=NO
##NPOINTS= 101
##XYDATA=(XY..XY) 1 
    15          9
    16          2
    24          1
    25          5
    26         26
    27        251
    28         11
    29        531
    30         11
    31          1
    37          3
    38          5
    39        201
    40         41
    41        854
    42        229
    43        770
    44         19
    45          1
    49          0
    50          4
    51          9
    52          7
    53         98
    54        130
    55        999
    56        531
    57        423
    58         18
    59          1
    60          0
    63          1
    64          0
    65         12
    66         13
    67        126
    68        105
    69        445
    70        380
    71        160
    72          8
    73          0
    77          8
    78          2
    79         15
    80          4
    81         39
    82         67
    83        280
    84        186
    85         63
    86          3
    87          0
    91          3
    92          0
    93          2
    94          1
    95         13
    96         31
    97        208
    98         83
    99         11
   105          1
   106          0
   107          1
   108          0
   109          4
   110         12
   111         68
   112         35
   113          3
   114          0
   115          0
   117          0
   119          0
   121          1
   122          1
   123          1
   124          4
   125         21
   126         16
   127          2
   128          0
   133          0
   135          0
   136          0
   137          0
   138          2
   139          6
   140          6
   141          1
   147          0
   149          0
   151          0
   152          1
   153          3
   154          9
   155          1
   182         63
   183          7
   184          0