##TITLE=Library Entry 16881
##JCAMP-DX=Revision 4.10 
##DATA TYPE=MASS SPECTRUM
##SAMPLE DESCRIPTION=NIST Mass Spectrometry Data Center, 1994
##NAMES=HP
##CAS NAME=(2-Thienylthio)acetone
##MOLFORM=C7H8OS2
##CAS REGISTRY NO=41444-33-1
##MP= -300
##BP= -300
##MW= 172
##$RETENTION INDEX=0
##$CONDENSED SPECTRUM=NO
##NPOINTS= 80
##XYDATA=(XY..XY) 1 
    12          4
    13          8
    14         47
    15        149
    18          3
    25          7
    26         43
    27        107
    33          5
    34          3
    36          2
    37         35
    38         79
    39        230
    40          9
    41          5
    42        100
    43        776
    44          2
    45        999
    46         47
    47         49
    48          3
    49          7
    50         17
    51         18
    52          4
    53         56
    54          3
    55          4
    56          7
    57        103
    58         75
    60          4
    61          1
    63          4
    64          7
    65          9
    68         14
    69        172
    70         56
    71        484
    72         27
    73         20
    76         12
    77          6
    78          2
    81         43
    82         72
    83         16
    84         30
    85        333
    86         20
    87         15
    88         17
    89          9
    90          3
    93          2
    95          7
    96          7
    97         62
    98          4
    99          4
   103          6
   111         12
   112          3
   113          3
   114          3
   115        185
   116         18
   117         19
   127         16
   129        385
   130        135
   131         40
   132         14
   172        470
   173         44
   174         48
   175          4