##TITLE=Library Entry 2715
##JCAMP-DX=Revision 4.10 
##DATA TYPE=MASS SPECTRUM
##SAMPLE DESCRIPTION=S.A. Rang et al., IR & MS of Unsatd. Hydrocarbons, 1977
##NAMES=HP
##CAS NAME=2-Tridecene, (Z)-
##MOLFORM=C13H26
##CAS REGISTRY NO=41446-59-7
##MP= -300
##BP= -300
##MW= 182
##$RETENTION INDEX=1302
##$CONDENSED SPECTRUM=NO
##NPOINTS= 114
##XYDATA=(XY..XY) 1 
    15         14
    16          7
    24          1
    25          5
    26         30
    27        278
    28         60
    29        596
    30         13
    31          2
    37          3
    38          6
    39        227
    40         45
    41        999
    42        259
    43        903
    44         23
    45          2
    49          0
    50          3
    51          9
    52          8
    53        103
    54        136
    55        990
    56        557
    57        480
    58         24
    59          4
    60          2
    61          0
    63          1
    64          0
    65         14
    66         15
    67        146
    68        110
    69        490
    70        403
    71        189
    72         10
    73          2
    74         12
    75          1
    77         10
    78          3
    79         18
    80          5
    81         48
    82         75
    83        298
    84        189
    85         73
    86          5
    87          6
    88          1
    91          6
    92          1
    93          3
    94          2
    95         20
    96         35
    97        212
    98         86
    99         13
   103          0
   105          2
   106          0
   107          2
   108          1
   109          9
   110         14
   111         73
   112         39
   113          5
   114          0
   115          1
   117          1
   119          1
   120          0
   121          3
   122          3
   123          3
   124          5
   125         21
   126         16
   127          2
   128          0
   129          1
   131          0
   133          1
   134          0
   135          2
   136          2
   137          1
   138          2
   139          6
   140          6
   141          1
   143          1
   145          0
   147          1
   148          0
   149          1
   150          1
   151          0
   152          1
   153          3
   154          9
   155          2
   182         63
   183         10
   184          0