##TITLE=Library Entry 19095
##JCAMP-DX=Revision 4.10 
##DATA TYPE=MASS SPECTRUM
##SAMPLE DESCRIPTION=S.A. Rang et al., IR & MS of Unsatd. Hydrocarbons, 1977
##NAMES=HP
##CAS NAME=5-Tetradecene, (Z)-
##MOLFORM=C14H28
##CAS REGISTRY NO=41446-62-2
##MP= -300
##BP= -300
##MW= 196
##$RETENTION INDEX=1372
##$CONDENSED SPECTRUM=NO
##NPOINTS= 112
##XYDATA=(XY..XY) 1 
    15         10
    25          3
    26         18
    27        258
    28         24
    29        402
    30         10
    31         56
    37          2
    38          4
    39        166
    40         33
    41        866
    42        183
    43        700
    44         24
    45         27
    46          6
    49          0
    50          5
    51         12
    52         12
    53         93
    54        212
    55        999
    56        425
    57        569
    58         51
    59          9
    60          4
    61          0
    63          1
    64          0
    65         23
    66         19
    67         28
    68        102
    69        517
    70        350
    71        160
    72         15
    73          5
    74          1
    76          0
    77         28
    78         14
    79         50
    80         14
    81        142
    82         93
    83        362
    84        178
    85         72
    86         14
    87          4
    88          1
    91         14
    92          2
    93         21
    94          6
    95        102
    96         49
    97        235
    98         87
    99         34
   103          0
   105          2
   107          9
   108          2
   109         27
   110         24
   111        149
   112         51
   113         40
   114          4
   115          1
   121          3
   122          1
   123         18
   124         13
   125         34
   126         31
   127         30
   128          5
   129          1
   135          2
   137          6
   138          5
   139         11
   140          9
   141          5
   142          2
   149          2
   151          3
   152          2
   153         14
   154          5
   155          7
   156          1
   165          2
   166          2
   167         21
   168         10
   169         10
   170          1
   179          3
   181          2
   182          1
   194          2
   195          1
   196         78
   197          9