##TITLE=Library Entry 20144
##JCAMP-DX=Revision 4.10 
##DATA TYPE=MASS SPECTRUM
##SAMPLE DESCRIPTION=D.HENNEBERG, MAX-PLANCK INSTITUTE, MULHEIM, WEST GERMAN
Y
##NAMES=HP
##CAS NAME=7-Tetradecene, (Z)-
##MOLFORM=C14H28
##CAS REGISTRY NO=41446-60-0
##MP= -300
##BP= -300
##MW= 196
##$RETENTION INDEX=1366
##$CONDENSED SPECTRUM=NO
##NPOINTS= 78
##XYDATA=(XY..XY) 1 
    25          2
    26          8
    27        159
    28         15
    29        328
    30          8
    32          0
    33          1
    35          2
    37          5
    38          0
    39        127
    40         24
    41        668
    42        249
    43        764
    44          6
    47          0
    49          1
    50          3
    51          8
    52          7
    53         65
    54        192
    55        999
    56        700
    57        511
    58         17
    62          0
    63          1
    64          0
    65         17
    66         15
    67        169
    68         97
    69        898
    70        567
    71        209
    72          9
    75          0
    77         11
    78          4
    79         21
    80          8
    81         64
    82        103
    83        536
    84        273
    85         86
    86          3
    91          5
    93          3
    94          1
    95         23
    96         46
    97        308
    98        117
    99          9
   109          6
   110         20
   111        119
   112         52
   113          6
   123          1
   124          5
   125         28
   126         20
   127          0
   138          1
   139          6
   140          8
   141          0
   153          2
   154          2
   167          1
   168          5
   194          1
   196         65