##TITLE=Library Entry 19072
##JCAMP-DX=Revision 4.10 
##DATA TYPE=MASS SPECTRUM
##SAMPLE DESCRIPTION=S.A. Rang et al., IR & MS of Unsatd. Hydrocarbons, 1977
##NAMES=HP
##CAS NAME=4-Tetradecene, (E)-
##MOLFORM=C14H28
##CAS REGISTRY NO=41446-78-0
##MP= -300
##BP= -300
##MW= 196
##$RETENTION INDEX=1379
##$CONDENSED SPECTRUM=NO
##NPOINTS= 75
##XYDATA=(XY..XY) 1 
    25          2
    26         12
    27        167
    28         20
    29        344
    30          7
    37          1
    38          3
    39        135
    40         24
    41        878
    42        191
    43        608
    44         15
    50          2
    51          7
    52          7
    53         77
    54        186
    55        999
    56        500
    57        419
    58         17
    63          0
    65         17
    66         15
    67        195
    68         88
    69        567
    70        410
    71        167
    72          8
    77         12
    78          3
    79         28
    81         92
    82         98
    83        424
    84        209
    85         71
    86          4
    91          5
    93          3
    94          1
    95         30
    96         42
    97        228
    98         90
    99          8
   107          0
   109         10
   110         17
   111         93
   112         47
   113          5
   123          5
   124          9
   125         32
   126         22
   127          2
   137          1
   138          3
   139          9
   140          9
   141          1
   151          1
   152          1
   153          4
   154          4
   167          2
   168          9
   169          1
   194          0
   196         84
   197          9