##TITLE=Library Entry 19329
##JCAMP-DX=Revision 4.10 
##DATA TYPE=MASS SPECTRUM
##SAMPLE DESCRIPTION=S.A. Rang et al., IR & MS of Unsatd. Hydrocarbons, 1977
##NAMES=HP
##CAS NAME=6-Tetradecene, (E)-
##MOLFORM=C14H28
##CAS REGISTRY NO=41446-64-4
##MP= -300
##BP= -300
##MW= 196
##$RETENTION INDEX=1376
##$CONDENSED SPECTRUM=NO
##NPOINTS= 79
##XYDATA=(XY..XY) 1 
    15          5
    24          0
    25          2
    26         15
    27        208
    28         25
    29        481
    30          9
    37          1
    38          3
    39        158
    40         29
    41        920
    42        197
    43        666
    44         15
    50          2
    51          7
    52          7
    53         89
    54        268
    55        999
    56        571
    57        437
    58         17
    63          1
    65         20
    66         18
    67        191
    68         97
    69        809
    70        459
    71        153
    72          7
    77         15
    78          3
    79         30
    80          8
    81         33
    82         95
    83        454
    84        224
    85         74
    86          4
    91          5
    92          0
    93          3
    94          1
    95         29
    96         42
    97        268
    98        106
    99          8
   105          0
   109          7
   110         20
   111        108
   112         53
   113          6
   123          2
   124          7
   125         33
   126         24
   127          3
   137          0
   138          3
   139          0
   140         10
   141          1
   151          0
   152          1
   153          4
   154          4
   155          0
   167          2
   168          9
   169          1
   196         95
   197         10