##TITLE=Library Entry 19425
##JCAMP-DX=Revision 4.10 
##DATA TYPE=MASS SPECTRUM
##SAMPLE DESCRIPTION=H. Fales, LC, NHLBI, NIH, Bethesda, MD 20892
##NAMES=HP
##CAS NAME=2,6-Nonadienal, 3,7-dimethyl-
##MOLFORM=C11H18O
##CAS REGISTRY NO=41448-29-7
##MP= -300
##BP= -300
##MW= 166
##$RETENTION INDEX=0
##$CONDENSED SPECTRUM=NO
##NPOINTS= 128
##XYDATA=(XY..XY) 1 
    41        623
    42         48
    43        231
    44         21
    45         11
    46          1
    47          0
    49          1
    50         13
    51         43
    52         20
    53        142
    54         46
    55        999
    56         97
    57         33
    58         11
    59         16
    60          5
    61          2
    62          3
    63          9
    64          2
    65         45
    66         16
    67        144
    68         25
    69         48
    70         18
    71         31
    72          5
    73         59
    74          4
    75          3
    76          1
    77         45
    78          9
    79         58
    80         24
    81        107
    82         99
    83        489
    84        356
    85         31
    86          8
    87          3
    88          1
    89          2
    90          1
    91         34
    92          9
    93         27
    94        112
    95         82
    96         25
    97         31
    98          9
    99          8
   100          2
   101          2
   102          0
   103          3
   104          1
   105         12
   106          4
   107         17
   108          9
   109         71
   110         21
   111         10
   112          4
   113         17
   114          4
   115          3
   116          1
   117          3
   118          1
   119         15
   120          4
   121          9
   122         14
   123         46
   124         13
   125          6
   126          4
   127          4
   128          1
   129          2
   130          1
   131          2
   132          1
   133          9
   134          2
   135          6
   136          4
   137        105
   138         27
   139          4
   140          3
   141          3
   142          3
   143          2
   144          0
   145          2
   146          0
   147          2
   148          7
   149          6
   150          1
   151         25
   152          6
   153          2
   154          1
   155          1
   156          0
   157          1
   158          1
   159          1
   160          0
   161          1
   162          1
   163          1
   164          1
   165          2
   166          8
   167          2
   168          1
   169          1