##TITLE=Library Entry 2688
##JCAMP-DX=Revision 4.10 
##DATA TYPE=MASS SPECTRUM
##SAMPLE DESCRIPTION=D.HENNEBERG, MAX-PLANCK INSTITUTE, MULHEIM, WEST GERMAN
Y
##NAMES=HP
##CAS NAME=3-Tetradecene, (Z)-
##MOLFORM=C14H28
##CAS REGISTRY NO=41446-67-7
##MP= -300
##BP= -300
##MW= 196
##$RETENTION INDEX=1384
##$CONDENSED SPECTRUM=NO
##NPOINTS= 80
##XYDATA=(XY..XY) 1 
    23          0
    24          0
    25          4
    26         11
    27        178
    28         20
    29        369
    30         10
    32          1
    33          1
    34          0
    35          2
    37          7
    38          5
    39        147
    40         30
    41        999
    42        271
    43        933
    44          9
    47          1
    48          0
    49          1
    50          3
    51         10
    52          6
    53         68
    54        126
    55        979
    56        738
    57        681
    58         25
    63          2
    64          1
    65         15
    66         14
    67        163
    68        131
    69        798
    70        602
    71        256
    72         11
    75          0
    77         10
    78          2
    79         18
    80          9
    81         60
    82        119
    83        500
    84        278
    85        104
    86          6
    91          4
    92          1
    93          3
    94          1
    95         19
    96         42
    97        304
    98        119
    99         12
   109          3
   110         18
   111        117
   112         51
   113          4
   124          7
   125         33
   126         23
   127          2
   138          1
   139          7
   140          7
   153          3
   154          2
   168          6
   194          1
   196         44
   197          5