##TITLE=Library Entry 2816
##JCAMP-DX=Revision 4.10 
##DATA TYPE=MASS SPECTRUM
##SAMPLE DESCRIPTION=S.A. Rang et al., IR & MS of Unsatd. Hydrocarbons, 1977
##NAMES=HP
##CAS NAME=3-Tetradecene, (E)-
##MOLFORM=C14H28
##CAS REGISTRY NO=41446-68-8
##MP= -300
##BP= -300
##MW= 196
##$RETENTION INDEX=1385
##$CONDENSED SPECTRUM=NO
##NPOINTS= 105
##XYDATA=(XY..XY) 1 
    15          5
    25          2
    26         11
    27        157
    28         26
    29        344
    30          7
    31          1
    37          1
    38          3
    39        131
    40         29
    41        999
    42        197
    43        632
    44         16
    45          1
    50          2
    51          6
    52          5
    53         78
    54        122
    55        720
    56        441
    57        380
    58         18
    59          1
    60          1
    63          1
    65         13
    66         17
    67        157
    68        100
    69        647
    70        420
    71        177
    72          9
    73          1
    77         10
    78          2
    79         19
    80          6
    81         60
    82         88
    83        329
    84        202
    85         82
    86          5
    91          6
    92          1
    93          4
    94          2
    95         26
    96         36
    97        218
    98         88
    99          8
   104          1
   105          2
   106          1
   107          3
   108          1
   109         10
   110         18
   111        100
   112         50
   113          5
   114          0
   115          1
   117          0
   119          1
   120          0
   121          3
   122          3
   123          3
   124          8
   125         32
   126         26
   127          3
   128          0
   133          1
   135          3
   136          3
   137          1
   138          3
   139          9
   140         10
   141          1
   147          1
   149          2
   150          1
   151          1
   152          2
   153          5
   154          4
   155          1
   163          0
   165          1
   166          1
   167          2
   168          9
   169          1
   194          1
   196         81
   197         10