##TITLE=Library Entry 30303
##JCAMP-DX=Revision 4.10 
##DATA TYPE=MASS SPECTRUM
##SAMPLE DESCRIPTION=Div. of Experiment Therapeutics WRAIR, WRAMC, Washingto
n DC 20307
##NAMES=HP
##CAS NAME=N-Carbobenzyloxy-l-O-methylthreonine methyl ester
##MOLFORM=C14H19NO5
##CAS REGISTRY NO=4144-14-3
##MP= -300
##BP= -300
##MW= 281
##$RETENTION INDEX=0
##$CONDENSED SPECTRUM=NO
##NPOINTS= 156
##XYDATA=(XY..XY) 1 
    42        233
    43        190
    44         25
    45         37
    47         39
    48         18
    49          2
    51          1
    52         15
    53         13
    54         20
    55         26
    56         19
    57         18
    59        999
    60         36
    61          6
    62          6
    63         35
    65        116
    66          1
    67          9
    68         15
    69         29
    70         87
    71         25
    72         17
    73         11
    74          6
    75          6
    77         47
    78          7
    79         36
    80          3
    81          6
    82          8
    83         14
    84          9
    86         56
    87          7
    88         41
    89         44
    91        718
    92         47
    93          2
    94          1
    95          4
    97          7
    98          3
    99         17
   100         10
   101         13
   102         13
   103          3
   104          1
   105         15
   107         42
   108         38
   109          6
   110          3
   111          4
   114        103
   115         29
   116          1
   117          9
   118          3
   119          3
   120          3
   121          3
   122          1
   123          3
   124          2
   125          3
   126          2
   127          4
   128          3
   129         21
   130          5
   131         10
   132         19
   133          4
   134          3
   135          2
   136          0
   137          1
   139          4
   140          1
   141          4
   142          3
   143          3
   144          5
   145          4
   146         23
   147          9
   149          4
   150          0
   151          2
   152          3
   153          2
   154          3
   155          2
   157          4
   158          2
   159          2
   160          3
   161         14
   162        123
   164         27
   165          5
   166          1
   167          2
   168          0
   169          2
   171          3
   172          4
   173         11
   174          3
   175          0
   176          0
   177          0
   178         34
   179          5
   180          2
   181          2
   183          0
   185          2
   187          1
   189          1
   190          1
   191          1
   192          3
   193          1
   194          0
   195          1
   196          0
   197          0
   199          0
   201          0
   205          0
   206          2
   207          1
   208          0
   209          0
   211          0
   215          0
   221          1
   222         10
   223        226
   224         24
   225          3
   231          0
   237         11
   238          3
   250          1
   281         11
   282          1