##TITLE=Library Entry 19307
##JCAMP-DX=Revision 4.10 
##DATA TYPE=MASS SPECTRUM
##SAMPLE DESCRIPTION=S.A. Rang et al., IR & MS of Unsatd. Hydrocarbons, 1977
##NAMES=HP
##CAS NAME=6-Tetradecene, (Z)-
##MOLFORM=C14H28
##CAS REGISTRY NO=41446-61-1
##MP= -300
##BP= -300
##MW= 196
##$RETENTION INDEX=1369
##$CONDENSED SPECTRUM=NO
##NPOINTS= 96
##XYDATA=(XY..XY) 1 
    15          8
    24          1
    25          3
    26         19
    27        223
    28         22
    29        484
    30         18
    31         27
    37          2
    38          4
    39        163
    40         29
    41        929
    42        217
    43        736
    44         31
    45         10
    46          3
    49          1
    50          8
    51         14
    52         12
    53         86
    54        242
    55        999
    56        592
    57        447
    58         30
    59          2
    60          1
    63          1
    65         18
    66         16
    67        175
    68         93
    69        754
    70        465
    71        163
    72          8
    73          1
    74          1
    75          1
    76          1
    77         19
    78         31
    79         29
    80          8
    81         62
    82         90
    83        435
    84        229
    85         78
    86          5
    91          5
    92          1
    93          3
    94          1
    95         20
    96         39
    97        260
    98        106
    99          9
   105          1
   107          1
   109          5
   110          6
   111        109
   112         57
   113          6
   114         24
   115          2
   123          1
   124          7
   125         34
   126         25
   127          3
   128          1
   138          3
   139         11
   140         10
   141          2
   152          1
   153          4
   154          4
   155          1
   156          1
   166          1
   167          2
   168         10
   169          1
   170         59
   171          6
   194          1
   196         89
   197         10