##TITLE=Library Entry 2707
##JCAMP-DX=Revision 4.10 
##DATA TYPE=MASS SPECTRUM
##SAMPLE DESCRIPTION=S.A. Rang et al., IR & MS of Unsatd. Hydrocarbons, 1977
##NAMES=HP
##CAS NAME=4-Tridecene, (Z)-
##MOLFORM=C13H26
##CAS REGISTRY NO=41446-54-2
##MP= -300
##BP= -300
##MW= 182
##$RETENTION INDEX=1279
##$CONDENSED SPECTRUM=NO
##NPOINTS= 104
##XYDATA=(XY..XY) 1 
    15         11
    24          1
    25          5
    26         32
    27        265
    28          8
    29        468
    30         10
    31          9
    37          2
    38          5
    39        203
    40         38
    41        999
    42        221
    43        689
    44         18
    45         21
    50          4
    51         14
    52         14
    53        104
    54        194
    55        948
    56        468
    57        450
    58        125
    59         36
    60          5
    61          2
    63          2
    64          1
    65         25
    66         19
    67        256
    68        104
    69        495
    70        353
    71        212
    72         22
    73          6
    74          1
    77         23
    78          5
    79         41
    80         10
    81        125
    82         93
    83        300
    84        168
    85        116
    86         10
    87          3
    88          9
    89          1
    91         10
    92          1
    93          8
    94          3
    95         51
    96         44
    97        167
    98         74
    99          1
   105          2
   107          3
   108          1
   109         18
   110         16
   111         60
   112         32
   113          8
   114          1
   115          1
   119          1
   121          3
   122          2
   123         12
   124         10
   125         21
   126         12
   127          4
   128          1
   133          1
   135          2
   136          2
   137          6
   138          6
   139          6
   140          7
   141          6
   142          1
   143          1
   149          2
   151          1
   152          1
   153          2
   154          7
   155          2
   156          1
   180          2
   182         67
   183          9
   184          1