##TITLE=Library Entry 2833
##JCAMP-DX=Revision 4.10 
##DATA TYPE=MASS SPECTRUM
##SAMPLE DESCRIPTION=S.A. Rang et al., IR & MS of Unsatd. Hydrocarbons, 1977
##NAMES=HP
##CAS NAME=3-Tridecene, (E)-
##MOLFORM=C13H26
##CAS REGISTRY NO=41446-57-5
##MP= -300
##BP= -300
##MW= 182
##$RETENTION INDEX=1285
##$CONDENSED SPECTRUM=NO
##NPOINTS= 98
##XYDATA=(XY..XY) 1 
    15          6
    24          0
    25          2
    26         14
    27        193
    28         32
    29        373
    30          7
    31          1
    37          1
    38          3
    39        156
    40         33
    41        999
    42        211
    43        560
    44         15
    45          1
    49          0
    50          2
    51          7
    52          6
    53         82
    54        110
    55        666
    56        440
    57        373
    58         16
    59          1
    60          0
    61          0
    63          1
    64          0
    65         15
    66         12
    67        151
    68         87
    69        573
    70        400
    71        142
    72          7
    73          0
    74          0
    77          9
    78          2
    79         16
    80          4
    81         43
    82         71
    83        285
    84        174
    85         49
    86          2
    91          3
    92          0
    93          2
    94          1
    95         14
    96         26
    97        170
    98         72
   105          0
   106          0
   107          1
   108          0
   109          4
   110         12
   111         66
   112         36
   113          3
   115          0
   119          0
   121          0
   122          0
   123          1
   124          4
   125         21
   126         14
   127          1
   135          0
   136          0
   137          0
   138          2
   139          6
   140          5
   141          0
   149          0
   152          0
   153          3
   154          9
   155          1
   166          0
   167          0
   168          0
   180          0
   182         78
   183         10
   184          0