##TITLE=Library Entry 2706
##JCAMP-DX=Revision 4.10 
##DATA TYPE=MASS SPECTRUM
##SAMPLE DESCRIPTION=S.A. Rang et al., IR & MS of Unsatd. Hydrocarbons, 1977
##NAMES=HP
##CAS NAME=3-Tridecene, (Z)-
##MOLFORM=C13H26
##CAS REGISTRY NO=41446-53-1
##MP= -300
##BP= -300
##MW= 182
##$RETENTION INDEX=1284
##$CONDENSED SPECTRUM=NO
##NPOINTS= 99
##XYDATA=(XY..XY) 1 
    15         10
    16          2
    24          1
    25          4
    26         26
    27        229
    28         11
    29        421
    30          9
    31         23
    37          2
    38          4
    39        166
    40         35
    41        999
    42        217
    43        648
    44         17
    45          8
    49          0
    50          3
    51          8
    52          7
    53         85
    54        114
    55        685
    56        425
    57        425
    58         22
    59         10
    60          1
    63          1
    65         15
    66         12
    67        140
    68         82
    69        498
    70        351
    71        178
    72         10
    73          2
    74          4
    77         11
    78          2
    79         19
    80          4
    81         42
    82         63
    83        261
    84        172
    85         67
    86          5
    87          1
    91          5
    92          1
    93          4
    94          1
    95         14
    96         23
    97        153
    98         68
    99          2
   105          2
   106          0
   107          2
   108          1
   109          4
   110         10
   111         58
   112         31
   113          5
   115          0
   119          1
   121          2
   122          2
   123          1
   124          3
   125         18
   126         13
   127          3
   128          0
   133          1
   135          2
   136          2
   137          0
   138          1
   139          5
   140          5
   141          2
   147          0
   149          1
   150          0
   152          0
   153          2
   154          7
   155          2
   182         58
   183          7
   184          1