##TITLE=Library Entry 87938
##JCAMP-DX=Revision 4.10 
##DATA TYPE=MASS SPECTRUM
##SAMPLE DESCRIPTION=OGDEN BioServices Corp., NCI, Rockville, MD 20852
##NAMES=HP
##CAS NAME=Bruceantin
##MOLFORM=C28H36O11
##CAS REGISTRY NO=41451-75-6
##MP= -300
##BP= -300
##MW= 548
##$RETENTION INDEX=0
##$CONDENSED SPECTRUM=NO
##NPOINTS= 27
##XYDATA=(XY..XY) 1 
    41         80
    43        140
    53         10
    55        107
    57         55
    59         20
    67         72
    69         57
    71         42
    81         41
    82         10
    83         67
    84         22
    85         23
    91         10
    93         37
    95         71
    97         19
   109         24
   110         86
   111        999
   112         70
   113          9
   138         29
   139          9
   297         19
   438         33