##TITLE=Library Entry 2598
##JCAMP-DX=Revision 4.10 
##DATA TYPE=MASS SPECTRUM
##SAMPLE DESCRIPTION=Div. of Experiment Therapeutics WRAIR, WRAMC, Washingto
n DC 20307
##NAMES=HP
##CAS NAME=Propanoic acid, 3-bromo-2-(bromomethyl)-
##MOLFORM=C4H6Br2O2
##CAS REGISTRY NO=41459-42-1
##MP= -300
##BP= -300
##MW= 244
##$RETENTION INDEX=0
##$CONDENSED SPECTRUM=NO
##NPOINTS= 88
##XYDATA=(XY..XY) 1 
    41        999
    42         97
    43         35
    45        775
    47         45
    49          1
    51          0
    53         39
    55        116
    57        122
    58          6
    60          5
    63          0
    65          1
    66          1
    67          7
    68         14
    69          8
    71         17
    72          4
    73          7
    77          1
    79        118
    81        173
    82         36
    84         65
    85        296
    86         59
    88         12
    91         13
    93        121
    95        139
    96          3
    97          2
    98          1
    99          0
   101          0
   104          3
   105         14
   107         28
   109         10
   111          2
   115          0
   116          0
   117         11
   119        112
   121        133
   122         22
   123         13
   125         14
   127          1
   133         39
   135         39
   137         13
   139         12
   140          0
   146          1
   147          5
   149          9
   151        277
   153        283
   154          5
   155          0
   158          1
   160          2
   162          1
   164         13
   165        257
   167        339
   168         10
   169          1
   171          2
   173          2
   174          0
   175          1
   197          0
   199          5
   201          7
   203          4
   227          2
   229          4
   231          3
   244         14
   245          0
   246         26
   247          1
   248         13
   249          0