##TITLE=Library Entry 39603
##JCAMP-DX=Revision 4.10 
##DATA TYPE=MASS SPECTRUM
##SAMPLE DESCRIPTION=Japan AIST/NIMC Database- Spectrum MS-NW-7302
##NAMES=HP
##CAS NAME=dl-2-Amino-1-pentanol
##MOLFORM=C5H13NO
##CAS REGISTRY NO=4146-04-7
##MP= -300
##BP= -300
##MW= 103
##$RETENTION INDEX=0
##$CONDENSED SPECTRUM=NO
##NPOINTS= 54
##XYDATA=(XY..XY) 1 
    14          1
    15         19
    17          3
    18         10
    26          4
    27         50
    28         72
    29         56
    30        561
    31         36
    32          1
    37          2
    38          5
    39         35
    40          6
    41         49
    42        144
    43         55
    44         89
    45          5
    46          3
    50          2
    51          3
    52          3
    53          6
    54          8
    55         73
    56         34
    57         23
    58          7
    59          6
    60        286
    61          9
    62          1
    65          1
    67          5
    68          5
    69          3
    70         10
    71          3
    72        999
    73         50
    74          9
    82          1
    84          3
    85          2
    86         49
    87          4
    88          1
    98          1
   100          2
   102          3
   103          1
   104          2