##TITLE=Library Entry 91276
##JCAMP-DX=Revision 4.10 
##DATA TYPE=MASS SPECTRUM
##SAMPLE DESCRIPTION=Japan AIST/NIMC Database- Spectrum MS-NW-7020
##NAMES=HP
##CAS NAME=Butanedioyl dihydrazide
##MOLFORM=C4H10N4O2
##CAS REGISTRY NO=4146-43-4
##MP= -300
##BP= -300
##MW= 146
##$RETENTION INDEX=0
##$CONDENSED SPECTRUM=NO
##NPOINTS= 76
##XYDATA=(XY..XY) 1 
    12          1
    13          2
    14          7
    15         11
    16         15
    17         18
    18          7
    24          1
    25          5
    26         55
    27        175
    28        142
    29        100
    30         91
    31        505
    32        218
    33         27
    37          4
    38          4
    39         14
    40          8
    41         20
    42         58
    43         64
    44         48
    45         24
    46          2
    50          1
    51          5
    52         11
    53         12
    54         61
    55        338
    56         48
    57         28
    58         20
    59        167
    60          4
    61          4
    65          1
    67          2
    68          4
    69         32
    70         18
    71          3
    72          2
    73         48
    74          3
    77          1
    78          1
    79          1
    80          3
    81          2
    82          9
    83          3
    84          3
    85          7
    86        101
    87        148
    88         10
    91          1
    96          1
    97          8
    98          9
    99          3
   100          2
   111          1
   112          4
   113          1
   114         82
   115        999
   116         55
   117          5
   128          9
   146          2
   147          3