##TITLE=Library Entry 15220
##JCAMP-DX=Revision 4.10 
##DATA TYPE=MASS SPECTRUM
##SAMPLE DESCRIPTION=Exported from NIST MS Search
##NAMES=HP
##CAS NAME=8-Azabicyclo[4.3.1]decan-10-one, 8-methyl-
##MOLFORM=C10H17NO
##CAS REGISTRY NO=4146-36-5
##MP= -300
##BP= -300
##MW= 167
##$RETENTION INDEX=0
##$CONDENSED SPECTRUM=NO
##NPOINTS= 23
##XYDATA=(XY..XY) 1 
    39        204
    41        334
    42        461
    43        204
    44        999
    53         68
    54        107
    55        305
    57        301
    58        126
    67        133
    68         74
    70        165
    71         84
    80         74
    81         64
    82         90
    83        246
    96         68
   110         64
   112        123
   166         71
   167        159