##TITLE=Library Entry 22710
##JCAMP-DX=Revision 4.10 
##DATA TYPE=MASS SPECTRUM
##SAMPLE DESCRIPTION=D.HENNEBERG, MAX-PLANCK INSTITUTE, MULHEIM, WEST GERMAN
Y
##NAMES=HP
##CAS NAME=Propanamide, 3-chloro-2,2-dimethyl-
##MOLFORM=C5H10ClNO
##CAS REGISTRY NO=41461-75-0
##MP= -300
##BP= -300
##MW= 135
##$RETENTION INDEX=0
##$CONDENSED SPECTRUM=NO
##NPOINTS= 64
##XYDATA=(XY..XY) 1 
    26          3
    27         40
    28         40
    29         97
    30          7
    36          5
    38          2
    39         44
    40         18
    41        274
    42         20
    43          7
    49        204
    50         13
    51         70
    52          7
    53         14
    54         11
    55        248
    56        999
    57         79
    58         21
    59          2
    62          1
    63         34
    64          1
    65         11
    66          1
    67          1
    68          3
    69         11
    70          2
    71          0
    73          1
    74          1
    75          7
    77          5
    79          1
    80          3
    82          3
    83         16
    84          3
    86         28
    87          1
    89          0
    90         20
    91         64
    92         12
    93         21
    94          1
    98          1
    99         18
   100        297
   101         19
   102          1
   103          8
   105          2
   119          1
   120         18
   121          1
   122          6
   135         18
   136          2
   137          5