##TITLE=Library Entry 100450
##JCAMP-DX=Revision 4.10 
##DATA TYPE=MASS SPECTRUM
##SAMPLE DESCRIPTION=Div. of Experiment Therapeutics WRAIR, WRAMC, Washingto
n DC 20307
##NAMES=HP
##CAS NAME=2-Ethoxy-4H-3,1-benzoxazin-4-one
##MOLFORM=C10H9NO3
##CAS REGISTRY NO=41470-88-6
##MP= -300
##BP= -300
##MW= 191
##$RETENTION INDEX=0
##$CONDENSED SPECTRUM=NO
##NPOINTS= 78
##XYDATA=(XY..XY) 1 
    42         38
    43         40
    44          4
    45         39
    47         18
    49         99
    50        103
    51         78
    52         66
    53         28
    54          4
    55          2
    56          0
    57          1
    59          3
    61         37
    62         97
    63        381
    64        322
    65         52
    66          9
    67          3
    68          2
    69          0
    70          2
    73          5
    74         29
    75         27
    76         49
    77         38
    78         13
    79         13
    80          2
    81          0
    82          0
    84         34
    86         24
    87         13
    88         30
    90        682
    91         77
    92        347
    93         20
    94          1
    99          1
   102          2
   104         17
   105         13
   106          4
   107          1
   116          0
   117          4
   119        999
   120         59
   121          7
   122          3
   128          1
   130          0
   132         25
   133          1
   134          1
   135          5
   136          0
   137          4
   146        878
   147         91
   148          9
   149          1
   150          0
   163        338
   164         26
   165          3
   172          1
   176          5
   177          5
   191        510
   192         54
   193          5