##TITLE=Library Entry 82307
##JCAMP-DX=Revision 4.10 
##DATA TYPE=MASS SPECTRUM
##SAMPLE DESCRIPTION=Organic Synthesis Lab, MSU, Moscow.TRC 877
##NAMES=HP
##CAS NAME=Estra-1,3,5(10)-triene-3,17-diol (17.beta.)-, dibenzoate
##MOLFORM=C32H32O4
##CAS REGISTRY NO=4147-13-1
##MP= -300
##BP= -300
##MW= 480
##$RETENTION INDEX=0
##$CONDENSED SPECTRUM=NO
##NPOINTS= 47
##XYDATA=(XY..XY) 1 
    27          0
    39          0
    41          2
    50          1
    51          9
    53          0
    55          1
    67          0
    76          2
    77        105
    78          8
    79          1
    81          1
    91          2
    93          2
    95          0
   104          1
   105        999
   106         72
   107          3
   115          2
   116          0
   117          0
   122          0
   128          1
   129          1
   133          1
   141          0
   145          0
   146          1
   157          0
   158          1
   159          2
   160          0
   172          0
   254          0
   356          0
   357          0
   358          5
   359          0
   376          4
   377          0
   478          0
   479          0
   480        125
   481         43
   482          7