##TITLE=Library Entry 4264
##JCAMP-DX=Revision 4.10 
##DATA TYPE=MASS SPECTRUM
##SAMPLE DESCRIPTION=Div. of Experiment Therapeutics WRAIR, WRAMC, Washingto
n DC 20307
##NAMES=HP
##CAS NAME=4,4'-Diallyloxydiphenyl
##MOLFORM=C18H18O2
##CAS REGISTRY NO=41481-62-3
##MP= -300
##BP= -300
##MW= 266
##$RETENTION INDEX=0
##$CONDENSED SPECTRUM=NO
##NPOINTS= 122
##XYDATA=(XY..XY) 1 
    41        999
    42         31
    43         28
    49          5
    50          8
    51         17
    52          4
    53          5
    55         26
    57          2
    62          5
    63         20
    64          4
    65          7
    67          3
    69          7
    74          6
    75         14
    76         14
    77         23
    78          9
    79          7
    81          4
    84          4
    86          4
    87          5
    88          6
    89         10
    90          2
    91         13
    92          0
    93          3
    98          0
    99          2
   100          0
   101          9
   102         28
   103         14
   104         10
   105          3
   107          4
   113          9
   114          8
   115         17
   116          2
   117          5
   118          2
   119          7
   121          0
   125          1
   126         13
   127         42
   128         82
   129         16
   130          0
   131         23
   132          9
   133          0
   134          0
   137          2
   138          1
   139         78
   140         20
   141         22
   142          4
   143         11
   144          1
   145          1
   147          1
   150          2
   151          3
   152          8
   153         14
   154         21
   155         20
   156         32
   157         60
   158          7
   159          1
   165         15
   166          4
   167         12
   168         17
   169         35
   170          6
   171         34
   172          4
   177          2
   178          9
   179         21
   180          3
   181         13
   182         23
   183         18
   184         14
   185         80
   186         10
   194          0
   195          8
   196          6
   197         36
   198          6
   199          0
   207          7
   208          2
   209          2
   210          6
   211          2
   223         16
   225        981
   226        160
   227         15
   228          0
   234          3
   236          1
   238          0
   263          1
   264          1
   266        797
   267        152
   268         18
   269          1