##TITLE=Library Entry 99512
##JCAMP-DX=Revision 4.10 
##DATA TYPE=MASS SPECTRUM
##SAMPLE DESCRIPTION=Chemical Concepts
##NAMES=HP
##CAS NAME=Phenyl 2-phenylisopropyl sulfide
##MOLFORM=C15H16S
##CAS REGISTRY NO=4148-93-0
##MP= -300
##BP= -300
##MW= 228
##$RETENTION INDEX=0
##$CONDENSED SPECTRUM=NO
##NPOINTS= 101
##XYDATA=(XY..XY) 1 
    26          2
    27          7
    29          0
    34          0
    37          1
    38          4
    39         58
    40          5
    41        109
    42          4
    43          2
    45          8
    47          0
    50         14
    51         39
    52          8
    53          4
    54          0
    55          2
    56          0
    57          6
    58          4
    59          2
    61          1
    62          3
    63         16
    64          3
    65         54
    66         11
    67          2
    68          0
    69         15
    70          1
    71          1
    73          3
    74          6
    75          7
    76          6
    77         60
    78         32
    79         59
    80          5
    81          2
    82          4
    83          3
    84          1
    85          2
    86          0
    87          1
    89          5
    90          1
    91        326
    92         25
    93          2
    94          0
    95          0
    97          1
    98          1
    99          1
   100          0
   101          2
   102          9
   103         44
   104         12
   105          5
   106          0
   107          1
   108          6
   109         95
   110         38
   111          8
   112          2
   113          1
   115         19
   116          4
   117         31
   118         51
   119        999
   120        110
   121          6
   123          0
   125          0
   134          2
   137          0
   141          0
   145          0
   149          2
   151          0
   152          0
   153          0
   155          0
   163          0
   165          0
   175          0
   178          1
   179          1
   184          0
   213          1
   228         41
   229          8
   230          1