##TITLE=Library Entry 81281
##JCAMP-DX=Revision 4.10 
##DATA TYPE=MASS SPECTRUM
##SAMPLE DESCRIPTION=Exported from NIST MS Search
##NAMES=HP
##CAS NAME=Erythritol, 1,3:2,4-di-O-benzylidene-
##MOLFORM=C18H18O4
##CAS REGISTRY NO=4148-59-8
##MP= -300
##BP= -300
##MW= 298
##$RETENTION INDEX=0
##$CONDENSED SPECTRUM=NO
##NPOINTS= 45
##XYDATA=(XY..XY) 1 
    69         94
    70        176
    71         70
    77         36
    78         40
    79         54
    91        420
    92         66
   105        999
   106        250
   107        190
   108          6
   109         18
   110         22
   111         56
   115         50
   116          4
   117         10
   118         24
   119         30
   120         50
   123         96
   124         50
   125         44
   135         40
   136        190
   137         40
   149        919
   150        116
   162        200
   163         46
   175         44
   191        200
   192        170
   193         34
   217         26
   221         70
   256         24
   265         16
   268         16
   269         20
   270         14
   297        480
   298        386
   299        146