##TITLE=Library Entry 45614
##JCAMP-DX=Revision 4.10 
##DATA TYPE=MASS SPECTRUM
##SAMPLE DESCRIPTION=NIST Mass Spectrometry Data Center
##NAMES=HP
##CAS NAME=Butanedioic acid, methoxy-, dimethyl ester
##MOLFORM=C7H12O5
##CAS REGISTRY NO=4148-97-4
##MP= -300
##BP= -300
##MW= 176
##$RETENTION INDEX=1144
##$CONDENSED SPECTRUM=NO
##NPOINTS= 64
##XYDATA=(XY..XY) 1 
    14          1
    15         36
    16          1
    26          7
    27         32
    28         20
    29         45
    30          6
    31         29
    32          1
    33          2
    39          3
    40          1
    41         22
    42         30
    43         71
    44          6
    45         49
    46          1
    47        114
    48          2
    53         10
    54          7
    55         89
    56          6
    57         24
    58         87
    59        229
    60          5
    61          3
    68          1
    69          7
    70          1
    71          4
    72          2
    73          2
    75        999
    76         31
    77          4
    81          1
    82          1
    84          3
    85         37
    86          6
    87         14
    88          2
    89          1
    99          2
   101          9
   102          1
   103         10
   113         19
   114         38
   115          3
   116         21
   117        483
   118         27
   119          4
   133          2
   144         31
   145          8
   146         54
   147          3
   161          1