##TITLE=Library Entry 32130
##JCAMP-DX=Revision 4.10 
##DATA TYPE=MASS SPECTRUM
##SAMPLE DESCRIPTION=NIST Mass Spectrometry Data Center
##NAMES=HP
##CAS NAME=exo-2-Norbornyl formate
##MOLFORM=C8H12O2
##CAS REGISTRY NO=41498-71-9
##MP= -300
##BP= -300
##MW= 140
##$RETENTION INDEX=0
##$CONDENSED SPECTRUM=NO
##NPOINTS= 67
##XYDATA=(XY..XY) 1 
    15          8
    19          1
    26         13
    27        143
    29        202
    30          5
    31         27
    37          6
    38         23
    39        327
    40         68
    41        352
    42         64
    43        105
    44         35
    45         32
    46          2
    47          3
    49          1
    50         22
    51         51
    52         24
    53        147
    54         67
    55        184
    56         36
    57        110
    58         32
    59          1
    61          2
    62          6
    63         15
    64          3
    65         91
    66        999
    67        596
    68        424
    69         51
    70         59
    71         26
    72          1
    73          9
    74          2
    77         90
    78         27
    79        706
    80         58
    81         52
    82          7
    83         97
    84         25
    85          3
    86          1
    89          1
    91         42
    92          6
    93         65
    94        512
    95        177
    96         15
    97         26
    98          6
    99          2
   110          2
   111         25
   112          9
   122          1