##TITLE=Library Entry 29069
##JCAMP-DX=Revision 4.10 
##DATA TYPE=MASS SPECTRUM
##SAMPLE DESCRIPTION=J.R.PLIMMER U.S. DEPT. OF AGRICULTURE, BELTSVILLE, MARY
LAND.
##NAMES=HP
##CAS NAME=1,3,5-Triazine-2,4-diamine, N,N'-bis(1-methylethyl)-
##MOLFORM=C9H17N5
##CAS REGISTRY NO=4150-61-2
##MP= -300
##BP= -300
##MW= 195
##$RETENTION INDEX=0
##$CONDENSED SPECTRUM=NO
##NPOINTS= 38
##XYDATA=(XY..XY) 1 
    40         52
    41        420
    42        350
    43        630
    44        174
    45        244
    53         34
    56         34
    57         70
    58        999
    59         34
    67         34
    68        244
    69        350
    70        297
    71        210
    83        140
    84         34
    85         52
    94         70
    95         70
    96         87
    97         70
   111        244
   112         52
   123         70
   125         52
   136         52
   138        770
   139        104
   152        174
   153        384
   154         34
   180        717
   181        122
   194         70
   195        770
   196        104