##TITLE=Library Entry 37356
##JCAMP-DX=Revision 4.10 
##DATA TYPE=MASS SPECTRUM
##SAMPLE DESCRIPTION=Chuck Anderson, Aldrich Chemical Co.
##NAMES=HP
##CAS NAME=.+/-.-trans-2-Cyclohexene-1,4-diol
##MOLFORM=C6H10O2
##CAS REGISTRY NO=41513-32-0
##MP= -300
##BP= -300
##MW= 114
##$RETENTION INDEX=0
##$CONDENSED SPECTRUM=NO
##NPOINTS= 69
##XYDATA=(XY..XY) 1 
    14          1
    15         12
    17          3
    18          7
    19          5
    26         29
    27        126
    28         44
    29        159
    30         10
    31         56
    32          1
    35          0
    36         12
    37          8
    38         25
    39        148
    40         47
    41        144
    42         94
    43        147
    44         35
    45         13
    47          5
    49          2
    50         20
    51         31
    52         18
    53         51
    54         32
    55        298
    56         30
    57        258
    58         35
    59          4
    60         46
    61          3
    62          5
    63         10
    65         44
    66         25
    67        109
    68        124
    69         93
    70        999
    71         84
    72         43
    73         38
    74          5
    77         58
    78         30
    79         36
    80          6
    81         34
    82          4
    83         15
    84         24
    85         24
    86         93
    87          4
    94          7
    95        107
    96        190
    97         42
    99         37
   111          0
   112          5
   113         39
   114          5