##TITLE=Library Entry 29566
##JCAMP-DX=Revision 4.10 
##DATA TYPE=MASS SPECTRUM
##SAMPLE DESCRIPTION=J.VOTH UNIV. OF CALIFORNIA, DAVIS, CALIFORNIA, 95616, U
SA
##NAMES=HP
##CAS NAME=2-Propanol, 1-chloro-3-ethoxy-
##MOLFORM=C5H11ClO2
##CAS REGISTRY NO=4151-98-8
##MP= -300
##BP= -300
##MW= 138
##$RETENTION INDEX=960
##$CONDENSED SPECTRUM=NO
##NPOINTS= 83
##XYDATA=(XY..XY) 1 
    12          4
    13         13
    14         59
    15        270
    16         10
    17          4
    18          9
    19         30
    25          6
    26         66
    27        338
    28         70
    29        763
    30         35
    31        999
    32         19
    33          4
    35          5
    36         14
    37          8
    38         12
    39         38
    40          6
    41         41
    42         48
    43        347
    44        326
    45        106
    46          6
    47          6
    48          5
    49         63
    50          8
    51         20
    52          2
    53          1
    55          8
    56          4
    57         56
    58         17
    59        999
    60         42
    61        278
    62         18
    63         12
    64          2
    65          7
    67          8
    69          2
    72          4
    73          3
    74          1
    75          5
    76          3
    77          2
    78          6
    79         82
    80          5
    81         26
    82          1
    85          2
    87          1
    89        114
    90          8
    91          6
    92          2
    93         28
    94          2
    95         16
    96          1
    97          2
   102         66
   103          4
   107          6
   109          4
   110          0
   111          1
   121          0
   123          0
   125          0
   137          0
   138          0
   139          0