##TITLE=Library Entry 23098
##JCAMP-DX=Revision 4.10 
##DATA TYPE=MASS SPECTRUM
##SAMPLE DESCRIPTION=Exported from NIST MS Search
##NAMES=HP
##CAS NAME=Disulfide, 1,1-dimethylethyl ethyl
##MOLFORM=C6H14S2
##CAS REGISTRY NO=4151-69-3
##MP= -300
##BP= -300
##MW= 150
##$RETENTION INDEX=1023
##$CONDENSED SPECTRUM=NO
##NPOINTS= 91
##XYDATA=(XY..XY) 1 
    12          1
    13          1
    14          8
    15         26
    16          2
    24          1
    25          2
    26         26
    27        214
    28         54
    29        466
    30         12
    32          4
    33          6
    34          6
    35         17
    36          1
    37          5
    38         10
    39        117
    40         16
    41        403
    42         16
    43          3
    44          3
    45         50
    46         14
    47         16
    48          2
    49         12
    50          4
    51          6
    52          2
    53         12
    54          6
    55         39
    56         15
    57        999
    58         61
    59         62
    60         12
    61         13
    62          4
    63          1
    64         25
    65         13
    66         89
    67          4
    68          8
    69          2
    70          1
    71          3
    72          1
    73         31
    74          6
    75          3
    76          7
    77          1
    78          2
    79          5
    80          1
    81          1
    85          1
    87          4
    88         10
    89          5
    90          2
    91          1
    92          1
    93         18
    94        123
    95          7
    96         11
    97          1
    98          1
   101          1
   103          1
   105          1
   106          2
   107          1
   108          1
   122          3
   124          1
   135          5
   136          1
   137          1
   150        125
   151         11
   152         12
   153          1
   154          1