##TITLE=Library Entry 82331
##JCAMP-DX=Revision 4.10 
##DATA TYPE=MASS SPECTRUM
##SAMPLE DESCRIPTION=Japan AIST/NIMC Database- Spectrum MS-NW-8527
##NAMES=HP
##CAS NAME=Benzenemethanamine, 3-chloro-
##MOLFORM=C7H8ClN
##CAS REGISTRY NO=4152-90-3
##MP= -300
##BP= -300
##MW= 141
##$RETENTION INDEX=0
##$CONDENSED SPECTRUM=NO
##NPOINTS= 89
##XYDATA=(XY..XY) 1 
    15          1
    16          1
    26          4
    27         14
    28        303
    29         95
    30        513
    31          7
    35          1
    36          6
    37         10
    38         18
    39         37
    40          4
    41          6
    42          2
    43          3
    44          2
    47          1
    48          1
    49          9
    50         79
    51        105
    52         33
    53         50
    54          8
    60          2
    61         12
    62         21
    63         49
    64          9
    65          8
    66          2
    67          2
    69          1
    70         11
    71          4
    72          3
    73         22
    74         36
    75         83
    76         26
    77        293
    78         51
    79        113
    80          9
    84          5
    85         11
    86          7
    87          8
    88          2
    89         76
    90         17
    91         16
    92          2
    96          1
    97          3
    99         19
   100          2
   101          6
   102          9
   103          2
   104         33
   105         14
   106        999
   107         82
   108          3
   110          1
   111         27
   112         37
   113         73
   114         16
   115         20
   116          2
   117          1
   123          3
   124          3
   125        120
   126         26
   127         39
   128          8
   137          3
   138         18
   139          4
   140        423
   141         86
   142        136
   143         26
   144          2