##TITLE=Library Entry 61717
##JCAMP-DX=Revision 4.10 
##DATA TYPE=MASS SPECTRUM
##SAMPLE DESCRIPTION=Japan AIST/NIMC Database- Spectrum MS-NW-7080
##NAMES=HP
##CAS NAME=1,2-Ethanediamine, N-(phenylmethyl)-
##MOLFORM=C9H14N2
##CAS REGISTRY NO=4152-09-4
##MP= -300
##BP= -300
##MW= 150
##$RETENTION INDEX=0
##$CONDENSED SPECTRUM=NO
##NPOINTS= 77
##XYDATA=(XY..XY) 1 
    26          2
    27          9
    28         35
    29          6
    30        114
    31          3
    37          1
    38          4
    39         31
    40          4
    41         17
    42         18
    43         11
    44         27
    45          3
    49          1
    50         10
    51         26
    52          8
    53          3
    54          2
    55          2
    56          3
    57          3
    58          2
    59          1
    60          1
    61          1
    62          5
    63         18
    64          7
    65         86
    66          6
    67          1
    69          4
    70          1
    71          1
    73          3
    74          2
    75          3
    76          4
    77         19
    78          9
    79         14
    80          2
    81          1
    83          1
    85          1
    86          1
    87          1
    89         19
    90         13
    91        999
    92         90
    93          4
   103          6
   104         11
   105          6
   106         58
   107         16
   108          1
   116          1
   117          8
   118         26
   119         16
   120        438
   121         49
   122          3
   130          1
   131          1
   132          6
   133          8
   134          2
   135          1
   149          1
   150          9
   151          1