##TITLE=Library Entry 30602
##JCAMP-DX=Revision 4.10 
##DATA TYPE=MASS SPECTRUM
##SAMPLE DESCRIPTION=NIST Mass Spectrometry Data Center
##NAMES=HP
##CAS NAME=Benzene, (2-methoxyethoxy)-
##MOLFORM=C9H12O2
##CAS REGISTRY NO=41532-81-4
##MP= -300
##BP= -300
##MW= 152
##$RETENTION INDEX=1184
##$CONDENSED SPECTRUM=NO
##NPOINTS= 76
##XYDATA=(XY..XY) 1 
    14          1
    15         33
    16          1
    25          1
    26          9
    27         32
    28         22
    29        198
    30          9
    31        166
    32          1
    33          7
    37          7
    38         31
    39        149
    40         17
    41         17
    42          9
    43        101
    44          5
    45        233
    46          5
    49          2
    50         55
    51        195
    52         16
    53         10
    54          2
    55         10
    57          6
    58        189
    59        999
    60         34
    61          8
    62         18
    63         54
    64         20
    65        177
    66         85
    67          5
    68          1
    71          5
    73          3
    74        121
    75         14
    76         17
    77        489
    78         69
    79        100
    80          7
    81          1
    85          3
    89          3
    90          2
    91         49
    92         22
    93         29
    94        501
    95         40
    96          3
   103          3
   105          2
   107        100
   108         27
   109          3
   110          2
   119          8
   120         17
   121          8
   122          1
   134          1
   136          1
   137          1
   152        520
   153         45
   154          4