##TITLE=Library Entry 11112
##JCAMP-DX=Revision 4.10 
##DATA TYPE=MASS SPECTRUM
##SAMPLE DESCRIPTION=J.A.ELVIDGE UNIV. OF SURREY, GUILDFORD, SURREY, UK
##NAMES=HP
##CAS NAME=Acetamide, N,N'-2,6-pyrazinediylbis-
##MOLFORM=C8H10N4O2
##CAS REGISTRY NO=41536-74-7
##MP= -300
##BP= -300
##MW= 194
##$RETENTION INDEX=0
##$CONDENSED SPECTRUM=NO
##NPOINTS= 11
##XYDATA=(XY..XY) 1 
    40        242
    43        999
    55        131
    66        162
    67        149
    82        147
    83        750
   110        897
   152        456
   194        198
   195         19