##TITLE=Library Entry 88178
##JCAMP-DX=Revision 4.10 
##DATA TYPE=MASS SPECTRUM
##SAMPLE DESCRIPTION=E. LOVETT - D. LIPKIN
##NAMES=HP
##CAS NAME=3,6-Epoxy-2H,8H-pyrimido[6,1-b][1,3]oxazocin-8-one, 3,4,5,6,9,10-
hexahydro-10-imino-4,5-bis[(trimethylsilyl)oxy]-, [3R-(3.alpha.,4.beta.,5.be
ta.,6.alpha.)]-
##MOLFORM=C15H27N3O5Si2
##CAS REGISTRY NO=41547-77-7
##MP= -300
##BP= -300
##MW= 385
##$RETENTION INDEX=0
##$CONDENSED SPECTRUM=NO
##NPOINTS= 37
##XYDATA=(XY..XY) 1 
    73        909
    75        699
   103        120
   110        180
   111        999
   129        370
   138        609
   142        130
   143        140
   146        220
   147        679
   159        170
   169        130
   179         50
   184        110
   185        100
   191         80
   200        200
   204        130
   211         50
   215         50
   217        130
   228         60
   230        340
   231        180
   241        150
   243        150
   245         50
   254         70
   258        100
   267         50
   297         30
   298         30
   313         40
   329         50
   370        360
   385         60