##TITLE=Library Entry 17819
##JCAMP-DX=Revision 4.10 
##DATA TYPE=MASS SPECTRUM
##SAMPLE DESCRIPTION=Exported from NIST MS Search
##NAMES=HP
##CAS NAME=.beta.-D-Xylo-Hexopyranosid-4-ulose, methyl 2,3,6-tri-O-methyl-,
 (2,4-dinitrophenyl)hydrazone
##MOLFORM=C16H22N4O9
##CAS REGISTRY NO=41545-25-9
##MP= -300
##BP= -300
##MW= 414
##$RETENTION INDEX=0
##$CONDENSED SPECTRUM=NO
##NPOINTS= 33
##XYDATA=(XY..XY) 1 
    39         55
    40         51
    41         67
    42         75
    43         67
    44        103
    45        999
    46         63
    47         31
    75        396
    88        305
    89         87
    93        103
    94         51
    95         59
    96         23
    97         39
    98         71
    99         47
   100         31
   101        202
   149        202
   150         31
   183        127
   281        630
   282        134
   305        103
   337        115
   338         63
   339         47
   340         27
   369        190
   414         63