##TITLE=Library Entry 42788
##JCAMP-DX=Revision 4.10 
##DATA TYPE=MASS SPECTRUM
##SAMPLE DESCRIPTION=E. LOVETT - D. LIPKIN
##NAMES=HP
##CAS NAME=O6,5'-Cyclouridine, [3R-(3.alpha.,4.beta.,5.beta.,6.alpha.)]-, 3T
MS derivative
##MOLFORM=C18H34N2O6Si3
##CAS REGISTRY NO=41547-73-3
##MP= -300
##BP= -300
##MW= 458
##$RETENTION INDEX=0
##$CONDENSED SPECTRUM=NO
##NPOINTS= 33
##XYDATA=(XY..XY) 1 
    69        130
    73        999
    75        340
   101         50
   116         60
   117         60
   129        300
   131         60
   133         70
   147        839
   169         60
   171         30
   183         60
   184         50
   201         50
   204         40
   217         60
   230         40
   231         30
   243        380
   245        240
   255         50
   257         40
   258        110
   273        370
   284         40
   314         60
   327         80
   345        180
   371        120
   386         20
   443        480
   458        130