##TITLE=Library Entry 41628
##JCAMP-DX=Revision 4.10 
##DATA TYPE=MASS SPECTRUM
##SAMPLE DESCRIPTION=E. LOVETT - D. LIPKIN
##NAMES=HP
##CAS NAME=O6,5'-Cyclo-2'-deoxyuridine, TMS derivative
##MOLFORM=C12H18N2O5Si
##CAS REGISTRY NO=41547-75-5
##MP= -300
##BP= -300
##MW= 298
##$RETENTION INDEX=0
##$CONDENSED SPECTRUM=NO
##NPOINTS= 16
##XYDATA=(XY..XY) 1 
    69        230
    73        999
    81        679
   101        110
   117         60
   129        180
   145        130
   147        260
   155        150
   169        250
   170        230
   171        100
   226        100
   265         30
   283         40
   298        140