##TITLE=Library Entry 87481
##JCAMP-DX=Revision 4.10 
##DATA TYPE=MASS SPECTRUM
##SAMPLE DESCRIPTION=E. LOVETT - D. LIPKIN
##NAMES=HP
##CAS NAME=3,6-Epoxy-2H,8H-pyrimido[6,1-b][1,3]oxazocine-8,10(9H)-dione, 3,4
,5,6-tetrahydro-4,5-dihydroxy-9-methyl-, [3R-(3.alpha.,4.beta.,5.beta.,6.alp
ha.)]-
##MOLFORM=C10H12N2O6
##CAS REGISTRY NO=41547-66-4
##MP= -300
##BP= -300
##MW= 256
##$RETENTION INDEX=0
##$CONDENSED SPECTRUM=NO
##NPOINTS= 37
##XYDATA=(XY..XY) 1 
    69        839
    70         70
    71         80
    73         90
    78         40
    81         60
    82         80
    83        140
    85        120
    86        150
    96         30
    97         60
    98         50
    99        100
   100         40
   101         40
   110        999
   111         70
   112         80
   113         30
   114        200
   140        170
   142        629
   143        969
   144         50
   149         30
   167         50
   168        350
   169         30
   181        110
   182         70
   197        100
   209         30
   210         40
   227        140
   256        509
   257         40