##TITLE=Library Entry 73902
##JCAMP-DX=Revision 4.10 
##DATA TYPE=MASS SPECTRUM
##SAMPLE DESCRIPTION=R.T.HOLMAN,UNIVERSITY OF MINNESOTA
##NAMES=HP
##CAS NAME=1,3-Dioxepane, 2-pentadecyl-
##MOLFORM=C20H40O2
##CAS REGISTRY NO=41563-29-5
##MP= -300
##BP= -300
##MW= 312
##$RETENTION INDEX=0
##$CONDENSED SPECTRUM=NO
##NPOINTS= 106
##XYDATA=(XY..XY) 1 
    26          2
    27         17
    28         23
    29         44
    30          4
    31         20
    32          5
    39         12
    40          5
    41         91
    42         47
    43        156
    44         13
    45          7
    46          1
    47          1
    53          5
    54         11
    55        343
    56         32
    57         60
    58          5
    59          2
    60          1
    65          2
    66          2
    67         17
    68         13
    69         29
    70         14
    71        141
    72          9
    73         61
    74          4
    75          1
    77          2
    79          2
    80          2
    81         13
    82         14
    83         17
    84          5
    85          9
    86          2
    87          2
    88          2
    89          5
    90          1
    91          4
    93          2
    94          2
    95         11
    96          9
    97         11
    98          4
    99          4
   100          2
   101        999
   102         55
   103          6
   104          1
   105          1
   109          5
   110          4
   111          5
   112          2
   113          2
   114          2
   115          5
   116          7
   117          2
   123          3
   124          3
   125          2
   126          2
   127          3
   129          2
   137          2
   138          2
   139          2
   140          1
   141          2
   149          2
   150          1
   151          2
   152          2
   153          2
   154          2
   165          2
   166          2
   167          2
   194          2
   195          2
   196          2
   219          2
   220          2
   221          1
   222          2
   223          2
   239          2
   240          2
   284          2
   285          1
   312          4
   313          2
   314          1