##TITLE=Library Entry 1211
##JCAMP-DX=Revision 4.10 
##DATA TYPE=MASS SPECTRUM
##SAMPLE DESCRIPTION=Chemical Concepts
##NAMES=HP
##CAS NAME=Tulobuterol
##MOLFORM=C12H18ClNO
##CAS REGISTRY NO=41570-61-0
##MP= -300
##BP= -300
##MW= 227
##$RETENTION INDEX=0
##$CONDENSED SPECTRUM=NO
##NPOINTS= 125
##XYDATA=(XY..XY) 1 
    26          0
    27         14
    29         74
    30        999
    31         26
    36          0
    37          0
    38          1
    39         21
    41         97
    42         31
    43          5
    44          1
    49          0
    50          7
    51         30
    52          3
    53          3
    54          2
    55         16
    56         18
    57        214
    58         24
    59          1
    61          0
    62          1
    63          4
    64          0
    65          6
    66          0
    67          0
    68          2
    69          1
    70         22
    71          8
    72          4
    74          1
    75          8
    76          5
    77         71
    78          7
    79          2
    80          0
    82          1
    84          2
    85          1
    86        720
    87         43
    88          0
    89          5
    90          1
    91         12
    92          1
    99          0
   100          0
   101          3
   102          4
   103          7
   104          1
   105          6
   106          2
   107          1
   111          3
   112          1
   113          8
   115          3
   116          2
   117         10
   118         14
   119          3
   120          0
   123          0
   124          0
   125         10
   126          0
   127          3
   130          1
   131          0
   132          0
   133          0
   134          0
   135          0
   137          2
   138          3
   139          6
   140          2
   141         15
   142          4
   143          4
   144          7
   145          0
   149          0
   151          0
   152          3
   153          1
   154          3
   155          0
   156          1
   157          0
   158         11
   159          2
   160          0
   164          0
   170          1
   172          0
   177          0
   178          0
   179          0
   180          0
   192          0
   194         68
   195          8
   196         21
   197          2
   208          0
   209          0
   210          0
   212          7
   213          1
   214          2
   215          0
   227          0
   228          3
   229          0
   230          1