##TITLE=Library Entry 37940
##JCAMP-DX=Revision 4.10 
##DATA TYPE=MASS SPECTRUM
##SAMPLE DESCRIPTION=A.A.Kutin, Moscow, Russia
##NAMES=HP
##CAS NAME=Pyrrolidine-2,5-dione, 1-hydroxy-3,3,4,4-tetramethyl-
##MOLFORM=C8H13NO3
##CAS REGISTRY NO=41580-64-7
##MP= -300
##BP= -300
##MW= 171
##$RETENTION INDEX=0
##$CONDENSED SPECTRUM=NO
##NPOINTS= 95
##XYDATA=(XY..XY) 1 
    34          0
    35          0
    36          0
    37          2
    38          9
    39        155
    40         47
    41        350
    42        163
    43         73
    44          9
    45          2
    46          0
    47          0
    49          0
    50          5
    51         13
    52          6
    53         43
    54         10
    55        109
    56         58
    57         54
    58         11
    59         21
    60          2
    62          0
    63          2
    65         13
    66          4
    67         43
    68         22
    69        396
    70        999
    71         53
    72          4
    73         50
    74        284
    75         11
    76          1
    77          3
    78          0
    79          3
    80          1
    81          3
    82         22
    83         83
    84        310
    85         22
    86          2
    87          1
    88          1
    91          1
    92          5
    93          2
    94          0
    95          4
    96          2
    97         20
    98        208
   100         59
   101          5
   102          1
   103          0
   105          0
   106          0
   108          0
   109          0
   110          3
   111          2
   112          0
   113          3
   114          1
   115          0
   117          2
   119          2
   120          0
   121          0
   123          0
   125          0
   126          1
   128         73
   129          6
   130          0
   137          0
   138          0
   139          0
   140          0
   154          0
   155          9
   156          1
   165          0
   171        401
   172         36
   173          3