##TITLE=Library Entry 64239
##JCAMP-DX=Revision 4.10 
##DATA TYPE=MASS SPECTRUM
##SAMPLE DESCRIPTION=Japan AIST/NIMC Database- Spectrum MS-IW-3787
##NAMES=HP
##CAS NAME=N,N'-(p-Phenylene)bis(p-toluenesulfonamide)
##MOLFORM=C20H20N2O4S2
##CAS REGISTRY NO=41595-29-3
##MP= -300
##BP= -300
##MW= 416
##$RETENTION INDEX=0
##$CONDENSED SPECTRUM=NO
##NPOINTS= 117
##XYDATA=(XY..XY) 1 
    26          1
    27          5
    28         11
    29          1
    32          1
    37          1
    38          4
    39         40
    40          4
    41         15
    42          2
    43          2
    44          4
    45          6
    48          9
    50          9
    51         21
    52         36
    53         34
    54          7
    55          2
    57          2
    61          2
    62          7
    63         30
    64         22
    65        172
    66         11
    67          6
    69          3
    70          1
    71          2
    72          3
    74          2
    75          3
    76          3
    77         18
    78         14
    79         50
    80         51
    81          4
    82          1
    83          1
    85          1
    86          1
    87          1
    88          1
    89         34
    90         31
    91        999
    92        125
    93          7
    95          2
    97          1
   104          1
   105         24
   106         25
   107        366
   108         39
   109          2
   111          3
   115          2
   116          1
   117          1
   119          1
   121          3
   122          3
   123          5
   124          9
   125          1
   127          1
   128          3
   129          1
   130          1
   138          1
   139         39
   140          5
   141          3
   142          1
   143          1
   144          1
   149          1
   150          1
   152          1
   153          2
   154          4
   155        688
   156         74
   157         36
   158          3
   165          2
   166          1
   167          2
   168          4
   169          2
   170          1
   180          1
   181          6
   182          3
   183          1
   194          1
   195          8
   196         10
   197         11
   198          3
   261        803
   262        166
   263         54
   264          9
   265          1
   275          2
   351          1
   416        212
   417         51
   418         25
   419          5
   420          1