##TITLE=Library Entry 22069
##JCAMP-DX=Revision 4.10 
##DATA TYPE=MASS SPECTRUM
##SAMPLE DESCRIPTION=Japan AIST/NIMC Database- Spectrum MS-NW-6128
##NAMES=HP
##CAS NAME=2H-Pyran-2,6(3H)-dione, dihydro-4,4-dimethyl-
##MOLFORM=C7H10O3
##CAS REGISTRY NO=4160-82-1
##MP= -300
##BP= -300
##MW= 142
##$RETENTION INDEX=0
##$CONDENSED SPECTRUM=NO
##NPOINTS= 57
##XYDATA=(XY..XY) 1 
    13          2
    14         13
    15         19
    18          2
    25          1
    26         17
    27        119
    28         66
    29         91
    30          2
    31          2
    32          1
    34          1
    37          8
    38         22
    39        159
    40         50
    41        479
    42         83
    43         58
    44         10
    45          4
    49          4
    50         16
    51         18
    52          7
    53         32
    54         18
    55        251
    56        999
    57         46
    58          2
    59          5
    60          2
    62          1
    63          1
    65          1
    66          1
    67          4
    68          1
    69          7
    70        445
    71         25
    72          2
    79          1
    80          1
    81          1
    82         17
    83         23
    84          1
    85          1
    98          8
    99          2
   101          2
   114          2
   127          1
   143          1