##TITLE=Library Entry 99192
##JCAMP-DX=Revision 4.10 
##DATA TYPE=MASS SPECTRUM
##SAMPLE DESCRIPTION=NIST Mass Spectrometry Data Center
##NAMES=HP
##CAS NAME=4'-Methylbutyrophenone
##MOLFORM=C11H14O
##CAS REGISTRY NO=4160-52-5
##MP= -300
##BP= -300
##MW= 162
##$RETENTION INDEX=0
##$CONDENSED SPECTRUM=NO
##NPOINTS= 69
##XYDATA=(XY..XY) 1 
    14          4
    15         21
    26         18
    27        125
    28         22
    29          3
    37          7
    39        178
    40         21
    41         91
    42         15
    43         35
    44          2
    50         34
    51         58
    52         14
    53         10
    55         26
    56          1
    57          1
    58          1
    61          6
    62         29
    63         83
    64         34
    65        257
    66         16
    69          3
    70          1
    71          3
    73          3
    74          3
    75          7
    76          6
    77         23
    78          6
    79          9
    80          1
    85          1
    86          5
    87          6
    89         71
    91        473
    92         47
    93          3
   102          2
   103          6
   104          3
   105         10
   106          1
   115         10
   116          3
   119        999
   120         88
   121          6
   127          1
   128          2
   129          3
   130          1
   131          2
   132          1
   134         46
   135          4
   144          2
   145          1
   147        129
   148         14
   162         59
   163          7