##TITLE=Library Entry 35528
##JCAMP-DX=Revision 4.10 
##DATA TYPE=MASS SPECTRUM
##SAMPLE DESCRIPTION=Japan AIST/NIMC Database- Spectrum MS-NW-2394
##NAMES=HP
##CAS NAME=3,3-Diethylglutaric acid
##MOLFORM=C9H16O4
##CAS REGISTRY NO=4160-95-6
##MP= -300
##BP= -300
##MW= 188
##$RETENTION INDEX=0
##$CONDENSED SPECTRUM=NO
##NPOINTS= 105
##XYDATA=(XY..XY) 1 
    14          6
    15         11
    16          2
    17          7
    18         27
    26         13
    27        194
    28         34
    29        180
    30          3
    31         13
    32          4
    34          1
    36          2
    37          3
    38         11
    39        180
    40         38
    41        517
    42        125
    43        122
    44         10
    45         50
    46          2
    47          1
    49          1
    50         10
    51         22
    52          9
    53         83
    54         47
    55        435
    56        221
    57         44
    58          7
    59         10
    60         75
    61          9
    62          3
    63          5
    64          1
    65         12
    66          7
    67        115
    68         52
    69        999
    70         84
    71        274
    72         16
    73         17
    74          2
    75          1
    77          4
    78         11
    79         25
    80          3
    81         18
    82         77
    83        311
    84        535
    85         72
    86         10
    87        139
    88          8
    91          1
    93          9
    94          2
    95         37
    96         33
    97         49
    98        202
    99         26
   100          5
   101          2
   107          1
   108        104
   109         11
   110         45
   111        284
   112         32
   113        149
   114         14
   115          4
   117          1
   121          1
   122          1
   123          6
   124          3
   125          2
   126          5
   127          8
   128        120
   129        302
   130         24
   131          2
   140          7
   141        129
   142         53
   143          5
   144          1
   152          9
   153          1
   159          5
   170          9
   171          6