##TITLE=Library Entry 49712
##JCAMP-DX=Revision 4.10 
##DATA TYPE=MASS SPECTRUM
##SAMPLE DESCRIPTION=NIST Mass Spectrometry Data Center, 1990.
##NAMES=HP
##CAS NAME=2,4-Dimethyl 1,4-pentadiene
##MOLFORM=C7H12
##CAS REGISTRY NO=4161-65-3
##MP= -300
##BP= -300
##MW= 96
##$RETENTION INDEX=780
##$CONDENSED SPECTRUM=NO
##NPOINTS= 41
##XYDATA=(XY..XY) 1 
    14         19
    15         24
    16          9
    26         18
    27        151
    28         12
    29         79
    37         13
    38         44
    39        365
    40         71
    41        301
    42         17
    43         11
    50         39
    51         60
    52         25
    53        179
    54         55
    55        110
    56        103
    57          8
    61          3
    62          9
    63         15
    64          3
    65         45
    66         23
    67         97
    68         19
    69          4
    74          5
    77         54
    79        273
    81        999
    82         67
    83          6
    91          7
    93          6
    95         24
    96          8