##TITLE=Library Entry 24702
##JCAMP-DX=Revision 4.10 
##DATA TYPE=MASS SPECTRUM
##SAMPLE DESCRIPTION=Exported from NIST MS Search
##NAMES=HP
##CAS NAME=1-Butanol, 4-butoxy-
##MOLFORM=C8H18O2
##CAS REGISTRY NO=4161-24-4
##MP= -300
##BP= -300
##MW= 146
##$RETENTION INDEX=1701
##$CONDENSED SPECTRUM=NO
##NPOINTS= 67
##XYDATA=(XY..XY) 1 
    14         11
    15         36
    16          7
    17         45
    18        186
    19         22
    25          5
    26         44
    27        301
    28        265
    29        558
    30         24
    31        400
    32         26
    33          7
    36         11
    37          4
    38         11
    39        145
    40         37
    41        610
    42        269
    43        518
    44        221
    45        113
    46          3
    47          2
    49          2
    50          3
    51          5
    52          2
    53         20
    54         11
    55        700
    56        433
    57        999
    58         53
    59         14
    60          5
    61         30
    62          4
    67          5
    68          2
    69         20
    70         13
    71        518
    72          7
    73        420
    74         24
    75         11
    81          4
    82          2
    83          7
    84          4
    85        106
    86          6
    87         60
    88          3
    89        104
    90          4
    91          3
   100         43
   101         12
   103         48
   117          7
   129         11
   145         19