##TITLE=Library Entry 17825
##JCAMP-DX=Revision 4.10 
##DATA TYPE=MASS SPECTRUM
##SAMPLE DESCRIPTION=Japan AIST/NIMC Database- Spectrum MS-NW-5773
##NAMES=HP
##CAS NAME=4,4'-Isopropylidenebis(2-[2,6-dibromophenoxy]ethanol)
##MOLFORM=C19H20Br4O4
##CAS REGISTRY NO=4162-45-2
##MP= -300
##BP= -300
##MW= 628
##$RETENTION INDEX=0
##$CONDENSED SPECTRUM=NO
##NPOINTS= 478
##XYDATA=(XY..XY) 1 
    14          9
    15         68
    16          6
    17         15
    18          4
    25          3
    26         12
    27        236
    28         41
    29        212
    30          9
    31        124
    32          2
    36          3
    37          3
    38          7
    39         51
    40          6
    41        114
    42         16
    43        205
    44         68
    45        999
    46         26
    50         15
    51         50
    52         11
    53         43
    54          3
    55         15
    56          2
    57          9
    61          8
    62         42
    63         80
    64         13
    65         21
    67          6
    69          7
    71          6
    73         10
    74         44
    75         76
    76         42
    77         76
    78         35
    79         20
    80         44
    81         17
    82         35
    86         20
    87         35
    88         35
    89         91
    90         29
    91         39
    92         11
    96          9
    97          7
    98         15
    99         22
   100         23
   101         33
   102         41
   103         52
   104         40
   105         28
   107          9
   110          9
   111         12
   112          9
   113         18
   114         25
   115         77
   116         37
   117         23
   118         34
   119         11
   123          9
   124         11
   125         13
   126         23
   127         16
   128         12
   129          9
   130          7
   131         46
   132         37
   133         52
   134         27
   135         11
   136         15
   137         20
   138         14
   139         24
   140         11
   141         18
   143         20
   147          8
   148          9
   149         17
   150         71
   151         85
   152        110
   153         30
   155         18
   156         12
   157         15
   158         10
   161         22
   162         25
   163        121
   164         59
   165         92
   166         37
   167         20
   168         13
   169         22
   170         16
   172         16
   174         16
   175         20
   176         48
   177         30
   178         31
   179         40
   180         30
   181         87
   182         26
   183         17
   185         18
   189         10
   191          8
   192         29
   193         18
   194         39
   195         61
   196         72
   197         62
   198         70
   199         40
   200         14
   205         11
   206         13
   207         22
   208         15
   209         16
   210         21
   211         23
   212        115
   213         37
   214        106
   215         26
   216          8
   217          6
   219          7
   221          6
   222         11
   223         16
   224         20
   225          9
   227          8
   228          7
   229          9
   230         25
   231         13
   232         21
   233         15
   235          9
   238          6
   239          8
   240          6
   241         18
   242         13
   243         23
   244         16
   245         18
   246         12
   247         11
   248          8
   249          9
   252          8
   254          7
   255         41
   256         13
   257         54
   258         21
   259         75
   260         42
   261         74
   262         40
   263         35
   265         68
   266          9
   267         33
   270         14
   271         21
   272         27
   273         37
   274         45
   275         99
   276         43
   277        166
   278         25
   279         86
   280         13
   281          7
   285         11
   286         13
   287         29
   288         69
   289         42
   290         61
   291        145
   292         27
   293        240
   294         27
   295        122
   296         14
   301         17
   302         40
   303         27
   304         34
   305         17
   306          8
   309          7
   310          6
   311          5
   312          5
   313          8
   315          9
   316          9
   317          8
   318          7
   319         10
   320          8
   321          9
   323          9
   324          7
   325          7
   326          9
   330          6
   331          4
   332          7
   333          6
   335         13
   336          6
   337         22
   338         26
   339         31
   340         37
   341         24
   342         18
   343          8
   345          5
   348          6
   349          5
   350          6
   351         10
   352         18
   353         20
   354         28
   355         27
   356         23
   357         14
   358         12
   359          3
   360          6
   364          3
   365          9
   366         29
   367         21
   368         55
   369         36
   370         32
   371         22
   372          9
   373          6
   375          2
   377          5
   379          5
   380         12
   381         31
   382         22
   383         51
   384         18
   385         28
   386          9
   387          4
   391          3
   392          4
   393          3
   394          3
   395          7
   396          4
   397          6
   398          4
   399          5
   400          4
   401          4
   402          3
   403          3
   404          3
   406          3
   410          3
   411          9
   412          7
   413         15
   414          5
   415         13
   416          4
   418          4
   419          3
   420          3
   422          3
   425          5
   427          6
   428          5
   431          8
   432          9
   433          9
   434         23
   435         10
   436         27
   437          6
   438          7
   439          6
   441          4
   444          3
   445          8
   446          9
   447         18
   448         20
   449         41
   450         21
   451         27
   452         11
   453         13
   455          4
   457          5
   458          4
   459          7
   460          8
   461         12
   462         15
   463         12
   464         10
   465          8
   466          7
   468          2
   470          2
   471          3
   472          3
   473          2
   475          4
   476          3
   477          2
   478          4
   480          4
   481          3
   482          2
   484          2
   489          6
   490          3
   491         11
   492          3
   493         13
   494          5
   495          8
   496          3
   499          2
   501          4
   502          2
   503          3
   504          5
   505          4
   506          5
   507          3
   508          6
   509          4
   510          7
   511          4
   512          4
   513          4
   514          4
   515          6
   517          6
   520          4
   521          5
   522          4
   523          4
   525         42
   526         11
   527        149
   528         26
   529        203
   530         37
   531        139
   532         23
   533         39
   534          6
   535          6
   539          7
   540         11
   541          8
   542         33
   543         10
   544         46
   545         14
   546         34
   547          7
   548          9
   550          7
   552          7
   553          4
   554          9
   555          5
   556          4
   557          4
   558          4
   559          3
   560          3
   561          2
   564          3
   566          3
   567          4
   569          9
   570          4
   571         23
   572          3
   573         24
   574          8
   575         20
   576          6
   577          7
   580          3
   582          4
   584         10
   585          4
   586         24
   587          5
   588         33
   589          9
   590         23
   591          5
   592          7
   596          4
   597          3
   600          3
   601          4
   602          3
   603          4
   605          4
   607          2
   608          2
   609          4
   610          2
   613          4
   615          8
   616          4
   617         12
   618          3
   619          7
   620          3
   621          4
   623          3
   626          3
   627          4
   628          7
   629         13
   630         39
   631         10
   632         55
   633         14
   634         36
   635          9
   636         10
   637          2