##TITLE=Library Entry 75176
##JCAMP-DX=Revision 4.10 
##DATA TYPE=MASS SPECTRUM
##SAMPLE DESCRIPTION=Institute of Organic Chemistry, Novosibirsk, USSR 1988
##NAMES=HP
##CAS NAME=Methyl 2,4,6-tri-O-acetyl-3-acetamido-3-deoxy-.alpha.-d-allopyran
oside
##MOLFORM=C15H23NO9
##CAS REGISTRY NO=41624-03-7
##MP= -300
##BP= -300
##MW= 361
##$RETENTION INDEX=0
##$CONDENSED SPECTRUM=NO
##NPOINTS= 89
##XYDATA=(XY..XY) 1 
    55         55
    56         62
    57         64
    58         56
    59        299
    60        319
    61         72
    68         74
    69         85
    70         77
    71         50
    72         78
    73         88
    74        189
    81         43
    83        102
    84        369
    85        149
    86        289
    87         50
    88         64
    96        129
    97        129
    98        139
    99         59
   100         42
   101        999
   102        529
   103         99
   109         64
   110         31
   111         42
   112        109
   114        129
   115        439
   116        179
   117         42
   121         28
   122         32
   125         32
   126        179
   127         74
   128        189
   129         61
   130         82
   131        619
   139        369
   140        189
   141         34
   143        239
   144        329
   145         66
   149         31
   154         56
   156         91
   157         37
   158         40
   159         31
   167         62
   168        289
   169         75
   170         23
   172         34
   181        239
   182         61
   186        159
   187         24
   196         40
   198         24
   199         61
   200         80
   209         48
   210         29
   216         31
   228        209
   229         34
   241        409
   242        119
   243         23
   244         18
   246         16
   258        409
   259         58
   260         20
   270         28
   288         28
   301         45
   330         70
   331         13