##TITLE=Library Entry 100
##JCAMP-DX=Revision 4.10 
##DATA TYPE=MASS SPECTRUM
##SAMPLE DESCRIPTION=Exported from NIST MS Search
##NAMES=HP
##CAS NAME=1-Propene, 3,3'-oxybis[2-chloro-
##MOLFORM=C6H8Cl2O
##CAS REGISTRY NO=4162-62-3
##MP= -300
##BP= -300
##MW= 166
##$RETENTION INDEX=0
##$CONDENSED SPECTRUM=NO
##NPOINTS= 112
##XYDATA=(XY..XY) 1 
    13          1
    14          1
    15          2
    18          2
    25          3
    26         35
    27        999
    28         15
    29         51
    30          2
    31         14
    32          1
    35          2
    36          2
    37         12
    38         28
    39        354
    40        125
    41        160
    42         10
    43         26
    44          1
    45          1
    47          5
    48          2
    49        103
    50          3
    51         37
    52          2
    53         17
    54          5
    55        131
    56         11
    57         51
    58          2
    59          1
    60          7
    61         69
    62         18
    63         69
    64          7
    65         50
    66          7
    67         70
    68          4
    69          6
    70          2
    71          1
    72          1
    73         11
    74          3
    75        569
    76        298
    77        218
    78        145
    79         12
    80         17
    81          9
    82          1
    83          3
    84          1
    85          1
    86          1
    87          2
    88         38
    89         63
    90         19
    91         96
    92          8
    93         22
    94          3
    95         53
    96          5
    97          1
    98          1
    99          2
   100          3
   101         34
   102         11
   103         26
   109          1
   110         10
   111          1
   112          7
   113         13
   114          2
   115          9
   116          1
   117        116
   118          7
   119         37
   120          5
   121          1
   122          1
   123          1
   124          2
   125          1
   126          1
   127          1
   129          1
   130          6
   131        141
   132         12
   133         46
   134          3
   135          1
   136          8
   137          2
   138          6
   139          2
   140          1
   141          1