##TITLE=Library Entry 44923
##JCAMP-DX=Revision 4.10 
##DATA TYPE=MASS SPECTRUM
##SAMPLE DESCRIPTION=V.A.Korolev, Moscow, Russia
##NAMES=HP
##CAS NAME=4,6-Dibromo-2-benzofuran-1,3-dione
##MOLFORM=C8H2Br2O3
##CAS REGISTRY NO=41635-06-7
##MP= -300
##BP= -300
##MW= 304
##$RETENTION INDEX=0
##$CONDENSED SPECTRUM=NO
##NPOINTS= 101
##XYDATA=(XY..XY) 1 
    36        155
    37        466
    38        149
    39         14
    40         23
    41          2
    42          1
    43         11
    44         75
    45         18
    48         54
    49        150
    50         63
    51         49
    52         14
    53         25
    60         69
    61        141
    62         70
    63         20
    64          3
    65          1
    72         85
    73        631
    74        999
    75        114
    76         95
    77         89
    78         17
    79        138
    80         27
    81        132
    82         23
    84         12
    85         11
    86          5
    87          4
    88          5
    89         15
    90         32
    91         48
    93         20
   101         36
   102         13
   103          3
   104         15
   105          4
   106         13
   115         11
   116         66
   117        124
   118         60
   127          2
   128         30
   129          6
   130         52
   131         56
   132         22
   133          7
   141          4
   143          4
   151          2
   152         57
   153        514
   154         92
   155        475
   156         33
   157          1
   158          2
   160          2
   167          1
   168          1
   169          3
   170          2
   179          1
   181         90
   182          8
   183         86
   184          8
   232        138
   233         11
   234        267
   235         20
   236        133
   237          8
   260        428
   261         42
   262        749
   263         79
   264        385
   265         37
   266          1
   276          7
   278         15
   280          7
   304        187
   305         16
   306        371
   307         33
   308        186
   309         14