##TITLE=Library Entry 100194
##JCAMP-DX=Revision 4.10 
##DATA TYPE=MASS SPECTRUM
##SAMPLE DESCRIPTION=Exported from NIST MS Search
##NAMES=HP
##CAS NAME=5,6-Dicarbadecaborane(12)
##MOLFORM=C2H12B8
##CAS REGISTRY NO=41655-26-9
##MP= -300
##BP= -300
##MW= 124
##$RETENTION INDEX=1175
##$CONDENSED SPECTRUM=NO
##NPOINTS= 47
##XYDATA=(XY..XY) 1 
    80         81
    81        142
    82         50
    83         77
    84         31
    85         31
    86         35
    87         42
    88         69
    89         81
    90        123
    91        104
    92         96
    93         66
    94         46
    95         31
    96         54
    97         19
    98         46
    99         81
   100        131
   101        119
   102        108
   103        134
   104        158
   105        127
   106        111
   107         73
   108        115
   109        108
   110         85
   111        115
   112        193
   113        158
   114        215
   115        258
   116        355
   117        499
   118        865
   119        999
   120        807
   121        443
   122        327
   123        292
   124        208
   125         31
   126         27