##TITLE=Library Entry 71153
##JCAMP-DX=Revision 4.10 
##DATA TYPE=MASS SPECTRUM
##SAMPLE DESCRIPTION=NIST Mass Spectrometry Data Center, 1990.
##NAMES=HP
##CAS NAME=Benzen-d5-amine
##MOLFORM=C6H2D5N
##CAS REGISTRY NO=4165-61-1
##MP= -300
##BP= -300
##MW= 98
##$RETENTION INDEX=0
##$CONDENSED SPECTRUM=NO
##NPOINTS= 66
##XYDATA=(XY..XY) 1 
    14          5
    15          7
    16          8
    17          8
    18         10
    20          3
    26         12
    27         23
    28         80
    29         98
    30         44
    31          1
    32          9
    33          2
    35          4
    36         10
    37         14
    38         84
    39         35
    40        148
    41        159
    42        341
    43         76
    44         32
    45         16
    46          8
    47         11
    48         13
    49         61
    50         20
    51          4
    52         91
    53         88
    54         85
    55         19
    56         61
    57         27
    58          5
    60          4
    61          3
    62         20
    63          9
    64         44
    65         24
    66         67
    67         42
    68         74
    69        127
    70        307
    71        416
    72         30
    74          2
    75          3
    76         18
    77          4
    78          5
    79          6
    80         25
    81         18
    82         14
    94          4
    96         53
    97        219
    98        999
    99         91
   100          3