##TITLE=Library Entry 17429
##JCAMP-DX=Revision 4.10 
##DATA TYPE=MASS SPECTRUM
##SAMPLE DESCRIPTION=Chemical Concepts
##NAMES=HP
##CAS NAME=Pentanoic acid, 2-hydroxy-3-methyl-, methyl ester
##MOLFORM=C7H14O3
##CAS REGISTRY NO=41654-19-7
##MP= -300
##BP= -300
##MW= 146
##$RETENTION INDEX=975
##$CONDENSED SPECTRUM=NO
##NPOINTS= 49
##XYDATA=(XY..XY) 1 
    31        227
    33        233
    38          4
    39        230
    40         40
    41        768
    42        136
    43        421
    44         30
    45        999
    46         21
    50          1
    51         16
    52          1
    53         55
    54         13
    55        112
    56         46
    57        476
    58        177
    59        186
    60         11
    61         32
    62          9
    63          1
    67         20
    68         10
    69        248
    70         13
    71         60
    72          6
    73          6
    74         28
    75         56
    81         12
    83         16
    85         45
    86         21
    87        584
    88         34
    89         16
    90        987
    91         34
    92          3
    97          1
    99         11
   101         28
   113          1
   115         46