##TITLE=Library Entry 3459
##JCAMP-DX=Revision 4.10 
##DATA TYPE=MASS SPECTRUM
##SAMPLE DESCRIPTION=NIST Mass Spectrometry Data Center, 1994
##NAMES=HP
##CAS NAME=3-Propylglutaric acid
##MOLFORM=C8H14O4
##CAS REGISTRY NO=4165-98-4
##MP= -300
##BP= -300
##MW= 174
##$RETENTION INDEX=0
##$CONDENSED SPECTRUM=NO
##NPOINTS= 96
##XYDATA=(XY..XY) 1 
    12         10
    14         19
    15         91
    16          5
    17         14
    18         16
    19         22
    25          5
    26         50
    27        605
    28        112
    29        494
    30         15
    31         98
    32          7
    35          5
    37         15
    38         47
    39        642
    40        135
    41        999
    42        675
    43        510
    44         55
    45        576
    46         11
    47         12
    50         23
    51         41
    52         22
    53        140
    54         11
    55        638
    56        126
    57        120
    58         77
    59         11
    60        531
    61         37
    63         11
    65         28
    66         15
    67         93
    68        215
    69        905
    70        172
    71        186
    72         31
    73        345
    74         23
    75          9
    77         17
    79         25
    80         12
    81         66
    82        165
    83        118
    84        165
    85        212
    86        107
    87         50
    89          9
    91          9
    92          7
    93          9
    94         10
    95         58
    96        288
    97        752
    98         59
    99         56
   100         72
   101          9
   108          9
   109         15
   110         43
   111         16
   112          9
   113        223
   114         84
   115        322
   116         29
   121          6
   125         12
   126         11
   127         30
   128        113
   129         14
   131          8
   137         31
   138         30
   139          5
   141         10
   155          4
   156         10
   157         13