##TITLE=Library Entry 45544
##JCAMP-DX=Revision 4.10 
##DATA TYPE=MASS SPECTRUM
##SAMPLE DESCRIPTION=James Little,Eastman Chem.Co.,Kingsport,TN
##NAMES=HP
##CAS NAME=2-Methyl-4-carboxytetrahydrothiazole
##MOLFORM=C5H9NO2S
##CAS REGISTRY NO=4165-32-6
##MP= -300
##BP= -300
##MW= 147
##$RETENTION INDEX=0
##$CONDENSED SPECTRUM=NO
##NPOINTS= 33
##XYDATA=(XY..XY) 1 
    27        235
    31        237
    42        285
    43        349
    44        596
    45        530
    52        577
    55        685
    56        159
    58        156
    59        541
    60        116
    68        131
    75        999
    79        876
    83        448
    85        417
    86        563
    87        197
   100        468
   101        275
   102        958
   103         69
   104         60
   105         62
   114         67
   132        799
   133         55
   146         82
   147        746
   148         74
   149         60
   150          8