##TITLE=Library Entry 4725
##JCAMP-DX=Revision 4.10 
##DATA TYPE=MASS SPECTRUM
##SAMPLE DESCRIPTION=Japan AIST/NIMC Database- Spectrum MS-NW-8818
##NAMES=HP
##CAS NAME=3-Methylglutaric anhydride
##MOLFORM=C6H8O3
##CAS REGISTRY NO=4166-53-4
##MP= -300
##BP= -300
##MW= 128
##$RETENTION INDEX=0
##$CONDENSED SPECTRUM=NO
##NPOINTS= 39
##XYDATA=(XY..XY) 1 
    14         10
    15         20
    18          1
    26         18
    27        101
    28         69
    29         40
    30          1
    31          1
    34          1
    37          9
    38         26
    39        189
    40         66
    41        388
    42        999
    43        166
    44          8
    45          4
    49          1
    50          9
    51          9
    52          3
    53         11
    54          5
    55         36
    56        917
    57         34
    58          2
    60          1
    67          1
    68          3
    69          9
    83          1
    84         92
    85          5
    97          2
   101          2
   129          8