##TITLE=Library Entry 71928
##JCAMP-DX=Revision 4.10 
##DATA TYPE=MASS SPECTRUM
##SAMPLE DESCRIPTION=Leung Pu, NIH, Bethesda, Maryland, U.S.
##NAMES=HP
##CAS NAME=N-Ethylmaleamic acid
##MOLFORM=C6H9NO3
##CAS REGISTRY NO=4166-67-0
##MP= -300
##BP= -300
##MW= 143
##$RETENTION INDEX=0
##$CONDENSED SPECTRUM=NO
##NPOINTS= 49
##XYDATA=(XY..XY) 1 
    42        237
    44        988
    45        444
    46         69
    47          1
    49          7
    51         14
    52         62
    53        184
    54        205
    55        502
    56         65
    57         27
    58        121
    59          6
    63          1
    64          1
    65          1
    67         12
    68         21
    69         32
    70         36
    71        150
    72        151
    73         31
    78          6
    80         49
    81         19
    82         69
    84        318
    85          5
    86         17
    87          1
    91          1
    96         18
    97         57
    98        219
    99        999
   100         83
   101          6
   106          1
   110          4
   125         81
   126        113
   128         32
   142        138
   143        199
   144         11
   145          1