##TITLE=Library Entry 11784
##JCAMP-DX=Revision 4.10 
##DATA TYPE=MASS SPECTRUM
##SAMPLE DESCRIPTION=Exported from NIST MS Search
##NAMES=HP
##CAS NAME=Methyl phaseate
##MOLFORM=C16H22O5
##CAS REGISTRY NO=41670-48-8
##MP= -300
##BP= -300
##MW= 294
##$RETENTION INDEX=2154
##$CONDENSED SPECTRUM=NO
##NPOINTS= 181
##XYDATA=(XY..XY) 1 
    38         23
    39        218
    40         80
    41        494
    42         46
    43        999
    44         46
    45         43
    47         23
    50         25
    51         57
    52         41
    53        137
    54         46
    55        388
    56         48
    57         69
    58         27
    59        114
    60         20
    61         23
    63         25
    64         23
    65        186
    66        149
    67        183
    68         46
    69        420
    70         46
    71         64
    72         20
    73         25
    74         23
    77        160
    78         46
    79        149
    80         46
    81        135
    82        158
    83        273
    84         43
    85        183
    86         25
    89         23
    91        241
    92         48
    93        218
    94        471
    95        386
    96        121
    97        137
    98         46
    99         48
   100         43
   101         23
   102         23
   103         41
   104         27
   105        112
   106         48
   107        172
   108         82
   109        255
   110         57
   111         98
   112        126
   113         43
   114         23
   115         48
   116         34
   117         64
   118         27
   119         69
   120         41
   121        563
   122        643
   123        160
   124         48
   125        850
   126        186
   127        209
   128         46
   129         43
   130         23
   131         66
   132         36
   133         91
   134        114
   135        356
   136         73
   137         73
   138         46
   139        321
   140         94
   141         41
   142         23
   143         27
   144         23
   145         48
   146         25
   147         59
   148         91
   149        172
   150         43
   151         43
   152         27
   153        204
   154        250
   155         48
   156         20
   157         27
   158         29
   159        114
   160         57
   161        126
   162        172
   163        252
   164         78
   165         48
   166         34
   167        273
   168         50
   169         43
   171         29
   172         23
   173         50
   174         34
   175         66
   176        114
   177        183
   178         48
   179         48
   180         25
   181         23
   186         25
   187         29
   189         46
   190         48
   191         46
   192         23
   193         43
   194         66
   195         69
   196         23
   199         23
   201         34
   202         43
   203         43
   204         69
   205         46
   206         23
   207         23
   208         23
   209         25
   210         20
   215         23
   216         27
   217         89
   218         29
   219         85
   220         43
   221         69
   222         27
   233         69
   234         48
   235         43
   236         46
   237         43
   245         73
   246         43
   247         27
   261         36
   262         71
   263         89
   264         27
   266         23
   276        114
   277         34
   279         23
   294        160
   295         46