##TITLE=Library Entry 87529
##JCAMP-DX=Revision 4.10 
##DATA TYPE=MASS SPECTRUM
##SAMPLE DESCRIPTION=R. SELF, AGRIC. RES. COUNC., FOOD RES. INST., NORWICH,
 Uo o
##NAMES=HP
##CAS NAME=Octahydro-2(1H)-quinolinone
##MOLFORM=C9H15NO
##CAS REGISTRY NO=4169-27-1
##MP= -300
##BP= -300
##MW= 153
##$RETENTION INDEX=0
##$CONDENSED SPECTRUM=NO
##NPOINTS= 62
##XYDATA=(XY..XY) 1 
    29         54
    30         28
    31          2
    37          1
    38          4
    39         77
    40         20
    41        123
    42         41
    43         83
    44         21
    45          2
    50          4
    51         11
    52          8
    53         33
    54         59
    55        116
    56         60
    57          8
    59          4
    63          1
    65         11
    66          7
    67        100
    68         53
    69         82
    70         14
    72          1
    77         12
    78          5
    79         24
    80         16
    81         31
    82        144
    83         15
    84         13
    91          5
    93          8
    94         13
    95         16
    96         56
    97         42
    98         14
   106          1
   107          1
   108          4
   109          3
   110        999
   111         69
   112          4
   122          3
   123          5
   124          5
   125          7
   135          1
   150          1
   151          5
   152         36
   153        257
   154         26
   155          1