##TITLE=Library Entry 67474
##JCAMP-DX=Revision 4.10 
##DATA TYPE=MASS SPECTRUM
##SAMPLE DESCRIPTION=Exported from NIST MS Search
##NAMES=HP
##CAS NAME=1-Propanol, 2-phenoxy-
##MOLFORM=C9H12O2
##CAS REGISTRY NO=4169-04-4
##MP= -300
##BP= -300
##MW= 152
##$RETENTION INDEX=2131
##$CONDENSED SPECTRUM=NO
##NPOINTS= 98
##XYDATA=(XY..XY) 1 
    14          1
    15          3
    17          3
    18         13
    26          3
    27         15
    28          9
    29         17
    30          3
    31         62
    32          2
    37          2
    38          9
    39         51
    40         15
    41         27
    42          3
    43         16
    44          2
    45          5
    47          2
    49          1
    50         14
    51         55
    52          5
    53          4
    54          2
    55         25
    56          2
    57         19
    58         12
    59         12
    60          1
    61          1
    62          4
    63         11
    64          5
    65         44
    66         55
    67          6
    68          2
    69          1
    71          1
    73          1
    74          4
    75          4
    76          5
    77        149
    78         14
    79          5
    80          1
    81          2
    82          2
    83         25
    84          2
    87          2
    89          1
    91         13
    92          2
    93         24
    94        999
    95         77
    96          5
    97          1
    98          1
    99          1
   101          1
   103         11
   104          2
   105          5
   106          1
   107          7
   108          2
   109          2
   115          1
   119          2
   120          1
   121        124
   122         13
   123          1
   127          6
   128          1
   131          5
   132          4
   133          4
   134          1
   135          1
   136          1
   137          1
   138          1
   139          1
   149          1
   150          1
   151          1
   152        154
   153         15
   154          2
   155          1