##TITLE=Library Entry 34322
##JCAMP-DX=Revision 4.10 
##DATA TYPE=MASS SPECTRUM
##SAMPLE DESCRIPTION=Exported from NIST MS Search
##NAMES=HP
##CAS NAME=1,7-Octadien-3-one, 2-methyl-6-methylene-
##MOLFORM=C10H14O
##CAS REGISTRY NO=41702-60-7
##MP= -300
##BP= -300
##MW= 150
##$RETENTION INDEX=1117
##$CONDENSED SPECTRUM=NO
##NPOINTS= 32
##XYDATA=(XY..XY) 1 
    39        179
    41        845
    51         89
    52         55
    53        173
    54         74
    67         52
    68         89
    69        999
    70         43
    77        123
    78         55
    79        260
    80         65
    81         86
    91         89
    92         46
    93        120
    94         52
    95         65
    96         40
   106         58
   107        117
   108         40
   115         49
   117         24
   119         43
   122         86
   135         43
   147         24
   148         21
   150         40