##TITLE=Library Entry 3810
##JCAMP-DX=Revision 4.10 
##DATA TYPE=MASS SPECTRUM
##SAMPLE DESCRIPTION=Japan AIST/NIMC Database- Spectrum MS-NW-4354
##NAMES=HP
##CAS NAME=Butanoic acid, 2-chloro-
##MOLFORM=C4H7ClO2
##CAS REGISTRY NO=4170-24-5
##MP= -300
##BP= -300
##MW= 122
##$RETENTION INDEX=0
##$CONDENSED SPECTRUM=NO
##NPOINTS= 87
##XYDATA=(XY..XY) 1 
    12          1
    13          3
    14          8
    15         30
    16          2
    17          4
    18         13
    19          1
    24          1
    25          9
    26         65
    27        321
    28         30
    29        186
    30          6
    31         21
    32          3
    35         12
    36         62
    37         34
    38         61
    39        343
    40        111
    41        999
    42        562
    43         75
    44         23
    45        185
    46          6
    47          8
    48         14
    49         63
    50          9
    51         20
    52          3
    53         10
    54          3
    55         54
    56          4
    57         22
    58         12
    59          6
    60        102
    61         20
    62         22
    63         16
    64          9
    65          9
    66          2
    67          3
    68         49
    69        101
    70         14
    71         21
    72          3
    73         35
    74          3
    75         22
    76        196
    77        261
    78         71
    79         85
    80         14
    81          1
    82          1
    83          1
    85         14
    86         54
    87        251
    88         13
    89          5
    91          2
    93          1
    94        962
    95         24
    96        320
    97          7
    98          1
   103          1
   104          1
   105          6
   107          6
   109          1
   120          6
   121          4
   122          2
   123          1