##TITLE=Library Entry 60997
##JCAMP-DX=Revision 4.10 
##DATA TYPE=MASS SPECTRUM
##SAMPLE DESCRIPTION=NIST Mass Spectrometry Data Center, 1990.
##NAMES=HP
##CAS NAME=Benzene, (1,1-diethylpropyl)-
##MOLFORM=C13H20
##CAS REGISTRY NO=4170-84-7
##MP= -300
##BP= -300
##MW= 176
##$RETENTION INDEX=1275
##$CONDENSED SPECTRUM=NO
##NPOINTS= 69
##XYDATA=(XY..XY) 1 
    14          1
    15          1
    27         41
    28         24
    29         52
    32          4
    39         40
    41         67
    42          3
    43          9
    44          1
    50         12
    51         47
    52         11
    53         20
    54          5
    55         12
    56          1
    57          6
    62          6
    63         26
    64          8
    65         64
    66          5
    67          7
    68          1
    69         30
    70          2
    74          6
    75          9
    76         14
    77        110
    78         40
    79         48
    80          3
    86          1
    87          3
    89         28
    91        999
    92         82
    93          3
   101          4
   102         24
   103         61
   104          3
   105        850
   106         70
   107          2
   113          1
   115        134
   116         35
   117        109
   118         15
   119          6
   126          2
   127          8
   128         20
   129         14
   130          4
   131         14
   132         12
   133          1
   141          1
   145          3
   147        314
   148         37
   149          1
   176         63
   177          8