##TITLE=Library Entry 16113
##JCAMP-DX=Revision 4.10 
##DATA TYPE=MASS SPECTRUM
##SAMPLE DESCRIPTION=AAFS Toxicology Section MS DB Committee, U. Alberta, Ca
nada
##NAMES=HP
##CAS NAME=Tocainide
##MOLFORM=C11H16N2O
##CAS REGISTRY NO=41708-72-9
##MP= -300
##BP= -300
##MW= 192
##$RETENTION INDEX=0
##$CONDENSED SPECTRUM=NO
##NPOINTS= 82
##XYDATA=(XY..XY) 1 
    34          1
    37          1
    38          1
    39         15
    40          2
    41          8
    42         31
    44        999
    45         37
    46          1
    47          1
    50          4
    51         12
    52          8
    53          8
    54          3
    55          4
    56          1
    57          1
    58          1
    61          1
    62          1
    63          7
    64          4
    65         25
    66          7
    67          2
    68          1
    74          2
    75          3
    77         76
    78         22
    79         28
    80          7
    81          1
    85          1
    86          1
    87          1
    88          1
    89          8
    90          3
    91         57
    92         15
    93         10
    94          3
    95          1
    97          1
    98          1
   101          1
   102          6
   103         24
   104         15
   105         30
   106        105
   107         13
   108          1
   116          3
   117          8
   118         20
   119         13
   120         97
   121        252
   122         29
   123          1
   130          4
   131          3
   132         19
   133          3
   134          1
   147         16
   148         15
   149         11
   150          1
   160          2
   161          1
   175          1
   176          1
   177          1
   190          1
   192        205
   193         29
   194          2