##TITLE=Library Entry 62330
##JCAMP-DX=Revision 4.10 
##DATA TYPE=MASS SPECTRUM
##SAMPLE DESCRIPTION=Tox21 Consortium/NIST Mass Spectrometry Data Center, 20
12
##NAMES=HP
##CAS NAME=Befuraline
##MOLFORM=C20H20N2O2
##CAS REGISTRY NO=41717-30-0
##MP= -300
##BP= -300
##MW= 320
##$RETENTION INDEX=0
##$CONDENSED SPECTRUM=NO
##NPOINTS= 145
##XYDATA=(XY..XY) 1 
    15          1
    26          1
    27          4
    28         13
    29          5
    30          5
    38          2
    39         24
    40          2
    41         14
    42         95
    43          5
    44          3
    50          5
    51         12
    52          3
    53          3
    54         12
    55         25
    56         32
    57          6
    58          4
    61          1
    62         13
    63         50
    64          6
    65         75
    66          5
    67          1
    68          3
    69          3
    70          5
    71          2
    72         18
    73          1
    74          1
    75          2
    76          3
    77         12
    78          4
    79          2
    80          1
    81          2
    82          1
    83         20
    84          6
    85          1
    86          2
    87          5
    88         11
    89        253
    90         37
    91        999
    92         85
    93          4
    95          1
    97          1
    98          2
   101          6
   102          3
   103          7
   104         18
   105         21
   106          7
   107          2
   109          1
   111          3
   113          1
   114          1
   115          4
   116          7
   117         43
   118         32
   119          5
   120          9
   121          1
   122          1
   123          1
   127          1
   128          1
   129          1
   130          9
   131         99
   132        240
   133         33
   134        244
   135         24
   136          1
   142          1
   143          2
   144         24
   145        441
   146        678
   147         79
   148          5
   156          1
   157          1
   158         13
   159         75
   160         38
   161         14
   162          2
   165          1
   169          1
   170          2
   171          1
   172          3
   173         14
   174          7
   175         49
   176          6
   177          1
   178          1
   184          1
   185          1
   186          4
   187          6
   188         31
   189          6
   190          1
   198          1
   199          1
   200          3
   201          5
   202          8
   203          3
   204          1
   207          1
   214          3
   215          2
   227          1
   228          5
   229         12
   230          2
   243          4
   244          1
   291          4
   292          1
   305          3
   306          1
   318          3
   319          6
   320         36
   321          8
   322          1