##TITLE=Library Entry 93714
##JCAMP-DX=Revision 4.10 
##DATA TYPE=MASS SPECTRUM
##SAMPLE DESCRIPTION=A.A.Kutin, Moscow, Russia
##NAMES=HP
##CAS NAME=1H-Indene-2-carboxylic acid
##MOLFORM=C10H8O2
##CAS REGISTRY NO=41712-14-5
##MP= -300
##BP= -300
##MW= 160
##$RETENTION INDEX=0
##$CONDENSED SPECTRUM=NO
##NPOINTS= 56
##XYDATA=(XY..XY) 1 
    35          6
    37          4
    39         36
    40          5
    41         21
    42         36
    43         35
    44         16
    45         13
    50         25
    51         62
    55         32
    56          5
    57        127
    58         15
    62         45
    63         97
    65         63
    68          5
    69         90
    70         27
    71        132
    74          4
    75         14
    77         68
    78          8
    83         34
    85         41
    86         47
    87         23
    88         45
    89        107
    91          6
    97         12
    99          5
   103         10
   110          9
   111         25
   112         13
   113         74
   114        120
   115        999
   116        655
   117         70
   125          6
   126          5
   127          4
   131         17
   132         51
   142         14
   143          4
   149          4
   150          4
   151          5
   160        621
   161         81