##TITLE=Library Entry 15262
##JCAMP-DX=Revision 4.10 
##DATA TYPE=MASS SPECTRUM
##SAMPLE DESCRIPTION=L. Cohen, LC, NIDDK, NIH, Bethesda, MD 20892
##NAMES=HP
##CAS NAME=Imidazole-4-carboxylic acid, 1-methyl-
##MOLFORM=C5H6N2O2
##CAS REGISTRY NO=41716-18-1
##MP= -300
##BP= -300
##MW= 126
##$RETENTION INDEX=0
##$CONDENSED SPECTRUM=NO
##NPOINTS= 16
##XYDATA=(XY..XY) 1 
    41         92
    42        384
    43         83
    44        999
    46         17
    54         86
    55         38
    56         18
    68        170
    69         63
    81         43
    82        381
   109        208
   110         32
   126        357
   127         44