##TITLE=Library Entry 7107
##JCAMP-DX=Revision 4.10 
##DATA TYPE=MASS SPECTRUM
##SAMPLE DESCRIPTION=Chemical Concepts
##NAMES=HP
##CAS NAME=Cholestane-3,5-diol, 5-acetate, (3.beta.,5.alpha.)-
##MOLFORM=C29H50O3
##CAS REGISTRY NO=41721-93-1
##MP= -300
##BP= -300
##MW= 446
##$RETENTION INDEX=0
##$CONDENSED SPECTRUM=NO
##NPOINTS= 292
##XYDATA=(XY..XY) 1 
    26          7
    27         84
    28         35
    29        281
    30         12
    31         24
    38          6
    39         64
    40         20
    41        611
    42         96
    43        999
    44         57
    45        186
    51          8
    52          8
    53         96
    54         27
    55        689
    56         82
    57        604
    58         35
    59         12
    60        136
    61         12
    64          8
    65         44
    66         27
    67        391
    68         79
    69        399
    70         51
    71        260
    72         24
    73         12
    75          8
    77        130
    78         44
    79        383
    80         94
    81        583
    82         96
    83        250
    84         30
    85         63
    86         12
    87         11
    89          9
    90         11
    91        451
    92        128
    93        428
    94        137
    95        603
    96         87
    97        181
    98         25
    99         29
   100         12
   101          9
   102         10
   103         32
   104         35
   105        498
   106        264
   107        516
   108        171
   109        310
   110         66
   111        102
   112         16
   113         21
   114         21
   115         41
   116         31
   117        143
   118        115
   119        296
   120        231
   121        268
   122         98
   123        175
   124        119
   125         78
   126         16
   127         27
   128         42
   129         81
   130         51
   131        202
   132         77
   133        262
   134        125
   135        231
   136         69
   137         88
   138         38
   139         23
   140         10
   141         25
   142         28
   143        130
   144         65
   145        330
   146        102
   147        287
   148         91
   149        156
   150         35
   151         63
   152         25
   153         15
   154          9
   155         19
   156         19
   157         86
   158         92
   159        232
   160        152
   161        251
   162         76
   163        167
   164         37
   165         45
   166         12
   167         12
   168         10
   169         18
   170         13
   171         72
   172         33
   173        123
   174         51
   175         80
   176         51
   177         66
   178         97
   179         42
   180         10
   181          9
   182          6
   183         17
   184         10
   185         67
   186         34
   187         75
   188         27
   189         53
   190         19
   191         45
   192         17
   193         45
   194         12
   195         10
   197         24
   198         11
   199         78
   200         30
   201         53
   202         20
   203         97
   204         24
   205         39
   206         40
   207         28
   208          8
   209          4
   211         12
   212          9
   213        209
   214         69
   215         73
   216         19
   217         31
   218         14
   219         35
   220         25
   221          8
   222          2
   223          3
   224          2
   225          6
   226          4
   227         43
   228         62
   229         87
   230         27
   231        141
   232         50
   233         29
   234         13
   235         11
   236         10
   237          4
   238          6
   239         15
   240          5
   241         28
   242         10
   243         11
   244          7
   245         36
   246         53
   247        131
   248         37
   249         10
   250         13
   251          3
   252          2
   253          8
   254         10
   255        191
   256         45
   257         20
   258          6
   259         23
   260         73
   261         55
   262         22
   263          8
   269          7
   271         14
   272         21
   273        147
   274        118
   275        324
   276         76
   277         10
   283         15
   284          5
   285          8
   286          9
   287         28
   288         18
   289          7
   294          7
   298          4
   299         14
   300         22
   301        223
   302         59
   303         10
   304          4
   305          4
   311         13
   312          5
   313         20
   314         41
   315         62
   316        137
   317         38
   318          7
   325          6
   326         33
   327         28
   328         50
   329         32
   330         10
   331          6
   332          4
   339         11
   340         11
   341          5
   342         18
   343         13
   344          5
   351         10
   352         12
   353        188
   354         57
   355         14
   356          7
   357         10
   366         11
   367         22
   368        518
   369        162
   370         36
   371        171
   372         54
   373         11
   382         10
   383          6
   384         37
   385         24
   386        597
   387        238
   388         41
   389          6
   396          6
   400          7
   414          6