##TITLE=Library Entry 20863
##JCAMP-DX=Revision 4.10 
##DATA TYPE=MASS SPECTRUM
##SAMPLE DESCRIPTION=Chemical Concepts
##NAMES=HP
##CAS NAME=2-Butenoic acid, 2-methyl-, methyl ester
##MOLFORM=C6H10O2
##CAS REGISTRY NO=41725-90-0
##MP= -300
##BP= -300
##MW= 114
##$RETENTION INDEX=873
##$CONDENSED SPECTRUM=NO
##NPOINTS= 60
##XYDATA=(XY..XY) 1 
    30          3
    31         18
    33          2
    37          9
    38         30
    39        265
    40         24
    41         58
    42         12
    43         86
    44          8
    45         27
    46          0
    47          1
    48          0
    49          4
    50         49
    51         79
    52         36
    53        182
    54        142
    55        999
    56         54
    57          5
    58          2
    59        120
    60          3
    61          1
    62          0
    63          0
    65          1
    66          1
    67         11
    68          3
    69         20
    70          1
    71         24
    72          3
    73          0
    74          1
    75          3
    77          0
    81         18
    82         88
    83        461
    84         26
    85          6
    86          1
    87          1
    88          0
    95          0
    97          1
    98          0
    99        124
   100          7
   101          0
   112          0
   113          3
   114        334
   115         25