##TITLE=Library Entry 84284
##JCAMP-DX=Revision 4.10 
##DATA TYPE=MASS SPECTRUM
##SAMPLE DESCRIPTION=CARL DJERASSI DEPT OF CHEM STANFORD UNIV STANFORD CALIF
 94305
##NAMES=HP
##CAS NAME=Ethanol, 2-phenoxy-, benzoate
##MOLFORM=C15H14O3
##CAS REGISTRY NO=4173-59-5
##MP= -300
##BP= -300
##MW= 242
##$RETENTION INDEX=0
##$CONDENSED SPECTRUM=NO
##NPOINTS= 64
##XYDATA=(XY..XY) 1 
    40         50
    41        310
    42        150
    43        280
    44         70
    45         30
    48         10
    50         40
    51        120
    52         20
    53         40
    54         20
    55        380
    56        230
    57        240
    58         10
    60         10
    62         10
    63         30
    64         20
    65        140
    66         70
    67         20
    68         10
    69         50
    70         30
    71         50
    74         10
    75         10
    76         20
    77        500
    78         60
    79        160
    80         10
    81         10
    83         10
    84         30
    85         10
    86         30
    91        100
    92         20
    93         20
    94        250
    95         70
    96         20
   103         20
   105         20
   106         30
   107        999
   108         90
   109         20
   115         20
   118         20
   119         10
   120         40
   121         20
   133         10
   147         20
   148         20
   149        700
   150         90
   151         20
   241        110
   242         30