##TITLE=Library Entry 84659
##JCAMP-DX=Revision 4.10 
##DATA TYPE=MASS SPECTRUM
##SAMPLE DESCRIPTION=I.Korhonen, Org.Mass Spectrom. 23, 729 (1988)
##NAMES=HP
##CAS NAME=Methyl 2-chlorohexadecanoate
##MOLFORM=C17H33ClO2
##CAS REGISTRY NO=41753-98-4
##MP= -300
##BP= -300
##MW= 304
##$RETENTION INDEX=2057
##$CONDENSED SPECTRUM=NO
##NPOINTS= 136
##XYDATA=(XY..XY) 1 
    39        113
    40         47
    41        678
    42        100
    43        886
    44         55
    45         23
    50         10
    52         10
    53         42
    54         47
    55        455
    56        144
    57        413
    58         28
    59        173
    60         15
    61         15
    65         18
    67        126
    68         73
    69        257
    70         63
    71        160
    72         21
    73         34
    74        618
    75        152
    76         21
    77         23
    79         31
    80         18
    81        165
    82         76
    83        205
    84        115
    85         97
    86         15
    87        776
    88         76
    89         34
    91         36
    92         18
    94         21
    95        155
    96        115
    97        186
    98        155
    99         34
   100         18
   101        142
   102         18
   103         13
   105         15
   107         26
   108        999
   109        136
   110        336
   111        100
   112         44
   113        139
   114         44
   115         76
   116         26
   117         13
   118         13
   119         21
   121        252
   122         23
   123        123
   124         44
   125         47
   126         21
   127         65
   128         31
   129        105
   130         44
   131         18
   133         18
   135         26
   137         42
   138         44
   139         21
   141         55
   143        155
   144         23
   145         10
   147         18
   148         18
   149         18
   150         34
   151         31
   152         57
   153         31
   154         10
   155         10
   157         39
   158         18
   161          5
   163        244
   164         28
   165         92
   166         18
   171        139
   172         18
   177        218
   178         18
   179         84
   180         18
   185        115
   186         18
   191         10
   192         10
   193         10
   194         39
   199         60
   200         15
   205         31
   207          7
   213         28
   219         68
   221         10
   227        171
   228         26
   233         50
   234          7
   235         18
   236         42
   237         31
   239          7
   241         81
   242         13
   261          5
   269         44
   304         21
   306          7