##TITLE=Library Entry 8551
##JCAMP-DX=Revision 4.10 
##DATA TYPE=MASS SPECTRUM
##SAMPLE DESCRIPTION=T. CLERC
##NAMES=HP
##CAS NAME=3,4,10a(1H)-Phenanthrenetriol, 2-ethenyldodecahydro-2,4b,8,8-tetr
amethyl-, 3-acetate, [2S-(2.alpha.,3.beta.,4.alpha.,4a.alpha.,4b.beta.,8a.al
pha.,10a.beta.)]-
##MOLFORM=C22H36O4
##CAS REGISTRY NO=41756-15-4
##MP= -300
##BP= -300
##MW= 364
##$RETENTION INDEX=0
##$CONDENSED SPECTRUM=NO
##NPOINTS= 79
##XYDATA=(XY..XY) 1 
    39         39
    41        514
    43        999
    53         99
    55        544
    56         59
    57        108
    67        297
    68         99
    69        702
    70         59
    71        227
    77         99
    79        227
    80         59
    81        603
    82        198
    83        227
    84        227
    85         49
    91        158
    92         49
    93        277
    94         89
    95        504
    96        108
    97        217
   105        237
   106         99
   107        287
   108         99
   109        405
   110         99
   111        108
   117         49
   119        178
   120        118
   121        247
   123        277
   131        148
   132         59
   133        207
   134         99
   135        217
   136        316
   137        306
   145        138
   146         69
   147        178
   148        227
   149        148
   150        118
   161        198
   162        198
   163        128
   166         49
   173         59
   175         99
   177         79
   179        217
   189        128
   203         99
   205        316
   206         49
   207         49
   208         79
   218        198
   221        346
   235         99
   236        158
   242         69
   253         79
   268         69
   271        287
   286        336
   289        425
   304        584
   346        168
   364         79