##TITLE=Library Entry 7963
##JCAMP-DX=Revision 4.10 
##DATA TYPE=MASS SPECTRUM
##SAMPLE DESCRIPTION=NIST Mass Spectrometry Data Center
##NAMES=HP
##CAS NAME=Triacontyl acetate
##MOLFORM=C32H64O2
##CAS REGISTRY NO=41755-58-2
##MP= -300
##BP= -300
##MW= 480
##$RETENTION INDEX=3412
##$CONDENSED SPECTRUM=NO
##NPOINTS= 173
##XYDATA=(XY..XY) 1 
    15          3
    26          2
    27         20
    28          7
    29         67
    30          2
    37          1
    38          1
    39         25
    40          7
    41        276
    42         93
    43        999
    44         29
    45          7
    51          2
    52          1
    53         15
    54         77
    55        603
    56        289
    57        901
    58         46
    59         10
    61        597
    62         13
    63          3
    65          3
    66         11
    67        121
    68        178
    69        521
    70        252
    71        482
    72         27
    73         31
    74          2
    77          2
    78          1
    79         12
    80         10
    81        110
    82        373
    83        674
    84        179
    85        320
    86         22
    87          5
    88          2
    91          2
    93          3
    94          6
    95         80
    96        218
    97        739
    98        137
    99         93
   100          7
   101          6
   102          3
   105          3
   107          1
   108          3
   109         39
   110         77
   111        418
   112         90
   113         55
   114          5
   115          2
   116         34
   117          3
   121          1
   122          4
   123         27
   124         56
   125        216
   126         57
   127         36
   128          4
   129          2
   130          5
   136          3
   137         17
   138         39
   139         96
   140         37
   141         23
   142          3
   143          1
   151          5
   152         23
   153         53
   154         26
   155         15
   156          2
   165          2
   166         17
   167         32
   168         17
   169         10
   170          2
   179          1
   180         12
   181         20
   182         13
   183          8
   184          1
   189          1
   194         10
   195         13
   196          9
   197          5
   198          1
   208          7
   209          9
   210          6
   211          3
   212          1
   222          7
   223          6
   224          5
   225          2
   235          1
   236          6
   237          5
   238          4
   239          2
   250          6
   251          4
   252          3
   253          1
   264          6
   265          3
   266          3
   278          5
   279          3
   292          5
   293          3
   294          3
   306          4
   307          3
   308          2
   309          1
   320          3
   321          2
   322          2
   334          3
   335          2
   336          2
   337          1
   348          3
   349          2
   350          2
   351          1
   362          2
   363          2
   364          1
   376          1
   377          1
   378          1
   390          1
   391          1
   392          9
   393          3
   394          1
   418          1
   420         12
   421          4
   422          1
   462          1
   465          1
   480          1