##TITLE=Library Entry 20521
##JCAMP-DX=Revision 4.10 
##DATA TYPE=MASS SPECTRUM
##SAMPLE DESCRIPTION=T. CLERC
##NAMES=HP
##CAS NAME=Sandaracopimar-15-ene-6.beta.,8.beta.-diol
##MOLFORM=C20H34O2
##CAS REGISTRY NO=41756-27-8
##MP= -300
##BP= -300
##MW= 306
##$RETENTION INDEX=0
##$CONDENSED SPECTRUM=NO
##NPOINTS= 91
##XYDATA=(XY..XY) 1 
    31         69
    39        184
    40         61
    41        730
    42        123
    43        876
    44         38
    45         76
    53        330
    54         76
    55        999
    56        223
    58         76
    65         84
    66         46
    67        807
    68        292
    69        884
    70        153
    71        230
    77        230
    78         46
    79        507
    80        153
    81        961
    82        230
    84        384
    85        146
    86        146
    91        307
    92        153
    93        538
    94        261
    95        730
    96        161
    97        230
    99         53
   105        246
   106         76
   107        384
   108        153
   109        769
   110        115
   111        115
   117         76
   118         38
   119        169
   120        123
   121        346
   122        115
   123        230
   124        269
   125        153
   131        115
   133        115
   134        130
   135        269
   136        246
   137        153
   138         76
   139        153
   147        100
   149        107
   150        146
   153        269
   159         69
   161         84
   163         92
   164         92
   165        100
   173         38
   175         46
   177         76
   178         46
   181         53
   187         53
   188         46
   189         69
   191         69
   195         46
   201         76
   202         61
   203        153
   205         76
   255        153
   270        730
   271        153
   273        146
   288        269
   291        223
   306         23