##TITLE=Library Entry 34200
##JCAMP-DX=Revision 4.10 
##DATA TYPE=MASS SPECTRUM
##SAMPLE DESCRIPTION=T. CLERC
##NAMES=HP
##CAS NAME=Sandaracopimar-15-ene-6.beta.,8.beta.,11.alpha.-triol
##MOLFORM=C20H34O3
##CAS REGISTRY NO=41756-31-4
##MP= -300
##BP= -300
##MW= 322
##$RETENTION INDEX=0
##$CONDENSED SPECTRUM=NO
##NPOINTS= 93
##XYDATA=(XY..XY) 1 
    31         56
    39         90
    40        306
    41        738
    42         79
    43        568
    44        170
    53        136
    55        624
    56        113
    57        159
    65         56
    67        363
    68        159
    69        999
    70        113
    71        340
    77        136
    79        306
    80        113
    81        511
    82        193
    83        261
    84        113
    85        113
    91        250
    92        170
    93        397
    94        181
    95        522
    96        113
    97        284
   105        227
   106        170
   107        340
   108        136
   109        568
   110        125
   111        113
   119        227
   120        113
   121        227
   123        113
   124        227
   125        136
   126        170
   131         90
   132         68
   133        170
   134        227
   135        272
   136        170
   137        284
   138         56
   139        113
   145         90
   147        113
   148         68
   149        113
   150        170
   151        136
   153         68
   154        193
   159         68
   161        113
   162        125
   163        181
   164         56
   165         90
   173         79
   175         90
   177         56
   179        624
   180        170
   189        147
   190         56
   193         56
   195         90
   203         56
   207         56
   211         79
   236        113
   243        147
   244         45
   253         56
   260         45
   262        170
   263         56
   271        170
   286        227
   289        113
   304        284
   322         22