##TITLE=Library Entry 84653
##JCAMP-DX=Revision 4.10 
##DATA TYPE=MASS SPECTRUM
##SAMPLE DESCRIPTION=Exported from NIST MS Search
##NAMES=HP
##CAS NAME=Octadecanoic acid, 2-chloro-, methyl ester
##MOLFORM=C19H37ClO2
##CAS REGISTRY NO=41753-99-5
##MP= -300
##BP= -300
##MW= 332
##$RETENTION INDEX=2260
##$CONDENSED SPECTRUM=NO
##NPOINTS= 198
##XYDATA=(XY..XY) 1 
    15         66
    16          8
    26          8
    27         87
    29        248
    30         16
    31         22
    32         13
    35          6
    36         44
    38         17
    39         58
    40         16
    41        489
    42        115
    43        835
    44         82
    45         19
    49          2
    50          2
    51          5
    53         40
    54         51
    55        521
    56        140
    57        526
    58         29
    59        158
    60          6
    61         12
    62          4
    63          4
    64          3
    65          9
    66          7
    67        105
    68         66
    69        248
    70         89
    71        225
    72         17
    73         20
    74        241
    75         57
    76         13
    77         14
    78          7
    79         27
    80         14
    81        137
    82         64
    83        176
    84        116
    85        121
    86          9
    87        514
    88         44
    89         19
    91         37
    92          7
    93         21
    94         15
    95        127
    96         86
    97        141
    98        154
    99         39
   100         17
   101         73
   102          9
   103         15
   104          5
   105         19
   106          5
   107         18
   108        999
   109        119
   110        357
   111         87
   112         41
   113         71
   114         16
   115         32
   116         10
   117         12
   118         11
   119         26
   120          8
   121        281
   122         21
   123        135
   124         33
   125         39
   126         11
   127         52
   128         22
   129         39
   130         25
   131         14
   132          5
   133         17
   134          9
   135         22
   136          6
   137         36
   138         23
   139         21
   140          9
   141         39
   142          8
   143         75
   144         11
   145          9
   147         12
   148          7
   149         22
   150         31
   151         27
   152         28
   153          9
   155         15
   157         37
   158          6
   159          6
   161          9
   163        276
   164         31
   165        103
   166         23
   167         10
   169         11
   171         24
   177        232
   178         24
   179         84
   180         27
   181          8
   183          6
   185         20
   186          7
   189          4
   191         10
   193         10
   194          7
   197          4
   199         67
   200         12
   203          3
   205         24
   206          4
   207         12
   208          6
   209          3
   211          3
   213         66
   214         12
   215          2
   217          2
   219         51
   220         16
   221         24
   222         29
   223          6
   227         32
   228          8
   233         39
   234          5
   235         17
   236          7
   241         19
   242          7
   246          4
   247          8
   249          3
   253          6
   255        156
   256         29
   257          3
   261          8
   263          4
   264         44
   265         13
   266          5
   269         71
   270         15
   275         11
   277          4
   278          2
   283          4
   289          6
   291          2
   296          3
   297         58
   298         19
   299          3
   332         28
   333         10
   334         10