##TITLE=Library Entry 3820
##JCAMP-DX=Revision 4.10 
##DATA TYPE=MASS SPECTRUM
##SAMPLE DESCRIPTION=Exported from NIST MS Search
##NAMES=HP
##CAS NAME=Naphthalene, decahydro-1,4-dimethoxy-, (1.alpha.,4.beta.,4a.beta.
,8a.alpha.)-
##MOLFORM=C12H22O2
##CAS REGISTRY NO=41766-65-8
##MP= -300
##BP= -300
##MW= 198
##$RETENTION INDEX=0
##$CONDENSED SPECTRUM=NO
##NPOINTS= 75
##XYDATA=(XY..XY) 1 
    39        378
    40         56
    41        999
    42         88
    43        252
    44         70
    45        864
    47         70
    51         65
    52         23
    53        172
    54         93
    55        348
    56         65
    57        112
    58        485
    59        149
    65        107
    66         67
    67        495
    68         65
    69        140
    70         30
    71        675
    72        156
    73        247
    74         21
    75        392
    76         16
    77        158
    78         88
    79        488
    80        135
    81        200
    82         51
    83         32
    84        182
    85        144
    91        509
    92        228
    93        602
    94         81
    95        995
    96         65
    97        156
    98         88
    99         30
   100          9
   101         63
   105        112
   106         70
   107         49
   108        292
   109         93
   110         79
   111        175
   119         70
   120         16
   121         39
   123        105
   124        163
   125        967
   126        109
   127        362
   128         53
   134        369
   135        196
   136         86
   137         98
   138         37
   151         60
   166        957
   167        126
   168         30
   198          2