##TITLE=Library Entry 2921
##JCAMP-DX=Revision 4.10 
##DATA TYPE=MASS SPECTRUM
##SAMPLE DESCRIPTION=M.GIELEN FREE UNIV. OF BRUSSELS, BRUSSELS, BELGIUM
##NAMES=HP
##CAS NAME=Stannane, dibutylcyclohexyl(1-methylethyl)-
##MOLFORM=C17H36Sn
##CAS REGISTRY NO=41762-68-9
##MP= -300
##BP= -300
##MW= 360
##$RETENTION INDEX=0
##$CONDENSED SPECTRUM=NO
##NPOINTS= 158
##XYDATA=(XY..XY) 1 
    18         10
    26         30
    27        420
    28         80
    29        530
    30         10
    38          5
    39        250
    40         30
    41        999
    42         50
    43        270
    44          5
    51         10
    53         70
    54         40
    55        850
    56         60
    57         50
    65          5
    67         40
    76         10
    79         30
    81        150
    82         10
    83        250
    84         10
   113         20
   115         20
   116        120
   117        390
   118        350
   119        620
   120        440
   121        770
   122         70
   123        250
   124         40
   125        150
   127         20
   131         20
   132         10
   133         50
   134         20
   135         60
   137         10
   139          5
   143         10
   144          5
   145         40
   146         10
   147         60
   148         10
   149         50
   151          5
   153          5
   157         20
   159         40
   160         20
   161        250
   162        120
   163        380
   164        140
   165        480
   166         10
   167         70
   169         90
   171         30
   172          5
   173        140
   174         80
   175        470
   176        240
   177        660
   178        190
   179        580
   180         20
   181        130
   183        110
   197         10
   198          5
   199         40
   200         20
   201        190
   202        110
   203        290
   204        110
   205        310
   206         20
   207         60
   209         60
   213          5
   215          5
   217        180
   218        110
   219        290
   220        100
   221        390
   222         30
   223         60
   225         60
   231         60
   232         40
   233        110
   234         50
   235        130
   236         10
   237         20
   239         20
   243         60
   244         30
   245         90
   246         40
   247        110
   248          5
   249         10
   251         20
   253         10
   255          5
   257        200
   258        120
   259        330
   260        150
   261        450
   262         50
   263         60
   264          5
   265         70
   266          5
   273         40
   274         20
   275         70
   276         20
   277         90
   278          5
   279         10
   281         10
   299         40
   300         20
   301         70
   302         30
   303        100
   304         10
   305         10
   307         10
   309         10
   311         10
   312          5
   313        210
   314        150
   315        370
   316        170
   317        500
   318         80
   319         70
   320          5
   321         80
   322         10