##TITLE=Library Entry 48796
##JCAMP-DX=Revision 4.10 
##DATA TYPE=MASS SPECTRUM
##SAMPLE DESCRIPTION=B. R. ANDERSON
##NAMES=HP
##CAS NAME=Bicyclo[3.2.1]oct-2-ene, 3-bromo-
##MOLFORM=C8H11Br
##CAS REGISTRY NO=4176-66-3
##MP= -300
##BP= -300
##MW= 186
##$RETENTION INDEX=0
##$CONDENSED SPECTRUM=NO
##NPOINTS= 99
##XYDATA=(XY..XY) 1 
    15         89
    18          6
    25          3
    26         77
    27        391
    28         69
    29        115
    30          2
    37         25
    38         90
    39        611
    40         93
    41        241
    42         12
    43          4
    44          2
    45          7
    49         10
    50        123
    51        435
    52        183
    53        215
    54         98
    55         40
    56          2
    60          3
    61         24
    62         56
    63        135
    64         31
    65        323
    66        572
    67        196
    68         17
    69          2
    73          9
    74         38
    75         40
    76         27
    77        757
    78        411
    79        999
    80         94
    81         28
    82         16
    83          9
    85          3
    86          4
    87          5
    89         16
    90         11
    91        309
    92         81
    93         24
    94          2
    95         71
    96          6
    97         10
    98          3
   100          3
   101          3
   102          7
   103         25
   104         12
   105         70
   106         26
   107        551
   108         52
   109          4
   112          3
   113         22
   114          4
   115          7
   116          2
   117         10
   119         15
   121          6
   131          3
   132         15
   133          3
   134         15
   142          6
   143          4
   144        109
   145         25
   146        105
   147         21
   156         95
   157        709
   158        175
   159        693
   160         81
   161          4
   171         11
   173         10
   186        284
   187         26
   188        277
   189         24