##TITLE=Library Entry 3822
##JCAMP-DX=Revision 4.10 
##DATA TYPE=MASS SPECTRUM
##SAMPLE DESCRIPTION=Exported from NIST MS Search
##NAMES=HP
##CAS NAME=Naphthalene, decahydro-1,4-dimethoxy-, (1.alpha.,4.beta.,4a.alpha
.,8a.alpha.)-
##MOLFORM=C12H22O2
##CAS REGISTRY NO=41766-66-9
##MP= -300
##BP= -300
##MW= 198
##$RETENTION INDEX=0
##$CONDENSED SPECTRUM=NO
##NPOINTS= 75
##XYDATA=(XY..XY) 1 
    39        352
    40        105
    41        999
    42        121
    43        642
    44        400
    45        639
    47         78
    51         44
    52         76
    53        210
    54        152
    55        639
    56        113
    57        252
    58        692
    59        244
    65        107
    66        105
    67        668
    68         94
    69        255
    70         18
    71        623
    72        107
    73         97
    74         52
    75        360
    76         36
    77        202
    78        110
    79        568
    80        163
    81        339
    82         81
    83         78
    84        215
    85        142
    91        355
    92        342
    93        465
    94         84
    95        989
    96        163
    97        200
    98        142
    99         76
   100         18
   101        100
   105        126
   106        105
   107         34
   108        347
   109        152
   110        105
   111        178
   119         76
   120         34
   121         71
   123        184
   124        205
   125        328
   126         57
   127        328
   128         36
   134        534
   135        228
   136         73
   137        110
   138         42
   151        107
   166        721
   167        139
   168         52
   198          2