##TITLE=Library Entry 67712
##JCAMP-DX=Revision 4.10 
##DATA TYPE=MASS SPECTRUM
##SAMPLE DESCRIPTION=Exported from NIST MS Search
##NAMES=HP
##CAS NAME=Naphthalene, decahydro-1,4-dimethoxy-, (1.alpha.,4.alpha.,4a.alph
a.,8a.alpha.)-
##MOLFORM=C12H22O2
##CAS REGISTRY NO=41766-64-7
##MP= -300
##BP= -300
##MW= 198
##$RETENTION INDEX=0
##$CONDENSED SPECTRUM=NO
##NPOINTS= 76
##XYDATA=(XY..XY) 1 
    39        209
    40         85
    41        647
    42         89
    43        237
    44         87
    45        537
    47         52
    51         36
    52         34
    53        161
    54         62
    55        210
    56         36
    57        118
    58        477
    59        156
    65         80
    66         52
    67        289
    68         49
    69        161
    70         42
    71        425
    72        189
    73         41
    74         11
    75        291
    76         11
    77        156
    78         74
    79        341
    80        126
    81        214
    82         44
    83         56
    84        112
    85         70
    91        141
    92        168
    93        350
    94         62
    95        999
    96        131
    97        187
    98         65
    99         14
   100          6
   101         60
   105         85
   106         44
   107         52
   108        247
   109        105
   110         44
   111        110
   119         52
   120         13
   121         42
   123         60
   124         60
   125        289
   126        117
   127        225
   128         60
   134        258
   135        120
   136        191
   137         47
   138         28
   166        341
   167         39
   168        130
   169         19
   198         62
   199         11