##TITLE=Library Entry 50849
##JCAMP-DX=Revision 4.10 
##DATA TYPE=MASS SPECTRUM
##SAMPLE DESCRIPTION=Exported from NIST MS Search
##NAMES=HP
##CAS NAME=Bicyclo[4.1.0]heptan-3-one, 4,7,7-trimethyl-, [1R-(1.alpha.,4.alp
ha.,6.alpha.)]-
##MOLFORM=C10H16O
##CAS REGISTRY NO=4176-04-9
##MP= -300
##BP= -300
##MW= 152
##$RETENTION INDEX=1197
##$CONDENSED SPECTRUM=NO
##NPOINTS= 62
##XYDATA=(XY..XY) 1 
    15         50
    26         17
    27        250
    28        125
    29        125
    38          8
    39        292
    40         58
    41        567
    42        108
    43        150
    45          8
    46          8
    47          8
    50          8
    51         50
    52         25
    53        183
    54        108
    55        308
    56        192
    57         33
    58         42
    63          8
    65         50
    66         42
    67        717
    68        183
    69        342
    70         92
    71          8
    77         83
    78         33
    79        158
    80         58
    81        999
    82        592
    83        150
    84         75
    91         75
    92          8
    93         67
    94         25
    95        458
    96        325
    97         92
   105         17
   106         17
   107         25
   108         33
   109        400
   110        417
   111         50
   119         33
   121         17
   123         67
   124         67
   134         33
   137        150
   138         17
   152        842
   153         92