##TITLE=Library Entry 82371
##JCAMP-DX=Revision 4.10 
##DATA TYPE=MASS SPECTRUM
##SAMPLE DESCRIPTION=Exported from NIST MS Search
##NAMES=HP
##CAS NAME=Pyrazine, ethenyl-
##MOLFORM=C6H6N2
##CAS REGISTRY NO=4177-16-6
##MP= -300
##BP= -300
##MW= 106
##$RETENTION INDEX=946
##$CONDENSED SPECTRUM=NO
##NPOINTS= 26
##XYDATA=(XY..XY) 1 
    26         13
    27        170
    28         85
    29        100
    37         25
    38         45
    39         63
    40         25
    50        125
    51        213
    52        435
    53        358
    54         53
    63          5
    64          8
    75          3
    76         23
    77          3
    78         48
    79        393
    80        135
    81          5
   105        123
   106        999
   107         83
   108         10