##TITLE=Library Entry 42262
##JCAMP-DX=Revision 4.10 
##DATA TYPE=MASS SPECTRUM
##SAMPLE DESCRIPTION=Chemical Concepts
##NAMES=HP
##CAS NAME=Silane, trimethyl(1-methyl-1-butenyl)-, (E)-
##MOLFORM=C8H18Si
##CAS REGISTRY NO=41784-56-9
##MP= -300
##BP= -300
##MW= 142
##$RETENTION INDEX=0
##$CONDENSED SPECTRUM=NO
##NPOINTS= 81
##XYDATA=(XY..XY) 1 
    26          2
    27         25
    28          0
    29         16
    30          1
    31         19
    36          0
    37          1
    38          1
    39         17
    40          5
    41         38
    42          3
    43         48
    44         14
    45         69
    46          3
    47          2
    50          1
    51          3
    52          2
    53          6
    54          2
    55         12
    56          2
    57         12
    58         22
    59        173
    60         14
    61          6
    62          0
    63          1
    64          0
    65          4
    66          2
    67          9
    68          9
    69         40
    70          4
    71          9
    72         12
    73        999
    74         84
    75         37
    76          2
    77         10
    78          4
    79          8
    80          1
    81          5
    82          2
    83         25
    84          4
    85         67
    86         10
    87        240
    88         23
    89          9
    96          2
    97         23
    98          6
    99        185
   100         37
   101         10
   102          2
   111         23
   112          4
   113         90
   114         32
   115          9
   116          2
   125          1
   126          2
   127        754
   128         93
   129         29
   130          1
   141          2
   142        177
   143         26
   144          7