##TITLE=Library Entry 27058
##JCAMP-DX=Revision 4.10 
##DATA TYPE=MASS SPECTRUM
##SAMPLE DESCRIPTION=Dmitri Zagorevskii, University of Missouri-Columbia, Co
lumbia, MO
##NAMES=HP
##CAS NAME=Benzenesulfonic acid, 4-methyl-, [4-(1,1-dimethylethyl)cyclohexyl
idene]hydrazide
##MOLFORM=C17H26N2O2S
##CAS REGISTRY NO=41780-53-4
##MP= -300
##BP= -300
##MW= 322
##$RETENTION INDEX=0
##$CONDENSED SPECTRUM=NO
##NPOINTS= 103
##XYDATA=(XY..XY) 1 
    26          8
    27         91
    29        219
    30         28
    31          5
    33          7
    38         12
    39        175
    40         30
    41        555
    42         50
    43        167
    44         25
    45         25
    48         13
    49         25
    50         25
    51         63
    52         26
    53        155
    54         89
    55        352
    56         97
    57        999
    58        107
    59          4
    60          5
    61         11
    62         23
    63         83
    64         37
    65        230
    66         45
    67        489
    68         30
    69        173
    70         42
    71         43
    73          5
    74          5
    75          5
    77         78
    78         25
    79        123
    80        146
    81        298
    82        242
    83        149
    84         31
    85          6
    89         32
    90         19
    91        401
    92        179
    93         54
    94         78
    95        134
    96         47
    97         60
    98         14
   105         11
   106         16
   107         49
   108         45
   109         51
   110         30
   111        124
   112         12
   115          5
   119          6
   121         12
   122         14
   123         75
   124         25
   125          6
   128          9
   129         14
   133         12
   134          7
   135         11
   136         12
   137         46
   138         27
   139        133
   140         64
   141          9
   148         11
   150         21
   151         25
   152          9
   155         24
   156         28
   157        132
   158         12
   159          8
   160          2
   166         14
   167        732
   168         78
   169          3
   171         11
   307         20
   322          9