##TITLE=Library Entry 42826
##JCAMP-DX=Revision 4.10 
##DATA TYPE=MASS SPECTRUM
##SAMPLE DESCRIPTION=D.HENNEBERG, MAX-PLANCK INSTITUTE, MULHEIM, WEST GERMAN
Y
##NAMES=HP
##CAS NAME=Silane, (2-ethyl-1-methyl-1-butenyl)trimethyl-
##MOLFORM=C10H22Si
##CAS REGISTRY NO=41784-60-5
##MP= -300
##BP= -300
##MW= 170
##$RETENTION INDEX=0
##$CONDENSED SPECTRUM=NO
##NPOINTS= 81
##XYDATA=(XY..XY) 1 
    26          1
    27         13
    28         49
    29         13
    31         15
    32          3
    36          1
    39         12
    40          2
    41         23
    42          3
    43         44
    44         16
    45         86
    46          6
    47          2
    51          2
    52          1
    53          8
    54          2
    55         15
    56          2
    57          8
    58         19
    59         98
    60          8
    61          3
    63          1
    65          2
    66          2
    67         10
    68          2
    69         11
    70          2
    71          6
    72          8
    73        999
    74         76
    75         34
    76          1
    77          3
    79          3
    81          9
    82          2
    83         13
    84          2
    85         15
    86          7
    87         36
    88          3
    89          1
    91          1
    93          1
    95          7
    96         10
    97         10
    98          2
    99         68
   100         23
   101          5
   105          1
   109          2
   111          7
   112          1
   113         19
   114          2
   115          1
   125          2
   126          1
   127          9
   128          1
   139          4
   140          1
   141          8
   142          1
   155        166
   156         25
   157          7
   170         97
   171         14
   172          4