##TITLE=Library Entry 55671
##JCAMP-DX=Revision 4.10 
##DATA TYPE=MASS SPECTRUM
##SAMPLE DESCRIPTION=NIST Mass Spectrometry Data Center, 1994
##NAMES=HP
##CAS NAME=L-Leucyl-p-nitroanilide
##MOLFORM=C12H17N3O3
##CAS REGISTRY NO=4178-93-2
##MP= -300
##BP= -300
##MW= 251
##$RETENTION INDEX=0
##$CONDENSED SPECTRUM=NO
##NPOINTS= 97
##XYDATA=(XY..XY) 1 
    15         16
    16          0
    17          4
    18         48
    26          2
    27         81
    28        121
    29         71
    30        691
    31          1
    37          4
    38         15
    39         63
    40         12
    41        148
    42         79
    43        199
    44        451
    45          8
    46          4
    50         25
    51         17
    52         19
    53         21
    54         10
    55         16
    56         17
    57         26
    58          2
    61          2
    62          7
    63         43
    64         45
    65         43
    66         14
    67          8
    68          6
    69         11
    70         28
    71          2
    74          4
    75         20
    76         30
    77          8
    78          6
    79          5
    80         11
    81          5
    82          2
    83          3
    84         14
    85          2
    86        999
    87         58
    88          3
    89          3
    90         17
    91         19
    92         31
    93         19
    94          2
    95          1
    97          3
    98          1
   102          1
   103          6
   104          2
   105          2
   106          5
   107          5
   108         30
   109          4
   117          1
   118          2
   119          5
   120          5
   121          1
   122         35
   123          3
   131          2
   134          3
   137          2
   138         14
   139         10
   148          3
   149         14
   163          1
   164          2
   165          7
   166          3
   177         10
   194         12
   195          7
   219          4
   221          2
   249          2
   251          4