##TITLE=Library Entry 67027
##JCAMP-DX=Revision 4.10 
##DATA TYPE=MASS SPECTRUM
##SAMPLE DESCRIPTION=Chemical Concepts
##NAMES=HP
##CAS NAME=Ethyl phenyl sulfate
##MOLFORM=C8H10O4S
##CAS REGISTRY NO=41795-33-9
##MP= -300
##BP= -300
##MW= 202
##$RETENTION INDEX=0
##$CONDENSED SPECTRUM=NO
##NPOINTS= 110
##XYDATA=(XY..XY) 1 
    25          1
    26         10
    27         39
    28         15
    29         98
    30          6
    31         47
    36          2
    37          8
    38         25
    39        143
    40         34
    41         17
    42          8
    43         15
    44         13
    45         24
    46          7
    47         11
    48          9
    49          2
    50         18
    51         31
    52          4
    53          9
    54          2
    55         26
    56          3
    57          4
    59         20
    60          2
    61          6
    62         12
    63         35
    64         23
    65        196
    66        123
    67          8
    68          3
    69          3
    70          1
    71          2
    73          2
    74          7
    75          5
    76          5
    77         28
    78          4
    79          8
    80          1
    81          3
    82          1
    83          2
    84          1
    85          1
    89          3
    90          2
    91         45
    92         14
    93         58
    94        999
    95         71
    96          4
    97          1
    99          9
   103          1
   104          2
   105          1
   106          1
   107         16
   108          6
   109          1
   110          1
   111         11
   115          1
   118          1
   119          2
   120         16
   121         13
   122          3
   123          1
   124          1
   125         11
   126          3
   127          7
   128          1
   129          1
   138          1
   139         13
   140          1
   141          1
   155         18
   156          3
   157          2
   165          2
   166          1
   167          2
   168          1
   172          5
   173          1
   174        102
   175          8
   176          6
   186          1
   187          1
   201          1
   202        159
   203         15
   204          9
   205          1