##TITLE=Library Entry 50381
##JCAMP-DX=Revision 4.10 
##DATA TYPE=MASS SPECTRUM
##SAMPLE DESCRIPTION=NIST Mass Spectrometry Data Center
##NAMES=HP
##CAS NAME=2-n-Octylfuran
##MOLFORM=C12H20O
##CAS REGISTRY NO=4179-38-8
##MP= -300
##BP= -300
##MW= 180
##$RETENTION INDEX=1297
##$CONDENSED SPECTRUM=NO
##NPOINTS= 75
##XYDATA=(XY..XY) 1 
    15          1
    18          1
    27        178
    28         26
    29        134
    30          3
    37          3
    38         15
    39        132
    40         26
    41        227
    42         28
    43         84
    44          1
    50         10
    51         34
    52         27
    53        223
    54         37
    55         62
    56         11
    57         52
    58          2
    62          1
    63          5
    65         33
    66         28
    67         80
    68         46
    69         24
    70          8
    71          5
    77         23
    78          8
    79         38
    81        999
    82        308
    83         39
    84          8
    85          2
    91         13
    92          4
    93         12
    94         76
    95        241
    96         50
    97         11
    98          4
   105          7
   106          4
   107         17
   108          6
   109         25
   110          7
   111          4
   112          1
   119         11
   120          4
   121          8
   123         88
   124         32
   125          3
   133          7
   134          2
   136         18
   137         44
   138          9
   139          1
   147          1
   149          1
   151         22
   152          3
   165          1
   180         90
   181         12