##TITLE=Library Entry 81525
##JCAMP-DX=Revision 4.10 
##DATA TYPE=MASS SPECTRUM
##SAMPLE DESCRIPTION=ASES Database, Dalian Institute, P.R. China
##NAMES=HP
##CAS NAME=2-Phenyl-5,6-dihydro-1,4-oxathiine
##MOLFORM=C10H10OS
##CAS REGISTRY NO=41803-45-6
##MP= -300
##BP= -300
##MW= 178
##$RETENTION INDEX=0
##$CONDENSED SPECTRUM=NO
##NPOINTS= 8
##XYDATA=(XY..XY) 1 
    45         20
    51         61
    77        267
    89         60
   105        999
   106         90
   150         30
   178        570