##TITLE=Library Entry 25395
##JCAMP-DX=Revision 4.10 
##DATA TYPE=MASS SPECTRUM
##SAMPLE DESCRIPTION=Japan AIST/NIMC Database- Spectrum MS-NW-2055
##NAMES=HP
##CAS NAME=Tetracontane
##MOLFORM=C40H82
##CAS REGISTRY NO=4181-95-7
##MP= -300
##BP= -300
##MW= 562
##$RETENTION INDEX=4000
##$CONDENSED SPECTRUM=NO
##NPOINTS= 209
##XYDATA=(XY..XY) 1 
    15          1
    26          4
    27         21
    28          5
    29         66
    30          1
    38          1
    39         15
    40          4
    41        147
    42         46
    43        532
    44         16
    53          7
    54         23
    55        214
    56        128
    57        999
    58         45
    65          1
    66          3
    67         31
    68         45
    69        178
    70        116
    71        709
    72         41
    73          1
    77          1
    78          1
    79          4
    80          3
    81         23
    82         69
    83        192
    84         91
    85        507
    86         35
    87          1
    91          2
    93          2
    94          2
    95         13
    96         46
    97        187
    98         73
    99        226
   100         16
   105          2
   107          1
   109          8
   110         22
   111        106
   112         67
   113        169
   114         15
   119          1
   122          1
   123          5
   124         17
   125         64
   126         60
   127        138
   128         13
   129          1
   137          3
   138         12
   139         33
   140         56
   141        111
   142         12
   151          1
   152          9
   153         25
   154         51
   155         98
   156         11
   166          8
   167         18
   168         48
   169         85
   170         10
   180          7
   181         14
   182         42
   183         76
   184          9
   194          6
   195         10
   196         39
   197         68
   198         10
   208          5
   209          8
   210         39
   211         61
   212          9
   222          4
   223          7
   224         34
   225         53
   226          9
   227          1
   236          4
   237          6
   238         30
   239         46
   240          9
   250          3
   251          4
   252         27
   253         48
   254          9
   264          3
   265          4
   266         24
   267         41
   268          9
   269          1
   278          3
   279          3
   280         27
   281         52
   282         10
   283          1
   292          3
   293          3
   294         21
   295         38
   296          9
   297          1
   306          2
   307          2
   308         19
   309         33
   310          8
   311          1
   320          1
   321          2
   322         17
   323         32
   324          8
   325          1
   334          1
   335          2
   336         15
   337         32
   338          9
   339          1
   348          1
   349          1
   350         15
   351         29
   352          8
   353          1
   362          1
   364         13
   365         26
   366          7
   367          1
   378         12
   379         26
   380          8
   392         11
   393         25
   394          9
   395          1
   406          9
   407         23
   408          7
   409          1
   420          9
   421         23
   422          7
   423          1
   434          8
   435         21
   436          7
   437          1
   448          8
   449         20
   450          7
   451          1
   462          7
   463         19
   464          7
   476          5
   477         16
   478          6
   479          1
   490          5
   491         16
   492          6
   493          1
   504          4
   505         15
   506          6
   507          1
   518          2
   519          9
   520          4
   532          1
   533          7
   534          3
   560          2
   561          2
   562         42
   563         19
   564          4