##TITLE=Library Entry 23049
##JCAMP-DX=Revision 4.10 
##DATA TYPE=MASS SPECTRUM
##SAMPLE DESCRIPTION=Chuck Anderson, Aldrich Chemical Co.
##NAMES=HP
##CAS NAME=Allyl thiopropionate
##MOLFORM=C6H10OS
##CAS REGISTRY NO=41820-22-8
##MP= -300
##BP= -300
##MW= 130
##$RETENTION INDEX=709
##$CONDENSED SPECTRUM=NO
##NPOINTS= 57
##XYDATA=(XY..XY) 1 
    14          1
    15          6
    20          0
    25          2
    26         24
    27        130
    28         52
    29        580
    30         12
    31          1
    32          2
    33          2
    34          1
    35          1
    36          1
    37          5
    38         11
    39         85
    40          8
    41        107
    42         10
    43          2
    44          1
    45         61
    46         10
    47         19
    48          1
    49          1
    53          2
    54          1
    55         11
    56         24
    57        999
    58         38
    59          8
    60          6
    61          8
    62          1
    67          1
    68          1
    69          7
    70          1
    71         18
    72          6
    73         14
    74         17
    75          2
    76          1
    85          1
    87          0
    89          1
    90          0
    97          1
   101          2
   130         36
   131          3
   132          2