##TITLE=Library Entry 83495
##JCAMP-DX=Revision 4.10 
##DATA TYPE=MASS SPECTRUM
##SAMPLE DESCRIPTION=V.A.Korolev, Moscow, Russia
##NAMES=HP
##CAS NAME=4-(1H-Imidazol-1-ylmethyl)phenol
##MOLFORM=C10H10N2O
##CAS REGISTRY NO=41833-17-4
##MP= -300
##BP= -300
##MW= 174
##$RETENTION INDEX=0
##$CONDENSED SPECTRUM=NO
##NPOINTS= 82
##XYDATA=(XY..XY) 1 
    34          1
    37         10
    38         50
    39        132
    40         88
    41         77
    42         20
    43         27
    44         10
    45          3
    49          3
    50         73
    51        210
    52        174
    53        163
    54         31
    55         69
    56          7
    57         20
    59          5
    60          1
    61          7
    62         23
    63         69
    64         25
    65         73
    66         24
    67         18
    68        107
    69         22
    70          6
    71          8
    73          6
    74         11
    75         11
    76         11
    77        470
    78        182
    79         97
    80          6
    81         21
    82          2
    83          5
    84          3
    85          2
    86          2
    87          4
    89         18
    90          9
    91         25
    92          5
    93          3
    94          5
    95         19
    96          1
    97          2
    98          1
   101          2
   102          1
   104          2
   105         14
   106         16
   107        999
   108        124
   109          8
   111          0
   112          2
   113          1
   116          1
   117          5
   118          6
   119          9
   120          4
   122          2
   123          2
   124          4
   144          0
   145          3
   146          2
   172          2
   174        174
   175         22