##TITLE=Library Entry 42328
##JCAMP-DX=Revision 4.10 
##DATA TYPE=MASS SPECTRUM
##SAMPLE DESCRIPTION=ASES Database, Dalian Institute, P.R. China
##NAMES=HP
##CAS NAME=Allyl dithiopropanoate
##MOLFORM=C6H10S2
##CAS REGISTRY NO=41830-43-7
##MP= -300
##BP= -300
##MW= 146
##$RETENTION INDEX=0
##$CONDENSED SPECTRUM=NO
##NPOINTS= 18
##XYDATA=(XY..XY) 1 
    39        179
    41        268
    43        131
    45        269
    58         79
    59         40
    69         40
    71        139
    72        128
    73        999
    74         39
    76         80
    77         50
    85         39
   105         49
   113         30
   131        328
   146        179