##TITLE=Library Entry 31945
##JCAMP-DX=Revision 4.10 
##DATA TYPE=MASS SPECTRUM
##SAMPLE DESCRIPTION=NIST Mass Spectrometry Data Center, 1994
##NAMES=HP
##CAS NAME=4-Hydroxy-3-nitrobenzyl alcohol
##MOLFORM=C7H7NO4
##CAS REGISTRY NO=41833-13-0
##MP= -300
##BP= -300
##MW= 169
##$RETENTION INDEX=0
##$CONDENSED SPECTRUM=NO
##NPOINTS= 89
##XYDATA=(XY..XY) 1 
    15         16
    16         10
    17         12
    18         17
    25          9
    26         57
    27        187
    28         85
    29        246
    30        235
    31        204
    32          2
    37         79
    38        191
    39        802
    40        189
    41        194
    42         50
    43         55
    44         23
    45         18
    46         43
    47         22
    48          2
    49         33
    50        256
    51        627
    52        204
    53        581
    54         68
    55        238
    56         15
    57          8
    61         76
    62        178
    63        364
    64        150
    65        999
    66        502
    67        124
    68         79
    69         37
    70         13
    71         11
    73         15
    74         71
    75         77
    76         81
    77        542
    78        246
    79        161
    80         62
    81         82
    82         42
    83         14
    90          9
    91         63
    92         99
    93        214
    94        424
    95        437
    96         57
    97         12
   105        289
   106        523
   107         57
   108         23
   109         44
   110         18
   119         15
   120         57
   121        177
   122        432
   123        632
   124         81
   134         71
   135         30
   136         12
   138         11
   140         51
   150         12
   151         50
   152        163
   153         18
   166         35
   168        355
   169        983
   170         79
   171          2