##TITLE=Library Entry 80032
##JCAMP-DX=Revision 4.10 
##DATA TYPE=MASS SPECTRUM
##SAMPLE DESCRIPTION=Chemical Concepts
##NAMES=HP
##CAS NAME=1,2,4,5-Tetraphenyl-1,5-pentanedione
##MOLFORM=C29H24O2
##CAS REGISTRY NO=41848-69-5
##MP= -300
##BP= -300
##MW= 404
##$RETENTION INDEX=0
##$CONDENSED SPECTRUM=NO
##NPOINTS= 94
##XYDATA=(XY..XY) 1 
    29          2
    39          9
    41          3
    45          2
    50         10
    51         56
    52          5
    53          2
    63          8
    64          3
    65         10
    74          3
    75          5
    76         12
    77        266
    78         29
    79          5
    87          2
    89          9
    90         10
    91         47
    92          5
   102          5
   103         19
   104         15
   105        999
   106         80
   107         10
   108          1
   114          1
   115         41
   116         11
   117          6
   118          4
   119          1
   120          0
   126          1
   127          2
   128          5
   131          7
   132          1
   139          3
   141          3
   143          2
   149          2
   151          3
   152         26
   153          5
   163          4
   164          5
   165         47
   166         17
   167         86
   168         12
   175          1
   176          1
   177          2
   178         16
   179         14
   180          2
   181          1
   182          1
   189          4
   190          1
   191          5
   192          3
   193         27
   194         17
   195         22
   196         68
   197         10
   198          1
   202          2
   203          4
   204          1
   205          0
   207          2
   208          1
   209          2
   220          1
   221         18
   222          4
   223          1
   280          0
   281          9
   282          3
   299         55
   300        214
   301         58
   302          7
   303         11
   304          3
   404          1
   405          0