##TITLE=Library Entry 14071
##JCAMP-DX=Revision 4.10 
##DATA TYPE=MASS SPECTRUM
##SAMPLE DESCRIPTION=Exported from NIST MS Search
##NAMES=HP
##CAS NAME=1(2H)-Phenanthrenone, 7-(acetyloxy)dodecahydro-8a-hydroxy-2,4b-di
methyl-, [2S-(2.alpha.,4a.alpha.,4b.beta.,7.beta.,8a.alpha.,10a.beta.)]-
##MOLFORM=C18H28O4
##CAS REGISTRY NO=41853-21-8
##MP= -300
##BP= -300
##MW= 308
##$RETENTION INDEX=0
##$CONDENSED SPECTRUM=NO
##NPOINTS= 108
##XYDATA=(XY..XY) 1 
    41        396
    42         45
    43        999
    45         39
    51         60
    52         33
    53        114
    54         57
    55        534
    56         42
    57        111
    65         33
    66         18
    67        282
    68         87
    69        210
    70         30
    71         54
    77         84
    78         63
    79        219
    80         60
    81        369
    82         69
    83        111
    84         66
    85         57
    91        150
    92         36
    93        261
    94        132
    95        234
    96        108
    97        138
    98         90
    99         51
   100         39
   105        120
   106        267
   107        270
   108        111
   109        225
   110        144
   111        147
   112         45
   113         24
   117         27
   119         87
   120        129
   121        129
   122        147
   123         69
   124        408
   125        138
   126         27
   127        150
   131         45
   132         21
   133         54
   134         51
   135         57
   136         33
   137        144
   138         93
   139        471
   140         33
   142         39
   143         24
   145         72
   146         21
   147         72
   148         21
   149         84
   150         30
   151         45
   152         60
   159         33
   161         90
   162         21
   163         39
   164         27
   165        111
   166         48
   167         24
   175         42
   176         21
   177         39
   191         48
   192         42
   194        237
   195         27
   205         21
   206         36
   207         60
   208          6
   215         42
   216          3
   219         18
   220         15
   230        339
   231         54
   233         24
   248        804
   249        138
   290         96
   291         21
   308        327
   309         54