##TITLE=Library Entry 51191
##JCAMP-DX=Revision 4.10 
##DATA TYPE=MASS SPECTRUM
##SAMPLE DESCRIPTION=Exported from NIST MS Search
##NAMES=HP
##CAS NAME=Cyclohexane, 1,1'-(1-methyl-1,2-ethanediyl)bis-
##MOLFORM=C15H28
##CAS REGISTRY NO=41851-34-7
##MP= -300
##BP= -300
##MW= 208
##$RETENTION INDEX=0
##$CONDENSED SPECTRUM=NO
##NPOINTS= 120
##XYDATA=(XY..XY) 1 
    36          1
    37          2
    38          4
    39        212
    40         40
    41        892
    42        131
    43        121
    44          5
    45          1
    46          1
    47          1
    48          1
    49          1
    50          4
    51         13
    52         11
    53        111
    54        153
    55        982
    56         76
    57         92
    58          5
    59          1
    60          1
    61          1
    62          1
    63          2
    64          1
    65         19
    66         20
    67        348
    68         79
    69        740
    70         49
    71         10
    72          1
    73          1
    74          1
    75          1
    76          1
    77         21
    78          6
    79         35
    80         21
    81        161
    82        999
    83        957
    84         66
    85          4
    86          1
    87          1
    88          1
    89          1
    90          1
    91          9
    92          2
    93          5
    94          3
    95         50
    96         53
    97         52
    98          5
    99          1
   100          1
   101          1
   102          1
   103          1
   104          1
   105          1
   106          1
   107          2
   108          1
   109         27
   110         85
   111        249
   112         23
   113          1
   114          1
   115          1
   116          1
   117          1
   118          1
   119          1
   120          1
   121          1
   122          1
   123          9
   124        297
   125        306
   126         32
   127          4
   128          1
   129          1
   135          1
   136          1
   137          2
   138          1
   139          1
   151          1
   152          1
   153          1
   164          1
   165          1
   166          1
   178          1
   179          4
   180          1
   192          1
   193          8
   194          2
   195          1
   196          1
   197          1
   205          1
   206          1
   207          1
   208         63
   209         11
   210          1