##TITLE=Library Entry 52337
##JCAMP-DX=Revision 4.10 
##DATA TYPE=MASS SPECTRUM
##SAMPLE DESCRIPTION=Exported from NIST MS Search
##NAMES=HP
##CAS NAME=Cyclohexane, 1,1'-(1-methyl-1,3-propanediyl)bis-
##MOLFORM=C16H30
##CAS REGISTRY NO=41851-35-8
##MP= -300
##BP= -300
##MW= 222
##$RETENTION INDEX=0
##$CONDENSED SPECTRUM=NO
##NPOINTS= 96
##XYDATA=(XY..XY) 1 
    37          2
    38          4
    39        178
    40         36
    41        834
    42         85
    43        129
    44          5
    45          1
    46          1
    47          1
    48          1
    49          1
    50          3
    51         10
    52          9
    53         91
    54        142
    55        952
    56        103
    57         94
    58          4
    59          1
    60          1
    61          1
    62          1
    63          1
    64          1
    65         16
    66         15
    67        303
    68         65
    69        441
    70         32
    71         31
    72          2
    73          1
    74          1
    75          1
    76          1
    77         17
    78          4
    79         30
    80         13
    81        140
    82        865
    83        999
    84         70
    85          5
    86          1
    87          1
    88          1
    89          1
    90          1
    91          7
    92          2
    93          5
    94          3
    95         36
    96        204
    97        195
    98         15
    99          1
   100          1
   101          1
   102          1
   103          1
   104          1
   105          1
   106          1
   107          1
   108          2
   109         39
   110        106
   111        278
   112         26
   113          1
   123          5
   124          3
   125          8
   126          3
   136          1
   137          3
   138        182
   139        135
   140         14
   141          1
   193          6
   194          1
   207          6
   208          1
   220          1
   221          1
   222         41
   223          7
   224          1