##TITLE=Library Entry 14419
##JCAMP-DX=Revision 4.10 
##DATA TYPE=MASS SPECTRUM
##SAMPLE DESCRIPTION=Exported from NIST MS Search
##NAMES=HP
##CAS NAME=Androstan-17-one, 3-(acetyloxy)-5,14-dihydroxy-, (3.beta.,5.alpha
.,14.beta.)-
##MOLFORM=C21H32O5
##CAS REGISTRY NO=41853-32-1
##MP= -300
##BP= -300
##MW= 364
##$RETENTION INDEX=0
##$CONDENSED SPECTRUM=NO
##NPOINTS= 50
##XYDATA=(XY..XY) 1 
    43        999
    44         90
    53         90
    55        509
    57        110
    67        250
    69        230
    77         90
    79        230
    81        350
    83        110
    91        200
    93        270
    94         90
    95        220
    97        150
   105        200
   106        120
   107        280
   108        110
   109        150
   110        120
   111        100
   112         90
   113        180
   119        140
   120         80
   121        160
   122        130
   123        130
   125        180
   131        100
   133        140
   135         80
   145        180
   147        150
   159        140
   161        170
   173        140
   174        220
   175         70
   213        120
   253         70
   264        150
   268        499
   269        120
   271        160
   286        629
   287        130
   346        170