##TITLE=Library Entry 1176
##JCAMP-DX=Revision 4.10 
##DATA TYPE=MASS SPECTRUM
##SAMPLE DESCRIPTION=V.G.Zaikin, TIPS, Russian Acad. Sci.
##NAMES=HP
##CAS NAME=Benzene, 2-bromo-1,3,5-trinitro-
##MOLFORM=C6H2BrN3O6
##CAS REGISTRY NO=4185-53-9
##MP= -300
##BP= -300
##MW= 291
##$RETENTION INDEX=0
##$CONDENSED SPECTRUM=NO
##NPOINTS= 22
##XYDATA=(XY..XY) 1 
    30        999
    46         88
    61         23
    62         51
    63         20
    73         53
    74        450
    75         30
   141         32
   143         30
   153         95
   154         12
   155         93
   156         10
   198         10
   200         10
   275         13
   277         13
   291        100
   292          8
   293         98
   294          8