##TITLE=Library Entry 17880
##JCAMP-DX=Revision 4.10 
##DATA TYPE=MASS SPECTRUM
##SAMPLE DESCRIPTION=J. A. ROWLEY, MINISTRY DEF., WALTHAM ABBEY, ESSEX, UK
##NAMES=HP
##CAS NAME=N-Nitrobis(2-hydroxyethyl)-amine dinitrate
##MOLFORM=C4H8N4O8
##CAS REGISTRY NO=4185-47-1
##MP= -300
##BP= -300
##MW= 240
##$RETENTION INDEX=0
##$CONDENSED SPECTRUM=NO
##NPOINTS= 33
##XYDATA=(XY..XY) 1 
    27         20
    29         40
    30        160
    31         10
    41        130
    42        990
    43         60
    44         20
    45        120
    46        999
    47         10
    48         10
    54         10
    55         10
    56         60
    58         40
    60        110
    71        110
    72         30
    76         10
    87         70
    88        180
    89         10
    90         10
   101         10
   102         10
   117         50
   118         50
   119         20
   132         10
   164        410
   165         20
   178         10