##TITLE=Library Entry 10412
##JCAMP-DX=Revision 4.10 
##DATA TYPE=MASS SPECTRUM
##SAMPLE DESCRIPTION=Exported from NIST MS Search
##NAMES=HP
##CAS NAME=Androstan-17-one, 3,14-bis(acetyloxy)-5-hydroxy-, (3.beta.,5.alph
a.,14.beta.)-
##MOLFORM=C23H34O6
##CAS REGISTRY NO=41853-31-0
##MP= -300
##BP= -300
##MW= 406
##$RETENTION INDEX=0
##$CONDENSED SPECTRUM=NO
##NPOINTS= 28
##XYDATA=(XY..XY) 1 
    43        999
    44          0
    67        100
    69         90
    79        110
    81        170
    91         90
    93        100
    95        930
   105        100
   107        110
   119         70
   121         60
   125         60
   213        100
   225        100
   235          0
   240        250
   268        340
   269        120
   285        110
   286        100
   300        130
   328        690
   329        160
   346         80
   388        150
   406         30