##TITLE=Library Entry 15498
##JCAMP-DX=Revision 4.10 
##DATA TYPE=MASS SPECTRUM
##SAMPLE DESCRIPTION=F.A. HOHORST, ALLIED CHEMICAL, IDAHO FALLS, IDAHO, USA
##NAMES=HP
##CAS NAME=Bis(trifluoromethyl) peroxycarbonate
##MOLFORM=C3F6O4
##CAS REGISTRY NO=41864-59-9
##MP= -300
##BP= -300
##MW= 214
##$RETENTION INDEX=0
##$CONDENSED SPECTRUM=NO
##NPOINTS= 11
##XYDATA=(XY..XY) 1 
    19         32
    28        125
    31         27
    44        999
    47        725
    50         22
    66        475
    69        190
    85          7
   113         10
   129         12