##TITLE=Library Entry 71611
##JCAMP-DX=Revision 4.10 
##DATA TYPE=MASS SPECTRUM
##SAMPLE DESCRIPTION=CARL DJERASSI DEPT OF CHEM STANFORD UNIV STANFORD CALIF
 94305
##NAMES=HP
##CAS NAME=Piperidinium, 1-ethyl-1-methyl-, iodide
##MOLFORM=C8H18IN
##CAS REGISTRY NO=4186-71-4
##MP= -300
##BP= -300
##MW= 255
##$RETENTION INDEX=0
##$CONDENSED SPECTRUM=NO
##NPOINTS= 28
##XYDATA=(XY..XY) 1 
    41        100
    42        230
    43        130
    44         50
    53         10
    54         20
    55         60
    56         50
    57         80
    58         40
    68         10
    69         20
    70         70
    71         30
    72         10
    82         10
    83         10
    84         50
    98        999
    99        130
   112        100
   113        120
   127        220
   128         30
   139         10
   141         50
   142        420
   156        270