##TITLE=Library Entry 20610
##JCAMP-DX=Revision 4.10 
##DATA TYPE=MASS SPECTRUM
##SAMPLE DESCRIPTION=Japan AIST/NIMC Database- Spectrum MS-IW- 408
##NAMES=HP
##CAS NAME=1-Pentyn-3-ol
##MOLFORM=C5H8O
##CAS REGISTRY NO=4187-86-4
##MP= -300
##BP= -300
##MW= 84
##$RETENTION INDEX=0
##$CONDENSED SPECTRUM=NO
##NPOINTS= 48
##XYDATA=(XY..XY) 1 
    14          1
    15          5
    17          3
    18         11
    25          5
    26         27
    27        119
    28         34
    29         95
    30          4
    31         13
    37          7
    38         20
    39         87
    40         22
    41         89
    42         29
    43         50
    44          8
    45          5
    49          2
    50          9
    51         10
    52          4
    53        110
    54         21
    55        999
    56         80
    57         42
    58          9
    59          3
    60          3
    61          4
    62          5
    63          7
    64          1
    65         30
    66         35
    67         35
    68          3
    69         29
    70          2
    81          5
    82         18
    83        263
    84         15
    85          2
    86          1