##TITLE=Library Entry 28198
##JCAMP-DX=Revision 4.10 
##DATA TYPE=MASS SPECTRUM
##SAMPLE DESCRIPTION=Chemical Concepts
##NAMES=HP
##CAS NAME=1-Propene, 1-(1-methylethoxy)-, (Z)-
##MOLFORM=C6H12O
##CAS REGISTRY NO=4188-64-1
##MP= -300
##BP= -300
##MW= 100
##$RETENTION INDEX=0
##$CONDENSED SPECTRUM=NO
##NPOINTS= 37
##XYDATA=(XY..XY) 1 
    27        254
    28         73
    29         95
    30        145
    31         45
    34          0
    36          0
    37          8
    38         19
    39        179
    40         56
    41        308
    42         37
    43        375
    44         13
    45         90
    46          1
    51          0
    53          2
    54          1
    55         16
    56         22
    57        773
    58        999
    59         77
    60          3
    67          0
    69          2
    70          0
    83          2
    84          0
    85          9
    86          0
    99          4
   100        222
   101         14
   102          0