##TITLE=Library Entry 27964
##JCAMP-DX=Revision 4.10 
##DATA TYPE=MASS SPECTRUM
##SAMPLE DESCRIPTION=Chemical Concepts
##NAMES=HP
##CAS NAME=1-Propene, 2-(1-methylethoxy)
##MOLFORM=C6H12O
##CAS REGISTRY NO=4188-63-0
##MP= -300
##BP= -300
##MW= 100
##$RETENTION INDEX=0
##$CONDENSED SPECTRUM=NO
##NPOINTS= 22
##XYDATA=(XY..XY) 1 
    26         13
    27         96
    29         18
    30          8
    31         26
    37          5
    38         16
    39        140
    40         16
    41        218
    42         52
    43        643
    44         20
    45         87
    57         71
    58        999
    59        237
    60         11
    85         10
    99          6
   100        199
   101         15