##TITLE=Library Entry 60722
##JCAMP-DX=Revision 4.10 
##DATA TYPE=MASS SPECTRUM
##SAMPLE DESCRIPTION=NIST Mass Spectrometry Data Center, 1990.
##NAMES=HP
##CAS NAME=1,5-Dimethyl-1,4-cyclohexadiene
##MOLFORM=C8H12
##CAS REGISTRY NO=4190-06-1
##MP= -300
##BP= -300
##MW= 108
##$RETENTION INDEX=0
##$CONDENSED SPECTRUM=NO
##NPOINTS= 47
##XYDATA=(XY..XY) 1 
    14          3
    15         24
    16          5
    18         10
    26         21
    27        133
    28         20
    29         24
    32          5
    37         13
    38         48
    39        299
    40         45
    41         95
    42          8
    44          6
    45          7
    50         70
    51        149
    52         62
    53         78
    54         10
    55         11
    61         11
    62         28
    63         76
    64         21
    65        163
    66         27
    67         26
    74         14
    75         10
    77        607
    78        106
    79        127
    80         24
    89         20
    91        999
    92        142
    93        960
    94         82
   103         22
   105         99
   106         72
   107         78
   108        487
   109         41