##TITLE=Library Entry 26006
##JCAMP-DX=Revision 4.10 
##DATA TYPE=MASS SPECTRUM
##SAMPLE DESCRIPTION=D.HENNEBERG, MAX-PLANCK INSTITUTE, MULHEIM, WEST GERMAN
Y
##NAMES=HP
##CAS NAME=3-Pentanol, 3-(1,1-dimethylethyl)-2,2,4,4-tetramethyl-
##MOLFORM=C13H28O
##CAS REGISTRY NO=41902-42-5
##MP= -300
##BP= -300
##MW= 200
##$RETENTION INDEX=0
##$CONDENSED SPECTRUM=NO
##NPOINTS= 77
##XYDATA=(XY..XY) 1 
    26          5
    27         32
    28         11
    29        142
    30          3
    31          5
    32          0
    37          1
    38          3
    39         43
    40          8
    41        217
    42         22
    43         83
    44          2
    45          9
    49          0
    50          2
    51          3
    52          1
    53         11
    54          1
    55         26
    56         22
    57        999
    58         45
    59         61
    60          2
    61          0
    65          1
    66          0
    67          9
    68          0
    69         39
    70          4
    71         16
    72          1
    73          1
    77          2
    78          0
    79          2
    80          0
    81          2
    82          0
    83          4
    84          0
    85         39
    86          3
    87        372
    88         22
    89          1
    91          1
    93          0
    94          0
    95          4
    96          0
    97          1
    99          2
   100          0
   101          0
   109          0
   110          0
   111         15
   112          1
   113          4
   114          0
   117          1
   125          0
   126          0
   127          1
   128          1
   129          6
   130          0
   142          3
   143         41
   144          4
   172          0