##TITLE=Library Entry 15486
##JCAMP-DX=Revision 4.10 
##DATA TYPE=MASS SPECTRUM
##SAMPLE DESCRIPTION=L. Cohen, LBC, NIDDK, NIH, Bethesda, MD 20892
##NAMES=HP
##CAS NAME=Histidine, 4-nitro-
##MOLFORM=C6H8N4O4
##CAS REGISTRY NO=41934-74-1
##MP= -300
##BP= -300
##MW= 200
##$RETENTION INDEX=0
##$CONDENSED SPECTRUM=NO
##NPOINTS= 110
##XYDATA=(XY..XY) 1 
    41         63
    42         99
    43        128
    44        999
    45        396
    46        150
    47          6
    48         18
    49          2
    50         12
    51         31
    52        151
    53        119
    54        224
    55        122
    56         34
    57         33
    58         18
    59          8
    60         27
    61         13
    62          7
    63         25
    64        102
    65         58
    66         32
    67         40
    68         62
    69         63
    70         33
    71         16
    72          2
    73         14
    74         33
    75          6
    76          5
    77         25
    78         58
    79         27
    80        108
    81         72
    82         46
    83         46
    84         10
    85         10
    86          4
    87          6
    88          3
    89          3
    90          5
    91         18
    92         18
    93         23
    94         19
    95         18
    96         11
    97         20
    98         28
    99          5
   100          2
   101          1
   104          1
   105         18
   106         34
   107         25
   108         53
   109         25
   110         27
   111         15
   112          3
   115          3
   117         10
   118          3
   119         12
   120         30
   121         21
   122         54
   123         12
   124         25
   125          6
   126          4
   127        147
   128          8
   129          6
   133          2
   134          5
   135          6
   136          6
   137        381
   138        204
   139         26
   140          3
   143          3
   148          2
   149          8
   150          1
   151          2
   154          6
   155         16
   156          2
   157          1
   163          1
   164          6
   165          1
   166          9
   167          3
   183        136
   184         15
   185          3
   200          3