##TITLE=Library Entry 23457
##JCAMP-DX=Revision 4.10 
##DATA TYPE=MASS SPECTRUM
##SAMPLE DESCRIPTION=FOOD RESEARCH REPORT 118, K.E. MURRAY & COLLEAGUES, DIV
. OF FOOD RESEARCH, CSIRO, AUSTRALIA
##NAMES=HP
##CAS NAME=2-Decen-1-ol, (Z)-
##MOLFORM=C10H20O
##CAS REGISTRY NO=4194-71-2
##MP= -300
##BP= -300
##MW= 156
##$RETENTION INDEX=1221
##$CONDENSED SPECTRUM=NO
##NPOINTS= 75
##XYDATA=(XY..XY) 1 
    26         15
    27        330
    28         96
    29        394
    30         11
    31         72
    37          2
    38          9
    39        287
    40         50
    41        819
    42        213
    43        745
    44        277
    45         84
    50         10
    51         29
    52         19
    53        117
    54        713
    55        681
    56        277
    57        999
    58         63
    59          7
    63          7
    64          3
    65         37
    66         54
    67        521
    68        447
    69        255
    70        191
    71        138
    72         41
    73          9
    77         33
    78         14
    79         60
    80         27
    81        372
    82        309
    83        170
    84         59
    85         26
    86         10
    91         16
    92          2
    93         11
    94         10
    95        213
    96        181
    97         57
    98         17
    99         15
   105          2
   107          6
   108          3
   109         96
   110        133
   111         11
   112         10
   113          5
   115          3
   121          2
   123          6
   124          2
   125          2
   127          3
   128          3
   136          3
   138        191
   139         15
   152          2
   156          2