##TITLE=Library Entry 52025
##JCAMP-DX=Revision 4.10 
##DATA TYPE=MASS SPECTRUM
##SAMPLE DESCRIPTION=NIST Mass Spectrometry Data Center
##NAMES=HP
##CAS NAME=2,2,6-Trimethyl-6-(4-methylcyclohex-3-en-1-yl)dihydro-2H-pyran-4(
3H)-one
##MOLFORM=C15H24O2
##CAS REGISTRY NO=41943-81-1
##MP= -300
##BP= -300
##MW= 236
##$RETENTION INDEX=1708
##$CONDENSED SPECTRUM=NO
##NPOINTS= 101
##XYDATA=(XY..XY) 1 
    26          1
    27         11
    28          5
    29         17
    31          3
    39         39
    40          6
    41         82
    42         21
    43        422
    44         10
    50          2
    51         12
    52          4
    53         52
    54          6
    55         93
    56         34
    57         14
    58          9
    59         83
    60          2
    61          1
    64          2
    65         12
    66          8
    67         89
    68         46
    69         14
    70          5
    71          9
    72          1
    74          1
    76          1
    77         62
    79         93
    80         23
    81         25
    82          7
    83        999
    85        203
    86          6
    87          3
    89          1
    90          1
    91         49
    92         34
    93         93
    94         39
    95        135
    96          9
    99         21
   100          2
   101          3
   102          1
   103          3
   104          2
   105         96
   106         13
   107         28
   108          5
   109         12
   110          3
   111          4
   112          1
   115          1
   116          6
   117          7
   118          6
   119        141
   120        146
   121        100
   122          7
   123         35
   127          2
   134        117
   135         25
   137          4
   138         26
   139          6
   141        200
   143          6
   144         27
   145         27
   147         28
   157         10
   158          2
   159          1
   160          9
   161         20
   162         59
   163         14
   175          1
   185          8
   200         25
   201          4
   203         10
   218          9
   219          2
   221          4
   236          3