##TITLE=Library Entry 62711
##JCAMP-DX=Revision 4.10 
##DATA TYPE=MASS SPECTRUM
##SAMPLE DESCRIPTION=Div. of Experiment Therapeutics WRAIR, WRAMC, Washingto
n DC 20307
##NAMES=HP
##CAS NAME=3,4-Dihydro-3-benzyl-2H-[1,3]oxazino[5,6-H]quinoline
##MOLFORM=C18H16N2O
##CAS REGISTRY NO=41958-16-1
##MP= -300
##BP= -300
##MW= 276
##$RETENTION INDEX=0
##$CONDENSED SPECTRUM=NO
##NPOINTS= 102
##XYDATA=(XY..XY) 1 
    41         75
    42         75
    43          5
    44          1
    45          2
    47          9
    49         41
    51        189
    52         35
    53         10
    54          3
    55          2
    56          0
    57          1
    59          4
    63        114
    65        288
    66         11
    69          0
    71          1
    74          7
    75         63
    76         71
    77         96
    78         26
    79          9
    84         17
    86         16
    87          4
    89         51
    91        999
    92         61
    93          3
    97          0
    98          1
    99          1
   102        164
   103         69
   104         10
   106         21
   107          1
   113          3
   114          6
   115          2
   116         11
   117         21
   118         74
   119          8
   120         14
   126          0
   127          5
   128         49
   129        184
   130         59
   131          8
   132          0
   133          5
   137          1
   140          5
   141          1
   142          8
   143         10
   145          9
   146         12
   154          3
   155          5
   157         27
   158        592
   159        162
   160         12
   168          0
   170         21
   171          8
   173         38
   174          3
   183          3
   184          4
   185        224
   186         20
   187          2
   204          2
   216          1
   217          1
   218          6
   230          7
   231          0
   232          0
   234          5
   235          0
   238          2
   245          1
   246         24
   248         43
   249          8
   259          0
   261          1
   262          0
   264          0
   275          7
   276        289
   277         49
   278          5