##TITLE=Library Entry 109708
##JCAMP-DX=Revision 4.10 
##DATA TYPE=MASS SPECTRUM
##SAMPLE DESCRIPTION=Div. of Experiment Therapeutics WRAIR, WRAMC, Washingto
n DC 20307
##NAMES=HP
##CAS NAME=3,4-Dihydro-3-[p-chlorobenzyl]-8-[trifluoromethyl]-2H-1,3-oxazino
[6,5-f]quinoline
##MOLFORM=C19H14ClF3N2O
##CAS REGISTRY NO=41958-18-3
##MP= -300
##BP= -300
##MW= 378
##$RETENTION INDEX=0
##$CONDENSED SPECTRUM=NO
##NPOINTS= 159
##XYDATA=(XY..XY) 1 
    41         29
    42         42
    43          1
    44          5
    45          0
    47          3
    49         18
    50         12
    51         32
    52          6
    53          3
    54          0
    55          1
    57          4
    59          2
    61          0
    62          3
    63         48
    64          8
    65         11
    66          1
    67          0
    69          5
    71          0
    73          9
    75         31
    76          8
    77         15
    78          2
    79          0
    81          1
    82          0
    84         11
    86         10
    87          3
    88          4
    89         79
    90         36
    91          8
    92          0
    94          1
    95          1
    96          0
    97          1
    99         25
   101         30
   102          8
   103          2
   104          0
   106          2
   107          1
   108          0
   111          1
   112          1
   113          2
   114          2
   115          1
   116          1
   117          5
   118          2
   119          0
   120          1
   121          0
   125        999
   127        399
   128         47
   129          2
   131          0
   132          1
   134          2
   137          1
   138          1
   139          0
   140          3
   141          1
   142          0
   143          1
   144          0
   145          1
   146          1
   147          2
   149          1
   150          3
   152         59
   153         23
   154         23
   155          9
   156          3
   158          5
   159          1
   163          0
   164          1
   165          1
   166          0
   167          0
   168          0
   169          1
   170          0
   171          0
   172          0
   174          1
   176         21
   177          8
   178          9
   179          1
   183          1
   184          5
   185          0
   189          3
   190          2
   195          0
   196          8
   197         33
   198          5
   204          1
   205          1
   206         13
   207          2
   212          1
   213          1
   223          1
   224          1
   225         13
   226         30
   227          9
   228          1
   233          3
   234          0
   236          0
   238          2
   239          4
   240          0
   251          1
   252          2
   253         75
   254         19
   255          1
   267          0
   283          1
   306          0
   311          0
   313          1
   314          1
   315          1
   348          0
   350          1
   359          4
   360          0
   361         10
   362          1
   363          4
   366          0
   375          0
   377          5
   378        139
   379         29
   380         47
   381          8
   382          0