##TITLE=Library Entry 61538
##JCAMP-DX=Revision 4.10 
##DATA TYPE=MASS SPECTRUM
##SAMPLE DESCRIPTION=Div. of Experiment Therapeutics WRAIR, WRAMC, Washingto
n DC 20307
##NAMES=HP
##CAS NAME=3,4(2H)-Dihydro-3-benzyl-9-trifluoromethyl[1,3]oxazino[5,6-H]quin
oline
##MOLFORM=C19H15F3N2O
##CAS REGISTRY NO=41958-10-5
##MP= -300
##BP= -300
##MW= 344
##$RETENTION INDEX=0
##$CONDENSED SPECTRUM=NO
##NPOINTS= 68
##XYDATA=(XY..XY) 1 
    41         52
    42         58
    43         10
    49         13
    50         17
    51         55
    52         14
    53          4
    55          2
    57          4
    62          9
    63         35
    64         11
    65         97
    66          5
    69         12
    71          4
    73          2
    75         15
    76         10
    77         28
    78          9
    84          2
    86          9
    88          7
    89         31
    90         17
    91        999
    92         53
    99          5
   100          2
   101         20
   102         10
   106         17
   115          2
   117         11
   118        193
   119         18
   126          8
   127         10
   128         46
   129          7
   145          2
   150          6
   151          9
   158         10
   176         22
   177         10
   178         15
   196          9
   197         23
   198          2
   206         37
   207          9
   225         11
   226         81
   227         28
   233          7
   238          2
   241          2
   253        107
   254         12
   302          2
   314          7
   325          6
   344        121
   345         24
   346          2