##TITLE=Library Entry 59808
##JCAMP-DX=Revision 4.10 
##DATA TYPE=MASS SPECTRUM
##SAMPLE DESCRIPTION=Div. of Experiment Therapeutics WRAIR, WRAMC, Washingto
n DC 20307
##NAMES=HP
##CAS NAME=[1,3]-Oxazino[6,5-c]quinoline,3-benzyl-5-trifluoromethyl-3,4(2H)-
dihydro-7-methoxy-
##MOLFORM=C20H17F3N2O2
##CAS REGISTRY NO=41958-07-0
##MP= -300
##BP= -300
##MW= 374
##$RETENTION INDEX=0
##$CONDENSED SPECTRUM=NO
##NPOINTS= 133
##XYDATA=(XY..XY) 1 
    41         70
    42         83
    43          7
    44          1
    45          1
    47         13
    49         73
    51         94
    52         16
    53         12
    54          3
    55          9
    57         33
    59          1
    62          9
    63         60
    65        244
    66         11
    69          8
    74          2
    75         29
    76         26
    77         40
    78         10
    79          8
    82          2
    84         43
    86         27
    88         19
    89         34
    91        999
    92         77
    93          5
    95          1
   100          2
   101         15
   102         12
   103          9
   104          8
   106         25
   107         20
   114         12
   115          9
   118        133
   120        225
   121         18
   126          5
   128         32
   130         32
   131          6
   132          7
   133          7
   134          8
   135          2
   137          3
   140          6
   142          3
   143          5
   144          6
   145          3
   146          5
   147          1
   148         10
   150         11
   151          8
   152          4
   154          1
   156         20
   158         26
   159          5
   160          2
   162          1
   163          1
   164          4
   165          4
   169          2
   170          1
   172          7
   176         42
   177         19
   178         13
   179          5
   182          7
   184         16
   186         77
   187         10
   189          2
   195          1
   197         54
   198         19
   199          2
   202          4
   205          1
   206         28
   207         30
   208          5
   210          2
   211          1
   213          6
   215          1
   226        167
   227         17
   228          2
   234          1
   235         92
   236         15
   238         19
   239          7
   240          1
   241          1
   248          1
   252          5
   254         78
   255        178
   256         34
   257          5
   263          4
   265          2
   267          1
   268          3
   283         78
   284         10
   305         23
   306          4
   344          5
   345         11
   346          1
   355          7
   357          8
   373         24
   374        171
   375         48
   376          6