##TITLE=Library Entry 109655
##JCAMP-DX=Revision 4.10 
##DATA TYPE=MASS SPECTRUM
##SAMPLE DESCRIPTION=Div. of Experiment Therapeutics WRAIR, WRAMC, Washingto
n DC 20307
##NAMES=HP
##CAS NAME=[1,3]-Oxazino[5,6-H]quinoline,3-(4-chlorobenzyl)-9-trifluoromethy
l-3,4(2H)-dihyro-
##MOLFORM=C19H14ClF3N2O
##CAS REGISTRY NO=41958-12-7
##MP= -300
##BP= -300
##MW= 378
##$RETENTION INDEX=0
##$CONDENSED SPECTRUM=NO
##NPOINTS= 96
##XYDATA=(XY..XY) 1 
    41         29
    42         47
    43          6
    44          3
    47          6
    49         34
    50          7
    51         41
    52          6
    53          2
    55          5
    56          0
    57          5
    62          6
    63         50
    64          9
    65         12
    69          7
    73         10
    75         34
    76          9
    77         16
    78          2
    81          2
    82          0
    84         29
    86         19
    87          4
    89         82
    90         33
    91          9
    94          0
    95          0
    97          2
    99         27
   101         39
   102         10
   103          3
   111          3
   112          0
   113          2
   114          2
   116          2
   117          6
   118          3
   123          5
   125        999
   127        367
   128         61
   129          5
   132          1
   140          4
   144          1
   147          4
   150          2
   152        239
   154        103
   155          9
   156          3
   157          1
   158          5
   165          4
   169          1
   176         20
   177          5
   178         12
   179          0
   189          1
   196          1
   197         29
   198          3
   206         37
   207          6
   211          1
   226        194
   227         27
   228          2
   233          5
   238          3
   240          1
   252          1
   253        133
   254         10
   314          5
   336          0
   348          4
   349          5
   350          3
   351          0
   359          8
   361          4
   377          5
   378        212
   379         29
   380         83
   381         12