##TITLE=Library Entry 81728
##JCAMP-DX=Revision 4.10 
##DATA TYPE=MASS SPECTRUM
##SAMPLE DESCRIPTION=Div. of Experiment Therapeutics WRAIR, WRAMC, Washingto
n DC 20307
##NAMES=HP
##CAS NAME=1,2-Dihydro-2-[p-methylbenzyl]-5-phenyl-3H-[1,3]-oxazino[6,5-c]qu
inoline
##MOLFORM=C25H22N2O
##CAS REGISTRY NO=41957-71-5
##MP= -300
##BP= -300
##MW= 366
##$RETENTION INDEX=0
##$CONDENSED SPECTRUM=NO
##NPOINTS= 123
##XYDATA=(XY..XY) 1 
    42        137
    43          2
    50         31
    51         72
    52         37
    53         23
    54          0
    55          2
    56          0
    62          7
    63         46
    65         24
    66          2
    74         12
    75         43
    76         97
    77        199
    78         46
    79        151
    80          8
    86          2
    87          6
    88          7
    89         22
    90          7
    91         17
    92          0
    98          0
    99          2
   101         33
   102         82
   103         95
   105        999
   106         80
   107          1
   108          0
   113          2
   114          1
   115          6
   116          3
   117          6
   118          2
   125          1
   126          2
   128         16
   129          2
   130         15
   132         72
   133         10
   134         13
   135          0
   139          2
   140          2
   146          1
   150          3
   151         11
   152          6
   153          2
   154          0
   155          2
   158          1
   163          3
   164          1
   165          6
   166          1
   175          1
   176         24
   177         21
   178         15
   179          7
   180          1
   188          0
   189          2
   190          5
   191          2
   192          1
   201          1
   202          9
   203         43
   204        543
   205        435
   206         82
   207          7
   214          0
   216          3
   217          3
   218          2
   220         16
   221          3
   231          9
   233        321
   234        108
   235         15
   236          1
   247          0
   248          0
   259          3
   260          6
   261         50
   262          7
   275          3
   276          0
   284          0
   296          1
   308          1
   309          0
   310          3
   311          0
   322          1
   324          1
   334          0
   336          2
   337          2
   338         21
   339         23
   340          5
   341          0
   349          2
   365         41
   366        535
   367        134
   368         45
   369          3