##TITLE=Library Entry 20798
##JCAMP-DX=Revision 4.10 
##DATA TYPE=MASS SPECTRUM
##SAMPLE DESCRIPTION=Exported from NIST MS Search
##NAMES=HP
##CAS NAME=Cyclopropane, 1,1,2-trimethyl-3-(2-methylpropyl)-
##MOLFORM=C10H20
##CAS REGISTRY NO=41977-43-9
##MP= -300
##BP= -300
##MW= 140
##$RETENTION INDEX=0
##$CONDENSED SPECTRUM=NO
##NPOINTS= 30
##XYDATA=(XY..XY) 1 
    41        332
    42         54
    43        196
    50         11
    51         30
    52         37
    53         56
    54         26
    55        999
    56        117
    57         84
    65         15
    67         69
    68         22
    69        656
    70        249
    71         34
    77         17
    79         67
    81         47
    82         66
    83        867
    84        554
    85         66
    95         15
    96         28
    97        324
    98         52
   140        183
   141         24