##TITLE=Library Entry 32979
##JCAMP-DX=Revision 4.10 
##DATA TYPE=MASS SPECTRUM
##SAMPLE DESCRIPTION=CARL DJERASSI DEPT OF CHEM STANFORD UNIV STANFORD CALIF
 94305
##NAMES=HP
##CAS NAME=Bicyclo[4.1.0]heptane, 2-methyl-
##MOLFORM=C8H14
##CAS REGISTRY NO=41977-46-2
##MP= -300
##BP= -300
##MW= 110
##$RETENTION INDEX=0
##$CONDENSED SPECTRUM=NO
##NPOINTS= 34
##XYDATA=(XY..XY) 1 
    40         90
    41        830
    42         70
    43         50
    44         20
    50         20
    51         70
    52         30
    53        250
    54        840
    55        630
    56        410
    57         20
    63         20
    65         60
    66         60
    67        999
    68        870
    69        330
    70         20
    77         70
    78         20
    79        100
    80         40
    81        700
    82        920
    83         60
    91         30
    93         10
    95        890
    96         60
   109         10
   110        110
   111         10