##TITLE=Library Entry 21445
##JCAMP-DX=Revision 4.10 
##DATA TYPE=MASS SPECTRUM
##SAMPLE DESCRIPTION=J. Klune, Insect Chem. Ecol. Lab., USDA, Beltsville, MD
 20705
##NAMES=HP
##CAS NAME=3,7-Dimethyl-6-nonen-1-ol
##MOLFORM=C11H22O
##CAS REGISTRY NO=41972-59-2
##MP= -300
##BP= -300
##MW= 170
##$RETENTION INDEX=0
##$CONDENSED SPECTRUM=NO
##NPOINTS= 114
##XYDATA=(XY..XY) 1 
    41        618
    42        106
    43        344
    44         28
    45         44
    46          2
    47          3
    49          1
    50          5
    51         22
    52         14
    53        135
    55        999
    56        271
    57        223
    58         17
    59          8
    60          0
    61          1
    62          1
    63          4
    65         34
    67        444
    68        282
    69        510
    70        650
    71        595
    72         47
    73         79
    74          4
    75          3
    77         32
    78          6
    79         60
    80         60
    81        752
    82        446
    83        596
    84        231
    85        140
    86         64
    87         15
    88          1
    89          1
    91         18
    92          9
    93         35
    94         33
    95        418
    96        342
    97        256
    98         44
    99         70
   100         19
   101          8
   102          1
   103         14
   104          1
   105          5
   106          2
   107         11
   108          7
   109         77
   110         64
   111         38
   112         11
   113         13
   114          4
   115          7
   116          1
   117          0
   119          4
   120          4
   121         39
   122         26
   123        861
   124        171
   125        106
   126         50
   127         13
   128          2
   129          2
   130          0
   131          1
   133          9
   134          1
   135         10
   136          2
   137         78
   138         10
   139         15
   140          3
   141         13
   142          2
   143          2
   145          0
   147          1
   148          2
   149          1
   150          2
   151         20
   152         96
   153         18
   154          7
   155          6
   156          1
   166          0
   167          5
   168         15
   169          9
   170        626
   171        115
   172         10
   173          1