##TITLE=Library Entry 19850
##JCAMP-DX=Revision 4.10 
##DATA TYPE=MASS SPECTRUM
##SAMPLE DESCRIPTION=D.HENNEBERG, MAX-PLANCK INSTITUTE, MULHEIM, WEST GERMAN
Y
##NAMES=HP
##CAS NAME=Cyclopropane, 1-pentyl-2-propyl-
##MOLFORM=C11H22
##CAS REGISTRY NO=41977-33-7
##MP= -300
##BP= -300
##MW= 154
##$RETENTION INDEX=0
##$CONDENSED SPECTRUM=NO
##NPOINTS= 68
##XYDATA=(XY..XY) 1 
    24          2
    25          3
    26         19
    27        284
    28         52
    29        365
    30          9
    31          2
    35          1
    36          9
    37          3
    38          8
    39        170
    40         27
    41        701
    42        447
    43        504
    45          1
    47          1
    49          0
    51         10
    52          3
    53         67
    54        116
    55        999
    56        793
    57        230
    58          7
    60          2
    61          2
    63          2
    64          2
    65          8
    66          5
    67         93
    68         52
    69        552
    70        455
    71         78
    72          4
    75          2
    77         10
    78          1
    79         15
    80          2
    81         20
    82         31
    83        161
    84        162
    85         41
    86          1
    91          0
    95          3
    96         16
    97         85
    98         43
    99          2
   109          1
   110          5
   111         65
   112         23
   124          2
   125         19
   126         24
   127          1
   153          0
   154         52
   155          4