##TITLE=Library Entry 19879
##JCAMP-DX=Revision 4.10 
##DATA TYPE=MASS SPECTRUM
##SAMPLE DESCRIPTION=CARL DJERASSI DEPT OF CHEM STANFORD UNIV STANFORD CALIF
 94305
##NAMES=HP
##CAS NAME=Cyclopropane, 1,2-dibutyl-
##MOLFORM=C11H22
##CAS REGISTRY NO=41977-32-6
##MP= -300
##BP= -300
##MW= 154
##$RETENTION INDEX=0
##$CONDENSED SPECTRUM=NO
##NPOINTS= 37
##XYDATA=(XY..XY) 1 
    41        460
    42        360
    43        370
    44         10
    53         50
    54        100
    55        999
    56        810
    57        260
    58         10
    65         10
    66         10
    67         80
    68         60
    69        660
    70        590
    71        110
    77         10
    79         10
    81         30
    82         50
    83        230
    84        250
    85         60
    95         10
    96         30
    97        190
    98        110
    99         10
   110         10
   111         80
   112         50
   113         10
   125         30
   126         30
   154        240
   155         30