##TITLE=Library Entry 22296
##JCAMP-DX=Revision 4.10 
##DATA TYPE=MASS SPECTRUM
##SAMPLE DESCRIPTION=CARL DJERASSI DEPT OF CHEM STANFORD UNIV STANFORD CALIF
 94305
##NAMES=HP
##CAS NAME=Cyclopropane, 1-methyl-2-pentyl-
##MOLFORM=C9H18
##CAS REGISTRY NO=41977-37-1
##MP= -300
##BP= -300
##MW= 126
##$RETENTION INDEX=864
##$CONDENSED SPECTRUM=NO
##NPOINTS= 33
##XYDATA=(XY..XY) 1 
    41        660
    42        490
    43        510
    44         10
    51         10
    52         10
    53         60
    54         80
    55        920
    56        999
    57        160
    58         10
    65         10
    66         10
    67         60
    68         50
    69        510
    70        490
    71         90
    77         10
    79         10
    81         10
    82         60
    83        210
    84        260
    85         40
    96         20
    97        220
    98         90
    99         10
   111         10
   126        250
   127         20