##TITLE=Library Entry 90584
##JCAMP-DX=Revision 4.10 
##DATA TYPE=MASS SPECTRUM
##SAMPLE DESCRIPTION=TNO Volatile Compounds in Food - Chemical Concepts
##NAMES=HP
##CAS NAME=Thiazole, 2-methyl-4-propyl-
##MOLFORM=C7H11NS
##CAS REGISTRY NO=41981-63-9
##MP= -300
##BP= -300
##MW= 141
##$RETENTION INDEX=1068
##$CONDENSED SPECTRUM=NO
##NPOINTS= 37
##XYDATA=(XY..XY) 1 
    26          6
    27         42
    28         56
    29          3
    32         13
    38         17
    39         33
    41         47
    43          5
    45        239
    47         21
    55          9
    57         35
    58         55
    59         73
    65          2
    68          6
    69         21
    71        599
    72        255
    73        114
    85        168
    86        208
    87         25
    93          6
    99         25
   112        266
   113        999
   114         71
   115         39
   126        579
   127         37
   128         20
   140        482
   141        757
   142         68
   143         34