##TITLE=Library Entry 14097
##JCAMP-DX=Revision 4.10 
##DATA TYPE=MASS SPECTRUM
##SAMPLE DESCRIPTION=ORMSBG, 13(9)504(1978); H. DEMIAN ET AL
##NAMES=HP
##CAS NAME=Ethanone, 1-[4-(chloromethyl)-2-phenyl-5-thiazolyl]-
##MOLFORM=C12H10ClNOS
##CAS REGISTRY NO=41981-05-9
##MP= -300
##BP= -300
##MW= 251
##$RETENTION INDEX=0
##$CONDENSED SPECTRUM=NO
##NPOINTS= 23
##XYDATA=(XY..XY) 1 
    43        999
    44        150
    45         80
    51         60
    69        120
    70        230
    71         80
    76         50
    77         80
   103         70
   104        220
   105        160
   106         40
   107         50
   121         30
   148         20
   202        140
   208         60
   216        120
   236        220
   238         80
   251        290
   253        120