##TITLE=Library Entry 60432
##JCAMP-DX=Revision 4.10 
##DATA TYPE=MASS SPECTRUM
##SAMPLE DESCRIPTION=Chemical Concepts
##NAMES=HP
##CAS NAME=Acetic acid, isocyano-, phenylmethyl ester
##MOLFORM=C10H9NO2
##CAS REGISTRY NO=41995-26-0
##MP= -300
##BP= -300
##MW= 175
##$RETENTION INDEX=0
##$CONDENSED SPECTRUM=NO
##NPOINTS= 78
##XYDATA=(XY..XY) 1 
    26         14
    27         39
    28         30
    29         28
    30          3
    31          2
    37         13
    38         62
    39        223
    40        228
    41         68
    42         37
    43         10
    44          7
    45          2
    49          5
    50         88
    51        198
    52         55
    53         15
    54          1
    55          2
    56          2
    57          4
    58          1
    61         11
    62         39
    63        119
    64         39
    65        298
    66         16
    67          2
    68         39
    69          3
    72         19
    73          5
    74         24
    75         18
    76         22
    77        246
    78         57
    79        125
    80         10
    85          2
    86          6
    87          6
    88          4
    89        128
    90        336
    91        999
    92        180
    93          6
   102          3
   103         14
   104         14
   105        132
   106         66
   107         76
   108         73
   109          6
   116        153
   117         45
   118         46
   119         72
   120         17
   128          1
   129          2
   130         44
   131         22
   132          3
   133          3
   146        131
   147         58
   148          7
   149          5
   174        100
   175         18
   176          1