##TITLE=Library Entry 39623
##JCAMP-DX=Revision 4.10 
##DATA TYPE=MASS SPECTRUM
##SAMPLE DESCRIPTION=Frank Antolasic, RMIT Applied Chemistry Department, Vic
toria Australia 3001
##NAMES=HP
##CAS NAME=2-Propanol, 1-[(1-methylethyl)amino]-3-(1-naphthalenyloxy)-, (S)-
##MOLFORM=C16H21NO2
##CAS REGISTRY NO=4199-09-1
##MP= -300
##BP= -300
##MW= 259
##$RETENTION INDEX=0
##$CONDENSED SPECTRUM=NO
##NPOINTS= 124
##XYDATA=(XY..XY) 1 
    16          0
    18          3
    19          1
    20          1
    27         20
    28         27
    30        293
    31          9
    32          0
    37          0
    39         16
    41         48
    42         27
    43         60
    44         25
    45          3
    46          0
    50          4
    51          8
    52          1
    53          1
    54          3
    56         70
    57         43
    58         22
    59          3
    60         20
    61          2
    62          5
    63         16
    64          4
    65          9
    66          1
    67          1
    68          3
    69          2
    70         18
    72        999
    73         52
    74         15
    75          9
    76          4
    77         14
    78          2
    79          0
    80          1
    81          0
    82          4
    83          1
    84          5
    86          9
    87          5
    88          7
    89         17
    90          2
    91          1
    96          1
    97          1
    98          5
   100         28
   101         13
   102         25
   103          3
   104          0
   111          0
   113          7
   115        121
   116         63
   117          7
   118          1
   122         12
   126         13
   127         43
   128         22
   129         10
   130          1
   131          1
   133          0
   135          0
   139          1
   141          3
   143         16
   144         65
   145         11
   146          1
   147          0
   151          0
   152          1
   153          2
   154          1
   155          4
   156          2
   157         11
   158          2
   159          1
   165          1
   166          0
   168          1
   169          3
   170          2
   171          1
   172          0
   181          1
   183          8
   184          2
   185          1
   186          4
   187          1
   191          0
   193          1
   198          1
   199          0
   207          0
   208          0
   209          1
   215         23
   216          4
   217          0
   244         10
   245          2
   257          1
   259         21
   260          4
   261          0