##TITLE=Library Entry 50395
##JCAMP-DX=Revision 4.10 
##DATA TYPE=MASS SPECTRUM
##SAMPLE DESCRIPTION=Exported from NIST MS Search
##NAMES=HP
##CAS NAME=Propane, 1,2-dichloro-2-fluoro-
##MOLFORM=C3H5Cl2F
##CAS REGISTRY NO=420-97-3
##MP= -300
##BP= -300
##MW= 130
##$RETENTION INDEX=0
##$CONDENSED SPECTRUM=NO
##NPOINTS= 87
##XYDATA=(XY..XY) 1 
    12          2
    13          2
    14          4
    15          7
    24          1
    25          4
    26         15
    27         25
    28          7
    29          3
    30          1
    31         20
    32          3
    33         54
    34          1
    35         10
    36         15
    37         35
    38         41
    39        149
    40         15
    41         10
    42          1
    43          1
    44         13
    45         91
    46          7
    47         12
    48         10
    49        121
    50          6
    51         39
    52          1
    55          1
    56          5
    57         34
    58          5
    59        246
    60         26
    61        146
    62          7
    63         47
    64          2
    65          1
    66          1
    67         66
    68          1
    69         23
    70          1
    71          3
    72          3
    73         11
    74          4
    75        270
    76         11
    77         86
    78          4
    79         18
    80        209
    81        999
    82         89
    83        325
    84          7
    85          6
    87          1
    91          2
    93          7
    94          4
    95        289
    96         11
    97        100
    98          3
    99          3
   109          4
   110         70
   111          6
   112         45
   113          3
   114         10
   115         32
   116          3
   117         21
   118          1
   119          3
   129          1
   130          3
   132          2