##TITLE=Library Entry 4389
##JCAMP-DX=Revision 4.10 
##DATA TYPE=MASS SPECTRUM
##SAMPLE DESCRIPTION=Japan AIST/NIMC Database- Spectrum MS-IW-2370
##NAMES=HP
##CAS NAME=Cyanamide
##MOLFORM=CH2N2
##CAS REGISTRY NO=420-04-2
##MP= -300
##BP= -300
##MW= 42
##$RETENTION INDEX=0
##$CONDENSED SPECTRUM=NO
##NPOINTS= 17
##XYDATA=(XY..XY) 1 
    12         10
    13         49
    14         16
    15          7
    16         41
    17          3
    26         29
    27         46
    28        201
    29         25
    30          1
    40         18
    41        157
    42        999
    43        110
    44         41
    45          3