##TITLE=Library Entry 35186
##JCAMP-DX=Revision 4.10 
##DATA TYPE=MASS SPECTRUM
##SAMPLE DESCRIPTION=Exported from NIST MS Search
##NAMES=HP
##CAS NAME=Ethane, 1,1,1-trifluoro-
##MOLFORM=C2H3F3
##CAS REGISTRY NO=420-46-2
##MP= -300
##BP= -300
##MW= 84
##$RETENTION INDEX=232
##$CONDENSED SPECTRUM=NO
##NPOINTS= 35
##XYDATA=(XY..XY) 1 
     2          3
    12         16
    13         18
    14         29
    15         91
    16          1
    19          5
    20          2
    24          5
    25         13
    26         13
    27          2
    31         73
    32         12
    33         78
    34          1
    43          6
    44         28
    45         93
    46          3
    50         12
    51         16
    52          1
    62          2
    63         16
    64         66
    65        278
    66          6
    69        999
    70         11
    81          1
    82          3
    83         13
    84         12
    85          1