##TITLE=Library Entry 46431
##JCAMP-DX=Revision 4.10 
##DATA TYPE=MASS SPECTRUM
##SAMPLE DESCRIPTION=Exported from NIST MS Search
##NAMES=HP
##CAS NAME=1-Propene, 3-bromo-3,3-difluoro-
##MOLFORM=C3H3BrF2
##CAS REGISTRY NO=420-90-6
##MP= -300
##BP= -300
##MW= 156
##$RETENTION INDEX=0
##$CONDENSED SPECTRUM=NO
##NPOINTS= 60
##XYDATA=(XY..XY) 1 
    12          1
    13          1
    14          2
    24          2
    25          9
    26         50
    27        144
    28          5
    31         73
    32          2
    33          6
    36          4
    37         12
    38         11
    39          5
    43          2
    44          8
    45          4
    46          4
    47          1
    50         11
    51         92
    52          5
    55          7
    56         21
    57         48
    58          6
    59          2
    63          3
    74          5
    75         71
    76         33
    77        999
    78         32
    79         32
    80          4
    81         33
    82          4
    91          3
    92          1
    93          5
    94          2
    95          2
   104          2
   105          3
   106          7
   107          2
   108          5
   110          4
   111         42
   112          5
   113         42
   117          1
   129         21
   131         21
   135          2
   137         47
   138          2
   139         45
   140          2