##TITLE=Library Entry 17974
##JCAMP-DX=Revision 4.10 
##DATA TYPE=MASS SPECTRUM
##SAMPLE DESCRIPTION=Exported from NIST MS Search
##NAMES=HP
##CAS NAME=Propane, 2-fluoro-
##MOLFORM=C3H7F
##CAS REGISTRY NO=420-26-8
##MP= -300
##BP= -300
##MW= 62
##$RETENTION INDEX=370
##$CONDENSED SPECTRUM=NO
##NPOINTS= 37
##XYDATA=(XY..XY) 1 
    13          1
    14          3
    15          8
    19          3
    20          4
    24          1
    25          2
    26         12
    27         90
    28          8
    29          2
    31          8
    32          2
    33         29
    34          1
    36          2
    37         12
    38         17
    39         44
    40         10
    41         69
    42         16
    43         12
    44          9
    45         33
    46        283
    47        999
    48         22
    55          1
    56          2
    57         11
    58          2
    59         24
    60          5
    61        146
    62         12
    63          1