##TITLE=Library Entry 31851
##JCAMP-DX=Revision 4.10 
##DATA TYPE=MASS SPECTRUM
##SAMPLE DESCRIPTION=THE M.W. KELLOGG CO., JERSEY CITY, N.J., USA
##NAMES=HP
##CAS NAME=Propane, 2,2-difluoro-
##MOLFORM=C3H6F2
##CAS REGISTRY NO=420-45-1
##MP= -300
##BP= -300
##MW= 80
##$RETENTION INDEX=370
##$CONDENSED SPECTRUM=NO
##NPOINTS= 54
##XYDATA=(XY..XY) 1 
    13          7
    14         19
    15         54
    16          1
    19          4
    20          3
    21          0
    24          1
    25          5
    26         22
    27         45
    28          5
    29          4
    31         37
    32          4
    33         44
    34          0
    35          0
    36          4
    37         19
    38         23
    39         41
    40          4
    41         47
    42          1
    43          1
    44         17
    45        116
    46         20
    47          2
    50          1
    51         32
    52          0
    55          1
    56          3
    57         12
    58          2
    59         37
    60         14
    61         65
    62          2
    63          7
    64         88
    65        999
    66         22
    67          0
    74          0
    75          2
    76          0
    77          3
    78          0
    79          0
    80          0
    81          0