##TITLE=Library Entry 66626
##JCAMP-DX=Revision 4.10 
##DATA TYPE=MASS SPECTRUM
##SAMPLE DESCRIPTION=Chemical Concepts
##NAMES=HP
##CAS NAME=1-(3-Chloro-4-ethoxybenzyl)-3-phenyl-2-thiourea
##MOLFORM=C16H17ClN2OS
##CAS REGISTRY NO=42002-62-0
##MP= -300
##BP= -300
##MW= 320
##$RETENTION INDEX=0
##$CONDENSED SPECTRUM=NO
##NPOINTS= 107
##XYDATA=(XY..XY) 1 
    35         11
    36         40
    37         18
    38         48
    39        127
    40         33
    41         18
    42         18
    43         32
    44         21
    45         33
    50         51
    51        321
    52         60
    54         11
    60         63
    61         23
    63        109
    65        251
    66         88
    67         14
    72         12
    73         15
    74         20
    75         45
    77        714
    78         99
    79         17
    89         38
    90         75
    91        121
    92        144
    93        999
    94        181
    95         16
    99         13
   102         11
   103         14
   104         61
   105         61
   106         27
   107         39
   108         18
   109         65
   110         28
   111         19
   112         31
   114         12
   118         39
   119         68
   120         16
   121         14
   122         17
   123         16
   124         17
   128         14
   129         37
   130         10
   131         17
   133         42
   134         16
   135         92
   136        114
   137         18
   138         14
   139         11
   141        853
   142         94
   143        297
   144         31
   145         17
   150         31
   151         39
   152         21
   154         28
   155         13
   156         92
   157         10
   158         29
   160         10
   163         11
   167         21
   169        302
   170         38
   171        178
   172         21
   173         32
   181         10
   184         46
   185         11
   186         15
   188         53
   190         17
   198         16
   217         41
   219          9
   245        171
   246         34
   247         70
   260         36
   262         11
   291         21
   319         15
   320        224
   321         49
   322         80
   323         13