##TITLE=Library Entry 2436
##JCAMP-DX=Revision 4.10 
##DATA TYPE=MASS SPECTRUM
##SAMPLE DESCRIPTION=Japan AIST/NIMC Database- Spectrum MS-NW-5789
##NAMES=HP
##CAS NAME=n-Hexadecylsuccinic anhydride
##MOLFORM=C20H36O3
##CAS REGISTRY NO=4200-91-3
##MP= -300
##BP= -300
##MW= 324
##$RETENTION INDEX=0
##$CONDENSED SPECTRUM=NO
##NPOINTS= 269
##XYDATA=(XY..XY) 1 
    12          1
    14          2
    15          6
    16          3
    17          2
    18          7
    26         10
    27        216
    28         62
    29        503
    30         12
    31          4
    36          4
    38          4
    39        160
    40         37
    41        999
    42        217
    43        993
    44         36
    45          8
    46          1
    47          1
    50          3
    51          9
    52          6
    53         75
    54        138
    55        817
    56        260
    57        511
    58         21
    59          7
    60         12
    61          9
    62          1
    63          1
    64          1
    65         12
    66         17
    67        179
    68        139
    69        411
    70        180
    71        168
    72         14
    73         49
    74         27
    75          1
    77          9
    78          5
    79         37
    80         35
    81        175
    82        172
    83        350
    84        118
    85         80
    86         21
    87         39
    88          7
    89          1
    91         15
    92          7
    93         33
    94         42
    95        136
    96        149
    97        344
    98        177
    99         38
   100         38
   101         14
   102         13
   103          3
   104          6
   105         11
   106          7
   107         28
   108         29
   109         73
   110         71
   111        135
   112         81
   113         28
   114         20
   115         14
   116         45
   117          7
   118          3
   119         21
   120         10
   121         31
   122         20
   123         55
   124         55
   125         72
   126         41
   127         18
   128         77
   129         22
   130         23
   131         17
   132          2
   133         21
   134         12
   135         27
   136         17
   137         47
   138         87
   139         40
   140         33
   141         34
   142        187
   143         22
   144         27
   145          5
   146          3
   147         16
   148         10
   149         16
   150         17
   151         46
   152         57
   153         30
   154         25
   155         36
   156        186
   157         23
   158         24
   159          5
   160          2
   161         13
   162         12
   163          9
   164         13
   165         33
   166         49
   167         23
   168         21
   169         15
   170         24
   171          9
   172         24
   173          3
   174          4
   175          9
   176          9
   177          7
   178         13
   179         30
   180         34
   181         15
   182         17
   183         13
   184          8
   185          5
   186         14
   187          3
   188          2
   189          7
   190          5
   191          5
   192         10
   193         20
   194         33
   195         12
   196         14
   197          9
   198         15
   199          6
   200         10
   201          2
   202          2
   203          3
   204          6
   205          5
   206          8
   207         15
   208         27
   209         10
   210         17
   211          6
   212         18
   213          9
   214          6
   217          4
   218          2
   219          3
   220          9
   221         12
   222         29
   223         10
   224         11
   225          7
   226         42
   227         10
   228          4
   229          1
   231          3
   232          3
   233          2
   234          5
   235         12
   236         33
   237          8
   238          7
   239          9
   240         50
   241          9
   242          3
   243          4
   244          1
   245          2
   246          9
   247          6
   248          2
   249         11
   250         33
   251          9
   252         47
   253         12
   254         64
   255         10
   256          2
   259          2
   260          5
   261          4
   262          3
   263         13
   264         21
   265          8
   266          1
   267          7
   268         49
   269          9
   270          2
   272          1
   277          9
   278         34
   279         12
   280          4
   281          5
   282         27
   283          7
   284          1
   287          1
   288          5
   289          2
   290          1
   291          2
   293          2
   294          1
   295          4
   296          9
   297          2
   298          1
   301          1
   304          1
   305          2
   306         79
   307         23
   308          2
   309          1
   322          1
   323          3
   324         51
   325         13
   326          3