##TITLE=Library Entry 70128
##JCAMP-DX=Revision 4.10 
##DATA TYPE=MASS SPECTRUM
##SAMPLE DESCRIPTION=Japan AIST/NIMC Database- Spectrum MS-NW-4748
##NAMES=HP
##CAS NAME=n-Octylsuccinic anhydride
##MOLFORM=C12H20O3
##CAS REGISTRY NO=4200-92-4
##MP= -300
##BP= -300
##MW= 212
##$RETENTION INDEX=0
##$CONDENSED SPECTRUM=NO
##NPOINTS= 143
##XYDATA=(XY..XY) 1 
    15          5
    16          1
    26          7
    27        223
    28         39
    29        473
    30         12
    31          3
    38          3
    39        182
    40         48
    41        894
    42        301
    43        664
    44         24
    45         10
    50          4
    51          7
    52         19
    53         82
    54        177
    55        712
    56        560
    57        432
    58         23
    59          6
    60         12
    61          3
    63          1
    65          9
    66         17
    67        159
    68        122
    69        421
    70        414
    71        101
    72         48
    73        109
    74         49
    75          3
    76          3
    77         11
    78          9
    79         42
    80         24
    81        154
    82        120
    83        967
    84        319
    85         53
    86         29
    87         58
    88          8
    91         10
    92          6
    93         39
    94         19
    95        109
    96        112
    97        999
    98        245
    99         56
   100        257
   101         23
   102         25
   103          2
   104          5
   105         12
   106          4
   107         16
   108         19
   109         75
   110         67
   111        187
   112         94
   113         80
   114         23
   115          8
   116         11
   117          2
   118          8
   119         17
   120          5
   121          9
   122         11
   123         53
   124         77
   125         22
   126         28
   127         21
   128        535
   129         42
   130         13
   131          3
   132          2
   133         14
   134         14
   135         10
   136          4
   137         65
   138        200
   139         35
   140        247
   141        100
   142        660
   143         54
   144          7
   145          3
   147         12
   148         11
   149         16
   150         10
   151         57
   152        109
   153         18
   154          2
   155         67
   156        557
   157         51
   158          6
   161          3
   164          1
   165         26
   166         32
   167         48
   168          9
   169         14
   170         52
   171          6
   172          1
   175          2
   176          6
   179          6
   180          1
   183          4
   184          5
   185          2
   193          6
   194         32
   195          5
   211          4
   212         23
   213          4