##TITLE=Library Entry 965
##JCAMP-DX=Revision 4.10 
##DATA TYPE=MASS SPECTRUM
##SAMPLE DESCRIPTION=Japan AIST/NIMC Database- Spectrum MS-NW-6017
##NAMES=HP
##CAS NAME=1-Heptadecanamine
##MOLFORM=C17H37N
##CAS REGISTRY NO=4200-95-7
##MP= -300
##BP= -300
##MW= 255
##$RETENTION INDEX=2233
##$CONDENSED SPECTRUM=NO
##NPOINTS= 107
##XYDATA=(XY..XY) 1 
    27         19
    28         19
    29         53
    30        999
    31         20
    32          4
    39         11
    40          3
    41        101
    42         24
    43        136
    44        129
    45         83
    46          2
    47          4
    53          6
    54          9
    55         89
    56         44
    57         79
    58          9
    59         39
    60          1
    65          1
    66          1
    67          9
    68         12
    69         51
    70         25
    71         31
    72         25
    73         12
    77          1
    79          2
    80          2
    81          5
    82         14
    83         39
    84         16
    85         17
    86         52
    87          9
    91          1
    93          1
    94          1
    95          2
    96          7
    97         29
    98          9
    99          5
   100         31
   101          5
   109          1
   110          5
   111         13
   112          8
   113          3
   114         12
   115          3
   124          3
   125          7
   126          5
   127          2
   128         10
   129          2
   138          2
   139          3
   140          4
   141          1
   142         11
   143          2
   152          2
   153          1
   154          3
   155          1
   156         10
   157          2
   166          1
   167          1
   168          2
   169          1
   170          8
   171          2
   180          1
   182          1
   184          6
   185          2
   194          1
   195          1
   196          2
   198          7
   199          2
   200          1
   208          1
   210          1
   212          7
   213          2
   222          1
   224          3
   226          8
   227          2
   238          1
   240          4
   241          1
   254          8
   255         14
   256          4