##TITLE=Library Entry 76213
##JCAMP-DX=Revision 4.10 
##DATA TYPE=MASS SPECTRUM
##SAMPLE DESCRIPTION=ASES Database, Dalian Institute, P.R. China
##NAMES=HP
##CAS NAME=Phosphoric acid, dimethyl 1-phenylethenyl ester
##MOLFORM=C10H13O4P
##CAS REGISTRY NO=4202-12-4
##MP= -300
##BP= -300
##MW= 228
##$RETENTION INDEX=0
##$CONDENSED SPECTRUM=NO
##NPOINTS= 28
##XYDATA=(XY..XY) 1 
    50         18
    51         51
    63         13
    65         12
    75         17
    76         18
    77        102
    78         12
    79         25
    91         64
    93         31
    95         44
   102        999
   103        177
   104         26
   105         77
   109         94
   113         51
   115         13
   116        127
   117         25
   118         25
   126        102
   127         95
   213         69
   214         10
   228        320
   229         37