##TITLE=Library Entry 71778
##JCAMP-DX=Revision 4.10 
##DATA TYPE=MASS SPECTRUM
##SAMPLE DESCRIPTION=RADIAN CORP
##NAMES=HP
##CAS NAME=Dodecane, 1-isocyanato-
##MOLFORM=C13H25NO
##CAS REGISTRY NO=4202-38-4
##MP= -300
##BP= -300
##MW= 211
##$RETENTION INDEX=0
##$CONDENSED SPECTRUM=NO
##NPOINTS= 74
##XYDATA=(XY..XY) 1 
    14          3
    15         25
    26         29
    27        288
    28         34
    29        461
    30         70
    38          1
    39        207
    40         61
    41        865
    42        224
    43        675
    44         36
    45          9
    46         11
    51          5
    52          9
    53         53
    54         81
    55        596
    56        598
    57        271
    58         67
    59         36
    60          5
    66          8
    67         77
    68         67
    69        254
    70        131
    71         68
    72         14
    77          1
    79          9
    81         32
    82         45
    83         81
    84        136
    85        169
    86         19
    87          4
    94          4
    95         20
    96         28
    97         40
    98        392
    99        999
   100         78
   101          6
   110         10
   111          2
   112        396
   113        264
   114         24
   115          2
   123          8
   124         15
   125          2
   126        163
   127         31
   128          4
   137          3
   138          6
   139          4
   140         54
   141          8
   154         27
   155          3
   166          2
   168         16
   169          2
   182          9
   210          7