##TITLE=Library Entry 13375
##JCAMP-DX=Revision 4.10 
##DATA TYPE=MASS SPECTRUM
##SAMPLE DESCRIPTION=Div. of Experiment Therapeutics WRAIR, WRAMC, Washingto
n DC 20307
##NAMES=HP
##CAS NAME=6-Chloro-2-acetonaphthone
##MOLFORM=C12H9ClO
##CAS REGISTRY NO=42036-59-9
##MP= -300
##BP= -300
##MW= 204
##$RETENTION INDEX=0
##$CONDENSED SPECTRUM=NO
##NPOINTS= 45
##XYDATA=(XY..XY) 1 
    41         22
    42        234
    43        999
    49         40
    50        129
    51         98
    61         20
    62         75
    63        136
    70          7
    73         25
    74        116
    75        122
    76         51
    77          7
    80          8
    84          7
    85         15
    86         56
    87         78
    88          9
    95         10
    97          7
    98         44
    99         81
   100         10
   111          7
   113          7
   122          7
   125         82
   126        395
   127         47
   139         43
   149          8
   154         29
   160         13
   161        426
   163        158
   175          7
   187          8
   189        903
   191        299
   192         36
   204        641
   206        217