##TITLE=Library Entry 112
##JCAMP-DX=Revision 4.10 
##DATA TYPE=MASS SPECTRUM
##SAMPLE DESCRIPTION=Chemical Concepts
##NAMES=HP
##CAS NAME=Cyclopropane,-1-ethenyloxy,-2,2-dichloro
##MOLFORM=C5H6Cl2O
##CAS REGISTRY NO=42039-18-9
##MP= -300
##BP= -300
##MW= 152
##$RETENTION INDEX=0
##$CONDENSED SPECTRUM=NO
##NPOINTS= 86
##XYDATA=(XY..XY) 1 
    25        152
    26        591
    27        999
    28        109
    29        487
    30          9
    31         15
    35         44
    36         51
    37         94
    38        110
    39        162
    41        103
    42         87
    43        101
    44         70
    45         17
    47         49
    48         15
    49         55
    50         10
    51         27
    53        349
    54         40
    55         41
    56          3
    57          3
    58          6
    60         80
    61        409
    62        260
    63        176
    64         73
    65         23
    67          2
    69         12
    70         32
    71         17
    72         13
    73         72
    74          8
    75         27
    76          1
    77          1
    81         23
    82         21
    83        131
    84         13
    85         81
    86          4
    87         24
    88         32
    89        131
    90        429
    91        180
    92        141
    93         44
    94          1
    96         24
    97         19
    98         14
    99         10
   100          1
   101          1
   107          6
   109        596
   110         30
   111        385
   112         15
   113         63
   114          2
   115          1
   117        233
   118         14
   119         85
   120          3
   121          3
   123          4
   125          9
   127          5
   135          1
   137          1
   146          2
   148          2
   152          3
   154          1