##TITLE=Library Entry 7561
##JCAMP-DX=Revision 4.10 
##DATA TYPE=MASS SPECTRUM
##SAMPLE DESCRIPTION=Exported from NIST MS Search
##NAMES=HP
##CAS NAME=4-Oxepanone, 5-(acetyloxy)-3,3,6,6-tetramethyl-
##MOLFORM=C12H20O4
##CAS REGISTRY NO=42031-68-5
##MP= -300
##BP= -300
##MW= 228
##$RETENTION INDEX=0
##$CONDENSED SPECTRUM=NO
##NPOINTS= 17
##XYDATA=(XY..XY) 1 
    41        320
    43        999
    55        140
    56        589
    57        240
    72        150
    73        150
    85        380
    86         90
   113         80
   115        100
   131        170
   145         80
   157         70
   173        310
   185         30
   228         10