##TITLE=Library Entry 84377
##JCAMP-DX=Revision 4.10 
##DATA TYPE=MASS SPECTRUM
##SAMPLE DESCRIPTION=M.W.COUCH UNIVERSITY OF FLORIDA, GAINESVILLE, FLORIDA,
 USA
##NAMES=HP
##CAS NAME=Benzeneacetic acid, 3-hydroxy-, methyl ester
##MOLFORM=C9H10O3
##CAS REGISTRY NO=42058-59-3
##MP= -300
##BP= -300
##MW= 166
##$RETENTION INDEX=1449
##$CONDENSED SPECTRUM=NO
##NPOINTS= 108
##XYDATA=(XY..XY) 1 
    12          1
    13          1
    14          5
    15        100
    16          2
    17          1
    18          3
    25          1
    26          8
    27         43
    28         31
    29         22
    30          6
    31          8
    32          5
    33          1
    37          7
    38         22
    39         92
    40         11
    41          8
    42          9
    43          9
    44          4
    45          3
    49          3
    50         28
    51         69
    52         44
    53         50
    54          6
    55         25
    56          2
    57          2
    58          1
    59        105
    60          4
    61          5
    62         11
    63         28
    64          8
    65         13
    66         11
    67          8
    68          4
    69          3
    70          1
    71          1
    73          2
    74          7
    75          7
    76          7
    77        200
    78         78
    79         64
    80          7
    81         12
    82          2
    83          1
    84          1
    85          1
    86          2
    87          2
    88          1
    89          9
    90         24
    91         12
    92          4
    93          7
    94         11
    95          8
    96          1
    97          1
    98          1
   103          2
   104          5
   105         25
   106         23
   107        999
   108        101
   109         12
   110          2
   111          1
   112          1
   119          1
   120          3
   121         30
   122         11
   123          4
   124          3
   133          3
   134         37
   135         32
   136          4
   137          8
   138          4
   139          1
   142          1
   144          1
   145          1
   149          1
   150          1
   156          1
   165          7
   166        465
   167         51
   168          7
   169          1