##TITLE=Library Entry 99042
##JCAMP-DX=Revision 4.10 
##DATA TYPE=MASS SPECTRUM
##SAMPLE DESCRIPTION=A.A.Kutin, Moscow, Russia
##NAMES=HP
##CAS NAME=Furazandicarboxamide, N,N'-diphenyl-, 2-oxide
##MOLFORM=C16H12N4O4
##CAS REGISTRY NO=42056-82-6
##MP= -300
##BP= -300
##MW= 324
##$RETENTION INDEX=0
##$CONDENSED SPECTRUM=NO
##NPOINTS= 200
##XYDATA=(XY..XY) 1 
    33         23
    34         14
    37        257
    38        384
    39        713
    40        287
    41        168
    42         57
    43        136
    44        227
    45         58
    46         39
    47          7
    50        288
    51        429
    52        198
    53        238
    54         99
    55         34
    56         15
    57         29
    58          4
    60         56
    61         77
    62        123
    63        348
    64        583
    65        641
    66        203
    67         34
    68         15
    69         39
    70         42
    71         14
    72          8
    73         19
    74         49
    75         47
    77        663
    78         57
    79         13
    80         13
    81          5
    82          8
    83         11
    84          6
    85          6
    86          8
    87         13
    88         19
    89        104
    91        920
    92        408
    93        420
    94         58
    95          9
    96          7
    97          6
    98          3
    99          3
   100          2
   101          9
   102         29
   103         61
   104         61
   105         19
   106          6
   107          5
   108          4
   109          5
   110          5
   111          2
   112          5
   113          4
   114          6
   115         10
   116         67
   117         75
   119        999
   120        236
   121         19
   122          2
   123          1
   124          1
   125          1
   126          2
   127          5
   128          7
   129         42
   130         48
   132        195
   133         30
   134         11
   135          3
   136          1
   137          2
   139          1
   140          1
   141          2
   143         19
   144         55
   145        144
   146        136
   147         27
   148          5
   149          9
   150          1
   151          0
   152          1
   153          1
   154          2
   155          2
   157        168
   158         78
   159         19
   160         10
   161         24
   162         17
   163          4
   164          2
   165          2
   166          0
   167          1
   169          2
   170         78
   171         20
   172         28
   173         23
   174         10
   175         12
   176          2
   177          2
   178          1
   180          2
   181          0
   183          0
   184          0
   188        348
   189         40
   190         10
   191          2
   192          1
   193          0
   194          0
   196          0
   199          0
   201          3
   202          1
   204         10
   205         18
   206          4
   207          6
   208          1
   209          0
   214          1
   215          2
   216          3
   217          8
   218          2
   219         14
   220          5
   221          1
   223          0
   230          0
   231          1
   232          1
   233          1
   234          2
   235         18
   236          3
   237          0
   243          4
   244          0
   245          1
   246          0
   248          1
   249          5
   250          0
   256          1
   258          1
   263          1
   264          0
   276          2
   277          4
   278          0
   280          1
   281          0
   283          1
   284          0
   294          1
   306          0
   308         52
   309          8
   310          1
   320          0
   321          2
   322          3
   324        182
   325         26
   326          3