##TITLE=Library Entry 71184
##JCAMP-DX=Revision 4.10 
##DATA TYPE=MASS SPECTRUM
##SAMPLE DESCRIPTION=Chemical Concepts
##NAMES=HP
##CAS NAME=2,6-Bis-(hydroxy-phenyl-methyl)-cyclohexanone
##MOLFORM=C20H22O3
##CAS REGISTRY NO=42052-59-5
##MP= -300
##BP= -300
##MW= 310
##$RETENTION INDEX=0
##$CONDENSED SPECTRUM=NO
##NPOINTS= 152
##XYDATA=(XY..XY) 1 
    25          5
    26         38
    27        211
    28         54
    29        102
    30          3
    31         49
    36          3
    37         33
    38         47
    39        195
    40         33
    41        208
    42        105
    43         89
    44          7
    45          5
    47          4
    48          3
    49         26
    50        191
    51        347
    52        105
    53         57
    54         23
    55        264
    56         29
    57         64
    58         19
    59         34
    60          3
    61         12
    62         17
    63         36
    64          8
    65         33
    66         22
    67         89
    68         20
    69         64
    70        288
    71         28
    72          3
    73         16
    74         59
    75         34
    76         41
    77        879
    78        170
    79        423
    80         63
    81         55
    82         14
    83        176
    84         13
    85          7
    86          8
    87          3
    89         13
    90          6
    91        126
    92         18
    93          4
    94         11
    95         24
    96         20
    97        130
    98        999
    99         78
   100          5
   102         11
   103         17
   104         21
   105        635
   106        492
   107        452
   108         44
   109         24
   110          8
   111          3
   113          2
   114          2
   115         60
   116         18
   117         68
   118         73
   119          8
   120         14
   121          4
   122          2
   123          7
   124          2
   125          3
   127         29
   128         26
   129         53
   130         55
   131         16
   132          3
   133         17
   134          2
   137          3
   138         23
   139          5
   141          9
   142          8
   143         18
   144          9
   145          8
   146         26
   147         19
   148          3
   149         25
   150          3
   152          2
   153          2
   155          6
   156         38
   157         23
   158         89
   159         17
   160          3
   161          9
   162         21
   163          3
   165          2
   167          3
   168          5
   169         10
   170          2
   171          7
   172          3
   173          7
   175          9
   183          2
   184          2
   185         46
   186        166
   187         68
   188         10
   196          2
   201          2
   202          2
   203          8
   204         41
   205          6
   213          2
   215          2
   226          2
   244          6
   274          3
   292          5