##TITLE=Library Entry 4156
##JCAMP-DX=Revision 4.10 
##DATA TYPE=MASS SPECTRUM
##SAMPLE DESCRIPTION=Exported from NIST MS Search
##NAMES=HP
##CAS NAME=Naphthalene, decahydro-1,4-dimethoxy-, (1.alpha.,4.beta.,4a.alpha
.,8a.beta.)-
##MOLFORM=C12H22O2
##CAS REGISTRY NO=42068-24-6
##MP= -300
##BP= -300
##MW= 198
##$RETENTION INDEX=0
##$CONDENSED SPECTRUM=NO
##NPOINTS= 69
##XYDATA=(XY..XY) 1 
    39        562
    40        338
    41        999
    42        173
    43        439
    44        382
    45        675
    47         91
    51         64
    52         52
    53        247
    54        146
    55        382
    56         29
    57        283
    58        416
    59         86
    65         89
    66         57
    67        498
    68         86
    69        267
    70         34
    71        610
    72        144
    73        132
    74         16
    75        395
    76         27
    77        263
    78        173
    79        356
    80        164
    81        167
    82         73
    83         86
    84        164
    85        114
    91        389
    92        160
    93        501
    94        130
    95        464
    96         91
    97        244
    98        132
    99         64
   100         22
   101        141
   105        164
   106         68
   107         50
   108        267
   109         89
   110         86
   111        160
   119        137
   120          9
   121         48
   123        141
   135         96
   136         84
   137        148
   138         50
   166        807
   167        130
   168         18
   198         64
   199          4