##TITLE=Library Entry 3911
##JCAMP-DX=Revision 4.10 
##DATA TYPE=MASS SPECTRUM
##SAMPLE DESCRIPTION=Exported from NIST MS Search
##NAMES=HP
##CAS NAME=Naphthalene, decahydro-2,3-dimethoxy-, (2.alpha.,3.beta.,4a.alpha
.,8a.beta.)-
##MOLFORM=C12H22O2
##CAS REGISTRY NO=42067-52-7
##MP= -300
##BP= -300
##MW= 198
##$RETENTION INDEX=0
##$CONDENSED SPECTRUM=NO
##NPOINTS= 68
##XYDATA=(XY..XY) 1 
    39        349
    41        999
    42        104
    43        323
    44        124
    45        735
    50         15
    51         63
    52         58
    53        253
    54        146
    55        388
    56        126
    57         63
    58        353
    59        253
    65        104
    66         85
    67        530
    68        124
    69        146
    70         37
    71        698
    72         93
    73         80
    74         15
    75         78
    76         15
    77        126
    78        120
    79        519
    80        196
    81        288
    82        124
    83         48
    84        406
    91        305
    92        157
    93        388
    94        148
    95        174
    96         37
    97        650
    98        124
   105        126
   106        159
   107         98
   108        886
   109        196
   110        135
   111        122
   112        270
   116         74
   117         15
   119        122
   120         61
   121        187
   122         30
   123        159
   134        604
   135        189
   136        135
   137         72
   138        366
   139         58
   140        126
   166        253
   198        137