##TITLE=Library Entry 3546
##JCAMP-DX=Revision 4.10 
##DATA TYPE=MASS SPECTRUM
##SAMPLE DESCRIPTION=Exported from NIST MS Search
##NAMES=HP
##CAS NAME=Naphthalene, decahydro-2,3-dimethoxy-, (2.alpha.,3.beta.,4a.alpha
.,8a.alpha.)-
##MOLFORM=C12H22O2
##CAS REGISTRY NO=42067-53-8
##MP= -300
##BP= -300
##MW= 198
##$RETENTION INDEX=0
##$CONDENSED SPECTRUM=NO
##NPOINTS= 68
##XYDATA=(XY..XY) 1 
    39        449
    41        999
    42        145
    43        405
    44         17
    45        849
    50         72
    51         68
    52         58
    53        262
    54        184
    55        441
    56        138
    57        152
    58        308
    59        284
    65        116
    66         87
    67        582
    68         72
    69        225
    70         77
    71        866
    72         89
    73         68
    74         17
    75         89
    76         19
    77        194
    78        160
    79        550
    80        225
    81        320
    82         89
    83         72
    84        618
    85        135
    91        359
    92        208
    93        356
    94        150
    95        203
    96         58
    97        817
    98        150
   105        160
   106        165
   107        116
   108        849
   109        189
   110        140
   111        101
   112        223
   117         38
   119        152
   120         68
   121        186
   122         41
   123        182
   134        662
   135        169
   136        126
   137         87
   138        308
   139         72
   140        150
   166        276
   198         68