##TITLE=Library Entry 27704
##JCAMP-DX=Revision 4.10 
##DATA TYPE=MASS SPECTRUM
##SAMPLE DESCRIPTION=B. Derendyaev, Novosibirsk Institute of Organic Chemist
ry
##NAMES=HP
##CAS NAME=Methyl(3,3-difluoro-2-propenyl)silane
##MOLFORM=C4H8F2Si
##CAS REGISTRY NO=42067-93-6
##MP= -300
##BP= -300
##MW= 122
##$RETENTION INDEX=0
##$CONDENSED SPECTRUM=NO
##NPOINTS= 21
##XYDATA=(XY..XY) 1 
    39        956
    40         22
    43        270
    44         13
    45        948
    46         28
    47        227
    51         80
    57        321
    58        999
    59         30
    63        567
    64         25
    67        161
    77        345
    78          9
    81        422
    82         21
    83         14
   122        120
   123         11