##TITLE=Library Entry 25826
##JCAMP-DX=Revision 4.10 
##DATA TYPE=MASS SPECTRUM
##SAMPLE DESCRIPTION=J. MADSEN,DEP. ORG. CHEM.,TECH. UNIV. DENMARK,LYNGBY,DE
NMARK
##NAMES=HP
##CAS NAME=S-Methyl pentanethioate
##MOLFORM=C6H12OS
##CAS REGISTRY NO=42075-43-4
##MP= -300
##BP= -300
##MW= 132
##$RETENTION INDEX=942
##$CONDENSED SPECTRUM=NO
##NPOINTS= 9
##XYDATA=(XY..XY) 1 
    27        140
    29        550
    41        450
    47         90
    57        999
    75         90
    85        700
   117        150
   132          1