##TITLE=Library Entry 8775
##JCAMP-DX=Revision 4.10 
##DATA TYPE=MASS SPECTRUM
##SAMPLE DESCRIPTION=J. MADSEN,DEP. ORG. CHEM.,TECH. UNIV. DENMARK,LYNGBY,DE
NMARK
##NAMES=HP
##CAS NAME=S-Methyl 2-methylpropanethioate
##MOLFORM=C5H10OS
##CAS REGISTRY NO=42075-42-3
##MP= -300
##BP= -300
##MW= 118
##$RETENTION INDEX=1141
##$CONDENSED SPECTRUM=NO
##NPOINTS= 8
##XYDATA=(XY..XY) 1 
    27        190
    29        260
    41        290
    43        999
    48        160
    71        500
    75         80
   118         90