##TITLE=Library Entry 22494
##JCAMP-DX=Revision 4.10 
##DATA TYPE=MASS SPECTRUM
##SAMPLE DESCRIPTION=Japan AIST/NIMC Database- Spectrum MS-IW- 890
##NAMES=HP
##CAS NAME=(S)-(+)-3-Methyl-1-pentanol
##MOLFORM=C6H14O
##CAS REGISTRY NO=42072-39-9
##MP= -300
##BP= -300
##MW= 102
##$RETENTION INDEX=1557
##$CONDENSED SPECTRUM=NO
##NPOINTS= 48
##XYDATA=(XY..XY) 1 
    15          5
    17          1
    18          3
    26          5
    27         80
    28         46
    29        219
    30          6
    31        186
    32          2
    33          1
    38          3
    39         60
    40         11
    41        486
    42        161
    43        577
    44         33
    45         85
    46         38
    47          3
    50          2
    51          4
    52          1
    53         19
    54         18
    55        748
    56        999
    57        301
    58         13
    59         13
    60          1
    65          1
    67          9
    68          6
    69        792
    70         59
    71         50
    72          9
    73         10
    74          3
    81          1
    82          1
    83         22
    84        171
    85         25
    86          1
   101          1