##TITLE=Library Entry 16779
##JCAMP-DX=Revision 4.10 
##DATA TYPE=MASS SPECTRUM
##SAMPLE DESCRIPTION=Japan AIST/NIMC Database- Spectrum MS-NW-6521
##NAMES=HP
##CAS NAME=(2R,4R)-(-)-Pentanediol
##MOLFORM=C5H12O2
##CAS REGISTRY NO=42075-32-1
##MP= -300
##BP= -300
##MW= 104
##$RETENTION INDEX=0
##$CONDENSED SPECTRUM=NO
##NPOINTS= 55
##XYDATA=(XY..XY) 1 
    14          4
    15         33
    16          2
    17          5
    18         17
    19          4
    26          7
    27         68
    28         11
    29         43
    30          1
    31         31
    32          2
    36          1
    37          8
    38          7
    39         49
    40         25
    41        130
    42        461
    43        220
    44         40
    45        999
    46         24
    47         10
    50          1
    51          2
    52          1
    53         10
    55          5
    56          1
    57          6
    58         17
    59         14
    60          5
    61          8
    62          1
    63         39
    64          1
    65          2
    66          1
    67         12
    68          9
    69          6
    70          1
    71        160
    72          8
    73          2
    84          1
    85          3
    86         17
    87          2
    89         36
    90          2
   103          1