##TITLE=Library Entry 11320
##JCAMP-DX=Revision 4.10 
##DATA TYPE=MASS SPECTRUM
##SAMPLE DESCRIPTION=Chemical Concepts
##NAMES=HP
##CAS NAME=1,3-Dioxolane, 2-methoxy-2,4,5-trimethyl-
##MOLFORM=C7H14O3
##CAS REGISTRY NO=42077-65-6
##MP= -300
##BP= -300
##MW= 146
##$RETENTION INDEX=0
##$CONDENSED SPECTRUM=NO
##NPOINTS= 74
##XYDATA=(XY..XY) 1 
    26         13
    27         75
    29         93
    30          9
    31         98
    33          4
    37          0
    38          1
    39         27
    40          3
    41         33
    42         51
    43        999
    44         42
    45         55
    46          1
    47         18
    48          0
    50          1
    51          2
    52          0
    53          6
    54          3
    55        161
    56         13
    57         26
    58         87
    59         47
    60          2
    61         13
    62          0
    67          0
    68          1
    69          1
    70          2
    71         12
    72         18
    73         90
    74         13
    75        221
    76          7
    77          9
    78          0
    85          1
    86          0
    87         19
    88         13
    89         60
    90          2
    91          0
    97          0
    98          0
    99          1
   101          4
   102        144
   103         10
   104          3
   105          9
   106          0
   110          0
   111          0
   113          0
   114          9
   115        239
   116         17
   117         13
   118          0
   119          0
   131         71
   132          5
   133          0
   140          0
   141          0
   145          0