##TITLE=Library Entry 55811
##JCAMP-DX=Revision 4.10 
##DATA TYPE=MASS SPECTRUM
##SAMPLE DESCRIPTION=Chemical Concepts
##NAMES=HP
##CAS NAME=3,7-Diisopropyl-1,5-diphenyl-3,7-diazabicyclo[3.3.1]nonan-9-one
##MOLFORM=C25H32N2O
##CAS REGISTRY NO=4208-30-4
##MP= -300
##BP= -300
##MW= 376
##$RETENTION INDEX=0
##$CONDENSED SPECTRUM=NO
##NPOINTS= 110
##XYDATA=(XY..XY) 1 
    38          5
    39         59
    41        279
    43        654
    44        177
    45          3
    50          6
    51         31
    53          7
    54          9
    55         13
    56        144
    57         28
    58          9
    63         13
    64         11
    65         11
    66          3
    68          4
    70         56
    72        106
    73          6
    75          8
    77        118
    78         18
    79          6
    82          4
    84         16
    86        999
    89         19
    91        161
    92         10
   101          4
   103        293
   104         40
   105         21
   115        100
   116         27
   117         73
   118         25
   119          4
   127          8
   128         17
   129         18
   130         25
   131         21
   132         21
   141          4
   142          5
   143         10
   144         19
   145          7
   146         21
   147          3
   156          8
   157          5
   158          9
   159          6
   160         11
   161          6
   165          4
   170          4
   172          9
   174         50
   175          8
   178          4
   184          3
   185          3
   186         10
   187          6
   188         31
   189          8
   190          3
   191          8
   202         15
   203          7
   204          6
   205         13
   206          9
   214          4
   215          5
   217          3
   218          5
   219          6
   220          9
   231          4
   232          6
   233         11
   234         20
   235          4
   246          7
   247          6
   248         24
   249          5
   260          3
   262         10
   274          4
   276          5
   277          7
   288          7
   289          5
   290         48
   291         11
   302          3
   303          3
   304         38
   305         24
   306          8
   375          3
   376          9