##TITLE=Library Entry 25690
##JCAMP-DX=Revision 4.10 
##DATA TYPE=MASS SPECTRUM
##SAMPLE DESCRIPTION=Chemical Concepts
##NAMES=HP
##CAS NAME=2-Butanone, 1-(2-furanyl)-
##MOLFORM=C8H10O2
##CAS REGISTRY NO=4208-63-3
##MP= -300
##BP= -300
##MW= 138
##$RETENTION INDEX=1584
##$CONDENSED SPECTRUM=NO
##NPOINTS= 73
##XYDATA=(XY..XY) 1 
    25          1
    26         21
    27        213
    28         27
    29        695
    30         18
    31          4
    36          1
    37          7
    38         19
    39         44
    40          4
    41         12
    42         14
    43         23
    44          3
    45          3
    49          3
    50         33
    51         71
    52         50
    53        364
    54         33
    55         19
    56         11
    57        999
    58         48
    59          4
    60          1
    61          3
    62          2
    63          5
    64          1
    65          5
    66          2
    67          3
    68          4
    69          3
    70          3
    71          2
    73          2
    74          1
    75          1
    76          1
    77          6
    78          2
    79          6
    80          9
    81        829
    82        239
    83         16
    84          1
    85          1
    91          3
    92          0
    93          1
    94          2
    95          8
    96          1
    97          1
    98          0
   104          0
   105          1
   106          0
   107          1
   108          4
   109          2
   110         16
   111          4
   112          0
   138        264
   139         24
   140          1