##TITLE=Library Entry 70255
##JCAMP-DX=Revision 4.10 
##DATA TYPE=MASS SPECTRUM
##SAMPLE DESCRIPTION=CARL DJERASSI DEPT OF CHEM STANFORD UNIV STANFORD CALIF
 94305
##NAMES=HP
##CAS NAME=1,2-Butanediol, 1-(2-furyl)-
##MOLFORM=C8H12O3
##CAS REGISTRY NO=4208-60-0
##MP= -300
##BP= -300
##MW= 156
##$RETENTION INDEX=0
##$CONDENSED SPECTRUM=NO
##NPOINTS= 49
##XYDATA=(XY..XY) 1 
    38          9
    39        158
    40         39
    41        326
    42        148
    43        168
    44         19
    51          9
    52         29
    53         49
    54          9
    55         99
    56         29
    57        158
    58         59
    59        237
    60         19
    67         19
    68         29
    69        128
    70        168
    71        178
    72         19
    77         19
    79         29
    80         19
    81        118
    82         29
    83         39
    84         39
    85         19
    91         19
    93         19
    94         19
    95        128
    96         69
    97        999
    98        910
    99         59
   100         29
   101         19
   107         39
   109         59
   110         29
   111         19
   122         29
   123         19
   138         19
   156         29