##TITLE=Library Entry 25513
##JCAMP-DX=Revision 4.10 
##DATA TYPE=MASS SPECTRUM
##SAMPLE DESCRIPTION=Chemical Concepts
##NAMES=HP
##CAS NAME=Triacontane, 1-bromo-
##MOLFORM=C30H61Br
##CAS REGISTRY NO=4209-22-7
##MP= -300
##BP= -300
##MW= 500
##$RETENTION INDEX=0
##$CONDENSED SPECTRUM=NO
##NPOINTS= 207
##XYDATA=(XY..XY) 1 
    26          2
    27         24
    28          0
    29         85
    30          2
    39         15
    40         23
    41        235
    42         52
    43        560
    44         22
    53          9
    54         25
    55        370
    56        147
    57        999
    58         50
    65          2
    66          3
    67         40
    68         41
    69        331
    70        116
    71        827
    72         41
    73          0
    75          0
    77          2
    79          5
    80          4
    81         26
    82         63
    83        242
    84         68
    85        583
    86         41
    87          1
    91          2
    92          0
    93          2
    94          2
    95         19
    96         38
    97        237
    98         51
    99        227
   100         16
   101          0
   105          2
   107          3
   109          9
   110         15
   111        122
   112         37
   113        156
   114         15
   119          1
   121          3
   123          8
   124          9
   125         66
   126         25
   127        103
   128         10
   135        161
   136          9
   137        143
   138          9
   139         26
   140         15
   141         75
   142          9
   145          5
   148          9
   149         41
   150          9
   151         40
   152          5
   153         15
   154         11
   155         65
   156          8
   162          4
   163         18
   164          5
   165         17
   166          3
   167          9
   168          9
   169         46
   170          6
   176          1
   177         15
   178          2
   179         15
   180          2
   181          7
   182          8
   183         42
   184          4
   191         14
   192          2
   193         11
   194          2
   195          5
   196          5
   197         28
   198          4
   203          0
   204          1
   205         10
   206          2
   207          9
   208          2
   209          3
   210          5
   211         24
   212          5
   219          9
   220          1
   221          8
   222          1
   223          2
   224          5
   225         23
   226          4
   232          0
   233          6
   234          0
   235          6
   236          0
   237          2
   238          3
   239         15
   240          3
   247          5
   248          2
   249          5
   251          1
   252          2
   253         15
   254          2
   261          5
   262          0
   263          4
   264          0
   266          2
   267         13
   268          3
   275          4
   276          0
   277          3
   279          0
   280          2
   281         12
   282          2
   289          4
   290          1
   291          3
   294          1
   295          9
   296          2
   303          3
   304          0
   305          3
   308          0
   309          9
   310          2
   317          2
   318          0
   319          2
   322          0
   323          9
   324          2
   331          2
   333          2
   337          7
   338          2
   345          2
   347          2
   351          5
   352          1
   359          2
   361          2
   365          3
   366          0
   373          2
   375          2
   379          2
   387          2
   389          2
   401          2
   403          2
   415          0
   417          1
   420          2
   421         90
   422         26
   423          5
   429          1
   431          1
   443          0
   445          1
   500          5
   501          2
   502          4
   503          0