##TITLE=Library Entry 49027
##JCAMP-DX=Revision 4.10 
##DATA TYPE=MASS SPECTRUM
##SAMPLE DESCRIPTION=D.HENNEBERG, MAX-PLANCK INSTITUTE, MULHEIM, WEST GERMAN
Y
##NAMES=HP
##CAS NAME=3-Octen-1-yne, (Z)-
##MOLFORM=C8H12
##CAS REGISTRY NO=42091-89-4
##MP= -300
##BP= -300
##MW= 108
##$RETENTION INDEX=0
##$CONDENSED SPECTRUM=NO
##NPOINTS= 61
##XYDATA=(XY..XY) 1 
    26         69
    27        384
    28         86
    29        113
    30          5
    32          4
    37          6
    38         36
    39        530
    40        162
    41        803
    42         73
    43        320
    44         15
    45          2
    49          4
    50         65
    51        168
    52        300
    53        180
    54         52
    55        173
    56        403
    57         20
    58          3
    59          1
    62         10
    63         74
    64         37
    65        378
    66        368
    67        121
    68         75
    69         82
    70          9
    74          2
    75         12
    76          9
    77        667
    78        149
    79        999
    80        235
    81         33
    82          6
    84          1
    89         17
    90          8
    91        373
    92         42
    93        826
    94         70
    95          2
    96          1
   102          2
   103          5
   104          1
   105         17
   106          3
   107         81
   108        624
   109         49