##TITLE=Library Entry 79720
##JCAMP-DX=Revision 4.10 
##DATA TYPE=MASS SPECTRUM
##SAMPLE DESCRIPTION=Japan AIST/NIMC Database- Spectrum MS-IW-4822
##NAMES=HP
##CAS NAME=Benzoic acid, 2-(benzoylamino)-, ethyl ester
##MOLFORM=C16H15NO3
##CAS REGISTRY NO=42091-29-2
##MP= -300
##BP= -300
##MW= 269
##$RETENTION INDEX=0
##$CONDENSED SPECTRUM=NO
##NPOINTS= 83
##XYDATA=(XY..XY) 1 
    15          1
    26          2
    27         12
    28          6
    29          8
    30          2
    31         47
    32          1
    37          1
    38          3
    39         10
    41          1
    42          1
    43          4
    44          1
    45         27
    46         14
    50         25
    51         64
    52          6
    53          2
    62          3
    63         12
    64         10
    65          9
    66          1
    74          7
    75          9
    76         27
    77        399
    78         26
    79          1
    83          5
    88          1
    89          2
    90         34
    91          5
    92         11
    93          2
    97          8
    98          1
   102          1
   103          3
   104          4
   105        999
   106         78
   107          5
   111          5
   112          1
   115          1
   118          3
   119          6
   120          4
   121          1
   139          4
   140          3
   146         64
   147          6
   151          2
   152          4
   153          2
   164          1
   165          1
   166          5
   167          8
   168          1
   177          1
   178          9
   179        146
   180         22
   181          2
   194          2
   195         12
   196         68
   197         10
   222         11
   223        333
   224         70
   225          8
   268          1
   269        250
   270         46
   271          5