##TITLE=Library Entry 40928
##JCAMP-DX=Revision 4.10 
##DATA TYPE=MASS SPECTRUM
##SAMPLE DESCRIPTION=Japan AIST/NIMC Database- Spectrum MS-IW- 622
##NAMES=HP
##CAS NAME=3-Hexanol, 3,5-dimethyl-
##MOLFORM=C8H18O
##CAS REGISTRY NO=4209-91-0
##MP= -300
##BP= -300
##MW= 130
##$RETENTION INDEX=883
##$CONDENSED SPECTRUM=NO
##NPOINTS= 72
##XYDATA=(XY..XY) 1 
    15          7
    16          1
    17          1
    18          4
    26          2
    27         60
    28          9
    29         70
    30          2
    31         29
    37          1
    38          2
    39         51
    40          9
    41        212
    42         44
    43        327
    44         10
    45        114
    46          3
    48          1
    49          1
    50          2
    51          5
    52          2
    53         18
    54          6
    55        484
    56         53
    57        372
    58         26
    59        219
    60          8
    61          1
    63          1
    65          4
    66          1
    67         14
    68          9
    69         76
    70        153
    71         43
    72         18
    73        999
    74         46
    75          3
    77          3
    79          4
    81          6
    82          3
    83        145
    84         15
    85         13
    86          1
    87          1
    91          1
    95          3
    96          1
    97         34
    98          3
    99          2
   100          1
   101        233
   102         15
   103          1
   110          1
   111          1
   112         68
   113         14
   114          3
   115         68
   116          5