##TITLE=Library Entry 19343
##JCAMP-DX=Revision 4.10 
##DATA TYPE=MASS SPECTRUM
##SAMPLE DESCRIPTION=NIST Mass Spectrometry Data Center, 1990.
##NAMES=HP
##CAS NAME=3-Hexanol, 2,2-dimethyl-
##MOLFORM=C8H18O
##CAS REGISTRY NO=4209-90-9
##MP= -300
##BP= -300
##MW= 130
##$RETENTION INDEX=906
##$CONDENSED SPECTRUM=NO
##NPOINTS= 29
##XYDATA=(XY..XY) 1 
    15         23
    27        179
    28         58
    29        225
    31         81
    39        256
    41        630
    42         62
    43        381
    44         75
    45        188
    51         26
    53         74
    55        999
    56        189
    57        555
    58         29
    59        102
    67         36
    69        268
    70         93
    71        125
    72        348
    73        630
    74         29
    83         51
    87        301
    97         49
   115         17