##TITLE=Library Entry 385
##JCAMP-DX=Revision 4.10 
##DATA TYPE=MASS SPECTRUM
##SAMPLE DESCRIPTION=Thomas J.Bruno
##NAMES=HP
##CAS NAME=Propane, 1,1,1-trifluoro-
##MOLFORM=C3H5F3
##CAS REGISTRY NO=421-07-8
##MP= -300
##BP= -300
##MW= 98
##$RETENTION INDEX=361
##$CONDENSED SPECTRUM=NO
##NPOINTS= 9
##XYDATA=(XY..XY) 1 
    27        807
    29        999
    33        166
    51        450
    59        281
    69        390
    77        375
    79        466
    98        108