##TITLE=Library Entry 8445
##JCAMP-DX=Revision 4.10 
##DATA TYPE=MASS SPECTRUM
##SAMPLE DESCRIPTION=Japan AIST/NIMC Database- Spectrum MS-IW-2334
##NAMES=HP
##CAS NAME=2-Propanone, 1,1,1-trifluoro-
##MOLFORM=C3H3F3O
##CAS REGISTRY NO=421-50-1
##MP= -300
##BP= -300
##MW= 112
##$RETENTION INDEX=459
##$CONDENSED SPECTRUM=NO
##NPOINTS= 59
##XYDATA=(XY..XY) 1 
    12          3
    13          9
    14         39
    15        539
    16          6
    18          1
    20          2
    24          2
    25          5
    26         10
    27         12
    28         58
    29         29
    30          2
    31         55
    32         16
    33         30
    36          1
    37          2
    38          1
    39          1
    40          4
    41         25
    42        137
    43        999
    44         47
    45         13
    46          6
    47          5
    50         64
    51         20
    55          3
    56          6
    57          5
    59        119
    60          7
    61          8
    62          3
    63          9
    64         11
    65          7
    67          1
    69        750
    70          9
    71          3
    74          2
    75         13
    76          2
    77          1
    78         21
    81          3
    82          4
    83          5
    91          8
    93          3
    94          1
    95         10
    97         33
   113          5