##TITLE=Library Entry 36315
##JCAMP-DX=Revision 4.10 
##DATA TYPE=MASS SPECTRUM
##SAMPLE DESCRIPTION=Exported from NIST MS Search
##NAMES=HP
##CAS NAME=Methanesulfenyl chloride, trifluoro-
##MOLFORM=CClF3S
##CAS REGISTRY NO=421-17-0
##MP= -300
##BP= -300
##MW= 136
##$RETENTION INDEX=0
##$CONDENSED SPECTRUM=NO
##NPOINTS= 58
##XYDATA=(XY..XY) 1 
    31         24
    32         77
    33          1
    34          2
    35         17
    37          6
    44         17
    47          3
    48         29
    49          1
    50         21
    51         25
    53          1
    55          1
    57          3
    60         13
    63         47
    64         73
    65          3
    66          5
    67        145
    68          2
    69        999
    70         12
    71          4
    76         18
    77          6
    78          3
    79          1
    80          1
    81         10
    82        164
    83          4
    84          7
    85         37
    86          4
    87          6
    88          1
    95          3
    96          1
   101        251
   102          7
   103         12
   111          1
   113          1
   114         10
   116          1
   117         74
   118          1
   119         27
   121          1
   133         10
   135          2
   136        547
   137         12
   138        202
   139          4
   140          8