##TITLE=Library Entry 53291
##JCAMP-DX=Revision 4.10 
##DATA TYPE=MASS SPECTRUM
##SAMPLE DESCRIPTION=Japan AIST/NIMC Database- Spectrum MS-NW-6765
##NAMES=HP
##CAS NAME=2-Bromo-1,1,1-trifluoroethane
##MOLFORM=C2H2BrF3
##CAS REGISTRY NO=421-06-7
##MP= -300
##BP= -300
##MW= 162
##$RETENTION INDEX=0
##$CONDENSED SPECTRUM=NO
##NPOINTS= 60
##XYDATA=(XY..XY) 1 
    19          1
    20          1
    24          2
    25          6
    26          7
    31         95
    32         16
    33        475
    34          5
    43          6
    44         40
    45         14
    50         17
    51         42
    62          3
    63        118
    64        243
    65          5
    67          1
    69        147
    70          1
    71          9
    72          9
    79         47
    80          9
    81         46
    82         30
    83        999
    84         20
    91         20
    92         24
    93        137
    94         26
    95        114
    96          1
   103          1
   104          1
   110          3
   111         30
   112          4
   113         30
   122          2
   123         61
   124          3
   125         59
   126          1
   129          3
   131          3
   141          1
   142         18
   143        113
   144         20
   145        112
   146          2
   160          1
   161          2
   162        936
   163         21
   164        940
   165         19