##TITLE=Library Entry 47034
##JCAMP-DX=Revision 4.10 
##DATA TYPE=MASS SPECTRUM
##SAMPLE DESCRIPTION=A.A.Kutin, Moscow, Russia
##NAMES=HP
##CAS NAME=Benzamide, N-[2-(1-piperidylcarbonyl)phenyl]-
##MOLFORM=C19H20N2O2
##CAS REGISTRY NO=42103-86-6
##MP= -300
##BP= -300
##MW= 308
##$RETENTION INDEX=0
##$CONDENSED SPECTRUM=NO
##NPOINTS= 165
##XYDATA=(XY..XY) 1 
    33          0
    36          0
    37          3
    38         15
    39         99
    40         23
    41        132
    42        113
    43         28
    44         29
    45          4
    48          0
    49          2
    50         73
    51        272
    52         33
    53         20
    54         27
    55         55
    56         77
    57         21
    58          1
    61          1
    62          8
    63         46
    64         62
    65        104
    66         12
    67          9
    68          7
    69         19
    70         13
    71          0
    72          2
    73          1
    74         17
    75         26
    76         64
    77        999
    78         82
    79          5
    80          4
    81          1
    82         13
    83         23
    84        860
    85        139
    86         10
    87          1
    88          1
    89          5
    90         70
    91         41
    92        204
    93         24
    94          2
    95          1
    97          0
    98          0
    99          0
   100          0
   101          0
   102          3
   103          7
   104         22
   105        884
   106         76
   107          6
   108          0
   111          0
   112          5
   113          1
   114          0
   115          3
   116          1
   117          4
   118         10
   119         57
   120        197
   121         16
   122          1
   126          0
   127          0
   128          0
   129          1
   130          5
   131          2
   132          9
   133          3
   134          1
   135          2
   136          0
   137          0
   138          1
   139          8
   140          5
   141          1
   142          0
   143          0
   144          0
   145          3
   146        130
   147         26
   148          2
   149          0
   150          0
   151          2
   152          3
   153          0
   154          0
   158          1
   159          1
   160          4
   161          1
   162          0
   163          0
   164          1
   165          0
   166          8
   167         14
   168          6
   169          0
   170          0
   171          0
   173          3
   174          1
   175          1
   176          0
   177          1
   178          7
   179         17
   180          9
   181          2
   182          0
   185          0
   186          1
   187          1
   188          4
   192          0
   194          3
   195          7
   196         32
   197         15
   198          3
   199          0
   201          4
   202          1
   203         34
   204          5
   207          0
   208          0
   222          7
   223         12
   224        217
   225         37
   226          4
   231          1
   289          1
   290         23
   291          1
   306          0
   307        120
   308        132
   309         27
   310          2