##TITLE=Library Entry 20370
##JCAMP-DX=Revision 4.10 
##DATA TYPE=MASS SPECTRUM
##SAMPLE DESCRIPTION=Chemical Concepts
##NAMES=HP
##CAS NAME=Ketone, vinyl-pyrrolidinyl-
##MOLFORM=C7H11NO
##CAS REGISTRY NO=42104-70-1
##MP= -300
##BP= -300
##MW= 125
##$RETENTION INDEX=0
##$CONDENSED SPECTRUM=NO
##NPOINTS= 74
##XYDATA=(XY..XY) 1 
    27        476
    28         88
    29         54
    30         56
    31         50
    34          3
    35          1
    36          1
    37          4
    38         10
    39         90
    40         95
    41        190
    42        249
    43        267
    44         18
    45         20
    46          2
    52          2
    53         17
    54         47
    55        999
    56        155
    57         18
    58          3
    59          1
    63          1
    64          1
    65          2
    66          2
    67         16
    68        155
    69        288
    70        715
    71         61
    72          4
    73          2
    74          1
    76          2
    77          9
    78          5
    79          7
    80         10
    81          6
    82         19
    83         38
    84         75
    85          3
    91          5
    92          3
    93          1
    94          3
    95          5
    96        248
    97        120
    98         38
    99          4
   105          2
   106          7
   107          2
   108         23
   109          3
   110         31
   111          2
   112          1
   113          1
   115          2
   123          1
   124        292
   125        621
   126         59
   127         11
   128          2
   129          2