##TITLE=Library Entry 63883
##JCAMP-DX=Revision 4.10 
##DATA TYPE=MASS SPECTRUM
##SAMPLE DESCRIPTION=Japan AIST/NIMC Database- Spectrum MS-IW-1187
##NAMES=HP
##CAS NAME=Benzyl S-(4,6-dimethylpyrimidin-2-yl)thiolcarbonate
##MOLFORM=C14H14N2O2S
##CAS REGISTRY NO=42116-21-2
##MP= -300
##BP= -300
##MW= 274
##$RETENTION INDEX=0
##$CONDENSED SPECTRUM=NO
##NPOINTS= 143
##XYDATA=(XY..XY) 1 
    15          7
    26          2
    27         11
    28          6
    29          1
    32          7
    37          3
    38          9
    39         94
    40         16
    41         16
    42         45
    43          3
    44         19
    45          9
    46          1
    50          9
    51         28
    52         10
    53         12
    54          4
    55          5
    56          1
    57          3
    58          4
    59          6
    60         27
    61          1
    62          4
    63         13
    64          8
    65         82
    66         38
    67         82
    68          4
    69          1
    70          5
    71          5
    72         27
    73          1
    74          5
    75          2
    76          2
    77         44
    78          9
    79         54
    80         17
    81         13
    82         71
    83          9
    84          5
    85          3
    86          1
    89         14
    90          9
    91        999
    92         98
    93         12
    94          2
    95          5
    96          5
    97          1
    98         13
    99          5
   100          1
   103         15
   104          2
   105          7
   106          3
   107        109
   108         71
   109          9
   110          1
   112          5
   113          3
   114          1
   115          1
   121          3
   122          3
   123          6
   124          5
   125         32
   126          3
   127          2
   129          1
   135          1
   137          1
   138          1
   139         22
   140        152
   141         14
   142          8
   147          4
   148          3
   149          2
   151         19
   152         19
   153         12
   154          2
   155          1
   157          1
   160          2
   161         11
   162         39
   163          4
   165          1
   167          2
   170          1
   172          3
   173          1
   179          1
   180         26
   181          6
   182          6
   183          2
   185          1
   186          3
   187          1
   188         53
   189          7
   190          2
   195          1
   196          9
   197        132
   198         20
   199          2
   204          3
   205          1
   213         13
   214          3
   215          6
   216          1
   229          8
   230        155
   231         32
   232          9
   233          1
   245         26
   246        118
   247         19
   248          7
   274          4
   275          1