##TITLE=Library Entry 66502
##JCAMP-DX=Revision 4.10 
##DATA TYPE=MASS SPECTRUM
##SAMPLE DESCRIPTION=D.HENNEBERG, MAX-PLANCK INSTITUTE, MULHEIM, WEST GERMAN
Y
##NAMES=HP
##CAS NAME=1,3,6-Heptatriene, 2,5,6-trimethyl-
##MOLFORM=C10H16
##CAS REGISTRY NO=42123-66-0
##MP= -300
##BP= -300
##MW= 136
##$RETENTION INDEX=0
##$CONDENSED SPECTRUM=NO
##NPOINTS= 84
##XYDATA=(XY..XY) 1 
    26         15
    28         19
    29        251
    30          4
    31          0
    32          0
    37          0
    38          2
    39        248
    40         41
    41        564
    42         43
    43        192
    44          5
    45          0
    48          0
    49          1
    50          4
    51         37
    52         26
    53        255
    54         28
    55        327
    56         25
    57         25
    63          7
    64          5
    65        112
    66         41
    67        323
    68         45
    69         38
    70         29
    71         26
    74          1
    75          5
    76          1
    77        430
    78         78
    79        741
    80        147
    81        120
    82         15
    83          6
    84          2
    85          1
    86          1
    89          9
    90          2
    91        631
    92         98
    93        999
    94        485
    95        164
    96         11
    97          2
   100          4
   101          1
   102          2
   103         49
   104         12
   105        495
   106        137
   107        586
   108        345
   109         34
   110          3
   111          1
   115          4
   116          1
   117          7
   118          2
   119         72
   120         13
   121        871
   122         84
   123          9
   124          0
   133          1
   134          2
   135          7
   136        229
   137         20
   138          5