##TITLE=Library Entry 62639
##JCAMP-DX=Revision 4.10 
##DATA TYPE=MASS SPECTRUM
##SAMPLE DESCRIPTION=NIST Mass Spectrometry Data Center
##NAMES=HP
##CAS NAME=N,N-Bis(2-chloroethyl)-p-toluenesulfonamide
##MOLFORM=C11H15Cl2NO2S
##CAS REGISTRY NO=42137-88-2
##MP= -300
##BP= -300
##MW= 295
##$RETENTION INDEX=0
##$CONDENSED SPECTRUM=NO
##NPOINTS= 86
##XYDATA=(XY..XY) 1 
    14          5
    15         32
    16          1
    18          4
    27        221
    28         43
    32          1
    35          2
    36          4
    37          2
    38         11
    39        113
    40         16
    41         53
    42        199
    43         11
    45          5
    47          2
    49         52
    50         20
    51         54
    52         13
    53          8
    54         10
    55         16
    61          9
    62         23
    63        152
    65        280
    66         17
    67          6
    68          3
    69          5
    70          1
    71          2
    74          4
    75          6
    76         10
    77         22
    78         11
    79          5
    80          1
    82          1
    85          1
    89         67
    91        999
    92         87
    93          6
    94          2
    95          1
   103          1
   104          3
   107          1
   108          1
   109          1
   111          3
   115          1
   117          1
   118          3
   120          1
   121          2
   122          2
   123          5
   124          2
   125          1
   127          1
   139         17
   140          5
   141          1
   142          1
   152          1
   155        732
   156         63
   157         37
   158          3
   184          4
   243          1
   244          2
   246        590
   247         71
   248        214
   249         28
   250         11
   260          1
   295          3
   297          2