##TITLE=Library Entry 67457
##JCAMP-DX=Revision 4.10 
##DATA TYPE=MASS SPECTRUM
##SAMPLE DESCRIPTION=Japan AIST/NIMC Database- Spectrum MS-NW-9416
##NAMES=HP
##CAS NAME=2-Chloro-6-ethoxypyridine
##MOLFORM=C7H8ClNO
##CAS REGISTRY NO=42144-78-5
##MP= -300
##BP= -300
##MW= 157
##$RETENTION INDEX=1100
##$CONDENSED SPECTRUM=NO
##NPOINTS= 101
##XYDATA=(XY..XY) 1 
    14          4
    15         11
    25          2
    26         40
    27        169
    28         42
    29        173
    30          4
    35          2
    36         14
    37         39
    38        127
    39        311
    40         25
    41         13
    42          7
    43         14
    44          2
    45          3
    46          2
    47          7
    48          2
    49         19
    50         51
    51         46
    52         21
    53          8
    54          3
    55          3
    60          8
    61         12
    62         20
    63         18
    64         70
    65        103
    66        323
    67         25
    68          2
    72          2
    73         22
    74         26
    75         24
    76        147
    77         24
    78        138
    79          9
    80          1
    82          1
    83         11
    84          3
    85         27
    86         11
    87         10
    88          4
    89          1
    91          1
    92         10
    93        100
    94        999
    95         65
    96          5
    99          1
   100         32
   101        499
   102         52
   103        160
   104         13
   106          6
   107          1
   111         12
   112        108
   113        448
   114         98
   115        145
   116         20
   117          1
   120          3
   122         45
   123          6
   124          9
   125          1
   127          1
   128          7
   129        462
   130         37
   131        148
   132         11
   138          4
   139          3
   140          6
   141          1
   142        745
   143         52
   144        237
   145         16
   146          1
   156         36
   157        381
   158         48
   159        122
   160         11