##TITLE=Library Entry 75105
##JCAMP-DX=Revision 4.10 
##DATA TYPE=MASS SPECTRUM
##SAMPLE DESCRIPTION=NIST Mass Spectrometry Data Center
##NAMES=HP
##CAS NAME=5-Chloro-2-pyridinol
##MOLFORM=C5H4ClNO
##CAS REGISTRY NO=4214-79-3
##MP= -300
##BP= -300
##MW= 129
##$RETENTION INDEX=0
##$CONDENSED SPECTRUM=NO
##NPOINTS= 69
##XYDATA=(XY..XY) 1 
    12          5
    13          8
    14         15
    16          9
    17          7
    24          3
    25         24
    26         47
    27         32
    28        240
    29         72
    30          4
    31          1
    32         10
    35         27
    36         56
    37        214
    38        300
    39        419
    40         43
    41         88
    42         27
    43         12
    44          6
    47         68
    48         23
    49         95
    50        143
    51         78
    52         29
    53         24
    54          7
    55          7
    56          4
    59          4
    60         27
    61         21
    62         34
    63         29
    64         50
    65         35
    66        179
    67         20
    68          8
    69         10
    71         18
    72         45
    73        234
    74        280
    75        111
    76        129
    77         15
    80          5
    84         12
    85         13
    86          6
    92          5
    94         63
    95         10
   101        999
   102         86
   103        317
   104         21
   106          5
   108          1
   129        723
   130         58
   131        241
   132         19