##TITLE=Library Entry 29180
##JCAMP-DX=Revision 4.10 
##DATA TYPE=MASS SPECTRUM
##SAMPLE DESCRIPTION=HCACAV,61(8)2941(1978); M. JULLIARD ET AL
##NAMES=HP
##CAS NAME=Thiazole, 2-(2-thienyl)-
##MOLFORM=C7H5NS2
##CAS REGISTRY NO=42140-95-4
##MP= -300
##BP= -300
##MW= 167
##$RETENTION INDEX=0
##$CONDENSED SPECTRUM=NO
##NPOINTS= 11
##XYDATA=(XY..XY) 1 
    45         80
    57         50
    58        999
    59         50
    60         60
    69         50
   109         30
   110         40
   167        960
   168        100
   169        100