##TITLE=Library Entry 5515
##JCAMP-DX=Revision 4.10 
##DATA TYPE=MASS SPECTRUM
##SAMPLE DESCRIPTION=NIST Mass Spectrometry Data Center
##NAMES=HP
##CAS NAME=Propane, 1-(2-chloroethoxy)-
##MOLFORM=C5H11ClO
##CAS REGISTRY NO=42149-74-6
##MP= -300
##BP= -300
##MW= 122
##$RETENTION INDEX=0
##$CONDENSED SPECTRUM=NO
##NPOINTS= 59
##XYDATA=(XY..XY) 1 
    12          1
    13          4
    14         13
    15         49
    16          2
    17          2
    18          2
    19          2
    25          6
    26         83
    27        562
    28        163
    29        183
    30         23
    31        114
    32          7
    35          5
    36          3
    37          7
    38         15
    39        118
    40         21
    41        301
    42         68
    43        999
    44         75
    45         27
    46          1
    47          4
    48          6
    49         56
    50          8
    51         19
    53          2
    55         93
    56          4
    57         13
    58          5
    59         25
    60          1
    61          9
    63        540
    64         19
    65        166
    66          4
    71          2
    73        478
    74         23
    75          1
    79          2
    81          2
    86          1
    93        213
    94          9
    95         69
    96          3
   122         47
   123          4
   124         14