##TITLE=Library Entry 5411
##JCAMP-DX=Revision 4.10 
##DATA TYPE=MASS SPECTRUM
##SAMPLE DESCRIPTION=Div. of Experiment Therapeutics WRAIR, WRAMC, Washingto
n DC 20307
##NAMES=HP
##CAS NAME=2,4-Diamino-5,6,7,8-tetrahydro-7-methylpyrido[4,3-4,5]thieno[2,3-
d]pyrimidine
##MOLFORM=C10H13N5S
##CAS REGISTRY NO=42159-88-6
##MP= -300
##BP= -300
##MW= 235
##$RETENTION INDEX=0
##$CONDENSED SPECTRUM=NO
##NPOINTS= 161
##XYDATA=(XY..XY) 1 
    42        999
    43        766
    44         96
    45         75
    46          7
    47          4
    49          1
    50         19
    51         53
    52         57
    53         46
    54         28
    55          5
    56         12
    57         17
    58         51
    59         30
    60         33
    61          7
    62         13
    63         45
    64         49
    65         52
    66         31
    67         19
    68         51
    69         63
    70         34
    71         18
    72          7
    73          4
    74          3
    75          7
    76         44
    77         32
    78         48
    79         24
    80         25
    81         19
    82         19
    83         13
    84         14
    85         19
    86         15
    87          6
    88         12
    89         12
    90         34
    91         28
    92         16
    93         20
    94         45
    95         28
    96         40
    97         36
    98          6
    99          3
   100          7
   101          3
   102         11
   103         14
   104          8
   105         53
   106         26
   107         42
   108         25
   109         15
   110          8
   111          3
   112          2
   114          1
   115          2
   116         23
   117         27
   118         32
   119         10
   120         11
   121         24
   122         35
   123         28
   124         21
   125          8
   126          7
   129          4
   130          8
   131          9
   132         28
   133         37
   134         31
   135         12
   136          8
   137         13
   138          8
   139          4
   142          5
   143          6
   144          6
   145          2
   146          8
   147         15
   148         15
   149         35
   150        157
   151        106
   152         17
   153          5
   154          7
   155          2
   157          6
   158         16
   159         25
   160         12
   161         15
   162         11
   163         18
   164         11
   165         34
   166         14
   167          8
   171          3
   172          1
   173          2
   174          9
   175        137
   176         50
   177         22
   178          7
   179         29
   180          5
   181          0
   185          3
   186          4
   187          3
   188          7
   190         38
   191        218
   192        730
   193        166
   194         54
   195         10
   200          9
   201          9
   202         34
   203         18
   205         42
   206         19
   207         17
   208          2
   216          2
   217          9
   218         16
   219         27
   220         79
   221         11
   222          4
   233         24
   234        653
   235        801
   236         87
   237         25
   238          2