##TITLE=Library Entry 107845
##JCAMP-DX=Revision 4.10 
##DATA TYPE=MASS SPECTRUM
##SAMPLE DESCRIPTION=J.E.DOOLEY ENERGY RES. CENTRE, BARTLESVILLE, OKLAHOMA,
 USA
##NAMES=HP
##CAS NAME=Benzene, 1-[(1,1-dimethylethyl)thio]-2-methyl-
##MOLFORM=C11H16S
##CAS REGISTRY NO=42157-51-7
##MP= -300
##BP= -300
##MW= 180
##$RETENTION INDEX=0
##$CONDENSED SPECTRUM=NO
##NPOINTS= 136
##XYDATA=(XY..XY) 1 
    25          0
    26         11
    27        102
    28         14
    29        184
    30          4
    32          1
    33          1
    34          1
    35          0
    36          0
    37          5
    38         18
    39        173
    40         16
    41        215
    42         12
    43          5
    44          1
    45        218
    46          5
    47         14
    48          0
    49          2
    50         17
    51         46
    52         13
    53         24
    54          2
    55         19
    56          8
    57        407
    58         23
    59         17
    60          1
    61          3
    62         10
    63         36
    64         10
    65         42
    66          4
    67          2
    68          1
    69         32
    70          7
    71         14
    72          1
    73         10
    74          4
    75          5
    76          3
    77         87
    78         24
    79         39
    80          5
    81          3
    82          8
    83          5
    84          6
    85          3
    86          2
    87          3
    88          1
    89         32
    90         25
    91        276
    92         23
    93          4
    94          1
    95          4
    96          2
    97         13
    98          1
    99          0
   102          0
   103          0
   104          0
   105          1
   106          0
   107          0
   108         10
   109          3
   110          1
   111          0
   112          0
   113          0
   115          1
   116          0
   117          0
   118          0
   119          0
   120          0
   121         28
   122          7
   123         46
   124        999
   125         94
   126         46
   127          3
   128          0
   129          0
   130          0
   131          0
   132          0
   133          0
   134          2
   135          1
   136          0
   137          4
   138          1
   139          0
   140          0
   141          0
   145          0
   146          0
   147          1
   148          0
   149          1
   150          0
   151          0
   152          4
   153          0
   154          0
   161          0
   162          0
   163          0
   164          0
   165         14
   166          1
   167          0
   168          0
   177          0
   179          0
   180        133
   181         17
   182          6