##TITLE=Library Entry 41417
##JCAMP-DX=Revision 4.10 
##DATA TYPE=MASS SPECTRUM
##SAMPLE DESCRIPTION=Chemical Concepts
##NAMES=HP
##CAS NAME=1-Cyclopropyl-1-(trimethylsilyloxy)ethylene
##MOLFORM=C8H16OSi
##CAS REGISTRY NO=42161-96-6
##MP= -300
##BP= -300
##MW= 156
##$RETENTION INDEX=0
##$CONDENSED SPECTRUM=NO
##NPOINTS= 87
##XYDATA=(XY..XY) 1 
    26          4
    27         40
    28         11
    29         26
    31         13
    38          7
    39        102
    40         17
    41         86
    42         18
    43        115
    44         54
    45        219
    46         15
    47         99
    48          6
    49          3
    50          5
    51         15
    52          4
    53         21
    54          5
    55         25
    56          6
    57         28
    58         21
    59        121
    60         19
    61         53
    62         13
    63         47
    64          3
    65         22
    66         31
    67         46
    68          3
    69         14
    70         18
    71         45
    72         83
    73        999
    74         88
    75        868
    76         62
    77         34
    79          7
    81          8
    82          6
    83         18
    84          4
    85         46
    86          5
    87          7
    88          2
    91          3
    95          8
    97         44
    98         11
    99        538
   100         55
   101         39
   102          2
   103         12
   111         32
   112          7
   113         52
   114          6
   115         60
   116          7
   117          4
   123         16
   124          4
   125         28
   126          5
   127         43
   128         31
   129          6
   130          4
   139          5
   141        846
   142         99
   143         34
   144          3
   155         86
   156        294
   157         44
   158         10