##TITLE=Library Entry 14760
##JCAMP-DX=Revision 4.10 
##DATA TYPE=MASS SPECTRUM
##SAMPLE DESCRIPTION=Div. of Experiment Therapeutics WRAIR, WRAMC, Washingto
n DC 20307
##NAMES=HP
##CAS NAME=2,4-Diamino-6-[3,4-dichlorobenzyl]-5-methylthieno[2,3-d]pyrimidin
e
##MOLFORM=C14H12Cl2N4S
##CAS REGISTRY NO=42160-14-5
##MP= -300
##BP= -300
##MW= 338
##$RETENTION INDEX=0
##$CONDENSED SPECTRUM=NO
##NPOINTS= 232
##XYDATA=(XY..XY) 1 
    43        999
    44          9
    45        120
    46          3
    47          8
    50         50
    51         56
    52         38
    53         39
    54         15
    55          6
    58         40
    59         38
    60         50
    61          2
    63        124
    64         47
    65         64
    66         84
    67         35
    68         48
    69         58
    70         30
    71         18
    72         12
    73         30
    74         39
    75         49
    76         25
    77         19
    78         21
    79         14
    80         17
    81         10
    82         21
    83         15
    85         79
    86         28
    87         21
    89         75
    90         32
    91         32
    92         26
    93         32
    94         16
    95          9
    97         59
    98          8
    99         52
   100          9
   101          8
   102          8
   103          7
   105         31
   106          7
   107         28
   109         65
   110         21
   111         22
   112         23
   113         24
   114          2
   115         15
   117         26
   118         25
   119          9
   120          8
   121         10
   123         79
   124         39
   125         47
   126         19
   127         12
   128          4
   129          3
   130          3
   133        203
   135         32
   136         13
   137         17
   138         10
   139         13
   140          6
   141          2
   142          8
   143          7
   144          5
   145         11
   146          6
   147          7
   148          9
   149         16
   151        308
   152         33
   153         17
   154          4
   155          1
   157          4
   159         61
   161         73
   162         25
   163         10
   164         12
   165          7
   166         10
   167         10
   168         11
   169         23
   170         23
   171         14
   172          6
   173          6
   174          6
   176         64
   177          9
   179         50
   180          8
   181          4
   182          4
   183          7
   184          7
   185          5
   186          5
   187          5
   188          2
   189          8
   191         23
   193        395
   194         45
   195         22
   196         23
   197         12
   198         13
   199          5
   200          5
   201          5
   202          4
   203          4
   204          4
   205          5
   206          4
   207          6
   208          2
   209         18
   211         19
   212          5
   213          5
   214          2
   215          2
   216          3
   217          6
   218          6
   219          4
   220          4
   221          5
   223          3
   224         52
   225         18
   226          8
   227          4
   228          3
   229          2
   230          6
   231          1
   232          5
   233          5
   234          6
   235          5
   236          5
   238          2
   239          2
   241          4
   243         13
   244         11
   245         10
   246          6
   247          4
   249         14
   250          7
   251          5
   253         15
   254          3
   258         11
   259         14
   261         21
   262          2
   263          6
   264          2
   265          2
   266          8
   267         12
   268          5
   269          5
   270          6
   271          1
   278          3
   279          6
   281         25
   283         20
   284          4
   285          7
   286          4
   287         12
   288         13
   289          4
   290          2
   293          1
   295         29
   297         28
   298          4
   299          2
   301         11
   303         52
   305         39
   306         13
   307          9
   308          4
   320          7
   322          3
   323        293
   325        206
   326         14
   327         29
   328          3
   335          6
   338        782
   339        177
   340        556
   341        137
   342         96
   343         17
   344          2