##TITLE=Library Entry 21951
##JCAMP-DX=Revision 4.10 
##DATA TYPE=MASS SPECTRUM
##SAMPLE DESCRIPTION=Japan AIST/NIMC Database- Spectrum MS-IW- 345
##NAMES=HP
##CAS NAME=(R)-2-Aminobutyl hydrogen sulfate
##MOLFORM=C4H11NO4S
##CAS REGISTRY NO=42163-16-6
##MP= -300
##BP= -300
##MW= 169
##$RETENTION INDEX=0
##$CONDENSED SPECTRUM=NO
##NPOINTS= 119
##XYDATA=(XY..XY) 1 
    14          3
    15         25
    16         43
    17          2
    18          9
    24          2
    25          1
    26         16
    27        108
    28        403
    29        157
    30        651
    31         26
    32         28
    33          7
    34          3
    36          1
    37         12
    38         24
    39        153
    40         26
    41        221
    42        143
    43        235
    44         40
    45          4
    46          9
    48        247
    49          4
    50         18
    51         19
    52         13
    53         65
    54        119
    55        137
    56        999
    57         70
    58        280
    59         54
    60         45
    61          1
    62          1
    63          1
    64        477
    65          9
    66         22
    67         12
    68         37
    69         33
    70        213
    71         75
    72         31
    73          4
    76          1
    77          5
    78          1
    79          3
    80        552
    81          8
    82         35
    83          8
    84         45
    85          5
    86          4
    87          2
    88          1
    90          2
    91          3
    92          1
    93          3
    94         22
    95          3
    96         12
    97         20
    98          9
    99          1
   100         88
   101          5
   105          3
   106          4
   107          4
   108          6
   109          3
   110         24
   111          5
   112         82
   113         11
   114          7
   115         14
   116          1
   118          1
   119          1
   120          4
   121          3
   122         40
   123          2
   124         15
   125          4
   126          3
   127          1
   128          1
   134          2
   135          3
   136          3
   137          1
   138          1
   139          1
   142          4
   143          1
   144          2
   149          1
   150          2
   151          3
   152          1
   164          2
   166          8
   167          1
   168          2
   169          1