##TITLE=Library Entry 61266
##JCAMP-DX=Revision 4.10 
##DATA TYPE=MASS SPECTRUM
##SAMPLE DESCRIPTION=G.GERCKEN UNIV. HAMBURG, 2 HAMBURG 13, GERMANY, F.R.G.
##NAMES=HP
##CAS NAME=Decanoic acid, phenylmethyl ester
##MOLFORM=C17H26O2
##CAS REGISTRY NO=42175-41-7
##MP= -300
##BP= -300
##MW= 262
##$RETENTION INDEX=1917
##$CONDENSED SPECTRUM=NO
##NPOINTS= 84
##XYDATA=(XY..XY) 1 
    26         19
    27         75
    29        132
    39         63
    40         22
    41        203
    42         50
    43        360
    44         75
    45         19
    50         13
    51         35
    52         13
    53         19
    54         16
    55        141
    56         41
    57        197
    58         13
    59         13
    60         31
    63         22
    65        106
    67         47
    68         19
    69        188
    70         28
    71        166
    73         28
    77         50
    78         25
    79         81
    80         16
    81         59
    82         13
    83         78
    84         31
    85         81
    87         19
    89         38
    90         97
    91        999
    92        297
    93         35
    95         56
    96         16
    97         72
    98         31
   101         16
   103         13
   104         16
   105         31
   106         13
   107         63
   108        720
   109         78
   110         16
   111         59
   112         13
   115         16
   117         13
   123         13
   131         16
   135         78
   136          9
   137         13
   149         13
   150         13
   152         25
   153        100
   154         19
   155         69
   156         13
   170         11
   171         81
   172         14
   173          9
   177          8
   178          6
   179          6
   180         11
   191          8
   244          9
   262         16