##TITLE=Library Entry 19556
##JCAMP-DX=Revision 4.10 
##DATA TYPE=MASS SPECTRUM
##SAMPLE DESCRIPTION=B. F. SMITH
##NAMES=HP
##CAS NAME=Cyclohexaneacetonitrile, 2-oxo-
##MOLFORM=C8H11NO
##CAS REGISTRY NO=42185-27-3
##MP= -300
##BP= -300
##MW= 137
##$RETENTION INDEX=0
##$CONDENSED SPECTRUM=NO
##NPOINTS= 92
##XYDATA=(XY..XY) 1 
    13          8
    14         27
    15         58
    16          5
    17         35
    18        120
    19          3
    25          4
    26         86
    27        372
    28        141
    29         79
    30          4
    31          4
    32          1
    35          5
    36          1
    37         21
    38         44
    39        314
    40         84
    41        467
    42        522
    43         48
    44          9
    45          1
    47          6
    48          3
    49          5
    50         24
    51         43
    52         51
    53        110
    54        120
    55        999
    56         68
    57          7
    58          1
    61          2
    62          4
    63          9
    64         10
    65         16
    66         52
    67         88
    68        121
    69         95
    70         54
    71          5
    74          2
    75          5
    76          3
    77          9
    78         10
    79         20
    80         52
    81         76
    82         67
    83         24
    84        181
    85         10
    86          1
    91          4
    92          7
    93         13
    94         71
    95         14
    96          9
    97         28
    98         18
    99          2
   105          1
   106          1
   107          3
   108          4
   109         91
   110         11
   111          2
   117         14
   118          1
   119         14
   120          2
   121          5
   122          3
   123          1
   133          1
   134          1
   135          1
   136         14
   137         85
   138         10
   147          3