##TITLE=Library Entry 22621
##JCAMP-DX=Revision 4.10 
##DATA TYPE=MASS SPECTRUM
##SAMPLE DESCRIPTION=Chemical Concepts
##NAMES=HP
##CAS NAME=2,3-Dimethylcyclohexylamine
##MOLFORM=C8H17N
##CAS REGISTRY NO=42195-92-6
##MP= -300
##BP= -300
##MW= 127
##$RETENTION INDEX=0
##$CONDENSED SPECTRUM=NO
##NPOINTS= 86
##XYDATA=(XY..XY) 1 
    26          1
    27         34
    28         59
    29         38
    30        100
    31          1
    36          0
    37          0
    38          0
    39         34
    40          5
    41         85
    42         44
    43        153
    44         48
    45         11
    46          0
    48          1
    49          0
    50          0
    51          3
    52          2
    53         18
    54         18
    55         55
    56        999
    57        137
    58         13
    59          2
    60          1
    63          1
    64          0
    66          2
    67         36
    68         24
    69         28
    70         77
    71          9
    72          4
    73          0
    76          1
    77          5
    78          1
    79          5
    80          6
    81         64
    82         28
    83          8
    84        492
    85         36
    86          1
    91          3
    92          0
    93          4
    94          3
    95         97
    96         12
    97          3
    98         82
    99          5
   100          0
   101          0
   102          0
   103          0
   104          0
   105          0
   106          1
   107          0
   108          1
   109         10
   110        252
   111         24
   112         49
   113          4
   114          0
   115          0
   118          0
   121          1
   122          0
   123          0
   124          0
   125          0
   126         16
   127        157
   128         17
   129          0