##TITLE=Library Entry 50674
##JCAMP-DX=Revision 4.10 
##DATA TYPE=MASS SPECTRUM
##SAMPLE DESCRIPTION=Chemical Concepts
##NAMES=HP
##CAS NAME=5H-Inden-5-one, octahydro-1-hydroxy-7a-methyl-
##MOLFORM=C10H16O2
##CAS REGISTRY NO=42199-04-2
##MP= -300
##BP= -300
##MW= 168
##$RETENTION INDEX=0
##$CONDENSED SPECTRUM=NO
##NPOINTS= 91
##XYDATA=(XY..XY) 1 
    26         33
    27        494
    28        134
    29        322
    30         21
    31         89
    37          6
    38         24
    39        469
    40         64
    41        782
    42         83
    43        594
    44         49
    45         37
    48          6
    50         38
    51         92
    52         58
    53        343
    54        108
    55        638
    56         86
    57        190
    58         92
    59         34
    62         11
    63         22
    65        106
    66         55
    67        712
    68        352
    69        296
    70        121
    71        122
    72         25
    77        170
    78         31
    79        320
    80        154
    81        999
    82        580
    83        307
    84         78
    85         58
    86          9
    91        151
    92        198
    93        507
    94        117
    95        349
    96        481
    97        495
    98        327
    99         29
   100          4
   105         27
   106         71
   107        375
   108        222
   109        376
   110        205
   111        794
   112        128
   113         13
   117         29
   119          7
   121         49
   122        108
   123         41
   124        377
   125        315
   126         27
   127         29
   132         28
   133         26
   135         89
   136         12
   137          7
   139         25
   140         49
   141          7
   149         13
   150        112
   151         49
   153         72
   154         10
   164          7
   168        591
   169         96
   170          5