##TITLE=Library Entry 77103
##JCAMP-DX=Revision 4.10 
##DATA TYPE=MASS SPECTRUM
##SAMPLE DESCRIPTION=Japan AIST/NIMC Database- Spectrum MS-IW-2040
##NAMES=HP
##CAS NAME=Hexadecanoic acid, 2-hydroxyethyl ester
##MOLFORM=C18H36O3
##CAS REGISTRY NO=4219-49-2
##MP= -300
##BP= -300
##MW= 300
##$RETENTION INDEX=2207
##$CONDENSED SPECTRUM=NO
##NPOINTS= 208
##XYDATA=(XY..XY) 1 
    15          3
    17          2
    18          9
    19          6
    26          2
    27         41
    28         15
    29         99
    30          3
    31         18
    32          1
    33          2
    39         25
    40          6
    41        236
    42         62
    43        372
    44        134
    45        128
    46          3
    51          1
    53         13
    54         25
    55        310
    56         74
    57        277
    58         24
    59         15
    60         61
    61        184
    62          5
    63          3
    65          2
    66          3
    67         52
    68         33
    69        196
    70         52
    71        153
    72         13
    73        109
    74         24
    75          7
    77          3
    78          1
    79         13
    80          9
    81         55
    82         36
    83        156
    84        199
    85        100
    86        176
    87         61
    88         10
    89          9
    91          2
    93         12
    94          9
    95         59
    96         31
    97        140
    98        554
    99        153
   100         17
   101         20
   102          3
   103          5
   104        999
   105         85
   106          9
   107         12
   108          8
   109         35
   110         16
   111         99
   112        195
   113         29
   114          7
   115         15
   116          3
   117        445
   118         29
   119          4
   121         21
   122          8
   123         18
   124         12
   125         41
   126         58
   127         13
   128          5
   129         20
   130          2
   131         13
   132          1
   133          1
   135         18
   136          6
   137         10
   138         10
   139         24
   140         53
   141         11
   142          6
   143          7
   144          1
   145          6
   146         11
   147          1
   148          6
   149         10
   150          3
   151          5
   152          7
   153         19
   154        116
   155         20
   156          3
   157          7
   158          1
   159         25
   160         11
   161          2
   163          5
   164          2
   165          2
   166          4
   167         15
   168         53
   169          9
   170          2
   171          7
   172          1
   173         71
   174          9
   175          1
   177          3
   178          1
   179          1
   180          1
   181         13
   182         84
   183         13
   184          1
   185          6
   187          3
   188          1
   191          2
   192          1
   194          8
   195         36
   196         36
   197          8
   198          1
   199          3
   201          8
   202          1
   205          1
   209         16
   210          9
   211          4
   213         10
   214          2
   215          9
   216          2
   219          3
   220         10
   221          4
   222          1
   223          4
   224          1
   225          1
   227          5
   228          1
   229          7
   230          1
   236          3
   237         10
   238        108
   239        461
   240         80
   241          9
   243          3
   244          1
   253          2
   254          1
   255          1
   256         73
   257        213
   258         36
   259          4
   266          2
   267          8
   268          1
   270         29
   271         10
   272          2
   281          2
   282          5
   283          9
   284          4
   285          4
   286          1
   299          1
   300        332
   301         69
   302          9