##TITLE=Library Entry 87280
##JCAMP-DX=Revision 4.10 
##DATA TYPE=MASS SPECTRUM
##SAMPLE DESCRIPTION=G. SPITELLER, LEHR. ORG. CHEM., UNIV. BAYREUTH, BAYREUT
H, GER.
##NAMES=HP
##CAS NAME=Methyl 6-(2-furoyl)hexanoate
##MOLFORM=C12H16O4
##CAS REGISTRY NO=4219-21-0
##MP= -300
##BP= -300
##MW= 224
##$RETENTION INDEX=0
##$CONDENSED SPECTRUM=NO
##NPOINTS= 18
##XYDATA=(XY..XY) 1 
    39        150
    41         70
    55         90
    59         50
    68         40
    69         50
    74         30
    81         50
    95        640
   110        999
   111        130
   123        120
   136         10
   147         60
   164         10
   193         20
   206         10
   224         20