##TITLE=Library Entry 2330
##JCAMP-DX=Revision 4.10 
##DATA TYPE=MASS SPECTRUM
##SAMPLE DESCRIPTION=James Little,Eastman Chem.Co.,Kingsport,TN
##NAMES=HP
##CAS NAME=3-Hexenoic acid
##MOLFORM=C6H10O2
##CAS REGISTRY NO=4219-24-3
##MP= -300
##BP= -300
##MW= 114
##$RETENTION INDEX=995
##$CONDENSED SPECTRUM=NO
##NPOINTS= 33
##XYDATA=(XY..XY) 1 
    27        470
    28        974
    29        434
    31        147
    39        491
    41        999
    42        202
    43        995
    44        346
    45        279
    53        227
    55        231
    57        313
    58        173
    59        161
    67        227
    68        144
    69        846
    71        192
    73         44
    74         50
    81         47
    83         41
    85        121
    86        130
    87         47
    95         39
    96         84
    97        158
    99         99
   113         77
   114        379
   115         50