##TITLE=Library Entry 52874
##JCAMP-DX=Revision 4.10 
##DATA TYPE=MASS SPECTRUM
##SAMPLE DESCRIPTION=Exported from NIST MS Search
##NAMES=HP
##CAS NAME=Propane, 1,2,2,3,3-pentachloro-1,1-difluoro-
##MOLFORM=C3HCl5F2
##CAS REGISTRY NO=422-30-0
##MP= -300
##BP= -300
##MW= 250
##$RETENTION INDEX=0
##$CONDENSED SPECTRUM=NO
##NPOINTS= 128
##XYDATA=(XY..XY) 1 
    24          1
    25          4
    28          1
    31         33
    32          2
    35         11
    36          9
    37          6
    38          4
    43          1
    44          3
    47         17
    48          9
    49          5
    50          6
    51          5
    53          1
    54          1
    55         10
    56          9
    59          4
    60         28
    61          2
    62          9
    63          1
    64          5
    65          1
    66          3
    67         19
    68          1
    69          6
    70          1
    71          2
    72          3
    73          2
    74          8
    75         27
    76          1
    78          3
    79          1
    80          2
    81          1
    82          9
    83        999
    84         15
    85        766
    86          9
    87        159
    88          2
    90          6
    91         10
    92          2
    93          3
    94          9
    95         21
    96          7
    97         15
    98          2
    99          3
   101         39
   102          1
   103         25
   104          1
   105          4
   106          1
   107          1
   108          1
   109         14
   110          1
   111          5
   113          1
   114          4
   115          1
   116          2
   117         21
   118          1
   119         20
   121          6
   123          1
   125          3
   127          2
   129         12
   130         43
   131         12
   132        266
   133         10
   134        167
   135          4
   136         24
   137          1
   145         45
   146          2
   147         29
   148         11
   149          7
   150         10
   151          2
   152          3
   153          1
   161          8
   163          8
   164          1
   165         55
   166          3
   167         93
   168          3
   169         55
   170          2
   171         15
   173          2
   179         14
   180          4
   181         14
   182          4
   183          6
   184          1
   185          2
   187          1
   195          1
   196          1
   197          1
   198          1
   199          1
   200          1
   215          1
   217          4
   219          4
   221          2