##TITLE=Library Entry 52869
##JCAMP-DX=Revision 4.10 
##DATA TYPE=MASS SPECTRUM
##SAMPLE DESCRIPTION=Thomas J.Bruno
##NAMES=HP
##CAS NAME=Propane, 3,3-dichloro-1,1,1,2,2-pentafluoro-
##MOLFORM=C3HCl2F5
##CAS REGISTRY NO=422-56-0
##MP= -300
##BP= -300
##MW= 202
##$RETENTION INDEX=0
##$CONDENSED SPECTRUM=NO
##NPOINTS= 19
##XYDATA=(XY..XY) 1 
    31        300
    35        142
    47        116
    48        130
    50        126
    51        126
    67        124
    69        880
    79         31
    83        999
    85        905
    87        175
    98        155
   100         77
   132         40
   134         25
   167         11
   183          3
   202          3