##TITLE=Library Entry 612
##JCAMP-DX=Revision 4.10 
##DATA TYPE=MASS SPECTRUM
##SAMPLE DESCRIPTION=G.O.PRITCHARD UNIV.OF CALIFORNIA SANTA BARBARA CALIFORN
IA USA
##NAMES=HP
##CAS NAME=Propanal, pentafluoro-
##MOLFORM=C3HF5O
##CAS REGISTRY NO=422-06-0
##MP= -300
##BP= -300
##MW= 148
##$RETENTION INDEX=0
##$CONDENSED SPECTRUM=NO
##NPOINTS= 25
##XYDATA=(XY..XY) 1 
    12         11
    13          6
    19          2
    20          2
    24          3
    25          2
    28         14
    29        999
    31        121
    32         15
    43          2
    44          6
    50         32
    51        132
    63          2
    69        140
    78          1
    79          1
    81          6
    82          4
    83          4
   100        139
   101         24
   119         11
   120          4