##TITLE=Library Entry 73433
##JCAMP-DX=Revision 4.10 
##DATA TYPE=MASS SPECTRUM
##SAMPLE DESCRIPTION=Chemical Concepts
##NAMES=HP
##CAS NAME=Pentafluoropropionic acid
##MOLFORM=C3HF5O2
##CAS REGISTRY NO=422-64-0
##MP= -300
##BP= -300
##MW= 164
##$RETENTION INDEX=781
##$CONDENSED SPECTRUM=NO
##NPOINTS= 110
##XYDATA=(XY..XY) 1 
    24          5
    25          1
    26          2
    27          5
    28         45
    29         48
    30          0
    31        263
    32          8
    36          0
    37          0
    38          1
    39          4
    40          5
    41          6
    42          1
    43         12
    44         67
    45        567
    46          6
    47         25
    48          1
    49          0
    50        163
    51         86
    52          1
    53          0
    54          0
    55          5
    56          1
    57          4
    58          0
    59          0
    60          5
    61          1
    62         12
    63          3
    64          0
    65          2
    66          2
    67         64
    68          1
    69        655
    70          7
    71          8
    72          0
    73          9
    74          3
    75          6
    76          2
    77         19
    78         15
    79          6
    80          0
    81        122
    82          3
    83          2
    84          2
    85          2
    86          0
    87          1
    88          0
    89          0
    90          1
    91          2
    92          0
    93          1
    94          1
    95          5
    96          1
    97        363
    98         12
    99          1
   100        999
   101         43
   102          1
   103          1
   104          1
   105         36
   106          3
   107          0
   108          0
   109          4
   110          1
   111          2
   112          1
   113          0
   114          0
   115          3
   116          0
   117         48
   118          1
   119        948
   120         23
   121          1
   122         32
   123          4
   124          2
   125          1
   126          0
   127          1
   128          8
   129          2
   130          0
   133          4
   144          0
   145          4
   146          0
   147        152
   148          6