##TITLE=Library Entry 55703
##JCAMP-DX=Revision 4.10 
##DATA TYPE=MASS SPECTRUM
##SAMPLE DESCRIPTION=J.LLOYD PFLUG,FRANK J.SEILER RES.LAB.,USAF ACADEMY,CO 8
0840,USA
##NAMES=HP
##CAS NAME=Nadolol
##MOLFORM=C17H27NO4
##CAS REGISTRY NO=42200-33-9
##MP= -300
##BP= -300
##MW= 309
##$RETENTION INDEX=2633
##$CONDENSED SPECTRUM=NO
##NPOINTS= 95
##XYDATA=(XY..XY) 1 
    28         12
    29         16
    30        255
    31         15
    32          4
    35          2
    36          3
    37          1
    38          3
    39         19
    40          5
    41         33
    42         22
    44         15
    45          2
    46          3
    47          2
    50          1
    51         11
    52          2
    53          0
    56         22
    57         43
    58         50
    59          1
    60         23
    62          0
    63          6
    64          2
    65         21
    66          2
    70         74
    71         51
    72         28
    74          9
    75          2
    76          2
    77         51
    78         22
    79         12
    86        999
    87         61
    88          0
    89          6
    90          4
    91         64
    92          7
   100         10
   102          7
   103         43
   104         13
   105         12
   106          1
   107          7
   114         55
   115         40
   116         39
   117         15
   120         10
   121         11
   123          1
   128          3
   130         20
   131         30
   132         19
   133         13
   138          3
   143          0
   144          8
   145          9
   146          2
   147         14
   157          1
   158          0
   159          2
   160          8
   161         14
   162         10
   170          0
   171          2
   172          0
   173          0
   201          9
   202          0
   212          0
   218          0
   265         41
   266          7
   276          5
   277          1
   294        113
   295         23
   296          4
   309          2
   310          1