##TITLE=Library Entry 32543
##JCAMP-DX=Revision 4.10 
##DATA TYPE=MASS SPECTRUM
##SAMPLE DESCRIPTION=D.HENNEBERG, MAX-PLANCK INSTITUTE, MULHEIM, WEST GERMAN
Y
##NAMES=HP
##CAS NAME=6-Hepten-2-ol, 4-methylene-
##MOLFORM=C8H14O
##CAS REGISTRY NO=42201-30-9
##MP= -300
##BP= -300
##MW= 126
##$RETENTION INDEX=0
##$CONDENSED SPECTRUM=NO
##NPOINTS= 75
##XYDATA=(XY..XY) 1 
    22          0
    23          0
    24          0
    25          2
    26         12
    27        165
    28         16
    29         79
    30          1
    31         18
    33          0
    34          0
    35          1
    36          0
    37         10
    38         24
    39        298
    40         91
    41        281
    42         56
    43        209
    44         18
    45        973
    46         20
    47          2
    48          0
    49          1
    50         15
    51         33
    52         19
    53         77
    54        114
    55         89
    56         14
    57          6
    58          3
    59          0
    61          2
    62          4
    63         15
    64          4
    65         54
    66         47
    67        999
    68         54
    69          8
    70          0
    71          2
    74          1
    75          4
    76          1
    77         66
    78         13
    79         82
    80         39
    81         87
    82        323
    83         35
    84          2
    85          0
    89          1
    90          0
    91         39
    92          4
    93        110
    94          8
    95          1
    97          0
   105          2
   106          0
   107          3
   108         10
   109          3
   111          3
   124          0