##TITLE=Library Entry 16449
##JCAMP-DX=Revision 4.10 
##DATA TYPE=MASS SPECTRUM
##SAMPLE DESCRIPTION=Darrick Lee, Cayman Chemical, Ann Arbor, MI
##NAMES=HP
##CAS NAME=4-chloro-2,5-Dimethoxyamphetamine
##MOLFORM=C11H16ClNO2
##CAS REGISTRY NO=42203-77-0
##MP= -300
##BP= -300
##MW= 229
##$RETENTION INDEX=0
##$CONDENSED SPECTRUM=NO
##NPOINTS= 159
##XYDATA=(XY..XY) 1 
    40          2
    41          5
    42         27
    44        999
    45         26
    46          1
    49          1
    50          7
    51         15
    52          3
    53         14
    54          2
    55          2
    56          3
    57          3
    58          1
    59          1
    60          2
    61          3
    62          6
    63         16
    64          6
    65         17
    66          4
    67          7
    68          2
    69          1
    70          1
    72          1
    73          7
    74          6
    75         18
    76          6
    77         55
    78         11
    79         11
    80          2
    81          2
    82          1
    84          1
    85          3
    86          2
    87          5
    88          4
    89         25
    90          7
    91         29
    92         10
    93          7
    94          3
    95          1
    96          1
    97          2
    99         32
   101         11
   102          5
   103          5
   104          4
   105         20
   106          5
   107          8
   108          8
   109          1
   110          1
   111          7
   112         16
   113          9
   114          6
   115          4
   116          2
   117          4
   118          4
   119          5
   120          5
   121         10
   122          5
   123          2
   124          2
   125         17
   126          5
   127         13
   128          6
   129          4
   130          3
   131          2
   132          2
   133          3
   134          5
   135          2
   136          4
   137          2
   138          2
   139          3
   140          5
   141          5
   142         17
   143          7
   144          5
   145          3
   146          3
   147          9
   148          6
   149          4
   150          1
   151          4
   152          2
   153          2
   155         33
   156          6
   157         16
   158          3
   159          2
   160          1
   161          4
   162          5
   163          5
   164          4
   165          1
   166          1
   167          1
   168          1
   169          2
   170          6
   171         45
   172          7
   173         14
   174          2
   175          1
   176          1
   177          1
   178          3
   179          2
   180          1
   181          1
   182          3
   183          4
   184          6
   185         29
   186        218
   187         28
   188         71
   189          7
   190          1
   195          1
   196          2
   197          2
   198          4
   199          2
   200          1
   210          1
   212          1
   213          2
   214          3
   215          1
   216          1
   228          1
   229          4
   230          1
   231          2