##TITLE=Library Entry 58620
##JCAMP-DX=Revision 4.10 
##DATA TYPE=MASS SPECTRUM
##SAMPLE DESCRIPTION=Chemical Concepts
##NAMES=HP
##CAS NAME=2-Propynoic acid, 3-(trimethylsilyl)-, methyl ester
##MOLFORM=C7H12O2Si
##CAS REGISTRY NO=42201-71-8
##MP= -300
##BP= -300
##MW= 156
##$RETENTION INDEX=0
##$CONDENSED SPECTRUM=NO
##NPOINTS= 86
##XYDATA=(XY..XY) 1 
    25          1
    26          4
    27         14
    28         16
    29         67
    30          9
    31         26
    33          0
    34          1
    37          3
    38          4
    39         14
    40          2
    41          7
    42         26
    43        167
    44         27
    45        104
    46          6
    47          7
    48          1
    50          2
    51          2
    52         17
    53        115
    54         22
    55         72
    56          7
    57          7
    58         16
    59        296
    60         22
    61         14
    63          3
    64          3
    65         34
    66         88
    67        144
    68         22
    69         29
    70          8
    71          5
    72          2
    73        111
    74          9
    75         23
    76          3
    77          5
    78          1
    79          4
    80          6
    81         12
    82         57
    83        167
    84         19
    85         10
    86          1
    87          1
    89        999
    90         76
    91         32
    92          2
    93          1
    95          2
    96          3
    97        122
    98         87
    99         14
   100          4
   110         22
   111         13
   112          2
   113        180
   114         22
   115          7
   116          1
   125        149
   126         21
   127          9
   128          1
   129          0
   141        366
   142         40
   143         13
   144          1
   155          0