##TITLE=Library Entry 9265
##JCAMP-DX=Revision 4.10 
##DATA TYPE=MASS SPECTRUM
##SAMPLE DESCRIPTION=Chemical Concepts
##NAMES=HP
##CAS NAME=Octanoic acid, 8-hydroxy-, methyl ester, acetate
##MOLFORM=C11H20O4
##CAS REGISTRY NO=4220-53-5
##MP= -300
##BP= -300
##MW= 216
##$RETENTION INDEX=0
##$CONDENSED SPECTRUM=NO
##NPOINTS= 145
##XYDATA=(XY..XY) 1 
    25          4
    27         30
    28         18
    29         39
    30          2
    31          9
    33          1
    34          0
    35          2
    36          1
    37          1
    38          1
    39         32
    40          8
    41        143
    42         53
    43        999
    44         16
    45         14
    46          1
    47          6
    48          2
    49         47
    50          2
    51         12
    52          1
    53         12
    54         24
    55        436
    56         37
    57         25
    58          7
    59         75
    60          3
    61         55
    62          1
    63          1
    64          0
    65          2
    66          4
    67         47
    68         92
    69         70
    70         19
    71         14
    72          9
    73         33
    74        530
    75         22
    76          2
    77          3
    78          1
    79          8
    80         17
    81         38
    82        137
    83        336
    84         60
    85         13
    86         30
    87        252
    88         28
    89          2
    90          0
    91          2
    92          1
    93          5
    94          3
    95         46
    96        170
    97         59
    98         67
    99          8
   100          5
   101         40
   102          4
   103          1
   104          0
   105          1
   106          4
   107          4
   108          1
   109          5
   110          3
   111          8
   112          4
   113         23
   114         36
   115         13
   116          2
   117          0
   118          0
   119          1
   120          0
   121          1
   122          1
   123          8
   124        313
   125         65
   126         12
   127         12
   128         20
   129         15
   130          2
   131          1
   132          0
   133          0
   134          1
   135          0
   136          0
   137          0
   138          1
   139          1
   140          1
   141         50
   142         11
   143        146
   144         15
   145          1
   155          1
   156         20
   157          5
   158          1
   159          0
   165          0
   166          0
   167          0
   168          0
   169          1
   171          0
   173          5
   174          1
   175          1
   179          0
   180          0
   181          0
   182          0
   183          0
   184          1
   185         43
   186          5
   187          0
   216          0
   217          2
   218          0