##TITLE=Library Entry 77704
##JCAMP-DX=Revision 4.10 
##DATA TYPE=MASS SPECTRUM
##SAMPLE DESCRIPTION=Div. of Experiment Therapeutics WRAIR, WRAMC, Washingto
n DC 20307
##NAMES=HP
##CAS NAME=3-Nitroamino-5-phenyl-1,2,4-triazole
##MOLFORM=C8H7N5O2
##CAS REGISTRY NO=42216-44-4
##MP= -300
##BP= -300
##MW= 205
##$RETENTION INDEX=0
##$CONDENSED SPECTRUM=NO
##NPOINTS= 85
##XYDATA=(XY..XY) 1 
    41          8
    42         11
    43         16
    44         10
    46         53
    47          4
    49         23
    50        109
    51        176
    52         49
    53         12
    54          1
    55          5
    56          1
    57         25
    60          2
    61          7
    62         20
    63         45
    64         18
    65         19
    66          1
    68          5
    69          3
    71          2
    72          1
    73          3
    74         17
    75         39
    76        168
    77        327
    78         14
    79          3
    80          1
    82          0
    84         10
    86         11
    87          4
    88         13
    89         15
    90         16
    91         18
    92         31
    93          0
    97          3
    98          0
    99          3
   100          2
   103        351
   104        999
   105         60
   106          3
   114          4
   115         21
   117         34
   118         50
   119          2
   120          2
   121          2
   122          0
   123          1
   129         47
   130          2
   131         14
   132         19
   133          3
   143          2
   145         17
   146          1
   147          1
   148          0
   149         18
   150          1
   157          1
   159        429
   160        115
   162          0
   163          0
   174          1
   175          9
   176          0
   204          4
   205        118
   206         20
   207          0