##TITLE=Library Entry 24106
##JCAMP-DX=Revision 4.10 
##DATA TYPE=MASS SPECTRUM
##SAMPLE DESCRIPTION=Japan AIST/NIMC Database- Spectrum MS-NW-5653
##NAMES=HP
##CAS NAME=1-Chloroeicosane
##MOLFORM=C20H41Cl
##CAS REGISTRY NO=42217-02-7
##MP= -300
##BP= -300
##MW= 316
##$RETENTION INDEX=2264
##$CONDENSED SPECTRUM=NO
##NPOINTS= 221
##XYDATA=(XY..XY) 1 
    15          2
    26          3
    27         95
    28         24
    29        263
    30          5
    36          4
    38          1
    39         65
    40         13
    41        565
    42        131
    43        855
    44         28
    45          2
    49          5
    51          2
    52          2
    53         36
    54         56
    55        573
    56        200
    57        999
    58         46
    59          5
    60          3
    62          1
    63         13
    65          7
    66          6
    67         75
    68         57
    69        358
    70        143
    71        569
    72         32
    73          4
    75          4
    76          1
    77         10
    78          1
    79         11
    80          5
    81         47
    82         69
    83        240
    84         95
    85        327
    86         23
    87          2
    89          2
    90          2
    91        271
    92         12
    93         86
    94          5
    95         28
    96         42
    97        175
    98         74
    99        109
   100          8
   101          1
   103          1
   104         16
   105         94
   106          9
   107         30
   108          2
   109         16
   110         19
   111         81
   112         57
   113         69
   114          7
   115          1
   117          3
   118          7
   119         41
   120          5
   121         13
   122          2
   123         10
   124         12
   125         40
   126         46
   127         51
   128          5
   129          1
   130          1
   131          5
   132          6
   133         34
   134          4
   135         11
   136          2
   137          6
   138          8
   139         18
   140         32
   141         37
   142          4
   143          1
   144          2
   145          5
   146          5
   147         30
   148          4
   149         10
   150          1
   151          2
   152          5
   153          9
   154         24
   155         27
   156          3
   157          1
   158          1
   159          4
   160          6
   161         24
   162          4
   163          7
   164          1
   165          1
   166          3
   167          7
   168         16
   169         21
   170          3
   172          1
   173          3
   174          7
   175         22
   176          4
   177          7
   178          1
   179          1
   180          2
   181          4
   182         11
   183         16
   184          2
   186          1
   187          3
   188          8
   189         18
   190          5
   191          6
   192          1
   194          1
   195          3
   196          8
   197         12
   198          2
   200          1
   201          2
   202          8
   203         17
   204          5
   205          6
   206          1
   208          1
   209          2
   210          4
   211          8
   212          2
   214          1
   215          2
   216          8
   217         17
   218          5
   219          6
   220          1
   223          1
   224          2
   225          4
   226          1
   229          1
   230          7
   231         16
   232          5
   233          5
   234          1
   237          1
   238          1
   239          2
   243          1
   244          6
   245         16
   246          5
   247          6
   248          1
   250          1
   251          1
   252          2
   253          1
   257          1
   258          6
   259         14
   260          4
   261          5
   262          1
   271          1
   272          3
   273         10
   274          3
   275          4
   276          1
   280          9
   281          3
   286         10
   287          9
   288          5
   289          3
   314          3
   315          2
   316         53
   317         11
   318         18
   319          4