##TITLE=Library Entry 73102
##JCAMP-DX=Revision 4.10 
##DATA TYPE=MASS SPECTRUM
##SAMPLE DESCRIPTION=P. Vainiotalo, Dep. Chem., Joensuu Univ., Joensuu, Finl
and
##NAMES=HP
##CAS NAME=Oxazolidine, 2,2,3-trimethyl-
##MOLFORM=C6H13NO
##CAS REGISTRY NO=42219-47-6
##MP= -300
##BP= -300
##MW= 115
##$RETENTION INDEX=0
##$CONDENSED SPECTRUM=NO
##NPOINTS= 27
##XYDATA=(XY..XY) 1 
    15         41
    26         10
    27         37
    29         34
    30         73
    39         45
    40         20
    41         55
    42        187
    43        197
    44         98
    50         52
    54         19
    55         23
    56        123
    57         36
    58        775
    59         37
    70        138
    71         18
    72         29
    84         21
    85         52
   100        999
   101         64
   115         71
   116          5