##TITLE=Library Entry 8028
##JCAMP-DX=Revision 4.10 
##DATA TYPE=MASS SPECTRUM
##SAMPLE DESCRIPTION=Mark Whitten, Florida Museum of Natural History, U. of
 Florida
##NAMES=HP
##CAS NAME=Hexadecanoic acid, dodecyl ester
##MOLFORM=C28H56O2
##CAS REGISTRY NO=42232-29-1
##MP= -300
##BP= -300
##MW= 424
##$RETENTION INDEX=2951
##$CONDENSED SPECTRUM=NO
##NPOINTS= 141
##XYDATA=(XY..XY) 1 
    41        567
    42        165
    43        999
    44         41
    45          9
    53         22
    54         56
    55        554
    56        242
    57        760
    58         43
    59         14
    60         91
    61        191
    62          4
    65          4
    66          9
    67         87
    68         92
    69        379
    70        206
    71        336
    72         23
    73        145
    74         18
    75          2
    77          2
    79         12
    80          6
    81         69
    82        159
    83        329
    84        167
    85        190
    86         15
    87         47
    88         10
    89         14
    91          2
    93         10
    94          5
    95         54
    96        102
    97        292
    98        129
    99         60
   100          9
   101         36
   102         14
   103         14
   107          7
   108          3
   109         28
   110         45
   111        176
   112         71
   113         32
   114          6
   115         46
   116         44
   117         10
   121         10
   122          2
   123         15
   124         21
   125         94
   126         38
   127         17
   129         88
   130         13
   131          3
   135          9
   136          2
   137          6
   138         13
   139         40
   140         77
   141         14
   143         21
   144          6
   145          2
   149          7
   151          3
   152          4
   153          9
   154          3
   155          3
   157         35
   158          9
   159          2
   163          5
   165          2
   166          6
   168        306
   169         51
   170          4
   171         37
   172          6
   173          2
   181          3
   185         33
   186          5
   187          2
   194          3
   195          3
   196          6
   199         14
   200          3
   201          2
   209          2
   211          3
   213        100
   214         14
   215          2
   219          4
   227         11
   228         10
   229         48
   230          6
   236          6
   237          7
   238          3
   239         80
   240         13
   241         11
   242          2
   255          8
   256        172
   257        612
   258        112
   259         12
   283          3
   297         11
   298          2
   313          8
   314          2
   325          2
   382          3
   424        153
   425         51
   426          8