##TITLE=Library Entry 58029
##JCAMP-DX=Revision 4.10 
##DATA TYPE=MASS SPECTRUM
##SAMPLE DESCRIPTION=NIST Mass Spectrometry Data Center
##NAMES=HP
##CAS NAME=Diethyl icosanedioate
##MOLFORM=C24H46O4
##CAS REGISTRY NO=42235-39-2
##MP= -300
##BP= -300
##MW= 398
##$RETENTION INDEX=2791
##$CONDENSED SPECTRUM=NO
##NPOINTS= 217
##XYDATA=(XY..XY) 1 
    26          1
    27         17
    28         12
    29        104
    30          4
    31          4
    39         18
    41        271
    42         71
    43        443
    44         14
    45         66
    46          2
    53         15
    54         35
    55        551
    56         89
    57        385
    58         39
    59         23
    60        190
    61        169
    63          6
    66          4
    67        123
    68         50
    69        477
    70        265
    71        270
    72         11
    73        259
    74         30
    75         11
    79         41
    80         21
    81        149
    82         47
    83        326
    84        213
    85        130
    86         16
    87         42
    88        999
    89        223
    90         10
    92          6
    93         41
    94         38
    95        116
    96         74
    97        305
    98        663
    99         78
   100         10
   101        736
   102         69
   103          6
   104          8
   107         22
   108         43
   109         94
   110         42
   111        181
   112        281
   113         40
   114          9
   115        106
   116         21
   121         78
   122         22
   123         58
   124         29
   125        100
   126         81
   127         26
   128         15
   129         74
   130         38
   131          7
   134         10
   135         74
   136         16
   137         39
   138         17
   139         53
   140         62
   141         16
   142          9
   143         99
   144         53
   145         11
   146          5
   148          8
   149         60
   150         18
   151         28
   152         11
   153         23
   154         68
   155         19
   156         10
   157        201
   158         42
   159          8
   161         21
   163         32
   164         15
   165         31
   166         21
   167         30
   168         37
   169         20
   170          3
   171         37
   172         35
   175         12
   176          6
   177         18
   178          9
   179         17
   180         12
   181         23
   182         24
   183         11
   185         30
   186         37
   187         11
   188          5
   191         15
   192          7
   194          6
   195         21
   196         23
   198          5
   199         35
   200         19
   201          9
   203          6
   205          8
   207         10
   208         20
   209         17
   210         26
   211         13
   213         49
   214         13
   215         11
   216          4
   218          7
   219         12
   220          8
   221          7
   222         24
   223         26
   224         59
   225         12
   227         37
   228         21
   231          9
   232          7
   235         14
   236         10
   237         11
   239          7
   241         49
   242         32
   243         10
   247         42
   248         20
   249          7
   250          8
   251          6
   254         19
   255         54
   256         13
   259          5
   261          9
   262          8
   263         11
   264         71
   265         85
   266         15
   268          7
   269         58
   270         15
   278         32
   279         13
   283         14
   284          6
   289          3
   292          5
   293          9
   295          7
   296         29
   297         38
   298         41
   299          4
   304          7
   305         12
   306         30
   307         24
   308          6
   310         25
   311        319
   312         69
   313          4
   325         15
   326         22
   344         31
   349          4
   350          3
   351         45
   352         37
   353        473
   354        108
   355         15
   398         16