##TITLE=Library Entry 13083
##JCAMP-DX=Revision 4.10 
##DATA TYPE=MASS SPECTRUM
##SAMPLE DESCRIPTION=NIST Mass Spectrometry Data Center
##NAMES=HP
##CAS NAME=Decanoic acid, nonyl ester
##MOLFORM=C19H38O2
##CAS REGISTRY NO=42231-48-1
##MP= -300
##BP= -300
##MW= 298
##$RETENTION INDEX=2076
##$CONDENSED SPECTRUM=NO
##NPOINTS= 93
##XYDATA=(XY..XY) 1 
    27         54
    29        161
    30          3
    31          7
    39         75
    40         18
    41        620
    42        208
    43        999
    44         39
    45         20
    53         35
    54         61
    55        677
    56        467
    57        635
    58         31
    59         18
    60        123
    61        305
    62          9
    65         11
    66          7
    67        113
    68        160
    69        528
    70        479
    71        620
    72         33
    73        209
    74         22
    79         18
    81        112
    82        217
    83        437
    84        404
    85        286
    86         24
    87         66
    89         35
    90          2
    95         62
    96        116
    97        448
    98        347
    99         35
   100         10
   101         39
   102          9
   103         32
   109         10
   110         30
   111         69
   112         44
   113         11
   114          6
   115         66
   116         42
   117         15
   119         13
   124         17
   125         16
   126        676
   127         77
   129        192
   130         18
   134          5
   135         15
   136          6
   140         35
   141         30
   142          4
   143         35
   153         18
   155        317
   156         33
   158          7
   159         68
   170          2
   171         39
   172        115
   173        922
   174         94
   175          9
   186          6
   187         12
   188          2
   199         16
   213         13
   228          7
   255          8
   298         24
   299          8