##TITLE=Library Entry 53679
##JCAMP-DX=Revision 4.10 
##DATA TYPE=MASS SPECTRUM
##SAMPLE DESCRIPTION=V.G. Zaikin, R.S.Borisov, TIPS RAS, Moscow, Russia
##NAMES=HP
##CAS NAME=Hexadecanoic acid, hexyl ester
##MOLFORM=C22H44O2
##CAS REGISTRY NO=42232-25-7
##MP= -300
##BP= -300
##MW= 340
##$RETENTION INDEX=2381
##$CONDENSED SPECTRUM=NO
##NPOINTS= 170
##XYDATA=(XY..XY) 1 
    15          2
    26          3
    27         58
    28         65
    29        162
    30          4
    31          5
    38          5
    39         38
    40         15
    41        365
    42        161
    43        957
    44         38
    45          9
    51          1
    53         19
    54         40
    55        417
    56        493
    57        446
    58         32
    59         15
    60        182
    61        521
    62         12
    63          2
    65          3
    66          3
    67         60
    68         40
    69        341
    70         66
    71        201
    72         16
    73        290
    74         28
    75          4
    77          4
    78          1
    79         15
    80          7
    81         50
    82         36
    83        184
    84        999
    85        307
    86         25
    87         65
    88          7
    89          7
    91          2
    93         12
    94          5
    95         48
    96         25
    97        114
    98         72
    99         31
   100          8
   101         41
   102         12
   103          9
   105          1
   107          9
   108          3
   109         25
   110         12
   111         53
   112         18
   113         14
   114          5
   115         55
   116         20
   117          5
   119          1
   121         11
   122          3
   123         13
   124          7
   125         26
   126          7
   127         10
   128          3
   129        145
   130         14
   131          3
   133          1
   135         12
   136          2
   137          6
   138          5
   139         15
   140          3
   141          4
   142          1
   143         19
   144         25
   145         59
   146          5
   147          2
   148          1
   149          8
   150          1
   151          3
   152          4
   153          8
   154          1
   155          2
   156          1
   157         73
   158          9
   159          2
   163          4
   165          1
   166          1
   167          5
   168          2
   169          1
   171         34
   172          4
   173          1
   177          1
   181          2
   182          1
   185         32
   186          5
   187          1
   191          1
   192          1
   193          2
   194          6
   195          3
   196          1
   197          1
   199         19
   200          3
   201          1
   209          2
   211          1
   212          1
   213         62
   214          9
   215          1
   219          4
   220          1
   221          1
   223          1
   227         14
   228          2
   236          3
   237          7
   238          3
   239        120
   240         21
   241          5
   242          1
   254          1
   255          9
   256         83
   257        412
   258         70
   259          6
   269          3
   283          2
   297          5
   298          1
   311          1
   340         37
   341          9