##TITLE=Library Entry 71767
##JCAMP-DX=Revision 4.10 
##DATA TYPE=MASS SPECTRUM
##SAMPLE DESCRIPTION=Chuck Anderson, Aldrich Chemical Co.
##NAMES=HP
##CAS NAME=Methyl 2-(bromomethyl)acrylate
##MOLFORM=C5H7BrO2
##CAS REGISTRY NO=4224-69-5
##MP= -300
##BP= -300
##MW= 178
##$RETENTION INDEX=0
##$CONDENSED SPECTRUM=NO
##NPOINTS= 110
##XYDATA=(XY..XY) 1 
    12          0
    13          0
    14          5
    15        141
    16          2
    20          0
    24          1
    25          7
    26         28
    27         73
    28         24
    29        160
    30         17
    31         22
    32          1
    33          3
    34          1
    35          0
    36          7
    37         71
    38        156
    39        758
    40        292
    41        135
    42         10
    43         23
    44          5
    45         66
    46          1
    48          0
    49          1
    50          4
    51          4
    52          2
    53         45
    54          7
    55         18
    56          9
    57          3
    59        426
    60         10
    61          2
    63          0
    65          0
    66          2
    67         11
    68         66
    69        131
    70          6
    71         49
    72          2
    73          0
    74          0
    75          0
    77          0
    79         18
    80          4
    81         56
    82          6
    83         22
    84          2
    85          1
    91          2
    92          1
    93         30
    94          6
    95         29
    96          5
    97          1
    99        999
   100         54
   101          5
   103          1
   104          0
   105          1
   106          0
   107          2
   109          2
   111          0
   115          0
   116          1
   117          4
   118         20
   119        285
   120         24
   121        245
   122          8
   123          1
   125          1
   131          0
   133          3
   135          4
   136          0
   137          1
   139          0
   141          0
   146         15
   147        281
   148         26
   149        290
   150         13
   151          1
   152          0
   163          1
   165          1
   178        183
   179         10
   180        183
   181         10
   182          1