##TITLE=Library Entry 99882
##JCAMP-DX=Revision 4.10 
##DATA TYPE=MASS SPECTRUM
##SAMPLE DESCRIPTION=Chemical Concepts
##NAMES=HP
##CAS NAME=3-Amino-2-cyanopyridine
##MOLFORM=C6H5N3
##CAS REGISTRY NO=42242-11-5
##MP= -300
##BP= -300
##MW= 119
##$RETENTION INDEX=0
##$CONDENSED SPECTRUM=NO
##NPOINTS= 43
##XYDATA=(XY..XY) 1 
    26          7
    27          7
    28         79
    29          2
    36          3
    37         36
    38         41
    39         18
    40         32
    41        120
    42         18
    43          7
    44          8
    49          5
    50         20
    51         20
    52         57
    53         10
    54         10
    60         13
    62         12
    63         39
    64        119
    65        111
    66         46
    67          8
    68         12
    75         14
    76         26
    77          8
    78          4
    79          2
    89          4
    90         12
    91         41
    92        696
    93        103
    95          4
   103          4
   118         47
   119        999
   120         79
   122          2