##TITLE=Library Entry 36348
##JCAMP-DX=Revision 4.10 
##DATA TYPE=MASS SPECTRUM
##SAMPLE DESCRIPTION=TAT 0193
##NAMES=HP
##CAS NAME=4H-Pyran-4-one, 2-methoxy-6-methyl-
##MOLFORM=C7H8O3
##CAS REGISTRY NO=4225-42-7
##MP= -300
##BP= -300
##MW= 140
##$RETENTION INDEX=0
##$CONDENSED SPECTRUM=NO
##NPOINTS= 48
##XYDATA=(XY..XY) 1 
    15         50
    26         40
    27         60
    28         40
    29         50
    37         20
    38         50
    39        110
    40         30
    41        120
    42         90
    43        330
    44         20
    50         20
    51         30
    52         20
    53         80
    54         30
    55         30
    56         30
    57         10
    59        110
    60         10
    66         10
    67         30
    68         30
    69        999
    70         80
    71         30
    79         10
    80         10
    81         10
    82         20
    83         40
    84         10
    85         20
    97        380
    98         40
   100        100
   101         20
   111         20
   112        150
   113         10
   125         80
   126         10
   140        640
   141         50
   142         10