##TITLE=Library Entry 23780
##JCAMP-DX=Revision 4.10 
##DATA TYPE=MASS SPECTRUM
##SAMPLE DESCRIPTION=A.A.Kutin, Moscow, Russia
##NAMES=HP
##CAS NAME=Thiophene, 2-tert-butylthio-5-(2,4-dinitrophenyl)thio-
##MOLFORM=C14H14N2O4S3
##CAS REGISTRY NO=42268-48-4
##MP= -300
##BP= -300
##MW= 370
##$RETENTION INDEX=0
##$CONDENSED SPECTRUM=NO
##NPOINTS= 230
##XYDATA=(XY..XY) 1 
    33          4
    34          1
    36          1
    37          3
    38         13
    39         69
    41        375
    42         14
    43          3
    44         11
    45         36
    47          5
    48          3
    49          1
    50          6
    51          8
    52          2
    53          8
    54          7
    55         22
    57        999
    58         37
    59          9
    60          1
    61          2
    62         10
    63         29
    64          6
    65          1
    66          1
    67          1
    69        111
    70         73
    71         27
    72          4
    73          4
    74         12
    75         12
    76          5
    77          5
    78          1
    79          6
    80          2
    81          6
    82         11
    83          4
    84          2
    85          2
    86          2
    87          5
    88         17
    89          9
    90          2
    91          2
    93          7
    95         35
    96          4
    97          3
    98          6
    99          1
   100          2
   101         13
   102         11
   103         45
   104          4
   105          7
   106          3
   107          4
   108          4
   109          2
   110          3
   111          2
   112          4
   114        169
   115         16
   116         16
   117          2
   118          2
   119          3
   120          4
   121          4
   122          1
   123          2
   124          1
   125          2
   126          1
   127          3
   128          4
   131        287
   132         20
   133         30
   134          4
   135          3
   136          8
   137         23
   138          4
   139          3
   140          1
   141          1
   143          2
   144          6
   145         27
   146          8
   147         10
   148          4
   149          2
   150          1
   151          3
   152          3
   153          2
   154          2
   155          1
   156          2
   157          2
   158          3
   159          7
   160         11
   161          2
   162          1
   163          5
   164          2
   165          2
   167         19
   168          2
   169          1
   170          2
   171          9
   172          4
   173          1
   174          1
   175          3
   176          8
   177         26
   178          8
   179          3
   180          1
   181          1
   183         45
   184         40
   185          5
   186          3
   187          4
   188          4
   189         17
   190          6
   191          5
   192          3
   193          2
   194          1
   195          0
   196          0
   197          0
   198          0
   199          0
   200          0
   203         31
   204         45
   205          9
   206          5
   207          1
   208          0
   209          0
   210          0
   211          0
   212          0
   214          0
   215          0
   217          6
   218          2
   219          1
   220          4
   221         12
   222          3
   223          2
   224          1
   225          0
   227          0
   229          0
   230          0
   232          0
   233          3
   234          0
   235          1
   236          0
   237          0
   238          0
   239          0
   246          0
   247          0
   249          5
   250          3
   251          1
   252          0
   253          0
   260          0
   265          0
   266          0
   267          3
   268          0
   269          0
   282          0
   283          0
   284          1
   285          0
   286          0
   297          1
   298          0
   299          0
   300          0
   306          0
   307          0
   308          0
   310          3
   314        196
   315         24
   316         21
   317          3
   318          1
   319          0
   340          0
   342          0
   355          0
   365          0
   366          1
   367          2
   370         40
   371          6
   372          5
   373          0
   374          0