##TITLE=Library Entry 84081
##JCAMP-DX=Revision 4.10 
##DATA TYPE=MASS SPECTRUM
##SAMPLE DESCRIPTION=Exported from NIST MS Search
##NAMES=HP
##CAS NAME=13-Azabicyclo[7.3.1]trideca-1(13),9,11-triene, 3,3-dimethyl-
##MOLFORM=C14H21N
##CAS REGISTRY NO=42273-47-2
##MP= -300
##BP= -300
##MW= 203
##$RETENTION INDEX=0
##$CONDENSED SPECTRUM=NO
##NPOINTS= 16
##XYDATA=(XY..XY) 1 
    41        180
    77        140
   106        190
   107        999
   108        100
   120        799
   121        230
   134        110
   146        180
   147        440
   149        150
   160        180
   161        130
   188        340
   202        170
   203        380