##TITLE=Library Entry 67011
##JCAMP-DX=Revision 4.10 
##DATA TYPE=MASS SPECTRUM
##SAMPLE DESCRIPTION=RADIAN CORP
##NAMES=HP
##CAS NAME=Dodecanoic acid, phenyl ester
##MOLFORM=C18H28O2
##CAS REGISTRY NO=4228-00-6
##MP= -300
##BP= -300
##MW= 276
##$RETENTION INDEX=0
##$CONDENSED SPECTRUM=NO
##NPOINTS= 71
##XYDATA=(XY..XY) 1 
    15          3
    26          9
    27        138
    29        270
    37          4
    38         15
    39        187
    40         38
    41        559
    42        126
    43        690
    44         22
    45          1
    50         11
    51         38
    52          5
    53         36
    54         33
    55        466
    56         81
    57        715
    58         37
    62          5
    63         18
    64         13
    65        140
    66         68
    67         81
    68         25
    69        128
    70         38
    71        320
    72         19
    76          5
    77         80
    78          6
    79         16
    80          6
    81         84
    82         14
    83        139
    84         47
    85        205
    86         15
    91         20
    92         22
    93         46
    94        999
    95        313
    96         26
    97         76
    98        112
    99         37
   100          2
   109        124
   110         14
   111         17
   112         18
   113         10
   121          3
   123         32
   124          2
   125          2
   136         18
   149          7
   165          6
   183        487
   184         67
   185          3
   276         16
   277          5