##TITLE=Library Entry 100591
##JCAMP-DX=Revision 4.10 
##DATA TYPE=MASS SPECTRUM
##SAMPLE DESCRIPTION=NIST Mass Spectrometry Data Center
##NAMES=HP
##CAS NAME=3,5-Dimethylphenylacetic acid
##MOLFORM=C10H12O2
##CAS REGISTRY NO=42288-46-0
##MP= -300
##BP= -300
##MW= 164
##$RETENTION INDEX=0
##$CONDENSED SPECTRUM=NO
##NPOINTS= 73
##XYDATA=(XY..XY) 1 
    15          1
    26          2
    27         22
    29          3
    37          1
    38          7
    39         57
    40          6
    41         43
    42          2
    43          4
    44          2
    45         30
    50         20
    51         49
    52         17
    53         24
    54          1
    55          3
    57          7
    59          3
    61          2
    62          9
    63         30
    64          6
    65         42
    66          5
    67          3
    74          8
    75          7
    76          7
    77         94
    78         38
    79         32
    80          3
    81          5
    86          2
    87          2
    89         12
    90          3
    91        173
    92         17
    93         14
    94          1
    98          1
   101          2
   102         15
   103         66
   104         47
   105        200
   106         17
   107          5
   115         65
   116         14
   117         78
   118         43
   119        999
   120        147
   121         20
   122          3
   131          1
   133          1
   135          9
   136          4
   145          1
   146         11
   147          2
   149          1
   162          1
   163          4
   164        383
   165         43
   166          3