##TITLE=Library Entry 52386
##JCAMP-DX=Revision 4.10 
##DATA TYPE=MASS SPECTRUM
##SAMPLE DESCRIPTION=A.Pleshkova, Nesmeyanov Inst.Org.Elem.Cpds, Moscow
##NAMES=HP
##CAS NAME=2,4-Azetidinedione, 3,3-diethyl-
##MOLFORM=C7H11NO2
##CAS REGISTRY NO=42282-85-9
##MP= -300
##BP= -300
##MW= 141
##$RETENTION INDEX=0
##$CONDENSED SPECTRUM=NO
##NPOINTS= 24
##XYDATA=(XY..XY) 1 
    39        232
    40         32
    41        234
    42        102
    43         33
    44         12
    51         22
    52          6
    53         66
    54         32
    55        954
    56         42
    57          7
    67         12
    69         34
    70         42
    71          6
    83        999
    84         54
    85          6
    98        902
    99         64
   100          8
   141         14