##TITLE=Library Entry 94878
##JCAMP-DX=Revision 4.10 
##DATA TYPE=MASS SPECTRUM
##SAMPLE DESCRIPTION=Chemical Concepts
##NAMES=HP
##CAS NAME=4-Nitrotricyclo[6.2.1.0(2,7)]undeca-2,4,6-triene
##MOLFORM=C11H11NO2
##CAS REGISTRY NO=4228-30-2
##MP= -300
##BP= -300
##MW= 189
##$RETENTION INDEX=0
##$CONDENSED SPECTRUM=NO
##NPOINTS= 127
##XYDATA=(XY..XY) 1 
    26          7
    27         33
    28          6
    29          6
    30         45
    37          3
    38         13
    39         88
    40         10
    41         25
    42          1
    43          2
    44          7
    45          0
    46         15
    49          1
    50         48
    51         90
    52         25
    53         15
    54          1
    55          2
    56          1
    57          2
    58          2
    60          0
    61          6
    62         46
    63        158
    64         27
    65         84
    66          7
    67          4
    68          1
    69          4
    70          3
    71          1
    73          2
    74         38
    75         53
    76         36
    77         82
    78         23
    79          4
    80          1
    81          2
    82          3
    83          2
    84          1
    85          4
    86         19
    87         36
    88         40
    89        158
    90         15
    91         41
    92          4
    93          1
    94          1
    97          1
    98          7
    99          5
   100          4
   101         15
   102         73
   103         96
   104         11
   105          3
   106          0
   107          1
   108          1
   109          1
   110          3
   111          3
   112          2
   113         49
   114        158
   115        999
   116        158
   117         11
   118          1
   119          1
   125          2
   126         20
   127         73
   128        254
   129         44
   130         11
   131         68
   132          8
   133          1
   137          2
   138          3
   139         36
   140         11
   141         94
   142         68
   143         92
   144        116
   145         28
   146          3
   147          0
   148          0
   149          1
   154          0
   155          0
   156          1
   157          9
   158          2
   159         10
   160          6
   161        670
   162         85
   163          7
   164          0
   165          0
   171          1
   172         28
   173         15
   174         69
   175          9
   176          0
   188          2
   189        300
   190         47
   191          4
   192          0