##TITLE=Library Entry 59471
##JCAMP-DX=Revision 4.10 
##DATA TYPE=MASS SPECTRUM
##SAMPLE DESCRIPTION=A.A.Kutin, Moscow, Russia
##NAMES=HP
##CAS NAME=2H-1,2,4-Oxadiazine-3,6(4H,5H)-dione, 4-(2-chlorophenyl)-5-methyl
-2-phenyl-
##MOLFORM=C16H13ClN2O3
##CAS REGISTRY NO=42284-03-7
##MP= -300
##BP= -300
##MW= 316
##$RETENTION INDEX=0
##$CONDENSED SPECTRUM=NO
##NPOINTS= 131
##XYDATA=(XY..XY) 1 
    34          0
    35          1
    36          6
    37          7
    38         23
    39         46
    40         15
    41         23
    42          6
    43         54
    44         11
    45          3
    47          0
    48          0
    49          1
    50         14
    51         39
    52         17
    53          1
    54          1
    55         15
    56          4
    57          1
    58          4
    59          0
    60          0
    61          3
    62         12
    63         66
    64        131
    65         37
    66          5
    67          0
    68          0
    69          0
    70          1
    71          0
    72          2
    73          5
    74          4
    75         13
    76          6
    77         54
    78          7
    79          2
    80          1
    81          0
    82          0
    84          0
    85          1
    86         17
    87          2
    88          3
    89         10
    90         79
    91        999
    92         75
    93         64
    94         12
    95          0
    97          0
    98          4
    99          4
   100          3
   101          4
   102          2
   103          1
   104          3
   105          2
   106          1
   107          7
   108          0
   111          4
   112          0
   113          1
   116          0
   117          2
   118          2
   119         56
   120         10
   121          0
   124          2
   125         33
   126          7
   127         18
   128          2
   129          2
   133          0
   134         50
   135         65
   136          6
   137          2
   138          2
   139          1
   140          0
   141          0
   143          0
   145          0
   146          1
   147          0
   149          0
   151          0
   152          1
   153         38
   154          5
   155         11
   156          1
   157          0
   162          0
   163         17
   164          2
   166          0
   167          1
   179          0
   180          0
   181          1
   182          0
   197          0
   199          0
   201          0
   209          3
   210          0
   211          0
   237          0
   263          0
   281          4
   282          0
   316         30
   317          4
   318          8
   319          1