##TITLE=Library Entry 49942
##JCAMP-DX=Revision 4.10 
##DATA TYPE=MASS SPECTRUM
##SAMPLE DESCRIPTION=NIST Mass Spectrometry Data Center, 1990.
##NAMES=HP
##CAS NAME=Furan, 2-propyl-
##MOLFORM=C7H10O
##CAS REGISTRY NO=4229-91-8
##MP= -300
##BP= -300
##MW= 110
##$RETENTION INDEX=791
##$CONDENSED SPECTRUM=NO
##NPOINTS= 43
##XYDATA=(XY..XY) 1 
    14          3
    15          9
    18          2
    25          2
    26         20
    27        146
    28         12
    29         39
    32          3
    37         13
    38         32
    39        111
    40         17
    41         48
    42          8
    43          9
    49          4
    50         40
    51         58
    52         41
    53        282
    54         23
    55         10
    57          3
    61          3
    62          5
    63         12
    65         23
    66         18
    67         18
    68         10
    74          4
    77         19
    78          5
    79         22
    80          4
    81        999
    82         73
    83          5
    94          9
    95         15
   110        191
   111         15