##TITLE=Library Entry 74559
##JCAMP-DX=Revision 4.10 
##DATA TYPE=MASS SPECTRUM
##SAMPLE DESCRIPTION=THE M.W. KELLOGG CO., JERSEY CITY, N.J., USA
##NAMES=HP
##CAS NAME=Butane, 1,1,3,4-tetrachloro-1,2,2,3,4,4-hexafluoro-
##MOLFORM=C4Cl4F6
##CAS REGISTRY NO=423-38-1
##MP= -300
##BP= -300
##MW= 302
##$RETENTION INDEX=0
##$CONDENSED SPECTRUM=NO
##NPOINTS= 110
##XYDATA=(XY..XY) 1 
    20          0
    24          3
    31        342
    32          5
    35         80
    36          9
    37         24
    38          1
    43          6
    44          0
    47         80
    48          1
    49         25
    50         28
    51          1
    55         20
    56          0
    59          3
    61          1
    62         12
    66        106
    67          3
    68         35
    69        183
    70          3
    71          5
    72          1
    73          1
    74         28
    75         16
    78         16
    79          0
    80          5
    81         10
    82         23
    83          1
    84          5
    85        835
    86         13
    87        268
    88          2
    89          1
    90          9
    91          0
    92          3
    93         66
    94          3
    96          1
    97         15
    98          1
    99          6
   100          7
   101        999
   102         11
   103        639
   104          6
   105        104
   106          1
   108          0
   109         30
   110          1
   111          9
   112          6
   113          4
   115          2
   116        165
   117         10
   118         52
   119         27
   120          0
   121          1
   123          0
   124          1
   125          4
   127          2
   128          1
   129          2
   131         57
   132         30
   134         18
   135        260
   136          8
   137         83
   138          1
   140          0
   143          1
   146          4
   147         74
   149         23
   151        229
   153        148
   155         23
   159          1
   163         29
   165         19
   167          6
   169          2
   171          0
   179         24
   181         23
   182         12
   184          7
   186          1
   217          5
   219          5
   221          1
   267         29
   269         28
   271          9
   273          1