##TITLE=Library Entry 23773
##JCAMP-DX=Revision 4.10 
##DATA TYPE=MASS SPECTRUM
##SAMPLE DESCRIPTION=Japan AIST/NIMC Database- Spectrum MS-NW-3477
##NAMES=HP
##CAS NAME=Octanoic acid, 2-propenyl ester
##MOLFORM=C11H20O2
##CAS REGISTRY NO=4230-97-1
##MP= -300
##BP= -300
##MW= 184
##$RETENTION INDEX=1262
##$CONDENSED SPECTRUM=NO
##NPOINTS= 112
##XYDATA=(XY..XY) 1 
    14          1
    15         11
    17          1
    18          4
    25          1
    26         12
    27        129
    28         38
    29        181
    30          5
    31         10
    32          4
    36          1
    37          4
    38         11
    39        177
    40         35
    41        738
    42        108
    43        388
    44         14
    45         24
    46          1
    50          3
    51          6
    52          2
    53         20
    54         91
    55        436
    56        117
    57        999
    58        109
    59         37
    60         19
    61          7
    63          2
    65          4
    66          2
    67         53
    68         12
    69         74
    70         25
    71         36
    72         11
    73         21
    74          3
    75          2
    77          4
    78          1
    79          9
    80          6
    81         48
    82         53
    83        214
    84         44
    85         27
    86          3
    87         15
    88          1
    89          4
    91          3
    92          1
    93          4
    94          1
    95         17
    96          7
    97        108
    98         40
    99         37
   100        373
   101         49
   102          8
   103          4
   105          1
   106          1
   107         14
   108          3
   109         57
   110          7
   111          6
   112          2
   113        134
   114         13
   115          4
   117          1
   119          1
   121          1
   122          1
   123          4
   124          8
   125         56
   126          8
   127        635
   128         59
   129          6
   135          1
   137          1
   141         27
   142          5
   143          5
   144          1
   145         12
   146          1
   153          2
   155         30
   156          3
   157          1
   169          6
   170          2
   183          1
   184          3
   185          1