##TITLE=Library Entry 114918
##JCAMP-DX=Revision 4.10 
##DATA TYPE=MASS SPECTRUM
##SAMPLE DESCRIPTION=L. Cohen, LC, NIDDK, NIH, Bethesda, MD 20892
##NAMES=HP
##CAS NAME=5-Fluoro-4-imidazolic acid
##MOLFORM=C4H3FN2O2
##CAS REGISTRY NO=42309-90-0
##MP= -300
##BP= -300
##MW= 130
##$RETENTION INDEX=0
##$CONDENSED SPECTRUM=NO
##NPOINTS= 66
##XYDATA=(XY..XY) 1 
    41         13
    42         10
    43         12
    44         38
    45         92
    46         21
    47         23
    48          4
    50          5
    51          3
    52          3
    53         20
    54         13
    55         14
    56          1
    57         69
    58        219
    59         85
    60          4
    62          0
    64         10
    65          5
    66          5
    67         63
    68          7
    69         31
    70          5
    71         14
    72          4
    73          4
    74          7
    75         16
    76          2
    77          3
    78          2
    81          3
    83          5
    84        141
    85        164
    86         15
    87          1
    88          2
    91          2
    93          1
    94          1
    95          2
    96          3
    97          1
   101          2
   102          1
   106          0
   107          2
   109          3
   110          1
   111          3
   112        785
   113        215
   114         32
   115          4
   124          0
   128          0
   129          4
   130        999
   131         66
   132          6
   133          1