##TITLE=Library Entry 36487
##JCAMP-DX=Revision 4.10 
##DATA TYPE=MASS SPECTRUM
##SAMPLE DESCRIPTION=Chemical Concepts
##NAMES=HP
##CAS NAME=Bicyclo[2.2.1]heptane-2,5-dione, 1,7,7-trimethyl-
##MOLFORM=C10H14O2
##CAS REGISTRY NO=4230-32-4
##MP= -300
##BP= -300
##MW= 166
##$RETENTION INDEX=1264
##$CONDENSED SPECTRUM=NO
##NPOINTS= 109
##XYDATA=(XY..XY) 1 
    26         15
    27        193
    28         23
    29         80
    30          2
    31          2
    36          2
    37          4
    38         17
    39        311
    40         68
    41        777
    42         66
    43         97
    44          6
    45          9
    46          9
    47          5
    48          4
    49          1
    50         18
    51         48
    52         28
    53        147
    54         70
    55        525
    56         68
    57         17
    58          1
    59          2
    60          3
    61          2
    62          6
    63         12
    64          3
    65         39
    66         18
    67        192
    68        108
    69        999
    70        146
    71         12
    72          1
    73          1
    74          3
    75          3
    76          2
    77         54
    78         12
    79         93
    80         24
    81        329
    82        148
    83        601
    84         40
    85          9
    86          2
    89          1
    91         27
    92          4
    93         39
    94         31
    95        331
    96        211
    97        184
    98         34
    99          7
   103          1
   104          1
   105         22
   106         51
   107        170
   108         24
   109        559
   110        116
   111        133
   112         11
   115          1
   119          3
   120         13
   121         27
   122         18
   123        371
   124         94
   125         42
   126          7
   127          1
   128          0
   129          1
   133          8
   134          1
   135          1
   136          1
   137         22
   138         96
   139         12
   140          2
   141          4
   142          1
   147          1
   148         12
   151        148
   152         16
   153          2
   165          6
   166        990
   167        112
   168         11
   169          1