##TITLE=Library Entry 93715
##JCAMP-DX=Revision 4.10 
##DATA TYPE=MASS SPECTRUM
##SAMPLE DESCRIPTION=Japan AIST/NIMC Database- Spectrum MS-IW-5405
##NAMES=HP
##CAS NAME=1-Nitro-4-(2-nitro-1-propenyl)benzene
##MOLFORM=C9H8N2O4
##CAS REGISTRY NO=4231-16-7
##MP= -300
##BP= -300
##MW= 208
##$RETENTION INDEX=0
##$CONDENSED SPECTRUM=NO
##NPOINTS= 125
##XYDATA=(XY..XY) 1 
    15          1
    26          3
    27         17
    28          5
    29          1
    30         54
    32          1
    37          4
    38         15
    39         88
    40         12
    41         17
    42          9
    43         20
    44          7
    45          1
    46          4
    49          1
    50         74
    51         85
    52         16
    53         15
    54          4
    55          7
    56          9
    57         52
    58         21
    61          9
    62         46
    63        124
    64         29
    65         94
    66          9
    67          5
    68          3
    69          6
    71          6
    73          3
    74         33
    75         46
    76         44
    77         98
    78         53
    79         33
    80          9
    81          8
    82          7
    83          2
    84          1
    85          4
    86         13
    87         23
    88         23
    89        146
    90         21
    91         15
    92         19
    93         11
    94          9
    95          8
    96          5
    97          2
    98          4
    99          3
   100          1
   101          8
   102         13
   103         90
   104         46
   105         26
   106         29
   107          5
   108          5
   109          7
   110          7
   111          4
   112          2
   113         20
   114         42
   115        999
   116        526
   117         51
   118          6
   119          6
   120         16
   121          9
   122          7
   123          8
   124          2
   125          1
   128          1
   129          1
   130          4
   131        168
   132        306
   133         44
   134        152
   135         18
   136          3
   137          1
   138          3
   144          4
   145         49
   146          9
   147          8
   148          3
   149          2
   150         60
   151         36
   152          5
   160          2
   161        327
   162         94
   163         11
   164          1
   176          1
   177          2
   178         11
   179          2
   180          4
   191          4
   192          3
   208        237
   209         27
   210          3