##TITLE=Library Entry 83280
##JCAMP-DX=Revision 4.10 
##DATA TYPE=MASS SPECTRUM
##SAMPLE DESCRIPTION=MUS185 A. Mujsce, AT&T Bell Labs., Murray Hill, N.J., U
SA
##NAMES=HP
##CAS NAME=2-Propanol, 1-[4-(1,1-dimethylethyl)phenoxy]-3-(phenylamino)-
##MOLFORM=C19H25NO2
##CAS REGISTRY NO=42313-66-6
##MP= -300
##BP= -300
##MW= 299
##$RETENTION INDEX=0
##$CONDENSED SPECTRUM=NO
##NPOINTS= 89
##XYDATA=(XY..XY) 1 
    39          7
    41         12
    43          2
    44          1
    50          3
    51         15
    52          4
    53          3
    54          1
    55          4
    57         13
    58          0
    62          0
    63          4
    65         15
    66          4
    67          1
    68          0
    73          0
    74          1
    75          1
    76          4
    77        108
    78         30
    79         46
    80          3
    81          0
    89          3
    90          3
    91         43
    92          6
    93         15
    94          3
    95          6
    97          0
   101          1
   102          1
   103          7
   104         21
   106        999
   107        109
   108          5
   109          1
   113          0
   115          7
   116          2
   117          9
   118          8
   119          8
   120          3
   121          2
   130          3
   131          2
   132         11
   133          7
   134          9
   135        110
   136         14
   137          1
   142          5
   145          0
   147          0
   148          1
   149          2
   150         46
   151          5
   152          0
   161          0
   163          1
   167          0
   177          8
   178          1
   181          0
   184          0
   189          0
   190          0
   191          1
   192          0
   207          4
   208          0
   223          0
   248          0
   255          2
   281          1
   283          0
   284          0
   299        130
   300         26
   301          3