##TITLE=Library Entry 5099
##JCAMP-DX=Revision 4.10 
##DATA TYPE=MASS SPECTRUM
##SAMPLE DESCRIPTION=Japan AIST/NIMC Database- Spectrum MS-NW-3218
##NAMES=HP
##CAS NAME=3-Chloro-1-azabicyclo[2.2.2]octane
##MOLFORM=C7H12ClN
##CAS REGISTRY NO=42332-45-6
##MP= -300
##BP= -300
##MW= 145
##$RETENTION INDEX=0
##$CONDENSED SPECTRUM=NO
##NPOINTS= 87
##XYDATA=(XY..XY) 1 
    14          2
    15         32
    26         15
    27         99
    28         57
    29         30
    30         18
    39         75
    40         11
    41         91
    42        999
    43         37
    44          9
    45          1
    46          1
    47          1
    49          7
    50         11
    51         26
    52         15
    53         73
    54         59
    55        143
    56         46
    57         47
    58          6
    61          4
    62          9
    63          5
    64          4
    65          9
    66          6
    67         31
    68         25
    69         22
    70         14
    71          3
    73          1
    75          7
    76          3
    77          9
    78          5
    79         19
    80         26
    81         55
    82        214
    83         74
    84          5
    87          1
    88         28
    89         14
    90         11
    91          7
    92          2
    93          5
    94         12
    95          9
    96         73
    97          6
   102          1
   103          1
   104          3
   105          1
   106          3
   107          2
   108         34
   109         23
   110        809
   111         65
   112          2
   116         63
   117         19
   118         22
   119          7
   120          1
   125          2
   130         39
   131          3
   132         12
   133          1
   142          2
   143          1
   144         83
   145        303
   146         50
   147         99
   148          8