##TITLE=Library Entry 76970
##JCAMP-DX=Revision 4.10 
##DATA TYPE=MASS SPECTRUM
##SAMPLE DESCRIPTION=V.A.Korolev, Moscow, Russia
##NAMES=HP
##CAS NAME=Tris(pyridin-4-yl)-1,3,5-triazine
##MOLFORM=C18H12N6
##CAS REGISTRY NO=42333-78-8
##MP= -300
##BP= -300
##MW= 312
##$RETENTION INDEX=0
##$CONDENSED SPECTRUM=NO
##NPOINTS= 39
##XYDATA=(XY..XY) 1 
    37          5
    38          6
    39          7
    40         11
    41          4
    43          4
    44         13
    49          3
    50        235
    51        302
    52         76
    53         60
    54          4
    62          4
    63         10
    64        126
    65         10
    74          8
    75         29
    76        213
    77        239
    78        596
    79         12
   102          3
   103         84
   104        999
   105        362
   106         19
   130          3
   181          6
   182          1
   208         23
   209          4
   234          9
   285         14
   286          5
   312        256
   313         55
   314          5