##TITLE=Library Entry 51786
##JCAMP-DX=Revision 4.10 
##DATA TYPE=MASS SPECTRUM
##SAMPLE DESCRIPTION=Chemical Concepts
##NAMES=HP
##CAS NAME=Cyclohexylidenecyclohexane
##MOLFORM=C12H20
##CAS REGISTRY NO=4233-18-5
##MP= -300
##BP= -300
##MW= 164
##$RETENTION INDEX=0
##$CONDENSED SPECTRUM=NO
##NPOINTS= 111
##XYDATA=(XY..XY) 1 
    26          9
    27        119
    28          7
    29        117
    30          3
    31          2
    33          1
    35          1
    36          1
    37          1
    38          9
    39        191
    40         36
    41        331
    42         47
    43         52
    44          2
    45          1
    46          2
    47          1
    49          3
    50         13
    51         50
    52         34
    53        124
    54        105
    55        398
    56         18
    57         14
    58          4
    59          3
    60          2
    61          3
    63         16
    64         11
    65         86
    66         48
    67        732
    68        169
    69         49
    70         13
    71         26
    72          4
    73          1
    74          2
    75          3
    76          5
    77        195
    78         61
    79        443
    80        253
    81        621
    82        999
    83        439
    84         23
    85          2
    86          2
    87          0
    89          6
    91        188
    92         34
    93        280
    94        147
    95        138
    96        151
    97        168
    98         91
    99        160
   100         14
   101          6
   102          4
   103         15
   104         24
   105         44
   106         14
   107        138
   108        114
   109         99
   110         12
   111          5
   113          7
   114          2
   115         15
   116          5
   117         20
   118          5
   119         16
   120          8
   121        197
   122        128
   123         36
   124          4
   128          5
   129          3
   135        156
   136         43
   137          5
   138          1
   139          2
   141          2
   142          2
   143          1
   144          2
   145          1
   147          2
   148          2
   149         59
   150          6
   164        747
   165         98
   166          7