##TITLE=Library Entry 15275
##JCAMP-DX=Revision 4.10 
##DATA TYPE=MASS SPECTRUM
##SAMPLE DESCRIPTION=MASS SPECTROMETRY CENTER, UNIV. OF UTAH ALDRICH 12049-9
##NAMES=HP
##CAS NAME=3-Pyrrolidinecarboxylic acid, 1-methyl-5-oxo-
##MOLFORM=C6H9NO3
##CAS REGISTRY NO=42346-68-9
##MP= -300
##BP= -300
##MW= 143
##$RETENTION INDEX=0
##$CONDENSED SPECTRUM=NO
##NPOINTS= 54
##XYDATA=(XY..XY) 1 
    14          8
    15        109
    26         33
    27         89
    28         93
    29         53
    30         76
    31          6
    34          1
    37          1
    38         14
    39        133
    40         48
    41        312
    42        423
    43        171
    44        999
    45         97
    52          2
    53         18
    54         17
    55        211
    56         56
    57         13
    58         45
    60          6
    67          1
    68        109
    69        103
    70        383
    71         65
    72         70
    73          6
    82         12
    83         58
    84         11
    85         30
    86         26
    87          9
    88          7
    96         25
    97        139
    98        119
    99          4
   100         64
   101        142
   113          3
   114          1
   115        401
   116         31
   126         14
   142         40
   143        311
   144         30