##TITLE=Library Entry 34371
##JCAMP-DX=Revision 4.10 
##DATA TYPE=MASS SPECTRUM
##SAMPLE DESCRIPTION=NIST Mass Spectrometry Data Center, 2010
##NAMES=HP
##CAS NAME=5-Hepten-1-ol, 2,6-dimethyl-
##MOLFORM=C9H18O
##CAS REGISTRY NO=4234-93-9
##MP= -300
##BP= -300
##MW= 142
##$RETENTION INDEX=1012
##$CONDENSED SPECTRUM=NO
##NPOINTS= 31
##XYDATA=(XY..XY) 1 
    27         45
    31         99
    39        204
    41        863
    42         76
    43        164
    45         16
    53        148
    54         64
    55        389
    56        221
    57        121
    58        136
    66         25
    67        659
    68        369
    69        999
    70        117
    71        227
    77         46
    79         55
    80         70
    81        269
    82        834
    95        399
    96         46
   109        582
   110         64
   124         40
   142        270
   143         39