##TITLE=Library Entry 76066
##JCAMP-DX=Revision 4.10 
##DATA TYPE=MASS SPECTRUM
##SAMPLE DESCRIPTION=G.W. SOVOCOOL, U.S. EPA, ANAL. CHEM. BRANCH, R.T.P., N.
C., Uet
##NAMES=HP
##CAS NAME=Kelevan
##MOLFORM=C17H12Cl10O4
##CAS REGISTRY NO=4234-79-1
##MP= -300
##BP= -300
##MW= 630
##$RETENTION INDEX=0
##$CONDENSED SPECTRUM=NO
##NPOINTS= 475
##XYDATA=(XY..XY) 1 
    45        181
    46          5
    47          4
    48          0
    49          5
    50          4
    51          7
    52          2
    53         48
    54          0
    55        596
    56        203
    57         96
    58         10
    59          5
    60         12
    61          4
    62          1
    63         18
    64          1
    65         12
    66          1
    67          9
    68          2
    69         74
    70         30
    71         57
    72          5
    73        215
    74        111
    75         37
    76          7
    77          7
    78          0
    79          4
    80          1
    81         13
    82          6
    83         34
    84         14
    85         17
    86          2
    87          8
    88          0
    89          3
    90          0
    91          5
    92          0
    93          2
    94         26
    95         10
    96          4
    97         34
    98         63
    99        124
   100          0
   101        844
   102        999
   103         63
   104         10
   105          8
   106          3
   107          6
   108          4
   109          8
   110          2
   111          6
   112          1
   113          2
   114          0
   115          2
   116          1
   117         11
   118          5
   119         25
   120          5
   121         10
   122          2
   123          3
   124          1
   125         21
   126          2
   127          8
   128          0
   129        788
   130         52
   131         11
   132          7
   133          6
   134          1
   135          3
   136          0
   137          0
   138          0
   139          0
   140          1
   141         17
   142          3
   143         23
   144         57
   145         12
   146          2
   147          3
   148          1
   149         90
   150          8
   151          2
   152          1
   153         10
   154          3
   155         12
   156          3
   157          7
   158          2
   159          3
   160          3
   161          4
   162          2
   163          2
   164          1
   165          8
   166          2
   167         19
   168          4
   169         10
   170          1
   171          3
   172          0
   173          1
   174          1
   175          1
   176          1
   177          3
   178          9
   179         11
   180         18
   181         40
   182         22
   183         25
   184          8
   185          8
   186          2
   187          1
   188          2
   189          4
   190          3
   191          6
   192          6
   193          7
   194          0
   195        108
   196         22
   197        104
   198         17
   199         40
   200         11
   201          6
   202          2
   203          8
   204          2
   205          8
   206          1
   207          2
   208          1
   209          1
   210          2
   211          1
   212          1
   213          9
   214         13
   215         24
   216         30
   217         88
   218          3
   219        114
   220          9
   221         45
   222          6
   223         16
   224          4
   225          5
   226          4
   227          5
   228          8
   229          3
   230         11
   231         31
   232          4
   233         49
   234          0
   235        164
   236          9
   237        229
   238         10
   239        154
   240         14
   241         50
   242          6
   243         11
   244          0
   245          2
   246          0
   247          0
   248          1
   249          8
   250         10
   251         17
   252         10
   253          9
   254         11
   255          5
   256          6
   257          2
   258          3
   259         52
   260          2
   261         75
   262         20
   263         36
   264         17
   265         12
   266          7
   267          4
   268          2
   269          3
   270         16
   271          5
   272         34
   273          5
   274         31
   275          7
   276         14
   277          4
   278          7
   279          3
   280          3
   281          2
   282          5
   283         26
   284         12
   285         45
   286         14
   287         31
   288          9
   289         11
   290          4
   291          8
   292          3
   293          8
   294          5
   295          4
   296         10
   297          5
   298         14
   299          6
   300         10
   301          4
   302          3
   303          1
   304          0
   305          1
   306         12
   307          1
   308         15
   309          5
   310          8
   311          6
   312          5
   313          5
   314          6
   315          3
   316          5
   317          2
   318         17
   319         11
   320         29
   321         14
   322         26
   323         13
   324         12
   325         12
   326          7
   327         12
   328          4
   329          8
   330          2
   331          3
   332          6
   333          3
   334         12
   335          4
   336          9
   337          3
   338          3
   339          1
   340          0
   341          0
   342          0
   343          1
   344          0
   345          3
   346          6
   347          4
   348         13
   349          4
   350         10
   351          4
   352          2
   353         40
   354          4
   355         82
   356          5
   357         78
   358          5
   359         42
   360          5
   361         16
   362          3
   363          8
   364          1
   365          4
   366          1
   367          2
   368          1
   369          1
   370          1
   371          1
   372          0
   373          0
   375          0
   377          0
   379          1
   380          0
   381          9
   382          5
   383         16
   384          9
   385         17
   386          9
   387          8
   388          5
   389          2
   390          3
   391          1
   392          2
   393          0
   394          1
   395          1
   396          0
   397          3
   398          0
   399          3
   400          0
   401          1
   402          0
   403          0
   404          0
   405          0
   415          0
   416          0
   417          0
   418          2
   419          1
   420          1
   421          0
   422          0
   423          0
   424          0
   425          1
   426          0
   427          1
   428          0
   429          0
   431          0
   433          0
   435          0
   437          0
   451          0
   452          0
   453          2
   454          0
   455          2
   457          1
   459          0
   461          0
   489          0
   491          0
   495          0
   497          0
   499          0
   512          0
   513          1
   514          0
   515          3
   516          0
   517          2
   518          0
   519          0
   525          0
   527          0
   528          0
   529          8
   530          0
   531         32
   532          0
   533         50
   534          0
   535         42
   536          3
   537         20
   538          1
   539          5
   540          0
   541          1
   542          0
   543          1
   544          0
   545          2
   546          0
   547          0
   548          0
   549          0
   550          0
   551          0
   552          0
   553          1
   554          0
   555          1
   556          0
   557          9
   558          3
   559         30
   560          0
   561         51
   562          8
   563         40
   564          2
   565         24
   566          2
   567          6
   568          0
   569          0
   583          0
   584          0
   585         21
   586          3
   587         76
   588          2
   589        123
   590          2
   591        102
   592          2
   593         57
   594          6
   595         15
   596          1
   597          2
   599          0
   612          0
   613          0
   614          1
   615          0
   616          4
   617          0
   618          3
   619          0
   620          0
   630          0
   632          1
   633          0
   634          3
   635          0
   636          2
   638          0
   640          0