##TITLE=Library Entry 90845
##JCAMP-DX=Revision 4.10 
##DATA TYPE=MASS SPECTRUM
##SAMPLE DESCRIPTION=Div. of Experiment Therapeutics WRAIR, WRAMC, Washingto
n DC 20307
##NAMES=HP
##CAS NAME=3-[2-Iodoethyl]-2-oxazolidinone
##MOLFORM=C5H8INO2
##CAS REGISTRY NO=42351-24-6
##MP= -300
##BP= -300
##MW= 241
##$RETENTION INDEX=0
##$CONDENSED SPECTRUM=NO
##NPOINTS= 69
##XYDATA=(XY..XY) 1 
    42        616
    43         87
    44         70
    45         22
    49          2
    51         12
    52         13
    54        142
    56        663
    57         43
    58          4
    59          5
    60          2
    63          7
    64          3
    65          4
    68         39
    70        186
    71          8
    72          1
    73          2
    74          7
    78         23
    82          1
    84          6
    86         38
    87         43
    88         31
    91          8
    92          3
    93          1
    96          1
    97          3
    98          8
   100        656
   101         49
   102          4
   105         16
   106          1
   107          1
   114        999
   115         38
   116          2
   119          2
   125          1
   127         86
   128         31
   131          7
   132          3
   139          4
   141         32
   143          1
   149          4
   152          2
   154          8
   155        162
   156         16
   164         12
   168          4
   170         10
   180          3
   182          1
   184        127
   197          4
   198          5
   214          4
   240         10
   241        112
   242         16