##TITLE=Library Entry 37717
##JCAMP-DX=Revision 4.10 
##DATA TYPE=MASS SPECTRUM
##SAMPLE DESCRIPTION=Chemical Concepts
##NAMES=HP
##CAS NAME=2-Pyrrolidinemethanol, 1-acetyl-, acetate (ester)
##MOLFORM=C9H15NO3
##CAS REGISTRY NO=42366-60-9
##MP= -300
##BP= -300
##MW= 185
##$RETENTION INDEX=0
##$CONDENSED SPECTRUM=NO
##NPOINTS= 100
##XYDATA=(XY..XY) 1 
    25          4
    26         31
    27         86
    28         15
    29         23
    31          3
    36          2
    38          2
    39         24
    40          8
    41         67
    42         47
    43        273
    44         16
    45          6
    50          1
    51          3
    52          2
    53          9
    54         14
    55         43
    56         18
    57          8
    58          2
    59          1
    60          7
    61          1
    65          3
    66          2
    67         11
    68         50
    69         22
    70        999
    71         93
    72          9
    73          7
    74          1
    76          1
    77          2
    78          1
    79          1
    80          5
    81          4
    82         37
    83         85
    84         40
    85          8
    86          1
    87          3
    91          5
    92          2
    93          2
    94          1
    95          1
    96          2
    97         11
    98          3
    99          2
   100         51
   101          4
   102          1
   104          2
   105          2
   107          1
   108          0
   109          1
   110          1
   111          3
   112        406
   113         36
   114          3
   115          1
   119          1
   121          2
   122          1
   123          1
   124          3
   125        167
   126         22
   127          2
   128          7
   129          1
   132          1
   133          1
   135          1
   139          1
   141          1
   142         15
   143          2
   151          0
   152          0
   155          0
   160          1
   161          0
   165          1
   167          2
   168          1
   169          1
   185          2
   186          1