##TITLE=Library Entry 4681
##JCAMP-DX=Revision 4.10 
##DATA TYPE=MASS SPECTRUM
##SAMPLE DESCRIPTION=A.Pleshkova, Nesmeyanov Inst.Org.Elem.Cpds, Moscow
##NAMES=HP
##CAS NAME=N-Cyano-2-methylazetidine
##MOLFORM=C5H8N2
##CAS REGISTRY NO=42364-46-5
##MP= -300
##BP= -300
##MW= 96
##$RETENTION INDEX=0
##$CONDENSED SPECTRUM=NO
##NPOINTS= 27
##XYDATA=(XY..XY) 1 
    26         71
    27        405
    28        653
    29        243
    30         43
    39        161
    40        101
    41        503
    42        999
    43         43
    44          9
    53        272
    54        153
    55        861
    56        203
    57         41
    58          9
    67        141
    68        313
    69        181
    70         33
    81         83
    82          9
    95         21
    96        222
    97         21
    98          1