##TITLE=Library Entry 32573
##JCAMP-DX=Revision 4.10 
##DATA TYPE=MASS SPECTRUM
##SAMPLE DESCRIPTION=S.A. Rang et al., IR & MS of Unsatd. Hydrocarbons, 1977
##NAMES=HP
##CAS NAME=6-Tridecane
##MOLFORM=C13H24
##CAS REGISTRY NO=42371-66-4
##MP= -300
##BP= -300
##MW= 180
##$RETENTION INDEX=1304
##$CONDENSED SPECTRUM=NO
##NPOINTS= 95
##XYDATA=(XY..XY) 1 
    15          1
    24          0
    25          1
    26         17
    27        271
    29        456
    30         11
    31          2
    37          1
    38          5
    39        186
    40         46
    41        691
    42         96
    43        370
    44          7
    45          1
    49          0
    50          5
    51         36
    52         78
    53        190
    54        938
    55        629
    56         86
    57         88
    58          4
    59          1
    62          1
    63          7
    64          4
    65         63
    66         60
    67        999
    68        382
    69        370
    70         46
    71         12
    72          1
    74          1
    76          1
    77         71
    78         20
    79        126
    80         48
    81        839
    82        345
    83        115
    84         10
    85          2
    89          1
    90          1
    91         34
    92          5
    93         37
    94         20
    95        654
    96        234
    97         41
    98          3
    99          0
   100          0
   102          1
   103          1
   104          1
   105          4
   106          1
   107          9
   108          7
   109        308
   110         95
   111         12
   112          1
   115          1
   117          0
   119          0
   121          1
   122          1
   123         50
   124         28
   125          3
   126          0
   128          0
   135          1
   137         30
   138          9
   139          1
   151         65
   152          9
   153          1
   165          4
   166          1
   180          6
   181          1
   182          0