##TITLE=Library Entry 53628
##JCAMP-DX=Revision 4.10 
##DATA TYPE=MASS SPECTRUM
##SAMPLE DESCRIPTION=Div. of Experiment Therapeutics WRAIR, WRAMC, Washingto
n DC 20307
##NAMES=HP
##CAS NAME=5-Chloro-2-[[4-methyl-6-[[2-[1-pyrrolidinyl]ethyl]amino]-2-pyrimi
dinyl]amino]benzimidazole
##MOLFORM=C18H22ClN7
##CAS REGISTRY NO=42388-72-7
##MP= -300
##BP= -300
##MW= 371
##$RETENTION INDEX=0
##$CONDENSED SPECTRUM=NO
##NPOINTS= 114
##XYDATA=(XY..XY) 1 
    41         24
    42        261
    43         26
    44         10
    45          0
    49          1
    51          4
    52          5
    53         11
    54         24
    55        104
    56         31
    57          6
    59          1
    63          4
    64          2
    65          2
    66         20
    67         18
    68         11
    69         19
    70          7
    73          0
    76          4
    77          3
    78          3
    79          4
    80          4
    81          2
    82         17
    84        999
    85         48
    86          1
    87          2
    90          3
    91          1
    92          2
    93          2
    94          1
    95          8
    96         14
    97        179
    98         21
    99          2
   103          3
   104          0
   105          5
   106          3
   107          4
   108          4
   109          5
   111          3
   120          2
   124         11
   125          0
   126          4
   130          4
   131          1
   132          0
   134          0
   138          1
   139          6
   141          1
   150          0
   152         10
   153          0
   154          2
   157          1
   158          5
   165          2
   166          3
   167          7
   168          2
   169          1
   178          3
   180          3
   192          8
   193         13
   194          4
   195          5
   205          3
   217          4
   219          2
   233          2
   240          0
   241          0
   246          0
   258          6
   259          2
   260          2
   273          2
   274         42
   275        124
   276         30
   277         41
   278          5
   285          8
   286          5
   287         21
   288          5
   289          6
   299          5
   300          2
   301          9
   302          4
   303          2
   340          2
   368          1
   369          5
   370          1
   371         10
   372          2
   373          3
   374          1