##TITLE=Library Entry 69500
##JCAMP-DX=Revision 4.10 
##DATA TYPE=MASS SPECTRUM
##SAMPLE DESCRIPTION=Div. of Experiment Therapeutics WRAIR, WRAMC, Washingto
n DC 20307
##NAMES=HP
##CAS NAME=5,6-Dichloro-2-[[4-methyl-6-[[1-propyl-4-piperidyl]amino]-2-pyrim
idinyl]amino]benzimidazole
##MOLFORM=C20H25Cl2N7
##CAS REGISTRY NO=42389-06-0
##MP= -300
##BP= -300
##MW= 433
##$RETENTION INDEX=0
##$CONDENSED SPECTRUM=NO
##NPOINTS= 163
##XYDATA=(XY..XY) 1 
    41        248
    42        614
    43        291
    44        114
    45         13
    47         10
    49          6
    51          3
    53         54
    54         59
    55        207
    56        117
    57         59
    58         15
    65         13
    66         59
    67        113
    68         74
    69         45
    70         99
    71         18
    72         26
    78          9
    79         14
    80         75
    81         37
    82        255
    83         77
    84          9
    86          8
    88          6
    92         13
    93         15
    94         30
    95         44
    96        999
    97         87
    98         61
    99         24
   100          5
   102          5
   106         13
   107         26
   108         52
   109         65
   110         24
   112          5
   119          5
   121          5
   122         49
   123         26
   124        593
   125        921
   126        117
   133         12
   134         35
   135         24
   139         13
   146         13
   147          5
   148          5
   149          7
   153          4
   157          4
   158         14
   159          4
   160         27
   161         14
   162         14
   164          5
   166         11
   167         16
   168         10
   173         35
   174         28
   175         23
   180          9
   181         23
   185         12
   186         27
   187          7
   188         15
   192         17
   194          4
   195          9
   200          5
   201         29
   202        182
   203        145
   204         37
   205          4
   226         36
   227         60
   228         20
   229         40
   230          5
   251          6
   253          6
   267          8
   274         11
   275         21
   277          6
   292         18
   293         14
   294         17
   295          5
   300          6
   301          4
   307          5
   308        114
   309        431
   310        140
   311        314
   312         61
   313         61
   314         12
   320          6
   321         20
   322         32
   323         16
   324         14
   333         69
   334         22
   335        300
   336         66
   337        200
   338         39
   339         38
   345          8
   346          6
   347         50
   348        158
   349         88
   350        151
   351         53
   352         45
   353          6
   359          5
   361        115
   362         36
   363         73
   364         22
   365         15
   375         27
   376         48
   377         30
   378         32
   379          5
   390         26
   391          4
   392         17
   404        179
   405         44
   406        124
   407         24
   408         13
   432          8
   433        174
   434         65
   435        124
   436         43
   437         28
   438          4