##TITLE=Library Entry 15705
##JCAMP-DX=Revision 4.10 
##DATA TYPE=MASS SPECTRUM
##SAMPLE DESCRIPTION=Div. of Experiment Therapeutics WRAIR, WRAMC, Washingto
n DC 20307
##NAMES=HP
##CAS NAME=4-Amino-1-propylpiperidine
##MOLFORM=C8H18N2
##CAS REGISTRY NO=42389-59-3
##MP= -300
##BP= -300
##MW= 142
##$RETENTION INDEX=0
##$CONDENSED SPECTRUM=NO
##NPOINTS= 53
##XYDATA=(XY..XY) 1 
    41        175
    42        693
    43        307
    44        999
    45         24
    47         73
    48         32
    52          6
    53         19
    54         50
    55         58
    56        266
    57         48
    58         23
    63          1
    65          1
    67         16
    68         35
    70        890
    71         45
    72        105
    73          2
    79          1
    80         10
    81         11
    82         42
    88         21
    94          9
    95          4
    96        515
    97         14
    98        162
    99         17
   100          2
   108          5
   109          1
   110         18
   111          8
   112          4
   113        298
   114         18
   122          7
   124         57
   125        117
   126         38
   127         56
   128          1
   129          2
   140         13
   141         45
   142        148
   143         13
   144          5