##TITLE=Library Entry 89148
##JCAMP-DX=Revision 4.10 
##DATA TYPE=MASS SPECTRUM
##SAMPLE DESCRIPTION=Div. of Experiment Therapeutics WRAIR, WRAMC, Washingto
n DC 20307
##NAMES=HP
##CAS NAME=2-[4-[1-Ethyl-3-piperidyl]amino]-6-methyl-2-pyrimidinyl]amino]-5-
phenylbenzimidazole
##MOLFORM=C25H29N7
##CAS REGISTRY NO=42389-26-4
##MP= -300
##BP= -300
##MW= 427
##$RETENTION INDEX=0
##$CONDENSED SPECTRUM=NO
##NPOINTS= 113
##XYDATA=(XY..XY) 1 
    41         62
    42        152
    43         87
    44         39
    45          8
    51          2
    53         21
    54         11
    55         61
    56         37
    57         92
    58         20
    60         21
    61          2
    65          3
    66         19
    67         36
    68         33
    69         43
    70         36
    71         37
    72         64
    73         16
    77         13
    78          5
    79          7
    80         18
    81         22
    82         26
    83         33
    84         23
    85         20
    93         10
    94         10
    96        468
    97         58
    98         41
    99         11
   105          6
   106          2
   107         23
   108         20
   109         14
   111        999
   112         81
   113         10
   115         12
   117         12
   124          2
   125         10
   127         18
   129         12
   133          3
   134         10
   139         21
   140          9
   141         15
   149          7
   151         21
   152          3
   153          9
   155          3
   165          7
   166         35
   167         17
   168          5
   171          2
   177          6
   179          6
   180          6
   181         18
   185         28
   191          3
   192         10
   193          7
   194         31
   195          8
   205          3
   206          5
   207         15
   208          6
   209         34
   210         10
   214         32
   220          9
   232          2
   233          8
   234         48
   235         61
   236          5
   256          3
   259         12
   275         20
   285          2
   300         23
   301         11
   315         10
   316        114
   317        624
   318        133
   319          7
   335          2
   341         69
   342         11
   343         18
   344          3
   355         17
   367          2
   369         17
   398          2
   426          8
   427         30
   428          7