##TITLE=Library Entry 56441
##JCAMP-DX=Revision 4.10 
##DATA TYPE=MASS SPECTRUM
##SAMPLE DESCRIPTION=Div. of Experiment Therapeutics WRAIR, WRAMC, Washingto
n DC 20307
##NAMES=HP
##CAS NAME=4,5,6,7-Tetrachloro-2-[4-[2-[diethylamino]ethyl]amino]-6-methyl-2
-pyrimidinyl]amino]benzimidazole
##MOLFORM=C18H21Cl4N7
##CAS REGISTRY NO=42389-13-9
##MP= -300
##BP= -300
##MW= 475
##$RETENTION INDEX=0
##$CONDENSED SPECTRUM=NO
##NPOINTS= 151
##XYDATA=(XY..XY) 1 
    41          8
    42         30
    43         10
    44          9
    51          1
    52          2
    53          4
    54          8
    55          6
    56         18
    57          2
    58         68
    59          1
    65          0
    66         14
    67          8
    68          5
    69          2
    70          6
    71          9
    72          4
    73          0
    79          3
    80          1
    81          1
    82          3
    83          3
    84         11
    86        999
    87         41
    88          1
    91          2
    92          1
    93          2
    95          5
    96          1
    97          2
    99        104
   100          7
   106          2
   107          3
   108          3
   109          3
   110          1
   111          1
   113          1
   118          2
   120          5
   122          1
   124          0
   125          0
   130          1
   132          0
   133          0
   134          2
   135          0
   137          0
   147          0
   149          0
   162          0
   165          0
   184          1
   192          0
   194          0
   198          0
   200          0
   201          0
   202          1
   207          1
   209          0
   217          0
   220          0
   222          0
   226          1
   228          2
   229          0
   230          0
   231          1
   232          0
   233          0
   234          1
   235          0
   236          1
   241          1
   243          1
   245          1
   254          1
   256          2
   258          1
   260          2
   261          1
   262          2
   263          1
   264          2
   265          1
   268          0
   269          1
   270          1
   271          1
   272          0
   273          1
   282          1
   284          1
   285          0
   293          0
   294          1
   295          4
   296          3
   297          5
   298          3
   299          1
   319          2
   321          3
   323          1
   325          0
   335          0
   343          3
   345          3
   346          0
   355          0
   357          0
   360          2
   362          2
   363          1
   364          1
   367          0
   368          0
   369          1
   371          1
   376          1
   377          7
   378          3
   379          8
   380          1
   381          4
   382          0
   389          3
   390          1
   391          4
   392          1
   393          2
   401          1
   403          3
   404          1
   405          4
   406          1
   407          2
   475          1
   476          0
   477          2
   479          0