##TITLE=Library Entry 56644
##JCAMP-DX=Revision 4.10 
##DATA TYPE=MASS SPECTRUM
##SAMPLE DESCRIPTION=Div. of Experiment Therapeutics WRAIR, WRAMC, Washingto
n DC 20307
##NAMES=HP
##CAS NAME=5,6-Dichloro-2-[[4-[[2-diethylamino-1-methylethyl]amino]-6-methyl
-2-pyrimidinyl]amino]benzimidazole
##MOLFORM=C19H25Cl2N7
##CAS REGISTRY NO=42388-84-1
##MP= -300
##BP= -300
##MW= 421
##$RETENTION INDEX=0
##$CONDENSED SPECTRUM=NO
##NPOINTS= 161
##XYDATA=(XY..XY) 1 
    41         23
    42         47
    43         16
    44         16
    46          2
    49          2
    51          1
    52          2
    53          3
    54          5
    55          1
    56         19
    58         79
    59          2
    60          0
    62          1
    64          0
    65          0
    66         14
    67         12
    68          8
    69          4
    70          5
    71          1
    72          7
    73          1
    74          0
    76          1
    78          0
    79          1
    80          2
    81          1
    82          4
    83          5
    84          7
    86        999
    87         50
    88          2
    89          0
    91          0
    92          3
    93          2
    94          0
    95          1
    96          1
    97          1
    98         10
   100         32
   101          2
   103          1
   105          0
   106          1
   107          3
   108          1
   109         16
   110          1
   111          0
   112          1
   113         89
   114          6
   115          0
   120          1
   121          0
   123          1
   124          1
   127          0
   130          1
   132          0
   133          0
   134          5
   135          1
   137          1
   139          2
   146          0
   148          1
   149          1
   150          1
   151          0
   152          0
   156          0
   157          0
   158          5
   159          0
   160          3
   162          0
   164          2
   166          2
   167          1
   168          0
   173          3
   174          0
   175          2
   176          0
   177          0
   186          4
   188          3
   189          0
   191          0
   192          3
   193          0
   194          1
   200          2
   201          3
   202          2
   203          2
   204          0
   205          0
   212          0
   213          0
   214          0
   217          0
   226          5
   227          6
   228          4
   229          2
   230          1
   231          0
   251          3
   253          1
   254          0
   255          0
   265          0
   266          0
   267          0
   275          1
   277          1
   278          0
   280          0
   292          3
   293          1
   294          2
   295          1
   301          0
   307          0
   308          1
   309          5
   310          2
   311          2
   313          2
   314          1
   315          0
   321          0
   322          0
   323          0
   329          0
   333          3
   334          1
   335          8
   336          2
   337          5
   338          1
   339          1
   347          1
   348          0
   349          3
   350          0
   351          2
   420          1
   421          2
   422          1
   423          1