##TITLE=Library Entry 89365
##JCAMP-DX=Revision 4.10 
##DATA TYPE=MASS SPECTRUM
##SAMPLE DESCRIPTION=Div. of Experiment Therapeutics WRAIR, WRAMC, Washingto
n DC 20307
##NAMES=HP
##CAS NAME=N,N-Diethyl-1,4-cyclohexanediamine
##MOLFORM=C10H22N2
##CAS REGISTRY NO=42389-54-8
##MP= -300
##BP= -300
##MW= 170
##$RETENTION INDEX=0
##$CONDENSED SPECTRUM=NO
##NPOINTS= 69
##XYDATA=(XY..XY) 1 
    41        243
    42        345
    43        264
    44        166
    46         24
    47         12
    48          4
    52          8
    53         58
    54         95
    55         81
    56        462
    58        244
    59          7
    60          1
    63          8
    65          8
    66          6
    67         27
    68        112
    69         57
    70        212
    71        327
    72        274
    74         42
    77         23
    79         54
    80         22
    81        154
    82         45
    88          8
    92          4
    93          1
    94         18
    96        227
    97        186
    98        439
    99        452
   100         23
   101          0
   106          2
   108         10
   109          1
   110         18
   112        999
   113        320
   114         36
   115          1
   122          6
   124        154
   125         27
   126          6
   127          1
   136          2
   138         13
   139          2
   141         85
   142          8
   143          1
   149          2
   152         14
   153          3
   154         21
   155         30
   156          3
   169         29
   170        155
   171         17
   172          2