##TITLE=Library Entry 72909
##JCAMP-DX=Revision 4.10 
##DATA TYPE=MASS SPECTRUM
##SAMPLE DESCRIPTION=Div. of Experiment Therapeutics WRAIR, WRAMC, Washingto
n DC 20307
##NAMES=HP
##CAS NAME=2-[[4-[[2-[Butylmethylamino]ethyl]amino]-6-methyl-2-pyrimidinyl]a
mino]-5,6-dichlorobenzimidazole
##MOLFORM=C19H25Cl2N7
##CAS REGISTRY NO=42388-78-3
##MP= -300
##BP= -300
##MW= 421
##$RETENTION INDEX=0
##$CONDENSED SPECTRUM=NO
##NPOINTS= 116
##XYDATA=(XY..XY) 1 
    41         53
    42         56
    43         25
    44        198
    45          5
    49          6
    51          1
    52          2
    53          6
    54         12
    55         13
    56          7
    57         43
    58        191
    59          3
    60          3
    62          1
    66         13
    67         10
    68          6
    69          2
    70         29
    71         18
    72          1
    79          2
    80          1
    82          3
    83          6
    84         10
    86          5
    93          1
    95          5
    97          4
    98         87
   100        999
   101         41
   107          5
   108          3
   109          6
   112          7
   113         95
   114         23
   120          1
   124          3
   127          1
   134          2
   135          1
   139          1
   149          3
   150          1
   151          1
   158          7
   160          7
   161          1
   164          3
   167         11
   168          7
   169          4
   173          4
   174          2
   175          4
   177          1
   186          3
   188          7
   189          3
   190          3
   192          5
   194          1
   195          1
   200          1
   201          4
   202          2
   203          4
   214          2
   216          4
   226          8
   227         10
   228          5
   229          8
   231          1
   239          2
   251          5
   253          3
   265          1
   267          1
   269          2
   274          3
   275          6
   277          4
   290          1
   292          8
   293          1
   294          5
   308         29
   309         79
   310         30
   311         53
   312         10
   313          9
   320          5
   321         19
   322          8
   323         13
   324          4
   325          1
   333          7
   334          1
   335         15
   336          4
   337          9
   378          5
   380          1
   421         14
   422          4
   423         10
   425          1