##TITLE=Library Entry 4711
##JCAMP-DX=Revision 4.10 
##DATA TYPE=MASS SPECTRUM
##SAMPLE DESCRIPTION=Div. of Experiment Therapeutics WRAIR, WRAMC, Washingto
n DC 20307
##NAMES=HP
##CAS NAME=5,6-Dichloro-2-[4-[1-ethyl-4-piperidyl]methylamino]-6-methyl-2-py
rimidinylaminobenzimidazole
##MOLFORM=C20H25Cl2N7
##CAS REGISTRY NO=42389-02-6
##MP= -300
##BP= -300
##MW= 433
##$RETENTION INDEX=0
##$CONDENSED SPECTRUM=NO
##NPOINTS= 187
##XYDATA=(XY..XY) 1 
    41        567
    42        999
    43        312
    44        141
    45         38
    49          4
    51         44
    52         37
    53        149
    54        182
    55        818
    56        443
    57        263
    58        267
    60         10
    62         19
    64         11
    65         57
    66        181
    67        266
    68        157
    69        140
    70         82
    71         70
    72         66
    73          9
    77         36
    78         20
    79         93
    80         97
    81        115
    82        245
    83        119
    84        318
    85         69
    86         41
    91         34
    92         30
    93         50
    94         97
    95        154
    96        495
    97        234
    98         80
    99         12
   103         20
   105         25
   106          9
   107         34
   108        173
   109         52
   110        647
   111         27
   112        319
   113         20
   118          8
   120         37
   121         34
   122         33
   123        417
   124        641
   125        247
   126         70
   127          9
   132          9
   133         21
   135         23
   136          9
   137         24
   139         43
   146         18
   147          8
   148          8
   149         35
   151          9
   152         18
   158         74
   160         46
   161         11
   164         51
   166         40
   167         19
   173         40
   175         21
   181         11
   186         71
   187          8
   188         46
   191         21
   192         90
   193         22
   194         41
   200         41
   201         77
   202         35
   203         61
   209        171
   210        131
   212         21
   214         22
   216         25
   217         52
   226         89
   227        148
   228         67
   229         96
   239         23
   241         20
   251         48
   253         40
   255          9
   258          9
   267         20
   269         10
   274         53
   275         54
   277         40
   287         37
   288         46
   289         28
   290         18
   292         78
   293         77
   294         94
   295         56
   296         39
   307         30
   308        240
   309        401
   310        213
   311        240
   312         55
   313         47
   315         42
   317          9
   320         20
   321        199
   322        302
   323        165
   324        205
   325         58
   326         45
   327         69
   329         64
   331         32
   333         74
   334         37
   335         68
   336         41
   337         22
   347         65
   348         21
   349        340
   350         53
   351        233
   352         35
   353         32
   359         38
   361         77
   362         59
   363         62
   364         57
   365         36
   370         75
   375         31
   389         46
   390        158
   391         68
   392         94
   393         33
   398         53
   400         18
   401         18
   404        647
   405        153
   406        451
   407         97
   408         67
   418         95
   420         67
   432         75
   433        375
   434        156
   435        239
   436        108
   437         37
   438          8