##TITLE=Library Entry 89948
##JCAMP-DX=Revision 4.10 
##DATA TYPE=MASS SPECTRUM
##SAMPLE DESCRIPTION=Div. of Experiment Therapeutics WRAIR, WRAMC, Washingto
n DC 20307
##NAMES=HP
##CAS NAME=3-Amino-1-isobutylpiperidine
##MOLFORM=C9H20N2
##CAS REGISTRY NO=42389-62-8
##MP= -300
##BP= -300
##MW= 156
##$RETENTION INDEX=0
##$CONDENSED SPECTRUM=NO
##NPOINTS= 70
##XYDATA=(XY..XY) 1 
    41        377
    42        506
    43        416
    44        544
    45         17
    46          9
    47          7
    49         52
    50          6
    51         19
    53         35
    55        152
    56        163
    57        139
    58         42
    59          9
    60          2
    65          7
    67         45
    68         53
    70        437
    71         38
    72         26
    73         11
    75          0
    77          5
    79          3
    80         22
    82        104
    84        417
    85         17
    86        110
    87          1
    88          8
    91          5
    94         20
    96        510
    98        239
   100        128
   101          7
   104          0
   105          3
   106          0
   107          6
   108          5
   110         20
   111          8
   113        999
   114        160
   115         45
   116          6
   122          5
   124         34
   126         43
   127         13
   128          5
   129          4
   132          0
   133          0
   134          0
   136          9
   139        168
   141        303
   142         14
   143         19
   154          8
   155         11
   156        130
   157         14
   158          4