##TITLE=Library Entry 49134
##JCAMP-DX=Revision 4.10 
##DATA TYPE=MASS SPECTRUM
##SAMPLE DESCRIPTION=Chemical Concepts
##NAMES=HP
##CAS NAME=Bromoethyl methanesulfonate
##MOLFORM=C3H7BrO3S
##CAS REGISTRY NO=4239-10-5
##MP= -300
##BP= -300
##MW= 202
##$RETENTION INDEX=0
##$CONDENSED SPECTRUM=NO
##NPOINTS= 115
##XYDATA=(XY..XY) 1 
    25          2
    26         36
    27        352
    28         11
    29         89
    30         14
    31         22
    33          4
    34          4
    35          1
    38          1
    39          3
    40          2
    41          7
    42         18
    43         40
    44         11
    45         61
    46          7
    47          6
    48         27
    49         10
    50          4
    51          3
    55          3
    56          2
    57          3
    58          4
    59          9
    60          1
    61          1
    62          8
    63         68
    64         17
    65         39
    66          2
    67          2
    68          1
    69          2
    70          2
    71          2
    72          1
    73          3
    74          1
    75          8
    76          1
    77          3
    78          5
    79        999
    80         24
    81         52
    82          7
    83          2
    84          1
    85          1
    86          1
    89          2
    90          1
    91          4
    92          6
    93        108
    94         14
    95        106
    96         10
    97         18
    98          1
    99          2
   102          1
   103          1
   104          1
   105          4
   106        686
   107        233
   108        663
   109        673
   110         21
   111         32
   112          1
   113          1
   114          1
   115          1
   116          1
   117          1
   118          1
   119          1
   120          1
   121          2
   122          3
   123         54
   124          3
   125          6
   126          1
   127          1
   128          1
   129          1
   130          1
   131          1
   132          1
   133          1
   134          2
   135          1
   136          1
   137          2
   138          1
   139          2
   140          0
   141          2
   173          3
   174          0
   175          3
   176          0
   201          2
   202          0
   203          2
   204          0