##TITLE=Library Entry 20850
##JCAMP-DX=Revision 4.10 
##DATA TYPE=MASS SPECTRUM
##SAMPLE DESCRIPTION=Zaikin V.G., TIPS RAS, Moscow, Russia
##NAMES=HP
##CAS NAME=Cyclobutanecarboxylic acid, cyclobutyl ester
##MOLFORM=C9H14O2
##CAS REGISTRY NO=42392-30-3
##MP= -300
##BP= -300
##MW= 154
##$RETENTION INDEX=0
##$CONDENSED SPECTRUM=NO
##NPOINTS= 47
##XYDATA=(XY..XY) 1 
    26         19
    27        110
    28          3
    29         99
    30          1
    36         13
    38          8
    39         73
    40         12
    41         21
    42         14
    43         17
    44         19
    45          2
    49          2
    50         12
    51         18
    52         25
    53         58
    54         58
    55        999
    56         61
    57          4
    67          5
    69          3
    70         22
    71         35
    72          4
    73         13
    78          5
    79         44
    80          4
    81          7
    82         16
    83        933
    84         63
    85          4
    86          2
    97          8
    98         49
    99         36
   100         10
   101        285
   102         13
   111          7
   125          2
   126         13