##TITLE=Library Entry 30236
##JCAMP-DX=Revision 4.10 
##DATA TYPE=MASS SPECTRUM
##SAMPLE DESCRIPTION=Chemical Concepts
##NAMES=HP
##CAS NAME=2,2-Dimethyl-1-oxa-spiro[2.4]heptane
##MOLFORM=C8H14O
##CAS REGISTRY NO=42393-57-7
##MP= -300
##BP= -300
##MW= 126
##$RETENTION INDEX=0
##$CONDENSED SPECTRUM=NO
##NPOINTS= 57
##XYDATA=(XY..XY) 1 
    26         11
    27        102
    28         40
    29         62
    31         37
    37          4
    38         14
    39        223
    40         91
    41        417
    42        137
    43        256
    44          8
    45          4
    50         10
    51         24
    52         10
    53         80
    55        414
    56        172
    57         72
    58        384
    59        999
    60         25
    61          4
    62          5
    63         11
    65         43
    66         37
    67        747
    68        172
    69        101
    70         53
    71          9
    77         37
    78          7
    79         21
    80          4
    81         14
    82         55
    83        231
    84        832
    85        339
    86         17
    91         20
    93         36
    94          5
    95         15
    97         12
    98          4
   107          5
   108         15
   109          6
   111         74
   112          5
   126         54
   127          5