##TITLE=Library Entry 28405
##JCAMP-DX=Revision 4.10 
##DATA TYPE=MASS SPECTRUM
##SAMPLE DESCRIPTION=AAFS Toxicology Section MS DB Committee, U. Alberta, Ca
nada
##NAMES=HP
##CAS NAME=Diltiazem
##MOLFORM=C22H26N2O4S
##CAS REGISTRY NO=42399-41-7
##MP= -300
##BP= -300
##MW= 414
##$RETENTION INDEX=2942
##$CONDENSED SPECTRUM=NO
##NPOINTS= 80
##XYDATA=(XY..XY) 1 
    39          2
    41          2
    42         22
    43         43
    44          7
    45          3
    51          4
    52          1
    53          2
    55          2
    56         17
    58        999
    59         37
    63          3
    64          2
    65         12
    69          3
    70          8
    71        454
    72        167
    73          7
    76          2
    77         30
    78         12
    79          9
    89         10
    90          9
    91         16
    92          5
    96          2
   102          3
   103          4
   104          2
   105          2
   106          3
   107          5
   108          7
   109         34
   110          3
   111          2
   116          1
   117          5
   118         10
   119          4
   121        109
   122         10
   123          2
   124          1
   132          2
   133         15
   134          5
   135         14
   136         56
   137          8
   138          4
   139          2
   147          1
   148          9
   149         13
   150         96
   151         15
   152          4
   159          2
   161         41
   162          6
   163          3
   164          5
   165          2
   177          2
   178         18
   179          1
   180          1
   191          2
   192         16
   193          4
   255          1
   283          2
   284          5
   296          2
   414          2