##TITLE=Library Entry 47588
##JCAMP-DX=Revision 4.10 
##DATA TYPE=MASS SPECTRUM
##SAMPLE DESCRIPTION=R.A. LOCOCK, FAC. PHARMACY & PHARM. SCI., ALBERTA UNIV.
, CANADA
##NAMES=HP
##CAS NAME=4-Methyl-1,2-diphenyl-3,5-pyrazolidinedione
##MOLFORM=C16H14N2O2
##CAS REGISTRY NO=42391-32-2
##MP= -300
##BP= -300
##MW= 266
##$RETENTION INDEX=0
##$CONDENSED SPECTRUM=NO
##NPOINTS= 48
##XYDATA=(XY..XY) 1 
    18          8
    26         18
    27         76
    28        111
    38         23
    39         54
    40         10
    41         17
    50         33
    51        196
    52         27
    55         26
    56         28
    62          7
    63         44
    64         99
    65         53
    66          6
    75          8
    76         23
    77        999
    78         66
    83         45
    90         11
    91        127
    92         16
    93         20
   103          8
   104         51
   105        196
   106         15
   115          8
   118         54
   119         52
   128          8
   146          7
   147          8
   151          7
   152         28
   153         20
   154         11
   181          6
   182         41
   183        500
   184         68
   266        411
   267         73
   268          8