##TITLE=Library Entry 18864
##JCAMP-DX=Revision 4.10 
##DATA TYPE=MASS SPECTRUM
##SAMPLE DESCRIPTION=NIST Mass Spectrometry Data Center
##NAMES=HP
##CAS NAME=1H,1H-Heptafluorobutyl acrylate
##MOLFORM=C7H5F7O2
##CAS REGISTRY NO=424-64-6
##MP= -300
##BP= -300
##MW= 254
##$RETENTION INDEX=0
##$CONDENSED SPECTRUM=NO
##NPOINTS= 62
##XYDATA=(XY..XY) 1 
    14          3
    15          1
    20          1
    25          8
    26         74
    27        360
    28         13
    29         47
    30         10
    31         44
    32          2
    33         10
    37          1
    38          1
    39          1
    41          3
    42          3
    43          4
    44          4
    45         12
    46          1
    47          1
    50          7
    51         43
    52          1
    53         18
    55        999
    56         43
    57          4
    59          1
    63          2
    64         30
    69        145
    70          1
    71          1
    75          5
    80          1
    81          2
    82          4
    83          5
    85         69
    86          3
    87          1
    90          1
    91          4
    93          3
    95         22
   100         34
   101          1
   111          1
   113         25
   114          1
   115          4
   119         36
   120          1
   121          2
   131          4
   133          2
   135          3
   150          3
   235          2
   254          4