##TITLE=Library Entry 36106
##JCAMP-DX=Revision 4.10 
##DATA TYPE=MASS SPECTRUM
##SAMPLE DESCRIPTION=THE M.W. KELLOGG CO., JERSEY CITY, N.J., USA
##NAMES=HP
##CAS NAME=Imidocarbonyl fluoride, (nonafluorobutyl)-
##MOLFORM=C5F11N
##CAS REGISTRY NO=424-32-8
##MP= -300
##BP= -300
##MW= 283
##$RETENTION INDEX=0
##$CONDENSED SPECTRUM=NO
##NPOINTS= 70
##XYDATA=(XY..XY) 1 
    24          0
    26          0
    27          0
    31        145
    32          1
    33          0
    36          0
    38          1
    39          0
    43          1
    45          3
    50         68
    51          2
    55          2
    57          3
    62          5
    63          0
    64          2
    65          0
    69        999
    70         11
    74          4
    75          0
    76         26
    77          0
    81          6
    82          0
    88          1
    89          0
    93         14
    94          0
    95         29
    96          0
   100         44
   101          1
   105          0
   107          3
   112          4
   114        327
   115          7
   119         60
   120          1
   124          0
   126          4
   127          0
   131         14
   132          0
   138          5
   139          0
   143          1
   145         54
   146          1
   150          3
   162          2
   164        135
   169          9
   176        143
   181         15
   193          4
   195         10
   212          6
   214         77
   219          1
   226         19
   232          1
   243          9
   245          9
   262          5
   264        204
   283          2