##TITLE=Library Entry 61846
##JCAMP-DX=Revision 4.10 
##DATA TYPE=MASS SPECTRUM
##SAMPLE DESCRIPTION=Div. of Experiment Therapeutics WRAIR, WRAMC, Washingto
n DC 20307
##NAMES=HP
##CAS NAME=1-Amino-2-p-tolylthioethane
##MOLFORM=C9H13NS
##CAS REGISTRY NO=42404-23-9
##MP= -300
##BP= -300
##MW= 167
##$RETENTION INDEX=0
##$CONDENSED SPECTRUM=NO
##NPOINTS= 101
##XYDATA=(XY..XY) 1 
    41         96
    42        122
    43        104
    44        269
    45        900
    46         23
    47         58
    48         16
    49         52
    50         82
    51        180
    52         59
    53         92
    54         36
    55         30
    56        158
    57         34
    58         43
    59         52
    60         29
    61         44
    62         68
    63        167
    64         43
    65        306
    66         31
    67         31
    68         33
    69        153
    70         91
    71         71
    72         43
    73         12
    74         24
    75         16
    76         13
    77        372
    78        126
    79        333
    80         39
    81         18
    82         43
    83         24
    84         50
    85         28
    86         35
    87         18
    88          7
    89        102
    90         49
    91        999
    92        254
    93         75
    94         17
    95         35
    96         19
    97         67
    98         15
    99          8
   100          4
   101          1
   102          6
   103         13
   104         13
   105        106
   106         17
   107         20
   108         65
   109         23
   110         14
   111         15
   112          4
   113          9
   115         19
   116         12
   117         17
   118         19
   119         19
   120          9
   121        119
   122         74
   123        918
   124        435
   125         76
   126         22
   127          8
   130          5
   131          4
   136         27
   137        182
   138         80
   139         12
   148          8
   149         56
   150        408
   151        212
   152         41
   153         20
   166         19
   167         25
   168          3