##TITLE=Library Entry 83767
##JCAMP-DX=Revision 4.10 
##DATA TYPE=MASS SPECTRUM
##SAMPLE DESCRIPTION=A.A.Kutin, Moscow, Russia
##NAMES=HP
##CAS NAME=l-Tyrosine, phenylmethyl ester
##MOLFORM=C16H17NO3
##CAS REGISTRY NO=42406-77-9
##MP= -300
##BP= -300
##MW= 271
##$RETENTION INDEX=0
##$CONDENSED SPECTRUM=NO
##NPOINTS= 31
##XYDATA=(XY..XY) 1 
    39         10
    40         19
    41         30
    42          4
    43          0
    44         11
    51          1
    55         14
    58          0
    65         76
    68          4
    74        112
    75          5
    77         46
    78          8
    91        927
    92        248
    95          2
   107        999
   108        379
   109         13
   119          9
   120         65
   135         33
   136        561
   137        108
   164         34
   165          8
   167          3
   240          5
   271         13