##TITLE=Library Entry 4277
##JCAMP-DX=Revision 4.10 
##DATA TYPE=MASS SPECTRUM
##SAMPLE DESCRIPTION=Chemical Concepts
##NAMES=HP
##CAS NAME=4-Allyloxybenzophenone
##MOLFORM=C16H14O2
##CAS REGISTRY NO=42403-77-0
##MP= -300
##BP= -300
##MW= 238
##$RETENTION INDEX=0
##$CONDENSED SPECTRUM=NO
##NPOINTS= 160
##XYDATA=(XY..XY) 1 
    29         16
    30          1
    37          5
    38         31
    39        277
    40         16
    41        999
    42         32
    43         71
    44         13
    45          6
    50         65
    51        195
    52         10
    53         14
    54          2
    55         33
    56          2
    57          8
    58          1
    59          0
    61          7
    62         14
    63         85
    64         61
    65         87
    66         13
    67         11
    68          5
    69          5
    70          4
    71          3
    73          1
    74         18
    75         26
    76         65
    77        577
    78         40
    79         21
    80          2
    81          6
    82          2
    83          2
    85          2
    86          2
    87          3
    88          7
    89         12
    90          1
    91         31
    92         70
    93         67
    94          6
    95          7
    96          1
    97          2
    98          1
    99          0
   100          0
   101          1
   102         10
   103         19
   104         24
   105        697
   106         57
   107          7
   108          4
   109          5
   110          1
   111          2
   113          4
   114          5
   115        165
   116         18
   117         16
   118         10
   119         40
   120         58
   121        251
   122         16
   123          2
   125          0
   126          5
   127          2
   128          7
   129          4
   130          4
   131         17
   132          8
   133         53
   134          5
   135          2
   137          0
   138          0
   139         40
   140         12
   141        226
   142         27
   143          3
   144          6
   145          9
   146          1
   147          1
   149          2
   150          2
   151          6
   152         17
   153         23
   154          6
   155          2
   156          3
   157          1
   158          7
   159          3
   160          1
   161        604
   162         63
   163          6
   165          5
   166          7
   167         14
   168         21
   169        181
   170         27
   171          1
   172          8
   173          4
   176          0
   177          0
   178          3
   179          3
   180          2
   181         26
   182         12
   183         10
   184          2
   186          0
   191          4
   192          4
   193          7
   194          2
   195         25
   196         53
   197        306
   198         55
   199          3
   208          0
   209         31
   210         21
   211          6
   219          3
   220          0
   221          4
   223         16
   224          1
   237         17
   238        986
   239        174
   240         17
   241          1