##TITLE=Library Entry 63813
##JCAMP-DX=Revision 4.10 
##DATA TYPE=MASS SPECTRUM
##SAMPLE DESCRIPTION=E.M.KAISER UNIV. OF MISSOURI, COLUMBIA, USA
##NAMES=HP
##CAS NAME=Nicotinonitrile, 1,2-dihydro-2-oxo-6-phenethyl-
##MOLFORM=C14H12N2O
##CAS REGISTRY NO=4241-21-8
##MP= -300
##BP= -300
##MW= 224
##$RETENTION INDEX=0
##$CONDENSED SPECTRUM=NO
##NPOINTS= 22
##XYDATA=(XY..XY) 1 
    27         15
    39         50
    41         12
    43         10
    50         15
    51         47
    52         12
    63         25
    64         40
    65        100
    77         32
    78         25
    89         15
    91        999
    92         75
   103         12
   105         12
   146         17
   147         40
   223         95
   224        229
   225         40