##TITLE=Library Entry 9220
##JCAMP-DX=Revision 4.10 
##DATA TYPE=MASS SPECTRUM
##SAMPLE DESCRIPTION=P.STRAUSZ UNIV. OF ALBERTA, EDMONTON, CANADA
##NAMES=HP
##CAS NAME=Acetic acid, (1-methylethoxy)-, ethyl ester
##MOLFORM=C7H14O3
##CAS REGISTRY NO=42415-64-5
##MP= -300
##BP= -300
##MW= 146
##$RETENTION INDEX=0
##$CONDENSED SPECTRUM=NO
##NPOINTS= 74
##XYDATA=(XY..XY) 1 
    13          0
    14          6
    15         30
    16          1
    19          9
    25          6
    26         13
    27        175
    28         30
    29        281
    30         13
    31        160
    33          1
    36          1
    37          1
    38          3
    39         49
    40         11
    41        196
    42        150
    43        999
    44         43
    45        382
    46          9
    47         23
    48          0
    49          1
    50          0
    51          2
    52          0
    53          1
    55         32
    56          2
    57         31
    58         12
    59        162
    60        126
    61        111
    62          3
    63          0
    65          0
    69          1
    70         56
    71         19
    72          5
    73        711
    74         31
    75        111
    76          6
    77          5
    78          0
    79          0
    85          2
    86          0
    87         18
    88        484
    89         26
    90          2
    91          0
    99          1
   100          0
   101          2
   103         51
   104          3
   112          0
   117          4
   118          0
   131         50
   132          3
   133          0
   144          0
   145          5
   146          0
   147          0