##TITLE=Library Entry 45726
##JCAMP-DX=Revision 4.10 
##DATA TYPE=MASS SPECTRUM
##SAMPLE DESCRIPTION=O A MAMER, MCGILL UNIVERSITY, MONTREAL,
##NAMES=HP
##CAS NAME=Pantolactone, (3R)-, TMS derivative
##MOLFORM=C9H18O3Si
##CAS REGISTRY NO=42411-50-7
##MP= -300
##BP= -300
##MW= 202
##$RETENTION INDEX=1195
##$CONDENSED SPECTRUM=NO
##NPOINTS= 67
##XYDATA=(XY..XY) 1 
    14          4
    15         18
    18          0
    26          8
    27         53
    28         25
    29         67
    31         17
    39         45
    40          8
    41         74
    42          9
    43         77
    44         33
    45        155
    46          9
    47         53
    50          6
    51          6
    52          2
    53         19
    54          4
    55         36
    56         15
    57         24
    58         20
    59        108
    60         15
    61         52
    64         38
    65         11
    67          9
    68          7
    69         20
    71          7
    72         13
    73        396
    74         39
    75        999
    76         73
    77         39
    79          2
    83          8
    85          9
    87          4
    89          4
    99         13
   101         12
   102          5
   103          8
   113         14
   115         20
   117          4
   127          9
   129         39
   130          5
   131         79
   132          8
   133          4
   143        402
   144         94
   145         29
   146          4
   169          4
   187        187
   188         27
   189          9