##TITLE=Library Entry 17692
##JCAMP-DX=Revision 4.10 
##DATA TYPE=MASS SPECTRUM
##SAMPLE DESCRIPTION=R.E.Ardrey ET AL.Pharmaceutical Mass Spectra,L.,1985
##NAMES=HP
##CAS NAME=2,4,6(1H,3H,5H)-Pyrimidinetrione, 5-ethyl-5-(3-hydroxy-1-methylbu
tyl)-
##MOLFORM=C11H18N2O4
##CAS REGISTRY NO=4241-40-1
##MP= -300
##BP= -300
##MW= 242
##$RETENTION INDEX=1991
##$CONDENSED SPECTRUM=NO
##NPOINTS= 82
##XYDATA=(XY..XY) 1 
    26         20
    27        250
    29        200
    30         20
    31        100
    39        240
    40         60
    41        690
    42        170
    43        590
    44        150
    45        999
    46         20
    51         20
    52         20
    53        110
    54         30
    55        270
    56         40
    57         40
    58         30
    59         30
    60         10
    65         20
    66         20
    67        140
    68         60
    69        690
    70        130
    71        140
    77         10
    79         20
    80         20
    81         40
    82         20
    83         50
    84         20
    85         90
    86         20
    87         20
    93         10
    94         10
    95         60
    96         50
    97         90
    98        130
    99         40
   109         20
   110         20
   111         20
   112         50
   113         40
   114         70
   115         20
   116         20
   123         20
   124         20
   125         10
   126         20
   128         40
   129         10
   131         30
   139         20
   140         30
   141        690
   142         40
   152         20
   153         10
   154         20
   155         90
   156        770
   157        340
   158         30
   166         30
   169         10
   170         30
   171         10
   181         20
   195         80
   196         10
   197        110
   198         10