##TITLE=Library Entry 51546
##JCAMP-DX=Revision 4.10 
##DATA TYPE=MASS SPECTRUM
##SAMPLE DESCRIPTION=Japan AIST/NIMC Database- Spectrum MS-NW-9472
##NAMES=HP
##CAS NAME=cis-3-Hexenyl phenyl acetate
##MOLFORM=C14H18O2
##CAS REGISTRY NO=42436-07-7
##MP= -300
##BP= -300
##MW= 218
##$RETENTION INDEX=1610
##$CONDENSED SPECTRUM=NO
##NPOINTS= 54
##XYDATA=(XY..XY) 1 
    18          2
    26          1
    27         19
    28          3
    29         22
    38          2
    39         50
    40          7
    41        118
    42          9
    43         11
    44          1
    45          1
    50          4
    51         12
    52          4
    53         17
    54         25
    55        123
    56          6
    57          1
    62          3
    63         13
    64          5
    65         83
    66          9
    67        464
    68         27
    69         16
    70          1
    75          1
    77          5
    78          1
    79          7
    80          2
    81         33
    82        999
    83         72
    84          2
    89         20
    90         17
    91        725
    92         68
    93          3
    97          2
    99          1
   105          1
   118          8
   119         40
   120          6
   121          2
   136          7
   137          9
   138          2