##TITLE=Library Entry 70820
##JCAMP-DX=Revision 4.10 
##DATA TYPE=MASS SPECTRUM
##SAMPLE DESCRIPTION=INST.OF CLINICAL BIOCHEM,RIKSHOSP,UNIV.OF OSLO,E.JELLUM
,ET.A
##NAMES=HP
##CAS NAME=L-Proline, 1-methyl-5-oxo-, methyl ester
##MOLFORM=C7H11NO3
##CAS REGISTRY NO=42435-88-1
##MP= -300
##BP= -300
##MW= 157
##$RETENTION INDEX=0
##$CONDENSED SPECTRUM=NO
##NPOINTS= 10
##XYDATA=(XY..XY) 1 
    27         70
    41        150
    42        180
    55         70
    59         60
    68         50
    70        120
    98        999
    99         70
   157         10