##TITLE=Library Entry 24957
##JCAMP-DX=Revision 4.10 
##DATA TYPE=MASS SPECTRUM
##SAMPLE DESCRIPTION=A. Brossi, LC, NIDDK, NIH, Bethesda, MD 20892
##NAMES=HP
##CAS NAME=Hexahydropyridine, 4-[4,5-dimethoxyphenyl]-
##MOLFORM=C13H19NO2
##CAS REGISTRY NO=42434-76-4
##MP= -300
##BP= -300
##MW= 221
##$RETENTION INDEX=0
##$CONDENSED SPECTRUM=NO
##NPOINTS= 177
##XYDATA=(XY..XY) 1 
    42        245
    43        331
    44        134
    45         24
    46          9
    47          0
    48          1
    49          1
    50         22
    51         68
    52         41
    53         44
    54         24
    55         72
    56        575
    57        999
    58         60
    59          5
    60          7
    61          2
    62          8
    63         34
    64         15
    65         65
    66         13
    67         13
    68         83
    69         14
    70         16
    71          4
    72          1
    73          5
    74          5
    75          8
    76         15
    77        130
    78         87
    79         51
    80         20
    81          8
    82        127
    83        353
    84         32
    85         10
    86          2
    87          4
    88          4
    89         33
    90         14
    91        134
    92         20
    93         15
    94          7
    95         12
    96          4
    97          3
    98          2
    99          1
   100          1
   101          3
   102         14
   103         70
   104         19
   105         36
   106         21
   107         34
   108          7
   109          5
   110         12
   111          9
   112          0
   113          1
   114          1
   115         32
   116         11
   117         23
   118         16
   119         24
   120         11
   121         51
   122         10
   123          7
   124          5
   125          1
   126          0
   127          5
   128          7
   129          8
   130          6
   131         19
   132         12
   133         24
   134         20
   135         26
   136          6
   137         16
   138         16
   139          7
   140          1
   141          1
   142          1
   143          2
   144          6
   145         14
   146         17
   147         64
   148         17
   149         69
   150         42
   151         62
   152         31
   153          3
   154          0
   155          1
   156          1
   157          2
   158          5
   159          9
   160         22
   161         39
   162         20
   163         38
   164        100
   165        221
   166         34
   167          6
   168          1
   169          0
   170          0
   171          0
   172          1
   173         14
   174          6
   175          7
   176          8
   177         22
   178        112
   179         30
   180          4
   181          0
   182          0
   183          0
   185          0
   186          0
   187          1
   188          8
   189         12
   190         66
   191         32
   192         37
   193          5
   194          0
   195          0
   196          0
   197          0
   199          0
   200          1
   201          0
   202          1
   203          2
   204          8
   205          2
   206         62
   207          9
   208          0
   211          0
   213          0
   214          0
   215          0
   216          0
   218          2
   219          2
   220         42
   221        572
   222        103
   223         11
   224          1