##TITLE=Library Entry 97126
##JCAMP-DX=Revision 4.10 
##DATA TYPE=MASS SPECTRUM
##SAMPLE DESCRIPTION=V.G.Zaikin, TIPS, Russian Acad. Sci.
##NAMES=HP
##CAS NAME=2-Tetradecanol, TMS derivative
##MOLFORM=C17H38OSi
##CAS REGISTRY NO=42449-19-4
##MP= -300
##BP= -300
##MW= 286
##$RETENTION INDEX=0
##$CONDENSED SPECTRUM=NO
##NPOINTS= 17
##XYDATA=(XY..XY) 1 
    55         50
    57         20
    59         20
    61         20
    69         30
    73        370
    74         30
    75        410
    76         20
   117        999
   118        130
   119         70
   258         20
   271        120
   272         28
   273          7
   274          1