##TITLE=Library Entry 20361
##JCAMP-DX=Revision 4.10 
##DATA TYPE=MASS SPECTRUM
##SAMPLE DESCRIPTION=Vladimir Zaikin,TIPS RAS, Moscow, Russia
##NAMES=HP
##CAS NAME=Acrylic acid isoamyl ester
##MOLFORM=C8H14O2
##CAS REGISTRY NO=4245-35-6
##MP= -300
##BP= -300
##MW= 142
##$RETENTION INDEX=940
##$CONDENSED SPECTRUM=NO
##NPOINTS= 34
##XYDATA=(XY..XY) 1 
    36         30
    38         18
    39         48
    40          8
    41        105
    42        120
    43        142
    44         47
    45         32
    46          7
    51         10
    53         11
    54          9
    55        999
    56         60
    57         18
    58          3
    59          3
    61          4
    63         22
    64          2
    65          4
    66          2
    67          3
    68          5
    69         68
    70        513
    71         52
    72         40
    73        160
    74          6
    85         33
    99         27
   100          4