##TITLE=Library Entry 37274
##JCAMP-DX=Revision 4.10 
##DATA TYPE=MASS SPECTRUM
##SAMPLE DESCRIPTION=Div. of Experiment Therapeutics WRAIR, WRAMC, Washingto
n DC 20307
##NAMES=HP
##CAS NAME=4-Amino-1-isobutylpiperidine
##MOLFORM=C9H20N2
##CAS REGISTRY NO=42450-36-2
##MP= -300
##BP= -300
##MW= 156
##$RETENTION INDEX=0
##$CONDENSED SPECTRUM=NO
##NPOINTS= 70
##XYDATA=(XY..XY) 1 
    42        417
    44        878
    45         16
    46          2
    47          3
    49         27
    51         11
    53         19
    54         16
    56        221
    57         55
    58         14
    59          2
    60          1
    63          2
    65          2
    67         10
    68         26
    70        999
    71         40
    72         11
    73          1
    77          3
    78          0
    80         11
    82         38
    84         52
    85         11
    86         27
    87          2
    88          1
    94          9
    96        125
    98         65
    99          6
   100          4
   102          0
   103          1
   104          1
   106          1
   107          1
   108          4
   109          2
   110          7
   112          5
   113        473
   114         35
   115          2
   117          1
   119          0
   120          2
   121          1
   122          3
   123          1
   124          9
   125          1
   127         30
   128          2
   130          0
   136          4
   137          1
   138         40
   139         13
   141         53
   142          2
   154          4
   155          7
   156         77
   157          9
   158          0