##TITLE=Library Entry 85560
##JCAMP-DX=Revision 4.10 
##DATA TYPE=MASS SPECTRUM
##SAMPLE DESCRIPTION=Exported from NIST MS Search
##NAMES=HP
##CAS NAME=2,4-Heptadienal, 2,4-dimethyl-
##MOLFORM=C9H14O
##CAS REGISTRY NO=42452-48-2
##MP= -300
##BP= -300
##MW= 138
##$RETENTION INDEX=1090
##$CONDENSED SPECTRUM=NO
##NPOINTS= 111
##XYDATA=(XY..XY) 1 
    15          4
    17          1
    18          6
    19          4
    20          1
    26          4
    27         63
    28         10
    29         44
    30          1
    31          3
    32          1
    37          2
    38          8
    39        119
    40         20
    41        188
    42         15
    43         68
    44          3
    45          4
    46          1
    49          1
    50         11
    51         33
    52         13
    53         80
    54         12
    55         91
    56          9
    57         10
    58          4
    59          2
    60          1
    61          2
    62          5
    63         13
    64          3
    65         38
    66         13
    67        132
    68         21
    69         44
    70          6
    71          5
    72          1
    73          1
    74          3
    75          2
    76          1
    77         61
    78         13
    79         82
    80         13
    81         82
    82         19
    83         14
    84          2
    85          2
    86          1
    87          1
    89          2
    90          1
    91         42
    92          7
    93         24
    94          9
    95         90
    96         40
    97         16
    98         39
    99          8
   100          1
   101          1
   102          1
   103          7
   104          3
   105         57
   106         11
   107         17
   108         18
   109        999
   110         53
   111         10
   112          3
   113          1
   115          2
   116          1
   117          2
   118          1
   119          4
   120          6
   121         23
   122          8
   123         76
   124          8
   125          5
   126          3
   127          2
   128          1
   129          1
   130          1
   131          1
   133          1
   134          1
   135          4
   136          7
   137         16
   138        104
   139         18
   140          5