##TITLE=Library Entry 49728
##JCAMP-DX=Revision 4.10 
##DATA TYPE=MASS SPECTRUM
##SAMPLE DESCRIPTION=Japan AIST/NIMC Database- Spectrum MS-NW-6558
##NAMES=HP
##CAS NAME=5-Hydroxy-2-nitrobenzaldehyde
##MOLFORM=C7H5NO4
##CAS REGISTRY NO=42454-06-8
##MP= -300
##BP= -300
##MW= 167
##$RETENTION INDEX=0
##$CONDENSED SPECTRUM=NO
##NPOINTS= 117
##XYDATA=(XY..XY) 1 
    12          4
    13          3
    14         14
    15          8
    16          7
    18          1
    24          3
    25         17
    26         57
    27        238
    28        107
    29        161
    30        161
    31         18
    32          7
    36         14
    37        113
    38        215
    39        921
    40         42
    41         25
    42         43
    43         26
    44         27
    45         19
    46         10
    48          6
    49         37
    50        150
    51        197
    52        191
    53        609
    54         56
    55        144
    56          7
    57          4
    59          1
    60         20
    61        116
    62        281
    63        746
    64        292
    65        474
    66         89
    67        117
    68         65
    69        453
    70         20
    71         13
    72          4
    73         27
    74         88
    75         72
    76         20
    77         33
    78         19
    79         32
    80         86
    81        999
    82         60
    83          5
    84          2
    85          6
    86          7
    87          6
    88          3
    89          4
    90         18
    91         61
    92        657
    93        112
    94         16
    95         61
    96         12
    97          3
    99          2
   100          1
   101          1
   102          2
   103          2
   104          4
   105          6
   106         53
   107         36
   108         59
   109        747
   110         46
   111          6
   112          2
   113          1
   118          2
   119          8
   120        406
   121         37
   122          9
   123        176
   124         16
   125          2
   128          1
   132          2
   134          1
   135          9
   136          3
   137        829
   138         71
   139          8
   140          1
   149         27
   150         47
   151          6
   152          1
   164          1
   165          1
   166          4
   167        326
   168         28
   169          5