##TITLE=Library Entry 5613
##JCAMP-DX=Revision 4.10 
##DATA TYPE=MASS SPECTRUM
##SAMPLE DESCRIPTION=Japan AIST/NIMC Database- Spectrum MS-NW-5508
##NAMES=HP
##CAS NAME=N-Methyl-N'-nitroguanidine
##MOLFORM=C2H6N4O2
##CAS REGISTRY NO=4245-76-5
##MP= -300
##BP= -300
##MW= 118
##$RETENTION INDEX=0
##$CONDENSED SPECTRUM=NO
##NPOINTS= 49
##XYDATA=(XY..XY) 1 
    12          5
    13         12
    14         12
    15         97
    16          9
    17         10
    18          2
    24          1
    25          1
    26          8
    27         58
    28        598
    29        102
    30        727
    31         21
    32          2
    38          5
    39          4
    40         10
    41         28
    42        117
    43        999
    44        167
    45         11
    46         82
    47          1
    52          3
    53         39
    54         10
    55        462
    56        223
    57        104
    58        121
    59          5
    62          1
    69          1
    70          2
    71         10
    72        712
    73         26
    74          9
    86          1
    88         53
    89          2
   101          3
   102          2
   118        361
   119         18
   120          2