##TITLE=Library Entry 80703
##JCAMP-DX=Revision 4.10 
##DATA TYPE=MASS SPECTRUM
##SAMPLE DESCRIPTION=JACSAT, 99(13)4372(1977); 20; R. G. SALOMON
##NAMES=HP
##CAS NAME=Benzene, 1-methyl-4-[(2-propenyloxy)methyl]-
##MOLFORM=C11H14O
##CAS REGISTRY NO=42463-79-6
##MP= -300
##BP= -300
##MW= 162
##$RETENTION INDEX=1686
##$CONDENSED SPECTRUM=NO
##NPOINTS= 14
##XYDATA=(XY..XY) 1 
    65        100
    77        270
    78        100
    79        120
    91        340
    93        180
   103        110
   105        999
   106        660
   119        270
   120        410
   121        140
   132        100
   162        180