##TITLE=Library Entry 1112
##JCAMP-DX=Revision 4.10 
##DATA TYPE=MASS SPECTRUM
##SAMPLE DESCRIPTION=G. Wolber, Eastman Kodak Company, Rochester, NY
##NAMES=HP
##CAS NAME=1-Propanamine, 3,3'-[oxybis(2,1-ethanediyloxy)]bis-
##MOLFORM=C10H24N2O3
##CAS REGISTRY NO=4246-51-9
##MP= -300
##BP= -300
##MW= 220
##$RETENTION INDEX=0
##$CONDENSED SPECTRUM=NO
##NPOINTS= 65
##XYDATA=(XY..XY) 1 
    26          7
    27         32
    28        116
    29         72
    30        999
    31         47
    39         18
    40          3
    41        143
    42         68
    43        141
    44        162
    45        294
    46          9
    54         10
    55         10
    56        291
    57        225
    58        357
    59        291
    60         13
    68          3
    69          3
    70         24
    71          9
    72         82
    73         30
    74        219
    75        174
    76         44
    84         14
    85          5
    86         96
    87         16
    88         21
    89        339
    90         16
    98          3
    99          5
   100         15
   101         78
   102         85
   103        135
   104          8
   112          3
   116          8
   118         45
   119         24
   120        117
   121          6
   132          3
   133         97
   134          6
   145          4
   146         68
   147         42
   148          3
   162         80
   163          7
   164        149
   165         12
   177          6
   190         10
   204          9
   221         16