##TITLE=Library Entry 65869
##JCAMP-DX=Revision 4.10 
##DATA TYPE=MASS SPECTRUM
##SAMPLE DESCRIPTION=NIST Mass Spectrometry Data Center
##NAMES=HP
##CAS NAME=2,4,5-trithiahexane 2,2-dioxide
##MOLFORM=C3H8O2S3
##CAS REGISTRY NO=42474-28-2
##MP= -300
##BP= -300
##MW= 172
##$RETENTION INDEX=1450
##$CONDENSED SPECTRUM=NO
##NPOINTS= 45
##XYDATA=(XY..XY) 1 
    27          2
    29          4
    31          1
    32          3
    33          1
    34          1
    35          2
    45        260
    46         95
    47         73
    48         21
    49         26
    50          2
    51          1
    59          3
    61         19
    62          3
    63         37
    64         32
    65         11
    66          3
    76          2
    77          5
    78         62
    79         62
    80         12
    81         12
    83          1
    91          1
    92          2
    93        999
    94         42
    95         94
    96          3
    97          4
   111          4
   126          1
   140          1
   142         40
   143          2
   144          5
   157          1
   172        126
   173          7
   174         17