##TITLE=Library Entry 21901
##JCAMP-DX=Revision 4.10 
##DATA TYPE=MASS SPECTRUM
##SAMPLE DESCRIPTION=PJCHDG, 52(1)97(1978); J. ST.PYREK AND E. BARANOWSKA
##NAMES=HP
##CAS NAME=Ursane-3,16-dione, (18.alpha.,19.alpha.,20.beta.)-
##MOLFORM=C30H48O2
##CAS REGISTRY NO=42483-55-6
##MP= -300
##BP= -300
##MW= 440
##$RETENTION INDEX=0
##$CONDENSED SPECTRUM=NO
##NPOINTS= 16
##XYDATA=(XY..XY) 1 
    55        999
   205        550
   206        500
   219        160
   220        100
   232         70
   233         70
   245         50
   342         50
   354        130
   355        120
   397         40
   407         50
   422        140
   425        130
   440        720