##TITLE=Library Entry 29958
##JCAMP-DX=Revision 4.10 
##DATA TYPE=MASS SPECTRUM
##SAMPLE DESCRIPTION=Japan AIST/NIMC Database- Spectrum MS-NW-6222
##NAMES=HP
##CAS NAME=tert-Butyl carbamate
##MOLFORM=C5H11NO2
##CAS REGISTRY NO=4248-19-5
##MP= -300
##BP= -300
##MW= 117
##$RETENTION INDEX=0
##$CONDENSED SPECTRUM=NO
##NPOINTS= 46
##XYDATA=(XY..XY) 1 
    12          1
    13          1
    14          4
    15         36
    16         26
    17         20
    18          8
    25          1
    26         10
    27         71
    28         29
    29        272
    30          7
    31        138
    32          4
    36          1
    37          7
    38         11
    39        105
    40         24
    41        486
    42         24
    43         98
    44        106
    45          9
    46          1
    49          2
    50          9
    51         14
    52          3
    53         10
    54          5
    55         61
    56        327
    57        692
    58         39
    59        999
    60         35
    61          3
    62        377
    63          8
    64          2
    71          1
    73          4
   102         32
   103          2