##TITLE=Library Entry 63070
##JCAMP-DX=Revision 4.10 
##DATA TYPE=MASS SPECTRUM
##SAMPLE DESCRIPTION=Chemical Concepts
##NAMES=HP
##CAS NAME=Butanoic acid, 3-methyl-2-(benzylmethylamino)-
##MOLFORM=C13H19NO2
##CAS REGISTRY NO=42492-62-6
##MP= -300
##BP= -300
##MW= 221
##$RETENTION INDEX=0
##$CONDENSED SPECTRUM=NO
##NPOINTS= 102
##XYDATA=(XY..XY) 1 
    26          0
    27         25
    28          9
    29         18
    30          5
    31          2
    38          2
    39         35
    40          3
    41         34
    42        148
    43         15
    44         14
    45          8
    47          0
    50          2
    51         13
    52          2
    53          2
    54          1
    55          8
    56          7
    57          1
    58          1
    59          2
    60          0
    62          1
    63          9
    64          3
    65         85
    66          3
    67          1
    68          4
    69          3
    70         10
    71          2
    73          0
    74          0
    75          0
    76          0
    77          8
    78          4
    79          2
    80          0
    82          1
    83          0
    84         17
    85          1
    86          7
    87          1
    88          4
    89         12
    90         11
    91        999
    92         70
    93          2
    96          0
    98          2
   100          0
   101          1
   102          1
   103          1
   104          3
   105          1
   106          0
   107          0
   108          0
   115          0
   116          2
   117          5
   118          6
   119          1
   120          7
   121          1
   128          0
   129          0
   130          1
   131          1
   132         10
   133          1
   134          0
   144          3
   145          0
   146          1
   158          0
   159          0
   160          7
   161          1
   174          1
   175          2
   176        315
   177         43
   178        201
   179         23
   180          1
   181          0
   190          0
   206          0
   220          0
   221         37
   222          4
   223          0