##TITLE=Library Entry 6345
##JCAMP-DX=Revision 4.10 
##DATA TYPE=MASS SPECTRUM
##SAMPLE DESCRIPTION=R.T.HOLMAN,UNIVERSITY OF MINNESOTA
##NAMES=HP
##CAS NAME=Hexadecanoic acid, (2-phenyl-1,3-dioxolan-4-yl)methyl ester, cis-
##MOLFORM=C26H42O4
##CAS REGISTRY NO=42495-31-8
##MP= -300
##BP= -300
##MW= 418
##$RETENTION INDEX=0
##$CONDENSED SPECTRUM=NO
##NPOINTS= 296
##XYDATA=(XY..XY) 1 
    25          6
    26         28
    27        192
    28        184
    29        446
    30         16
    31        130
    32         15
    33          3
    35          3
    36          6
    37         11
    38         13
    39        107
    40         25
    41        669
    42        184
    43        999
    44        107
    45        130
    46          6
    47          7
    48          2
    49          8
    50         47
    51        100
    52         22
    53         42
    54         56
    55        600
    56        176
    57        592
    58         92
    59        123
    60         69
    61         66
    62          9
    63         13
    64          6
    65         27
    66         10
    67         92
    68         45
    69        292
    70         87
    71        215
    72         27
    73        115
    74        161
    75         56
    76         26
    77        230
    78         62
    79         72
    80         16
    81         80
    82         38
    83        176
    84        169
    85        123
    86         18
    87        246
    88         20
    89         17
    90         18
    91        207
    92         30
    93         30
    94         13
    95         76
    96         26
    97        115
    98        223
    99         46
   100        161
   101         56
   102         13
   103         18
   104         37
   105        669
   106         92
   107         56
   108         10
   109         33
   110         13
   111         53
   112         70
   113         55
   114          9
   115         26
   116        138
   117         49
   118          9
   119         17
   120         10
   121         22
   122         23
   123         35
   124         10
   125         24
   126         17
   127         16
   128          5
   129        138
   130         14
   131          8
   132          4
   133         10
   134         70
   135         30
   136          6
   137         10
   138          6
   139         13
   140         10
   141         10
   142          5
   143         17
   144         13
   145          6
   146          3
   147         15
   148          6
   149        153
   150         21
   151          6
   152          5
   153          8
   154         17
   155         12
   156          3
   157         49
   158         13
   159          5
   160         18
   161          5
   162         69
   163         20
   164         10
   165         22
   166          5
   167         10
   168         10
   169         16
   170          3
   171         23
   172          6
   173          6
   174          3
   175          3
   176          6
   177          5
   178          6
   179         60
   180          9
   181         10
   182         12
   183          6
   184          2
   185         30
   186          6
   187          3
   188          3
   189          3
   190          3
   191          4
   192          3
   193          3
   194          5
   195          6
   196          6
   197         14
   198          3
   199         10
   200          3
   201          3
   202          2
   203          3
   204          3
   205          6
   206          2
   207          5
   208          3
   209          4
   210          3
   211          8
   212          2
   213         16
   214          3
   215          3
   217          3
   218          2
   219          3
   220         10
   221          4
   222          3
   223          5
   224          2
   225          5
   226          2
   227         16
   228          4
   229          3
   233         13
   234          3
   235          5
   236          8
   237          6
   238         21
   239        153
   240         29
   241         13
   242          3
   243          3
   244          1
   247          3
   248          2
   249          1
   252          2
   253         10
   254          3
   255         11
   256         20
   257         32
   258          6
   259          2
   261          3
   262          2
   263          2
   264          2
   265          2
   266          1
   267          5
   268          3
   269         15
   270         14
   271          5
   275          3
   276          1
   277          2
   278          2
   279          3
   280          2
   281          3
   282          1
   283         11
   284          3
   285          2
   289          3
   290          2
   294          2
   295          3
   296         29
   297         16
   298          4
   299         23
   300          6
   301          2
   303          3
   304          1
   305          1
   309          2
   310          2
   311         13
   312         21
   313         11
   314          3
   315          1
   317          2
   318          1
   323          2
   325          2
   326          3
   327          3
   331          3
   332          1
   338          2
   339          2
   340          2
   341        130
   342         31
   343          5
   344          1
   345          1
   354          3
   355         10
   356          4
   357          2
   369          2
   389          2
   390          2
   416          5
   417         38
   418         40
   419         11
   420          2