##TITLE=Library Entry 33952
##JCAMP-DX=Revision 4.10 
##DATA TYPE=MASS SPECTRUM
##SAMPLE DESCRIPTION=NIST Mass Spectrometry Data Center, 2010
##NAMES=HP
##CAS NAME=Ethyl trifluoromethanesulfonate
##MOLFORM=C3H5F3O3S
##CAS REGISTRY NO=425-75-2
##MP= -300
##BP= -300
##MW= 178
##$RETENTION INDEX=0
##$CONDENSED SPECTRUM=NO
##NPOINTS= 52
##XYDATA=(XY..XY) 1 
    15          1
    25          1
    26         17
    27        122
    28         59
    29        837
    30         34
    31          8
    32          3
    33         30
    34          1
    42         11
    43         46
    44          5
    45         12
    46          1
    47         27
    48         48
    49          3
    50         28
    51          6
    59          1
    63          3
    64         37
    65         71
    66          4
    67         11
    68          2
    69        999
    70         11
    80          2
    81          3
    82          1
    93          3
    98          1
    99        147
   100          3
   101          2
   109        195
   110          7
   111         10
   113          4
   114          2
   117          1
   118          2
   133          9
   134          2
   135          1
   163         20
   164          1
   165          1
   177          3