##TITLE=Library Entry 94051
##JCAMP-DX=Revision 4.10 
##DATA TYPE=MASS SPECTRUM
##SAMPLE DESCRIPTION=NIST Mass Spectrometry Data Center, 1990.
##NAMES=HP
##CAS NAME=1-Phenyl-1-pentyne
##MOLFORM=C11H12
##CAS REGISTRY NO=4250-81-1
##MP= -300
##BP= -300
##MW= 144
##$RETENTION INDEX=0
##$CONDENSED SPECTRUM=NO
##NPOINTS= 67
##XYDATA=(XY..XY) 1 
    14          4
    15         11
    26         26
    27         91
    28         15
    29         39
    37         10
    38         27
    39        146
    40          8
    41         20
    50         82
    51        104
    52         27
    53          7
    55          4
    57         10
    61         20
    62         87
    63        204
    64         32
    65        121
    66         53
    67         10
    69          4
    70          4
    71          3
    73          9
    74         62
    75         71
    76         52
    77         61
    78         21
    85         11
    86         35
    87         51
    88         51
    89        196
    90         16
    91         31
    92          3
    98         13
    99          6
   100          5
   101          3
   102        143
   103         36
   104          6
   109          4
   110          5
   111          4
   112          4
   113         53
   114          3
   115        999
   116        122
   117         14
   126         22
   127        110
   128        328
   129        549
   130         55
   139          8
   141         26
   143        200
   144        450
   145         56