##TITLE=Library Entry 19178
##JCAMP-DX=Revision 4.10 
##DATA TYPE=MASS SPECTRUM
##SAMPLE DESCRIPTION=Chemical Concepts
##NAMES=HP
##CAS NAME=8-Dodecenol
##MOLFORM=C12H24O
##CAS REGISTRY NO=42513-42-8
##MP= -300
##BP= -300
##MW= 184
##$RETENTION INDEX=1424
##$CONDENSED SPECTRUM=NO
##NPOINTS= 53
##XYDATA=(XY..XY) 1 
    39        203
    40          6
    41        922
    42        174
    43        174
    44          5
    52         10
    53        106
    54        514
    55        999
    56        174
    57        135
    58          5
    65          7
    66         77
    67        708
    68        495
    69        291
    70         77
    71         67
    72          3
    80         51
    81        514
    82        631
    83        213
    84         67
    85          4
    94         34
    95        349
    96        291
    97        106
    98          8
   108         16
   109        165
   110        126
   111         11
   122          6
   123         67
   124         38
   125         19
   126          2
   136          2
   137         29
   138         38
   139          9
   140          9
   141          1
   166         87
   167         29
   168          3
   183          1
   184         19
   185          2