##TITLE=Library Entry 6339
##JCAMP-DX=Revision 4.10 
##DATA TYPE=MASS SPECTRUM
##SAMPLE DESCRIPTION=TNO Volatile Compounds in Food - Chemical Concepts
##NAMES=HP
##CAS NAME=Thiocyanic acid, propyl ester
##MOLFORM=C4H7NS
##CAS REGISTRY NO=4251-16-5
##MP= -300
##BP= -300
##MW= 101
##$RETENTION INDEX=0
##$CONDENSED SPECTRUM=NO
##NPOINTS= 35
##XYDATA=(XY..XY) 1 
    26         56
    27        500
    28         27
    29         26
    30          3
    33          5
    34          0
    36          0
    37         18
    38         37
    39        233
    41        771
    42        122
    43        999
    44         50
    45         77
    46         81
    47         30
    48          6
    54          9
    57          8
    58         59
    59         48
    60         56
    62          2
    68          1
    69          6
    71          5
    72         43
    73          8
    74          5
    86          6
   101        564
   102         36
   103         25