##TITLE=Library Entry 32580
##JCAMP-DX=Revision 4.10 
##DATA TYPE=MASS SPECTRUM
##SAMPLE DESCRIPTION=NIST Mass Spectrometry Data Center, 1990.
##NAMES=HP
##CAS NAME=5-Dodecyne, 12-chloro-
##MOLFORM=C12H21Cl
##CAS REGISTRY NO=42513-36-0
##MP= -300
##BP= -300
##MW= 200
##$RETENTION INDEX=0
##$CONDENSED SPECTRUM=NO
##NPOINTS= 70
##XYDATA=(XY..XY) 1 
    27        178
    28         10
    29         97
    39        257
    40         75
    41        581
    42         57
    43        128
    49         35
    50         33
    51        115
    52        149
    53        300
    54        906
    55        477
    56         38
    57         14
    62         11
    63         67
    65        179
    66         88
    67        999
    68        225
    69        134
    75         21
    77        180
    78         50
    79        300
    80        101
    81        892
    82        205
    83         30
    89         15
    91        126
    92         23
    93        123
    94         15
    95        411
    96        108
    97         30
   102          9
   103         12
   104          8
   105         27
   106          8
   107         64
   108         15
   109         90
   110         21
   115         13
   116         17
   117         10
   121         19
   122         13
   123         53
   128          7
   129         48
   130         73
   131         26
   132         24
   137         35
   138         14
   143         54
   144         20
   145         18
   151          7
   157         31
   158         14
   159         12
   171         12