##TITLE=Library Entry 12529
##JCAMP-DX=Revision 4.10 
##DATA TYPE=MASS SPECTRUM
##SAMPLE DESCRIPTION=Japan AIST/NIMC Database- Spectrum MS-NW-9721
##NAMES=HP
##CAS NAME=Disulfide, bis(1-methylethyl)
##MOLFORM=C6H14S2
##CAS REGISTRY NO=4253-89-8
##MP= -300
##BP= -300
##MW= 150
##$RETENTION INDEX=1021
##$CONDENSED SPECTRUM=NO
##NPOINTS= 57
##XYDATA=(XY..XY) 1 
    15          2
    26          2
    27         93
    28          7
    29          3
    32          3
    33          1
    34          2
    35          1
    37          2
    38          5
    39         72
    40          9
    41        263
    42         23
    43        999
    44         48
    45         23
    46          4
    47         18
    49          5
    57          2
    58         10
    59         62
    60          9
    61          7
    64         15
    65          5
    66        175
    67          3
    68         14
    69          1
    71          2
    73         18
    74         40
    75         17
    76          6
    77          1
    78          1
    79          3
    92          1
    93         26
    94          1
    95          2
   106          1
   107         11
   108        726
   109         40
   110         65
   111          3
   112          1
   135          1
   150        773
   151         69
   152         70
   153          5
   154          2