##TITLE=Library Entry 98990
##JCAMP-DX=Revision 4.10 
##DATA TYPE=MASS SPECTRUM
##SAMPLE DESCRIPTION=NIST Mass Spectrometry Data Center
##NAMES=HP
##CAS NAME=Methyltriacetoxysilane
##MOLFORM=C7H12O6Si
##CAS REGISTRY NO=4253-34-3
##MP= -300
##BP= -300
##MW= 220
##$RETENTION INDEX=0
##$CONDENSED SPECTRUM=NO
##NPOINTS= 53
##XYDATA=(XY..XY) 1 
    13          1
    14         15
    15         89
    16          1
    18          4
    27          7
    28         12
    31          2
    41          3
    42         81
    43        381
    44         15
    45        102
    46         10
    47          7
    55          3
    57          4
    58          4
    59         32
    60          9
    61         25
    62         28
    63         45
    64          4
    74         12
    76        119
    77        515
    78         43
    79        188
    80         11
    81          7
    90          7
    92          5
    93         15
   102          3
   103         14
   104          8
   119        999
   120        110
   121        456
   122         31
   123         19
   135         12
   136         15
   137          4
   160        130
   161        396
   162         53
   163        135
   164         10
   165          8
   178         14
   205         14