##TITLE=Library Entry 51950
##JCAMP-DX=Revision 4.10 
##DATA TYPE=MASS SPECTRUM
##SAMPLE DESCRIPTION=Chemical Concepts
##NAMES=HP
##CAS NAME=Cyclopentaneacetic acid, 3-oxo-2-(2-pentenyl)-, methyl ester, [1.
alpha.,2.alpha.(Z)]-
##MOLFORM=C13H20O3
##CAS REGISTRY NO=42536-97-0
##MP= -300
##BP= -300
##MW= 224
##$RETENTION INDEX=1685
##$CONDENSED SPECTRUM=NO
##NPOINTS= 152
##XYDATA=(XY..XY) 1 
    26         15
    27        174
    28         78
    29        164
    30          6
    31         19
    33          3
    37          1
    38         12
    39        243
    40         50
    41        508
    42         74
    43        176
    44         20
    45         26
    46          4
    50         12
    51         42
    52         30
    53        175
    54         79
    55        325
    56         28
    57         24
    58          6
    59        126
    60          6
    61          5
    62          2
    63          8
    64          5
    65         88
    66         42
    67        330
    68         94
    69        101
    70         10
    71         38
    72          7
    73          4
    74         80
    75         52
    77        147
    78         43
    79        285
    80         66
    81        224
    82        260
    83        999
    84         83
    85         49
    86          3
    87          2
    89          4
    91        180
    92         43
    93        321
    94         99
    95        329
    96        106
    97         50
    98         15
    99         18
   100          5
   101          1
   102          2
   103         10
   104          9
   105         85
   106         26
   107        148
   108        107
   109        265
   110         31
   111         16
   112          4
   113         10
   114          2
   115          8
   116          3
   117         85
   118         11
   119         28
   120         11
   121        125
   122         34
   123         77
   124         41
   125         15
   126          8
   127         11
   128          7
   129          7
   130          3
   131         33
   132         73
   133        183
   134         24
   135        149
   136         26
   137         20
   138         11
   139          9
   140          4
   141          9
   142          1
   143          1
   145         10
   146         26
   147         43
   148         13
   149         58
   150        106
   151        382
   152         46
   153          9
   154         21
   155         36
   156        206
   157         20
   158          3
   159          2
   160          1
   161          2
   163         34
   164         20
   165         25
   166          2
   167         34
   168         21
   169         15
   174          3
   175          6
   177         59
   178          6
   181         11
   182          4
   191         11
   192          9
   193        109
   194         15
   195         36
   196          2
   206         38
   207          6
   209          2
   210          0
   218          1
   224        227
   225         35
   226          4