##TITLE=Library Entry 29054
##JCAMP-DX=Revision 4.10 
##DATA TYPE=MASS SPECTRUM
##SAMPLE DESCRIPTION=Virginia Division of Forensic Science
##NAMES=HP
##CAS NAME=N-Methyl-3,4-methylenedioxyamphetamine
##MOLFORM=C11H15NO2
##CAS REGISTRY NO=42542-10-9
##MP= -300
##BP= -300
##MW= 193
##$RETENTION INDEX=1568
##$CONDENSED SPECTRUM=NO
##NPOINTS= 84
##XYDATA=(XY..XY) 1 
    15          4
    26          1
    27          7
    28         10
    29         13
    30         46
    31          1
    38          3
    39         14
    40          2
    41          8
    42         28
    43         14
    44          2
    45          1
    48          1
    50         14
    51         53
    52          8
    53          8
    54          3
    56         41
    58        999
    59         38
    60          1
    61          1
    62          6
    63         13
    64          3
    65          9
    66          2
    67          2
    74          3
    75          4
    76          8
    77         70
    78         18
    79         13
    80          2
    81          1
    89         20
    90          2
    91          6
    92          1
    96          2
    98          1
    99          1
   100          1
   101          1
   102          2
   103          9
   104          6
   105         19
   106          6
   107          3
   108          1
   118          3
   119          1
   120          4
   121          3
   122          1
   131          3
   132          2
   133          3
   135         73
   136         41
   137          4
   138          1
   147          4
   148          4
   149          1
   161          2
   162          3
   163          3
   164          1
   176          2
   177          3
   178          6
   179          1
   190          1
   191          2
   192          3
   193          4
   194          1