##TITLE=Library Entry 16805
##JCAMP-DX=Revision 4.10 
##DATA TYPE=MASS SPECTRUM
##SAMPLE DESCRIPTION=NIST Mass Spectrometry Data Center, 1994
##NAMES=HP
##CAS NAME=R-(-)-1,2-propanediol
##MOLFORM=C3H8O2
##CAS REGISTRY NO=4254-14-2
##MP= -300
##BP= -300
##MW= 76
##$RETENTION INDEX=0
##$CONDENSED SPECTRUM=NO
##NPOINTS= 36
##XYDATA=(XY..XY) 1 
    12          4
    13          4
    14         20
    15         64
    16          4
    17          3
    18         12
    19         80
    25          5
    26         19
    27        101
    28         79
    29        174
    30         25
    31         62
    32         10
    33         19
    37          5
    38          8
    39         17
    40          6
    41          6
    42         34
    43        197
    44         80
    45        999
    46         25
    47          3
    53          2
    55          6
    57         21
    58          7
    60          3
    61         59
    75          3
    76          6