##TITLE=Library Entry 90746
##JCAMP-DX=Revision 4.10 
##DATA TYPE=MASS SPECTRUM
##SAMPLE DESCRIPTION=ASES Database, Dalian Institute, P.R. China
##NAMES=HP
##CAS NAME=1-Methyl-4-amino-4,5(1H)-dihydro-1,2,4-triazole-5-one
##MOLFORM=C3H6N4O
##CAS REGISTRY NO=4254-55-1
##MP= -300
##BP= -300
##MW= 114
##$RETENTION INDEX=0
##$CONDENSED SPECTRUM=NO
##NPOINTS= 23
##XYDATA=(XY..XY) 1 
    28        495
    41         78
    42        121
    43        856
    44        200
    45        159
    46         38
    55        118
    56        120
    57        137
    58        198
    59        199
    60        101
    69         60
    71         59
    81         19
    83         40
    85         39
    86         59
    97         39
    98         19
    99         20
   114        999