##TITLE=Library Entry 81116
##JCAMP-DX=Revision 4.10 
##DATA TYPE=MASS SPECTRUM
##SAMPLE DESCRIPTION=Japan AIST/NIMC Database- Spectrum MS-NW-3605
##NAMES=HP
##CAS NAME=2-Indanol
##MOLFORM=C9H10O
##CAS REGISTRY NO=4254-29-9
##MP= -300
##BP= -300
##MW= 134
##$RETENTION INDEX=0
##$CONDENSED SPECTRUM=NO
##NPOINTS= 73
##XYDATA=(XY..XY) 1 
    15          2
    18          3
    26          3
    27         30
    28          5
    29          9
    31          3
    37          4
    38         10
    39         54
    40          6
    41          7
    42          1
    43          8
    44          1
    49          2
    50         23
    51         56
    52         18
    53         13
    54          1
    55         11
    56          1
    57         11
    58          6
    61          5
    62         15
    63         43
    64          9
    65         35
    66         12
    67          2
    73          2
    74          9
    75          9
    76          8
    77        102
    78         38
    79         83
    80          6
    81          1
    85          2
    86          3
    87          5
    88          2
    89         32
    90          8
    91        198
    92         19
    93          1
    94          1
    98          1
   101          2
   102         10
   103         61
   104         32
   105        999
   106        144
   107          9
   113          2
   114          3
   115         93
   116         91
   117         20
   118          3
   119          4
   125          1
   131          8
   132          5
   133         21
   134        381
   135         37
   136          2