##TITLE=Library Entry 84683
##JCAMP-DX=Revision 4.10 
##DATA TYPE=MASS SPECTRUM
##SAMPLE DESCRIPTION=Exported from NIST MS Search
##NAMES=HP
##CAS NAME=1H-Pyrazole-1-carboximidamide, 4-[(4-ethoxyphenyl)hydrazono]-4,5-
dihydro-3-methyl-5-oxo-
##MOLFORM=C13H16N6O2
##CAS REGISTRY NO=42541-28-6
##MP= -300
##BP= -300
##MW= 288
##$RETENTION INDEX=0
##$CONDENSED SPECTRUM=NO
##NPOINTS= 32
##XYDATA=(XY..XY) 1 
    39        162
    41         94
    42        216
    43        486
    52        189
    53        175
    65        108
    67        135
    68         81
    79         94
    80         81
    81        216
    83        108
    86        189
    99         94
   107        135
   108        999
   109        135
   121         94
   125        175
   135         94
   136        324
   137        121
   167        256
   168         40
   189         54
   217         94
   218         54
   231         40
   246        270
   260         40
   288        391