##TITLE=Library Entry 96623
##JCAMP-DX=Revision 4.10 
##DATA TYPE=MASS SPECTRUM
##SAMPLE DESCRIPTION=G.S. GROENEWOLD, THE BRISTOL-MYERS CO., SYRACUSE, N.Y.,
 USA
##NAMES=HP
##CAS NAME=2-Acetoxyindane
##MOLFORM=C11H12O2
##CAS REGISTRY NO=4254-31-3
##MP= -300
##BP= -300
##MW= 176
##$RETENTION INDEX=0
##$CONDENSED SPECTRUM=NO
##NPOINTS= 14
##XYDATA=(XY..XY) 1 
    77         40
    78         23
    79         16
    89         15
    91         25
   103         28
   104         23
   105        100
   106         16
   115        140
   116        999
   117        130
   176          1
   177          0