##TITLE=Library Entry 16807
##JCAMP-DX=Revision 4.10 
##DATA TYPE=MASS SPECTRUM
##SAMPLE DESCRIPTION=Japan AIST/NIMC Database- Spectrum MS-IW-3593
##NAMES=HP
##CAS NAME=(S)-(+)-1,2-Propanediol
##MOLFORM=C3H8O2
##CAS REGISTRY NO=4254-15-3
##MP= -300
##BP= -300
##MW= 76
##$RETENTION INDEX=0
##$CONDENSED SPECTRUM=NO
##NPOINTS= 43
##XYDATA=(XY..XY) 1 
    13          1
    14          9
    15         59
    16          1
    17          2
    18          9
    19         21
    25          3
    26         21
    27        176
    28         60
    29        146
    30         13
    31        223
    32          9
    33         30
    36          1
    37          5
    38          8
    39         25
    40          6
    41         40
    42         38
    43        331
    44        130
    45        999
    46         55
    47          7
    53          3
    55          9
    56          3
    57         51
    58         18
    59         18
    60          5
    61        130
    62          3
    71          1
    73          3
    74          1
    75          7
    76         18
    77          1