##TITLE=Library Entry 37781
##JCAMP-DX=Revision 4.10 
##DATA TYPE=MASS SPECTRUM
##SAMPLE DESCRIPTION=Finnigan MAT: Toxicological Library (LIBR-TX)
##NAMES=HP
##CAS NAME=Aletamine
##MOLFORM=C11H15N
##CAS REGISTRY NO=4255-23-6
##MP= -300
##BP= -300
##MW= 161
##$RETENTION INDEX=1311
##$CONDENSED SPECTRUM=NO
##NPOINTS= 18
##XYDATA=(XY..XY) 1 
    41         39
    42         27
    43        112
    51         18
    59         10
    60         19
    65         39
    70        999
    71         40
    77         29
    91         97
    92         21
    93         10
   103         38
   118          9
   119          9
   120        317
   121         21