##TITLE=Library Entry 63695
##JCAMP-DX=Revision 4.10 
##DATA TYPE=MASS SPECTRUM
##SAMPLE DESCRIPTION=Exported from NIST MS Search
##NAMES=HP
##CAS NAME=Dodecanoic acid, 5-[[(4-methylphenyl)sulfonyl]oxy]-, methyl ester
, (R)-
##MOLFORM=C20H32O5S
##CAS REGISTRY NO=42550-38-9
##MP= -300
##BP= -300
##MW= 384
##$RETENTION INDEX=0
##$CONDENSED SPECTRUM=NO
##NPOINTS= 68
##XYDATA=(XY..XY) 1 
    27        131
    28         42
    29        252
    40        207
    41        481
    42         64
    43        441
    51         13
    52         33
    53         64
    54        141
    55        454
    56        193
    57        124
    58        188
    59         64
    65         20
    66         43
    67        215
    68        188
    69        343
    81         32
    82         10
    83         60
    84         35
    85        218
    86        252
    87        269
    88        121
    89         57
    90         79
    91        999
    92         40
    95         40
    96        109
    97        296
    98        134
    99        436
   100         28
   101        131
   102         16
   111        420
   134         11
   135         15
   136         90
   137         43
   138        266
   155        505
   180        250
   197        664
   200         13
   212        548
   213        771
   214        107
   215         11
   228         13
   229        513
   230         37
   253         43
   283         32
   284         57
   285        284
   286         38
   287         20
   353         58
   354         13
   355          5
   384         20