##TITLE=Library Entry 38738
##JCAMP-DX=Revision 4.10 
##DATA TYPE=MASS SPECTRUM
##SAMPLE DESCRIPTION=R.SELF FOOD RESEARCH INSTITUTE, NORWICH, UK
##NAMES=HP
##CAS NAME=2-Oxazoleoctanoic acid, 4,5-dihydro-5,5-dimethyl-, methyl ester
##MOLFORM=C14H25NO3
##CAS REGISTRY NO=42550-30-1
##MP= -300
##BP= -300
##MW= 255
##$RETENTION INDEX=0
##$CONDENSED SPECTRUM=NO
##NPOINTS= 149
##XYDATA=(XY..XY) 1 
    29        143
    30         73
    31         16
    38          3
    39         60
    40         14
    41        198
    42         54
    43        127
    44         16
    45         17
    46          1
    48          0
    50          4
    51          3
    52          3
    53         33
    54         26
    55        483
    56        253
    57         36
    58          8
    59         66
    60         15
    63          3
    65          2
    66          2
    67         42
    68         19
    69         87
    70        462
    71        999
    72        364
    73         31
    74         33
    75          2
    76          1
    77          3
    78          2
    79         15
    80          5
    81         45
    82         24
    83        131
    84         23
    85         10
    86          3
    87         24
    88          3
    89          0
    91          3
    92          1
    93          7
    94          8
    95         20
    96         18
    97         94
    98         99
    99         12
   100          3
   101          2
   102          0
   103          2
   104          0
   105          1
   107         20
   108          6
   109         11
   110         15
   111         28
   112         41
   113        475
   114         42
   115          7
   116          1
   121          2
   122          1
   123          7
   124         24
   125         82
   126        171
   127         25
   128          2
   129          1
   130          0
   133          0
   134          1
   135          7
   136          3
   137          2
   138          6
   139          4
   140         21
   141         26
   142          3
   143          0
   144          0
   149         30
   150          2
   151          3
   152         26
   153         30
   154         19
   155          4
   157          2
   158          1
   163          0
   165          1
   166          5
   167          8
   168         15
   169          4
   170         10
   171          1
   177          1
   178          1
   180          4
   182         67
   183          8
   184          1
   185         57
   186          6
   194          2
   195         20
   196          5
   197          1
   202          1
   205          1
   206          5
   207          1
   208          5
   210          3
   212          3
   214          0
   222          2
   223          5
   224        189
   225         27
   226          6
   227          8
   228          1
   240         21
   241          3
   247          0
   252          1
   254          4
   255        171
   256         26
   257          2