##TITLE=Library Entry 22498
##JCAMP-DX=Revision 4.10 
##DATA TYPE=MASS SPECTRUM
##SAMPLE DESCRIPTION=Exported from NIST MS Search
##NAMES=HP
##CAS NAME=Cyclopentane, 1,1,2-trimethyl-
##MOLFORM=C8H16
##CAS REGISTRY NO=4259-00-1
##MP= -300
##BP= -300
##MW= 112
##$RETENTION INDEX=767
##$CONDENSED SPECTRUM=NO
##NPOINTS= 66
##XYDATA=(XY..XY) 1 
    12          1
    13          1
    14          2
    15         58
    16          2
    26         13
    27        287
    28         74
    29        222
    30          6
    37          3
    38          9
    39        269
    40         55
    41        726
    42        166
    43        115
    44          4
    45          1
    46          2
    47          1
    50          6
    51         23
    52         12
    53         94
    54         32
    55        789
    56        999
    57        408
    58         16
    59          1
    62          1
    63          2
    64          1
    65         13
    66          8
    67         44
    68         59
    69        802
    70        342
    71         24
    72          1
    77         13
    78          3
    79         12
    80          3
    81         16
    82          5
    83         91
    84        272
    85         17
    86          1
    89          1
    91          3
    92          1
    93          2
    94          1
    95          6
    96          6
    97        254
    98         19
    99          1
   111          2
   112        140
   113         11
   114          1