##TITLE=Library Entry 44069
##JCAMP-DX=Revision 4.10 
##DATA TYPE=MASS SPECTRUM
##SAMPLE DESCRIPTION=Exported from NIST MS Search
##NAMES=HP
##CAS NAME=Silane, [[(3.alpha.,5.beta.)-pregn-20-ene-3,17,20,21-tetrayl]tetr
akis(oxy)]tetrakis[trimethyl-
##MOLFORM=C33H66O4Si4
##CAS REGISTRY NO=42599-94-0
##MP= -300
##BP= -300
##MW= 638
##$RETENTION INDEX=2998
##$CONDENSED SPECTRUM=NO
##NPOINTS= 25
##XYDATA=(XY..XY) 1 
    71         57
    72         48
    73        999
    74        110
    75        417
    76         51
    77         84
   145         34
   146         37
   147        353
   148         69
   149         59
   169        203
   170         41
   331        442
   332        162
   333         82
   334         39
   548        108
   549         54
   550         32
   638        165
   639        107
   640         59
   641         30