##TITLE=Library Entry 39120
##JCAMP-DX=Revision 4.10 
##DATA TYPE=MASS SPECTRUM
##SAMPLE DESCRIPTION=E. S. WAIGHT
##NAMES=HP
##CAS NAME=Cycloheptane, methoxy-
##MOLFORM=C8H16O
##CAS REGISTRY NO=42604-04-6
##MP= -300
##BP= -300
##MW= 128
##$RETENTION INDEX=0
##$CONDENSED SPECTRUM=NO
##NPOINTS= 14
##XYDATA=(XY..XY) 1 
    41        114
    45         57
    54         29
    55         29
    67         86
    68         86
    71        999
    72         57
    81        114
    85        200
    96        200
    97         29
    99         57
   128         86