##TITLE=Library Entry 16756
##JCAMP-DX=Revision 4.10 
##DATA TYPE=MASS SPECTRUM
##SAMPLE DESCRIPTION=E. S. WAIGHT
##NAMES=HP
##CAS NAME=Cyclooctane, (methoxymethoxy)-
##MOLFORM=C10H20O2
##CAS REGISTRY NO=42604-11-5
##MP= -300
##BP= -300
##MW= 172
##$RETENTION INDEX=0
##$CONDENSED SPECTRUM=NO
##NPOINTS= 51
##XYDATA=(XY..XY) 1 
    41        313
    42         73
    43        198
    45        999
    46         33
    53         40
    54         78
    55        295
    56         88
    57        195
    58         53
    59         28
    67        145
    68         98
    69        280
    70        100
    71        195
    72         30
    77         23
    79         45
    80         55
    81        105
    82        100
    83        120
    84         93
    85         80
    93         63
    94         63
    95         55
    96         80
    97        173
    98         88
    99         35
   105         23
   107         25
   109         40
   110         65
   111        198
   112         55
   113         28
   122         55
   123         28
   125         35
   126         30
   127         23
   129         23
   139         38
   140         50
   141         28
   149         90
   172         33