##TITLE=Library Entry 64011
##JCAMP-DX=Revision 4.10 
##DATA TYPE=MASS SPECTRUM
##SAMPLE DESCRIPTION=Div. of Experiment Therapeutics WRAIR, WRAMC, Washingto
n DC 20307
##NAMES=HP
##CAS NAME=9-Benzyladenine N(1)-oxide
##MOLFORM=C12H11N5O
##CAS REGISTRY NO=4261-16-9
##MP= -300
##BP= -300
##MW= 241
##$RETENTION INDEX=0
##$CONDENSED SPECTRUM=NO
##NPOINTS= 77
##XYDATA=(XY..XY) 1 
    41         30
    42          3
    43         16
    44         21
    45          4
    50         12
    51         37
    52         14
    53         20
    54          9
    55          5
    62          6
    63         31
    64         13
    65        161
    66         37
    67          9
    68          5
    70          6
    75          1
    76          3
    77         19
    78          5
    79          7
    80          8
    81          2
    89         33
    91        999
    92         68
    93         17
    94          1
    95          4
    97          2
    98          3
   101          1
   102          2
   103          2
   104          7
   105          1
   106         19
   107          6
   108          1
   112          7
   116          8
   117         11
   118          5
   119          6
   120          3
   121          9
   122         13
   123          5
   128          4
   129          2
   133          1
   135          1
   143          1
   148          4
   155          3
   169          1
   170          8
   171          2
   180          1
   182         14
   195          4
   196          3
   197         13
   198          2
   207          3
   209          6
   224         66
   225         26
   226          2
   239          1
   240          2
   241        294
   242         59
   243          5