##TITLE=Library Entry 60902
##JCAMP-DX=Revision 4.10 
##DATA TYPE=MASS SPECTRUM
##SAMPLE DESCRIPTION=Chemical Concepts
##NAMES=HP
##CAS NAME=Benzenebutanoic acid, .alpha.-hydroxy-
##MOLFORM=C10H12O3
##CAS REGISTRY NO=4263-93-8
##MP= -300
##BP= -300
##MW= 180
##$RETENTION INDEX=0
##$CONDENSED SPECTRUM=NO
##NPOINTS= 121
##XYDATA=(XY..XY) 1 
    26          3
    27         35
    28          8
    29         20
    30          3
    31          9
    36          1
    37          1
    38          6
    39         63
    40          6
    41         24
    42          3
    43         18
    44          8
    45         12
    46          2
    47          2
    49          1
    50         22
    51         72
    52         19
    53         11
    54          1
    55         19
    56          8
    57         10
    58         35
    59          2
    60          2
    61          2
    62          9
    63         38
    64         11
    65        168
    66         12
    67          4
    68          2
    69          4
    70          2
    71         16
    72          1
    73          4
    74          8
    75         10
    76        672
    77        145
    78         71
    79        108
    80          8
    81          4
    82          2
    83          4
    84          1
    85          3
    86          2
    87          4
    88          2
    89         85
    90         20
    91        999
    92        432
    93         37
    94          3
    95          3
    96          1
    97          3
    98          2
    99          1
   101          2
   102         11
   103         77
   104         57
   105        799
   106         91
   107         37
   108          4
   109          2
   110          1
   111          2
   112          1
   113          1
   114          2
   115         56
   116         38
   117        213
   118         31
   119          5
   120          8
   121          2
   122          1
   123          1
   124          1
   125          2
   127          2
   128          1
   129          2
   130          1
   131          4
   132          3
   133         19
   134         26
   135         25
   136          8
   137          2
   139          1
   141          2
   142          1
   143          2
   144         38
   145          6
   146          4
   147          2
   148          1
   161          4
   162         97
   163         11
   164          2
   180        351
   181         49
   182          6