##TITLE=Library Entry 26901
##JCAMP-DX=Revision 4.10 
##DATA TYPE=MASS SPECTRUM
##SAMPLE DESCRIPTION=V.G.Zaikin, Petrochem. Synth. Inst., Moscow
##NAMES=HP
##CAS NAME=Heptyl caprylate
##MOLFORM=C15H30O2
##CAS REGISTRY NO=4265-97-8
##MP= -300
##BP= -300
##MW= 242
##$RETENTION INDEX=1666
##$CONDENSED SPECTRUM=NO
##NPOINTS= 71
##XYDATA=(XY..XY) 1 
    26          6
    27        128
    28         19
    29        198
    30          8
    31         12
    39        133
    40         31
    41        488
    42        215
    43        546
    44         56
    45         38
    50         16
    51         16
    53         39
    54         49
    55        549
    56        539
    57        999
    58         57
    59         20
    60        244
    61        319
    62          9
    65          6
    67         49
    68         95
    69        291
    70        484
    71         81
    73        239
    74         25
    79          8
    81         22
    82         45
    83        145
    84        115
    85         86
    86         10
    87         67
    88          8
    89         31
    95          9
    96         15
    97         65
    98        701
    99         69
   100          8
   101         97
   102         12
   103         18
   109         20
   111         11
   115         49
   116         19
   125         17
   126         12
   127        429
   128         45
   129         16
   143         19
   144         77
   145        708
   146         67
   147          7
   158          4
   171         11
   185          8
   242          4
   243          2