##TITLE=Library Entry 20392
##JCAMP-DX=Revision 4.10 
##DATA TYPE=MASS SPECTRUM
##SAMPLE DESCRIPTION=MI-0069
##NAMES=HP
##CAS NAME=Tybamate
##MOLFORM=C13H26N2O4
##CAS REGISTRY NO=4268-36-4
##MP= -300
##BP= -300
##MW= 274
##$RETENTION INDEX=0
##$CONDENSED SPECTRUM=NO
##NPOINTS= 124
##XYDATA=(XY..XY) 1 
    38          7
    39         60
    40         19
    41        360
    42         67
    43        261
    44        119
    45        109
    46         11
    50          2
    51          3
    52          2
    53         35
    54         26
    55        999
    56        403
    57        349
    58         59
    59        109
    60          9
    61          5
    62        315
    63          7
    64          1
    65          9
    66          2
    67         46
    68         35
    69        189
    70        114
    71        349
    72        814
    73         60
    74         75
    75         47
    76         10
    77          8
    78          3
    79         11
    80          6
    81         69
    82         23
    83        306
    84        229
    85         54
    86         23
    87          9
    88         29
    89          9
    90          1
    91          5
    92         13
    93          3
    94          1
    95         21
    96         95
    97        669
    98        214
    99         39
   100         91
   101         62
   102         23
   103          3
   104          9
   105          5
   108          5
   109         11
   110          5
   111          2
   112          7
   113         13
   114        139
   115        116
   116        109
   117         29
   118        611
   119         39
   120          8
   126         19
   127          4
   128          5
   129          2
   130          1
   131         15
   132         10
   133          5
   134          9
   140          8
   142          2
   144         27
   147          3
   154          1
   156          4
   157         13
   158        584
   159         61
   160          9
   161          9
   170         49
   171         30
   172          7
   174          5
   175          5
   176         60
   177          9
   184         47
   185         13
   187          9
   188         10
   189          1
   198          2
   200         38
   201          8
   213         59
   214         11
   215          1
   231         89
   232         14
   233          1
   245         11
   246          2
   274         86
   275         18
   276          2