##TITLE=Library Entry 68988
##JCAMP-DX=Revision 4.10 
##DATA TYPE=MASS SPECTRUM
##SAMPLE DESCRIPTION=H.Maurer,J.Chromatogr.,530,307(1990)
##NAMES=HP
##CAS NAME=3,5-Dimethyl-5-(3-oxocyclohex-1-enyl)-hexahydropyrimidin-2,4,6-tr
ione
##MOLFORM=C12H14N2O4
##CAS REGISTRY NO=427-30-5
##MP= -300
##BP= -300
##MW= 250
##$RETENTION INDEX=2055
##$CONDENSED SPECTRUM=NO
##NPOINTS= 108
##XYDATA=(XY..XY) 1 
    51         83
    52         72
    53        102
    54         26
    55        117
    56         49
    57         23
    58         45
    59          4
    60         15
    62         11
    63         19
    64         15
    65        155
    66        257
    67        147
    68         23
    69         19
    70         34
    71         30
    73          4
    75         15
    77        147
    78         49
    79        155
    80         79
    81         60
    82         26
    83         57
    84         19
    85         19
    89          8
    91        102
    92         26
    93         57
    94        151
    95        999
    96         87
    97         75
    98         15
    99         23
   100          8
   103         11
   104         15
   105         19
   106         26
   107         42
   108         45
   109         83
   110         15
   111         11
   112          8
   113         30
   117          8
   118         11
   119         15
   120         34
   121         38
   122        143
   123        208
   124         23
   126         11
   127          8
   128         53
   129          8
   132         26
   133         19
   134         11
   135         34
   136         64
   137         79
   138         15
   141         23
   145         11
   147          8
   148         38
   149         19
   150        117
   151         45
   152          8
   156        264
   157        121
   158          8
   161         11
   162         11
   163          8
   164         64
   165         60
   166         49
   178         23
   179         26
   192         26
   193        257
   194         75
   204          4
   205         23
   206          4
   208         19
   219         26
   233          4
   234         15
   235        792
   236         94
   237          4
   248          4
   250        585
   251         79
   252          4