##TITLE=Library Entry 33856
##JCAMP-DX=Revision 4.10 
##DATA TYPE=MASS SPECTRUM
##SAMPLE DESCRIPTION=NIST Mass Spectrometry Data Center, 1994
##NAMES=HP
##CAS NAME=6-Chlorouracil
##MOLFORM=C4H3ClN2O2
##CAS REGISTRY NO=4270-27-3
##MP= -300
##BP= -300
##MW= 146
##$RETENTION INDEX=0
##$CONDENSED SPECTRUM=NO
##NPOINTS= 45
##XYDATA=(XY..XY) 1 
    24          6
    25          9
    26         11
    27         36
    35         16
    36          9
    37         10
    38         69
    39        115
    40        276
    41         29
    42         29
    43         62
    44         28
    47         29
    48         25
    49         11
    50         13
    51          9
    52          8
    53         11
    54          8
    60         29
    61          0
    62         51
    63          9
    64         14
    65          6
    66          6
    67         60
    68        999
    69         37
    70         27
    73          5
    74         42
    76         16
    87          4
    90          7
   103        151
   104         17
   111         14
   146        317
   147         19
   148        111
   149          6