##TITLE=Library Entry 9493
##JCAMP-DX=Revision 4.10 
##DATA TYPE=MASS SPECTRUM
##SAMPLE DESCRIPTION=Chemical Concepts
##NAMES=HP
##CAS NAME=8-Oxabicyclo[4.3.0]nonane, 7,7-dimethyl-
##MOLFORM=C10H18O
##CAS REGISTRY NO=42711-99-9
##MP= -300
##BP= -300
##MW= 154
##$RETENTION INDEX=0
##$CONDENSED SPECTRUM=NO
##NPOINTS= 89
##XYDATA=(XY..XY) 1 
    25          1
    26         13
    27        253
    28         40
    29        194
    30          8
    31         29
    32          1
    36          0
    37          4
    38         12
    39        324
    40         57
    41        492
    42         59
    43        999
    44         19
    45         12
    46          1
    47          1
    48          0
    49          0
    50         14
    51         42
    52         22
    53        149
    54        366
    55        359
    56         20
    57        121
    58          9
    59        230
    60          7
    61          1
    62          3
    63         11
    64          3
    65         44
    66         90
    67        723
    68        389
    69        103
    70          7
    71         19
    72          9
    73          2
    74          1
    75          2
    76          1
    77         56
    78         11
    79        111
    80         26
    81        915
    82         73
    83         30
    84          1
    85          2
    89          1
    90          0
    91         22
    92          3
    93         75
    94         11
    95        151
    96        514
    97         58
    98          2
   103          1
   105          6
   106          1
   107          6
   108          1
   109         34
   110          3
   111          7
   119          0
   121         45
   122          3
   123          3
   124          5
   135          1
   136          1
   137          2
   138          1
   139        354
   140         31
   141          0
   153          0