##TITLE=Library Entry 18789
##JCAMP-DX=Revision 4.10 
##DATA TYPE=MASS SPECTRUM
##SAMPLE DESCRIPTION=Exported from NIST MS Search
##NAMES=HP
##CAS NAME=2-Oxazolidinone, 3-ethenyl-
##MOLFORM=C5H7NO2
##CAS REGISTRY NO=4271-26-5
##MP= -300
##BP= -300
##MW= 113
##$RETENTION INDEX=0
##$CONDENSED SPECTRUM=NO
##NPOINTS= 37
##XYDATA=(XY..XY) 1 
    41        158
    42        289
    43         31
    44         13
    45         39
    46          1
    51          5
    52         15
    53          5
    54        999
    55         76
    56         24
    57         11
    58         15
    59         50
    60          1
    66          2
    67          3
    68        154
    69         59
    70         14
    73          3
    75          1
    86          5
    87         12
    88          2
    89          2
    99          1
   100          3
   101         16
   102          3
   103          8
   113        760
   114         82
   115         12
   116          5
   117          3