##TITLE=Library Entry 56362
##JCAMP-DX=Revision 4.10 
##DATA TYPE=MASS SPECTRUM
##SAMPLE DESCRIPTION=CARL DJERASSI DEPT OF CHEM STANFORD UNIV STANFORD CALIF
 94305
##NAMES=HP
##CAS NAME=1-Dodecanamine, N,N-diethyl-
##MOLFORM=C16H35N
##CAS REGISTRY NO=4271-27-6
##MP= -300
##BP= -300
##MW= 241
##$RETENTION INDEX=1642
##$CONDENSED SPECTRUM=NO
##NPOINTS= 53
##XYDATA=(XY..XY) 1 
    15         10
    18         10
    19         10
    27         10
    28         10
    29         20
    30         30
    31         10
    41         30
    42         20
    43         30
    44         10
    45         10
    46         10
    55         20
    56         20
    57         20
    58         40
    59         10
    69         10
    70         10
    71         10
    72         40
    73         10
    83         10
    84         10
    85         10
    86        999
    87         60
    98         10
    99         10
   100         10
   112         10
   113         10
   114         10
   126         10
   128         10
   129         10
   140         10
   142         10
   154         10
   156         10
   168         10
   170         10
   184         10
   199         10
   212         10
   213         10
   225         10
   226         60
   227         10
   240         10
   241         20