##TITLE=Library Entry 20206
##JCAMP-DX=Revision 4.10 
##DATA TYPE=MASS SPECTRUM
##SAMPLE DESCRIPTION=Japan AIST/NIMC Database- Spectrum MS-NW-3854
##NAMES=HP
##CAS NAME=Undecanol-4
##MOLFORM=C11H24O
##CAS REGISTRY NO=4272-06-4
##MP= -300
##BP= -300
##MW= 172
##$RETENTION INDEX=1662
##$CONDENSED SPECTRUM=NO
##NPOINTS= 72
##XYDATA=(XY..XY) 1 
    15          6
    17          2
    18          7
    26          4
    27        117
    28         16
    29        144
    30          5
    31         71
    32          3
    38          2
    39         58
    40         10
    41        258
    42         64
    43        370
    44         48
    45         28
    46          1
    50          1
    51          3
    52          2
    53         18
    54         15
    55        999
    56        118
    57        127
    58         26
    59          9
    65          3
    66          4
    67         25
    68         16
    69        830
    70         94
    71         34
    72         82
    73        822
    74         38
    75          2
    77          2
    79          2
    81          9
    82         13
    83         82
    84         37
    85         15
    86         11
    87          4
    95          4
    96          5
    97         23
    98         15
    99          7
   100          2
   109          2
   110          9
   111        233
   112         25
   113          2
   124          1
   125          6
   126          6
   127          9
   128          7
   129        210
   130         18
   131          1
   154         35
   155          4
   170          1
   171          4