##TITLE=Library Entry 69499
##JCAMP-DX=Revision 4.10 
##DATA TYPE=MASS SPECTRUM
##SAMPLE DESCRIPTION=Chemical Concepts
##NAMES=HP
##CAS NAME=1,3-Cyclohexanedione, 2-(2-propenyl)-
##MOLFORM=C9H12O2
##CAS REGISTRY NO=42738-68-1
##MP= -300
##BP= -300
##MW= 152
##$RETENTION INDEX=0
##$CONDENSED SPECTRUM=NO
##NPOINTS= 118
##XYDATA=(XY..XY) 1 
    25          1
    26         31
    27        222
    28        199
    29         16
    30          1
    31        162
    33          1
    34          1
    35          4
    38          9
    39        412
    40         48
    41        256
    42        284
    43        204
    44          9
    45          8
    46          1
    47          5
    48          1
    49          4
    50         30
    51         83
    52         60
    53        232
    54        221
    55        520
    56         39
    57         22
    58          1
    59          1
    60          6
    61         11
    62          8
    63         16
    64          6
    65         38
    66         77
    67        204
    68        172
    69         92
    70         90
    71         35
    72          2
    73          3
    74          6
    75          6
    76          2
    77         82
    78         49
    79        108
    80         54
    81        378
    82        184
    83        163
    84         25
    85          5
    86          1
    87          2
    88          0
    89          3
    90          1
    91         51
    92         37
    93         23
    94         21
    95        513
    96        999
    97        112
    98         10
    99          1
   101          1
   103          4
   104          1
   105         17
   106         29
   107         15
   108         13
   109        175
   110         47
   111         14
   112          3
   113          2
   114          0
   115          2
   116          2
   117          6
   118          1
   119         11
   120          2
   121         10
   122          2
   123         49
   124        707
   125         70
   126          5
   127          1
   128          1
   129          2
   130          0
   131          1
   132          3
   133         36
   134        109
   135         55
   136          5
   137        525
   138         56
   139          6
   140          1
   149         24
   150          6
   151         96
   152        549
   153         69
   154          6
   155          0