##TITLE=Library Entry 67946
##JCAMP-DX=Revision 4.10 
##DATA TYPE=MASS SPECTRUM
##SAMPLE DESCRIPTION=Japan AIST/NIMC Database- Spectrum MS-NW-1021
##NAMES=HP
##CAS NAME=Sorbic acid vinyl ester
##MOLFORM=C8H10O2
##CAS REGISTRY NO=42739-26-4
##MP= -300
##BP= -300
##MW= 138
##$RETENTION INDEX=0
##$CONDENSED SPECTRUM=NO
##NPOINTS= 53
##XYDATA=(XY..XY) 1 
    14          6
    15         27
    17          2
    18          7
    26         13
    27         55
    28          6
    29          7
    31          1
    37          6
    38         20
    39        197
    40         39
    41        397
    42         22
    43         13
    44          3
    45          1
    47          1
    49          1
    50         10
    51         22
    52         13
    53          6
    54          1
    55         15
    56          4
    57          8
    61          3
    62          7
    63         15
    64          4
    65        105
    66         46
    67        577
    68         34
    69          2
    71          1
    77          3
    79          2
    81          2
    83          1
    91          2
    93          3
    94          4
    95        999
    96         63
    97          4
   105          2
   119          1
   121          1
   138         24
   139          2