##TITLE=Library Entry 40051
##JCAMP-DX=Revision 4.10 
##DATA TYPE=MASS SPECTRUM
##SAMPLE DESCRIPTION=A G. LOUDON THERMALLY LABILE
##NAMES=HP
##CAS NAME=Thiourea, tetraethyl-
##MOLFORM=C9H20N2S
##CAS REGISTRY NO=4274-15-1
##MP= -300
##BP= -300
##MW= 188
##$RETENTION INDEX=0
##$CONDENSED SPECTRUM=NO
##NPOINTS= 45
##XYDATA=(XY..XY) 1 
    27         20
    28         40
    29        100
    30        100
    31         20
    32         20
    34         10
    40         10
    41         10
    42         40
    43         30
    44        130
    54         10
    55         10
    56        110
    57         10
    58         30
    59         10
    60        140
    61         10
    62         10
    69         10
    70         20
    71         20
    72        999
    73         50
    85         40
    86         30
    87         10
    88        190
    89        440
    90         10
    91         10
    99         10
   100         20
   101         10
   104         10
   114         10
   116        150
   117         30
   118         20
   127         50
   188        400
   189         50
   190         30