##TITLE=Library Entry 81526
##JCAMP-DX=Revision 4.10 
##DATA TYPE=MASS SPECTRUM
##SAMPLE DESCRIPTION=A.A.Kutin, Moscow, Russia
##NAMES=HP
##CAS NAME=Propionic acid, 2-benzoylamino-3-(4-hydroxyphenyl)-, methyl ester
##MOLFORM=C17H17NO4
##CAS REGISTRY NO=4276-17-9
##MP= -300
##BP= -300
##MW= 299
##$RETENTION INDEX=0
##$CONDENSED SPECTRUM=NO
##NPOINTS= 191
##XYDATA=(XY..XY) 1 
    33          5
    34          0
    36          0
    37          0
    38          4
    39         37
    40          9
    41         15
    42          5
    43         29
    44          9
    45          4
    46          0
    50         40
    51        156
    52         28
    53         30
    54          3
    55         16
    57          6
    58          1
    59         16
    60          4
    62          5
    63         14
    64          6
    65         23
    66          5
    67          2
    68          1
    69          2
    70          1
    71          1
    72          0
    74          5
    75         15
    76         44
    77        741
    78         84
    79         46
    80          7
    81          6
    82          1
    83          1
    84          0
    85          1
    86          0
    88          5
    89         10
    90         10
    91         24
    92          5
    93          2
    94          4
    95          1
    97          1
    98          0
    99          0
   101          1
   102          1
   103          3
   105        999
   106         87
   107        578
   108         83
   109          6
   110          1
   111          0
   112          0
   113          1
   115          2
   116          3
   117          2
   118         15
   119         17
   120         61
   121         10
   122        337
   123         29
   124          1
   125          0
   126          0
   127          0
   128          0
   129          0
   130          0
   132         10
   133         27
   134         17
   135         17
   136          2
   137          3
   138          0
   139          0
   140          0
   141          0
   142          0
   143          0
   145          1
   147        184
   148         20
   149          3
   150          4
   151          1
   152          1
   153          0
   154          0
   156          0
   157          0
   159          0
   160          4
   161         64
   162          8
   163          5
   164         21
   165          3
   166          1
   167          1
   168          0
   170          0
   171          2
   172          0
   174          0
   175          1
   176          2
   177         17
   178        797
   179         94
   180          8
   181          2
   182          0
   184          0
   185          0
   187          0
   188          1
   189          0
   191          3
   192          7
   193         15
   194          2
   195          1
   196          0
   197          0
   198          0
   199          0
   204          0
   205          0
   206         76
   207         10
   208          1
   210          0
   211          0
   212          0
   213          0
   214          0
   215          0
   218          0
   219          0
   220          0
   221          2
   222          0
   223          0
   224          0
   225          0
   226          0
   228          0
   236          0
   238          1
   239          7
   240         48
   241          9
   242          0
   244          0
   247          0
   252          0
   253          0
   266          0
   267          0
   268         10
   269          1
   270          0
   272          0
   282          0
   283          0
   284          0
   297          0
   298          0
   299         26
   300          5
   301          0
   302          0