##TITLE=Library Entry 39901
##JCAMP-DX=Revision 4.10 
##DATA TYPE=MASS SPECTRUM
##SAMPLE DESCRIPTION=Chuck Anderson, Aldrich Chemical Co.
##NAMES=HP
##CAS NAME=1-Butanol, 2-amino-3-methyl-, (R)-
##MOLFORM=C5H13NO
##CAS REGISTRY NO=4276-09-9
##MP= -300
##BP= -300
##MW= 103
##$RETENTION INDEX=0
##$CONDENSED SPECTRUM=NO
##NPOINTS= 40
##XYDATA=(XY..XY) 1 
    14          2
    15         39
    16          2
    17         20
    18         87
    20         28
    26         19
    27        120
    28        253
    29        138
    30        211
    31         44
    32          4
    39        113
    40         25
    41        170
    42        274
    43        135
    44         62
    51          3
    52          6
    53         24
    54         20
    55        470
    56        163
    57         93
    58         38
    59         21
    60        748
    61         17
    67          4
    68         16
    69          7
    70        122
    71         22
    72        999
    73         43
    84          6
    85         16
    86         41