##TITLE=Library Entry 41017
##JCAMP-DX=Revision 4.10 
##DATA TYPE=MASS SPECTRUM
##SAMPLE DESCRIPTION=Exported from NIST MS Search
##NAMES=HP
##CAS NAME=Propane, 1,2-bis(2-methoxy-2-methylethoxy)-
##MOLFORM=C11H24O4
##CAS REGISTRY NO=42769-21-1
##MP= -300
##BP= -300
##MW= 220
##$RETENTION INDEX=0
##$CONDENSED SPECTRUM=NO
##NPOINTS= 60
##XYDATA=(XY..XY) 1 
    14          3
    15         43
    16          2
    17          4
    18         18
    19          1
    23          2
    26          5
    27         36
    28         90
    29        118
    30          8
    31         74
    32         10
    33          7
    37          1
    38          2
    39         28
    40         10
    41        183
    42         67
    43        103
    44         17
    45        249
    46          5
    47          2
    55          8
    56          3
    57         27
    58        356
    60         13
    61          1
    69          1
    71         10
    72         51
    73        999
    74         47
    75          4
    81          1
    83          1
    85          3
    87         14
    88          2
    89          8
    99          6
   101          4
   102          2
   103         12
   115          3
   116          2
   117        126
   118          8
   130          8
   131         72
   132          5
   133          3
   143          1
   145          1
   162          2
   175         45