##TITLE=Library Entry 69458
##JCAMP-DX=Revision 4.10 
##DATA TYPE=MASS SPECTRUM
##SAMPLE DESCRIPTION=Chemical Concepts
##NAMES=HP
##CAS NAME=11-Oxatricyclo[4.3.1.1(2,5)]undec-3-en-10-one
##MOLFORM=C10H12O2
##CAS REGISTRY NO=42768-72-9
##MP= -300
##BP= -300
##MW= 164
##$RETENTION INDEX=0
##$CONDENSED SPECTRUM=NO
##NPOINTS= 101
##XYDATA=(XY..XY) 1 
    25          0
    26         28
    27        388
    28         20
    29         66
    30          1
    31          9
    37          9
    38         38
    39        482
    40        108
    41        361
    42         37
    43         18
    44          1
    45          1
    49          3
    50         49
    51        126
    52         67
    53        200
    54         43
    55        501
    56         19
    57         18
    58          4
    59          2
    61          3
    62         11
    63         40
    64          9
    65        109
    66         97
    68        467
    69        101
    70         36
    71          5
    74          6
    75          8
    76          4
    77        177
    78         60
    79        438
    80        191
    81        384
    82         57
    83         15
    86          3
    87          1
    89          6
    90         13
    91        145
    92         47
    93         76
    94        383
    95        389
    96        999
    97         62
    98          3
   102          2
   103         18
   104          7
   105         34
   106          9
   107        776
   108        435
   109         55
   110          9
   115         13
   116          7
   117         64
   118         61
   119         26
   120         46
   121         78
   122         29
   123         34
   124          2
   127          2
   128          1
   129          2
   130          1
   131         13
   132          1
   133         36
   134          9
   135        315
   136        470
   137         39
   138          2
   144          0
   145         18
   146         46
   147         25
   148          2
   149         24
   150          1
   163         34
   164        457
   165         46
   166          3