##TITLE=Library Entry 24229
##JCAMP-DX=Revision 4.10 
##DATA TYPE=MASS SPECTRUM
##SAMPLE DESCRIPTION=Japan AIST/NIMC Database- Spectrum MS-NW-5732
##NAMES=HP
##CAS NAME=1-Bromoeicosane
##MOLFORM=C20H41Br
##CAS REGISTRY NO=4276-49-7
##MP= -300
##BP= -300
##MW= 360
##$RETENTION INDEX=2364
##$CONDENSED SPECTRUM=NO
##NPOINTS= 176
##XYDATA=(XY..XY) 1 
    26          2
    27         56
    28         13
    29        161
    30          3
    39         36
    40          8
    41        369
    42         88
    43        735
    44         24
    51          1
    52          1
    53         19
    54         35
    55        428
    56        148
    57        999
    58         45
    59          1
    65          3
    66          3
    67         37
    68         34
    69        338
    70        112
    71        621
    72         34
    73          1
    77          2
    79          3
    80          3
    81         19
    82         35
    83        220
    84         71
    85        416
    86         26
    91          1
    93          1
    95         10
    96         16
    97        158
    98         49
    99        126
   100         10
   105          1
   107          9
   109          9
   110          7
   111         70
   112         34
   113         93
   114          8
   121          7
   123          6
   124          4
   125         27
   126         24
   127         68
   128          7
   134          1
   135        533
   136         25
   137        511
   138         22
   139         10
   140         16
   141         53
   142          6
   148         11
   149        114
   150         17
   151        109
   152          6
   153          6
   154         11
   155         44
   156          6
   162          6
   163         26
   164          8
   165         25
   166          2
   167          4
   168          9
   169         37
   170          5
   176          1
   177         14
   178          3
   179         13
   180          1
   181          2
   182          6
   183         32
   184          5
   190          1
   191         11
   192          2
   193         10
   194          1
   195          1
   196          5
   197         28
   198          4
   204          1
   205          9
   206          2
   207          9
   208          1
   209          1
   210          3
   211         23
   212          4
   218          2
   219          8
   220          2
   221          8
   222          1
   224          2
   225         14
   226          3
   232          1
   233          6
   234          2
   235          7
   236          1
   238          1
   239          8
   240          1
   246          2
   247          6
   248          2
   249          6
   252          2
   253          1
   260          2
   261          6
   262          3
   263          6
   264          1
   274          2
   275          7
   276          3
   277          6
   278          1
   280          7
   281        189
   282         44
   283          5
   288          1
   289          6
   290          3
   291          6
   292          1
   295          1
   302          1
   303          6
   304          2
   305          6
   306          1
   316          1
   317          4
   318          2
   319          4
   331          3
   332          1
   333          3
   358          2
   359          1
   360         40
   361          9
   362         36
   363          8
   364          1