##TITLE=Library Entry 3021
##JCAMP-DX=Revision 4.10 
##DATA TYPE=MASS SPECTRUM
##SAMPLE DESCRIPTION=F. TURECEK,HEYROVSKY INST PHYS CHEM & ELECTROCHEM,PRAGU
E,CZECH
##NAMES=HP
##CAS NAME=Ethenyl tert-butyl sulfoxide
##MOLFORM=C6H12OS
##CAS REGISTRY NO=42779-15-7
##MP= -300
##BP= -300
##MW= 132
##$RETENTION INDEX=0
##$CONDENSED SPECTRUM=NO
##NPOINTS= 50
##XYDATA=(XY..XY) 1 
    14         13
    15         42
    25          9
    26         80
    27        331
    29        488
    30         12
    31         10
    37         49
    38         82
    39        688
    40        139
    41        999
    42         71
    43         33
    44         21
    45         44
    46         17
    47         50
    48         34
    49         28
    50         91
    51         78
    52         24
    53         89
    54         31
    55        290
    56        688
    57        883
    58         58
    59         49
    60         20
    64         32
    65         10
    69         18
    71         14
    76        133
    77         21
    78         21
    79         10
    81          9
    83         54
    84         43
    85         32
    91         23
    92         10
   115         12
   116          9
   117          6
   132         10