##TITLE=Library Entry 23518
##JCAMP-DX=Revision 4.10 
##DATA TYPE=MASS SPECTRUM
##SAMPLE DESCRIPTION=Chemical Concepts
##NAMES=HP
##CAS NAME=1,2-Cyclooctanediol
##MOLFORM=C8H16O2
##CAS REGISTRY NO=4277-32-1
##MP= -300
##BP= -300
##MW= 144
##$RETENTION INDEX=0
##$CONDENSED SPECTRUM=NO
##NPOINTS= 91
##XYDATA=(XY..XY) 1 
    25          3
    26         42
    27        436
    28        113
    29        431
    30         36
    31        257
    32          0
    35          1
    36          2
    37          5
    38         13
    39        355
    40         77
    41        814
    42        310
    43        374
    44        319
    45        121
    46          3
    47         59
    48          4
    50         10
    51         26
    52          9
    53        108
    54        449
    55        718
    56        150
    57        999
    58        316
    59         39
    60         23
    61          2
    62          6
    63          8
    64          2
    65         22
    66         43
    67        635
    68        163
    69        303
    70        533
    71        213
    72         35
    73         38
    74         11
    75          5
    77         23
    78         27
    79        186
    80        306
    81        194
    82        515
    83        409
    84        228
    85         68
    86         15
    87         34
    88          4
    91         16
    92          4
    93        173
    94         21
    95         86
    96         54
    97        222
    98        235
    99         31
   100         10
   101         61
   102          3
   106          2
   107         11
   108         68
   109         70
   110         13
   111         41
   112          4
   113         15
   114          9
   115         10
   123          5
   124         12
   125         12
   126         34
   127         14
   139          3
   142          4
   143          3
   144         10