##TITLE=Library Entry 6122
##JCAMP-DX=Revision 4.10 
##DATA TYPE=MASS SPECTRUM
##SAMPLE DESCRIPTION=D.HENNEBERG, MAX-PLANCK INSTITUTE, MULHEIM, WEST GERMAN
Y
##NAMES=HP
##CAS NAME=2-Propanone, 1-(1-methylethoxy)-
##MOLFORM=C6H12O2
##CAS REGISTRY NO=42781-12-4
##MP= -300
##BP= -300
##MW= 116
##$RETENTION INDEX=0
##$CONDENSED SPECTRUM=NO
##NPOINTS= 39
##XYDATA=(XY..XY) 1 
    23          0
    24          0
    25          2
    26         14
    27        136
    28         36
    29         67
    30          3
    31         32
    32          0
    33          1
    36          1
    37          7
    38          9
    39         62
    40         17
    41        195
    42         62
    43        999
    44         26
    45         30
    46          0
    53          0
    55         17
    56          2
    57        105
    58        148
    59         84
    60          2
    71          4
    72          1
    73        116
    74          5
    75          1
    78          0
    83          1
    97          0
   101          3
   115          0