##TITLE=Library Entry 89498
##JCAMP-DX=Revision 4.10 
##DATA TYPE=MASS SPECTRUM
##SAMPLE DESCRIPTION=ORMSBG,10(11)946(1975); R.G.COOKS
##NAMES=HP
##CAS NAME=1H-1,2,4-Triazol-3-amine, 1-ethyl-
##MOLFORM=C4H8N4
##CAS REGISTRY NO=42786-04-9
##MP= -300
##BP= -300
##MW= 112
##$RETENTION INDEX=0
##$CONDENSED SPECTRUM=NO
##NPOINTS= 15
##XYDATA=(XY..XY) 1 
    26         50
    27        410
    28        510
    29        230
    41         90
    42        160
    43        300
    55        140
    57        210
    70        460
    84        660
    85         30
    97        370
   112        999
   113         60