##TITLE=Library Entry 89193
##JCAMP-DX=Revision 4.10 
##DATA TYPE=MASS SPECTRUM
##SAMPLE DESCRIPTION=ORMSBG,10(11)946(1975); R.G.COOKS
##NAMES=HP
##CAS NAME=4H-1,2,4-Triazol-3-amine, 4-ethyl-
##MOLFORM=C4H8N4
##CAS REGISTRY NO=42786-06-1
##MP= -300
##BP= -300
##MW= 112
##$RETENTION INDEX=0
##$CONDENSED SPECTRUM=NO
##NPOINTS= 23
##XYDATA=(XY..XY) 1 
    26         30
    27        151
    28        679
    29         38
    30         18
    39         12
    40         21
    41         38
    42        104
    43        211
    53         24
    54         25
    55         60
    56        109
    57         31
    69         22
    70         29
    84        298
    85         18
    97         15
   111         20
   112        999
   113        102