##TITLE=Library Entry 59309
##JCAMP-DX=Revision 4.10 
##DATA TYPE=MASS SPECTRUM
##SAMPLE DESCRIPTION=GAZ DE FRANCE, DELORME, PARIS, FRANCE
##NAMES=HP
##CAS NAME=Butane, 2,2-dichloro-
##MOLFORM=C4H8Cl2
##CAS REGISTRY NO=4279-22-5
##MP= -300
##BP= -300
##MW= 126
##$RETENTION INDEX=738
##$CONDENSED SPECTRUM=NO
##NPOINTS= 77
##XYDATA=(XY..XY) 1 
    24          1
    25          9
    26         87
    27        382
    28         80
    29        250
    30          5
    35         23
    36         55
    37         31
    38         54
    39        246
    40         23
    41        102
    42         14
    43        121
    44          6
    45          2
    47          7
    48          5
    49         63
    50         46
    51         67
    52         16
    53         96
    54         29
    55        724
    56         42
    57          9
    58          1
    59          2
    60         12
    61        137
    62         50
    63        159
    64         17
    65         36
    66          1
    67          1
    69          5
    70          5
    71          3
    72          3
    73         12
    74          2
    75        136
    76         14
    77         42
    78         16
    79          1
    82          2
    83         15
    84          2
    85         10
    86          1
    87          2
    88          1
    89         11
    90         49
    91        999
    92         60
    93        320
    94         14
    95          2
    96        120
    97        507
    98         85
    99        317
   100         19
   101         51
   102          1
   110          3
   111         36
   112          3
   113         23
   114          1
   115          4