##TITLE=Library Entry 18033
##JCAMP-DX=Revision 4.10 
##DATA TYPE=MASS SPECTRUM
##SAMPLE DESCRIPTION=Exported from NIST MS Search
##NAMES=HP
##CAS NAME=Ethane, 2-chloro-1-(chloromethoxy)-1,1,2-trifluoro-
##MOLFORM=C3H3Cl2F3O
##CAS REGISTRY NO=428-92-2
##MP= -300
##BP= -300
##MW= 182
##$RETENTION INDEX=0
##$CONDENSED SPECTRUM=NO
##NPOINTS= 85
##XYDATA=(XY..XY) 1 
    12          1
    13          3
    14          9
    15          0
    18          2
    28         13
    29         94
    30         12
    31        120
    32         31
    33         11
    35         14
    36          6
    37          6
    38          2
    43          2
    44         10
    45          4
    47         42
    48         49
    49        999
    50         35
    51        382
    52          4
    56          2
    60          4
    61          1
    62          2
    63         19
    64          1
    65          5
    66         13
    67        773
    68         12
    69        258
    71          1
    73          1
    78          1
    79          6
    80         24
    81        108
    82         88
    83        188
    84          4
    85        107
    86          1
    87         18
    90          3
    91          1
    95         48
    96          1
    97         23
    98         23
    99          7
   100          7
   101         12
   103          7
   105          1
   113          2
   114          1
   115        248
   116         26
   117        720
   118         24
   119        210
   120          5
   129          1
   131          1
   133         67
   134          1
   135         39
   137          6
   147        701
   148         23
   149        231
   150          7
   151         10
   155          9
   157          1
   163         18
   181         59
   182          2
   183         38
   184          2
   185          7