##TITLE=Library Entry 33959
##JCAMP-DX=Revision 4.10 
##DATA TYPE=MASS SPECTRUM
##SAMPLE DESCRIPTION=Exported from NIST MS Search
##NAMES=HP
##CAS NAME=Hexafluoropropylene oxide
##MOLFORM=C3F6O
##CAS REGISTRY NO=428-59-1
##MP= -300
##BP= -300
##MW= 166
##$RETENTION INDEX=0
##$CONDENSED SPECTRUM=NO
##NPOINTS= 21
##XYDATA=(XY..XY) 1 
    16          4
    19          7
    24          5
    28         22
    31        536
    36          1
    47        180
    50        342
    55          2
    62          2
    66          5
    69        999
    74          3
    78         10
    81        211
    93         10
    97         70
   100        199
   119        166
   131          2
   147         23