##TITLE=Library Entry 24009
##JCAMP-DX=Revision 4.10 
##DATA TYPE=MASS SPECTRUM
##SAMPLE DESCRIPTION=Chuck Anderson, Aldrich Chemical Co.
##NAMES=HP
##CAS NAME=1-Iodoundecane
##MOLFORM=C11H23I
##CAS REGISTRY NO=4282-44-4
##MP= -300
##BP= -300
##MW= 282
##$RETENTION INDEX=1534
##$CONDENSED SPECTRUM=NO
##NPOINTS= 85
##XYDATA=(XY..XY) 1 
    15          1
    25          0
    26          0
    27         96
    28         22
    29        177
    30          3
    37          0
    38          2
    39         96
    40         19
    41        490
    42         92
    43        837
    44         24
    45          0
    46          0
    47          0
    48          0
    49          0
    50          1
    51          3
    52          2
    53         27
    54         16
    55        249
    56         64
    57        999
    58         38
    59          0
    63          1
    64          0
    65          3
    66          1
    67         12
    68          4
    69         52
    70         16
    71        393
    72         19
    73          0
    77          1
    78          0
    79          2
    80          0
    81          2
    82          1
    83         15
    84          4
    85        390
    86         24
    87          0
    91          1
    93          0
    95          0
    96          0
    97          9
    98          1
    99        121
   100          8
   101          0
   105          0
   111          1
   112          0
   113         39
   114          3
   127          6
   128          2
   129          0
   135          0
   137          0
   141          5
   153          0
   154          2
   155         87
   156          5
   157          0
   167          0
   169          5
   183          3
   184          0
   197          1
   211          0
   225          0
   282          4