##TITLE=Library Entry 22300
##JCAMP-DX=Revision 4.10 
##DATA TYPE=MASS SPECTRUM
##SAMPLE DESCRIPTION=LAC, NIDDK, NIH, Bethesda, MD 20892
##NAMES=HP
##CAS NAME=1,3-Cyclohexanedione, 4,5-dimethyl-
##MOLFORM=C8H12O2
##CAS REGISTRY NO=42824-00-0
##MP= -300
##BP= -300
##MW= 140
##$RETENTION INDEX=0
##$CONDENSED SPECTRUM=NO
##NPOINTS= 41
##XYDATA=(XY..XY) 1 
    41        366
    42        355
    43        179
    44          2
    45          3
    47         13
    50         25
    51         58
    52         19
    53         87
    55        433
    56        999
    57         51
    58          9
    62          2
    63          7
    65         12
    66          2
    67         25
    68          4
    69        362
    70        200
    71         19
    77         10
    79         14
    81          5
    82          2
    83        239
    84         90
    86         18
    88          2
    91          2
    97        211
    98         97
    99          7
   111         13
   112        140
   113         11
   125          9
   140        333
   141         31