##TITLE=Library Entry 23197
##JCAMP-DX=Revision 4.10 
##DATA TYPE=MASS SPECTRUM
##SAMPLE DESCRIPTION=A.A.Kutin, Moscow, Russia
##NAMES=HP
##CAS NAME=Propanoic acid, 2,2-dimethyl-, hydrazide
##MOLFORM=C5H12N2O
##CAS REGISTRY NO=42826-42-6
##MP= -300
##BP= -300
##MW= 116
##$RETENTION INDEX=0
##$CONDENSED SPECTRUM=NO
##NPOINTS= 64
##XYDATA=(XY..XY) 1 
    29        423
    30         38
    31        171
    32        724
    33         14
    35          3
    36          1
    37          8
    38         23
    39        203
    40         43
    41        547
    42         60
    43         31
    44         17
    45          5
    46          2
    47          5
    48          2
    49          3
    50          7
    51          8
    52          4
    53         15
    54          5
    55         40
    57        999
    58         45
    59         10
    60          1
    61          0
    63          0
    64          0
    65          0
    66          0
    67          1
    68          2
    69          8
    70          8
    71          3
    73         44
    74          3
    77          0
    78          0
    81          0
    83         21
    85        289
    86         15
    87          2
    92          0
    93          0
    95          0
    97          0
    98          0
   101          7
   102          0
   111          0
   112          0
   113          0
   116        160
   117         10
   118          1
   119          0
   120          0