##TITLE=Library Entry 28564
##JCAMP-DX=Revision 4.10 
##DATA TYPE=MASS SPECTRUM
##SAMPLE DESCRIPTION=Japan AIST/NIMC Database- Spectrum MS-IW- 888
##NAMES=HP
##CAS NAME=N,N-Dimethyl-5-methylene-10,11-dihydro-5H-dibenzo(a,d)cyclohepten
e-10-ethylamine
##MOLFORM=C20H23N
##CAS REGISTRY NO=42834-46-8
##MP= -300
##BP= -300
##MW= 277
##$RETENTION INDEX=0
##$CONDENSED SPECTRUM=NO
##NPOINTS= 131
##XYDATA=(XY..XY) 1 
    15          1
    17          9
    18          1
    25          1
    26         18
    27          9
    28          8
    29          4
    30         17
    39          2
    41          3
    42         14
    43          9
    44         31
    45          3
    46          8
    51          2
    53          3
    54         17
    55          9
    56          7
    57         13
    58        999
    59         53
    60          1
    63          2
    65          2
    69          1
    70         36
    71         50
    72         28
    73         96
    74          5
    75          1
    76          2
    77          4
    78          1
    82          3
    83          2
    84          5
    85          4
    86          9
    87          1
    88          2
    89          3
    91          9
    94          2
    95          1
    96          1
    97          1
    98         11
    99          5
   100          2
   101          4
   102          1
   103          1
   104          1
   105          1
   113          1
   115          6
   116          1
   117          2
   126          1
   127          3
   128          5
   129          2
   138          3
   139          2
   141          2
   144          2
   146          1
   150          1
   151          1
   152          3
   153          1
   156          1
   158          7
   159          1
   163          1
   164          1
   165          5
   166          1
   176          3
   177          1
   178          9
   179          3
   182          3
   184          5
   187          1
   188          1
   189         10
   190          7
   191         30
   192         24
   193          4
   199          4
   200          4
   201          4
   202         27
   203         30
   204         42
   205         22
   206         42
   207          7
   213          1
   215         10
   216          6
   217         15
   218          5
   219          2
   220          1
   226          1
   227          1
   228          2
   229          3
   230          2
   231          6
   232          4
   233          1
   257          1
   258          1
   260          1
   262          1
   272          2
   273          8
   274          2
   275          2
   276          1
   277         66
   278         14
   279          2