##TITLE=Library Entry 22169
##JCAMP-DX=Revision 4.10 
##DATA TYPE=MASS SPECTRUM
##SAMPLE DESCRIPTION=R.D.SANDS CHEM. DEPT., ALFRED UNIV., ALFRED, NEW YORK,
 USA
##NAMES=HP
##CAS NAME=Cyclobutanecarboxylic acid, 2,2-dimethyl-
##MOLFORM=C7H12O2
##CAS REGISTRY NO=42836-66-8
##MP= -300
##BP= -300
##MW= 128
##$RETENTION INDEX=0
##$CONDENSED SPECTRUM=NO
##NPOINTS= 19
##XYDATA=(XY..XY) 1 
    41        797
    42        584
    43        965
    53         72
    55        264
    56        999
    57         72
    59         70
    60         84
    67         95
    68         95
    69        345
    70        310
    71         89
    82         95
    84        191
    85        322
   113        286
   128        131