##TITLE=Library Entry 46518
##JCAMP-DX=Revision 4.10 
##DATA TYPE=MASS SPECTRUM
##SAMPLE DESCRIPTION=Exported from NIST MS Search
##NAMES=HP
##CAS NAME=Acetic acid, chloro-, 1-methyl-1,2-ethanediyl ester
##MOLFORM=C7H10Cl2O4
##CAS REGISTRY NO=42831-64-1
##MP= -300
##BP= -300
##MW= 228
##$RETENTION INDEX=0
##$CONDENSED SPECTRUM=NO
##NPOINTS= 96
##XYDATA=(XY..XY) 1 
    14         22
    15         43
    17         26
    18        116
    19         17
    26         12
    27         66
    28         52
    29         85
    30         17
    31        174
    32          4
    36          5
    37          3
    38          7
    39         46
    41        194
    42        204
    43        196
    44         31
    45        493
    46         12
    47          7
    48         15
    49        290
    50        101
    51        100
    52         35
    53          6
    54         44
    55         32
    56          5
    57         47
    58        157
    59        181
    60         24
    63          4
    64          5
    65          4
    66          6
    68         56
    69          7
    71         30
    72         33
    73         15
    74          5
    75         39
    76         33
    77        999
    78         34
    79        319
    80          9
    85         17
    86          9
    87         18
    91          9
    93         15
    94         20
    95         22
    96          7
    97          5
    98          5
    99         11
   100          4
   101          4
   102          8
   106         37
   107        202
   108         23
   109         72
   110          5
   113          5
   114          6
   116          9
   120        369
   121         39
   122        153
   123         13
   127          4
   128          7
   130          4
   131          8
   133         67
   134        145
   135         30
   136         66
   137          4
   138          7
   150          6
   151          8
   152          3
   153          8
   164         13
   166         13
   169         15
   228          4