##TITLE=Library Entry 51041
##JCAMP-DX=Revision 4.10 
##DATA TYPE=MASS SPECTRUM
##SAMPLE DESCRIPTION=R.D.SANDS CHEM. DEPT., ALFRED UNIV., ALFRED, NEW YORK,
 USA
##NAMES=HP
##CAS NAME=Cyclobutanecarboxylic acid, 2,2-dimethyl-, methyl ester
##MOLFORM=C8H14O2
##CAS REGISTRY NO=42836-65-7
##MP= -300
##BP= -300
##MW= 142
##$RETENTION INDEX=0
##$CONDENSED SPECTRUM=NO
##NPOINTS= 32
##XYDATA=(XY..XY) 1 
    41        875
    42         90
    43        816
    44         53
    45         40
    51         43
    53        157
    54         53
    55        513
    56        198
    57        493
    59        195
    67        338
    68        383
    69        770
    70         70
    74        870
    75         45
    79         40
    81        100
    82        999
    83        240
    85        138
    87        255
    95         63
    97         95
   109         50
   110        192
   111        305
   127         45
   142        358
   143         43