##TITLE=Library Entry 4307
##JCAMP-DX=Revision 4.10 
##DATA TYPE=MASS SPECTRUM
##SAMPLE DESCRIPTION=Japan AIST/NIMC Database- Spectrum MS-NW-9983
##NAMES=HP
##CAS NAME=2,5-Furandione, 3-(2E)-2-dodecenyldihydro-
##MOLFORM=C16H26O3
##CAS REGISTRY NO=428493-97-4
##MP= -300
##BP= -300
##MW= 266
##$RETENTION INDEX=0
##$CONDENSED SPECTRUM=NO
##NPOINTS= 217
##XYDATA=(XY..XY) 1 
    15          5
    17          3
    18         14
    26         12
    27        273
    28         64
    29        458
    30          9
    31          2
    37          1
    38          5
    39        259
    40         52
    41        999
    42        188
    43        895
    44         31
    45          9
    47          2
    50          6
    51         25
    52         26
    53        218
    54        531
    55        925
    56        292
    57        556
    58         26
    59          4
    60         14
    61          5
    62          1
    63          5
    64          2
    65         78
    66         85
    67        684
    68        461
    69        511
    70        237
    71        245
    72         33
    73         23
    74          5
    75          1
    76          1
    77        108
    78         38
    79        458
    80        210
    81        647
    82        495
    83        922
    84        177
    85         67
    86         23
    87          5
    88          1
    89          1
    90          1
    91         86
    92         37
    93        174
    94        206
    95        507
    96        482
    97        378
    98        112
    99        136
   100        246
   101         20
   102          5
   103          6
   104          9
   105         55
   106         25
   107        156
   108        151
   109        310
   110        195
   111         92
   112         79
   113         50
   114         10
   115          7
   116          9
   117         61
   118         19
   119         76
   120         26
   121        163
   122        109
   123        311
   124        169
   125         58
   126         64
   127         81
   128        409
   129         44
   130          8
   131         56
   132         20
   133         52
   134         22
   135        117
   136        143
   137        260
   138        430
   139        116
   140        116
   141        497
   142        196
   143         19
   144          4
   145         46
   146         12
   147         27
   148         11
   149        130
   150         86
   151         81
   152         60
   153         57
   154        302
   155        140
   156         37
   157          6
   158          2
   159         24
   160          8
   161         17
   162         16
   163        122
   164        192
   165         77
   166         95
   167        589
   168        140
   169         28
   170         12
   171         14
   172          6
   173         16
   174          5
   175         13
   176         14
   177        108
   178        118
   179         47
   180         33
   181        138
   182         47
   183         11
   184          6
   185         22
   186          5
   187         10
   188         10
   189         16
   190          4
   191         84
   192         70
   193         77
   194         42
   195         67
   196         29
   197          7
   198          1
   199          1
   201          9
   202         11
   203         66
   204         13
   205         56
   206         55
   207         18
   208          4
   209         46
   210         14
   211          9
   212          2
   213          1
   215          1
   217          1
   218          1
   219         33
   220         57
   221        129
   222         29
   223         20
   224         14
   225         14
   226          2
   229          1
   230          5
   231          6
   232          2
   233          6
   234          2
   235          1
   236          1
   237         27
   238         20
   239          4
   246          1
   247          9
   248        201
   249         59
   250          9
   251          4
   252          1
   264          2
   265          7
   266        952
   267        197
   268         25
   269          2