##TITLE=Library Entry 17247
##JCAMP-DX=Revision 4.10 
##DATA TYPE=MASS SPECTRUM
##SAMPLE DESCRIPTION=R.G.GILLIS DEPT. OF SUPPLY, ASCOT VALE, AUSTRALIA
##NAMES=HP
##CAS NAME=1-Propene, 1-(methylthio)-, (E)-
##MOLFORM=C4H8S
##CAS REGISTRY NO=42848-06-6
##MP= -300
##BP= -300
##MW= 88
##$RETENTION INDEX=681
##$CONDENSED SPECTRUM=NO
##NPOINTS= 38
##XYDATA=(XY..XY) 1 
    15         38
    26         16
    27         80
    28        142
    29         27
    32         25
    35         14
    37         25
    38         63
    39        497
    40         31
    41        362
    42         22
    44         46
    45        999
    46        223
    47        310
    48        100
    49         22
    53         91
    54         22
    55         55
    57         19
    58         56
    59         72
    60         42
    61         83
    69         53
    71        124
    72        142
    73        999
    74         57
    75         57
    85         22
    87         78
    88        961
    89         70
    90         56