##TITLE=Library Entry 82695
##JCAMP-DX=Revision 4.10 
##DATA TYPE=MASS SPECTRUM
##SAMPLE DESCRIPTION=A.A.Kutin, Moscow, Russia
##NAMES=HP
##CAS NAME=Benzenesulfonamide, 3-nitro-N-(4-tolyl)-
##MOLFORM=C13H12N2O4S
##CAS REGISTRY NO=4284-46-2
##MP= -300
##BP= -300
##MW= 292
##$RETENTION INDEX=0
##$CONDENSED SPECTRUM=NO
##NPOINTS= 65
##XYDATA=(XY..XY) 1 
    34          4
    38         42
    39         76
    40         70
    41         19
    43          8
    44         22
    45          4
    46          4
    48         12
    50        140
    51         89
    52         63
    53         54
    54          7
    55          3
    57          2
    61          1
    62         11
    63         40
    64         32
    65         29
    66          9
    67          2
    69          6
    70          4
    71          0
    74         30
    75         61
    76        118
    77        279
    78         88
    79        291
    81          0
    82          0
    89          1
    90          2
    91         10
    92         17
    93          1
    95          2
    96          1
    97          0
   104         31
   106        999
   108          3
   109          0
   122         17
   123          0
   124          0
   152          0
   161          1
   167          1
   170          4
   180          2
   181          0
   182          0
   186          1
   196          0
   198          0
   262          1
   289          2
   292        170
   293         18
   294          6