##TITLE=Library Entry 67893
##JCAMP-DX=Revision 4.10 
##DATA TYPE=MASS SPECTRUM
##SAMPLE DESCRIPTION=B.WILLHALM FIRMENICH & CIE, GENEVA, SWITZERLAND
##NAMES=HP
##CAS NAME=Cyclohexanol, 2-methyl-5-(1-methylethyl)-, (1.alpha.,2.alpha.,5.a
lpha.)-
##MOLFORM=C10H20O
##CAS REGISTRY NO=42846-32-2
##MP= -300
##BP= -300
##MW= 156
##$RETENTION INDEX=1225
##$CONDENSED SPECTRUM=NO
##NPOINTS= 48
##XYDATA=(XY..XY) 1 
    27        160
    29        120
    31         30
    39        120
    40         20
    41        410
    42         70
    43        460
    45         90
    53         60
    54         20
    55        510
    56        100
    57        560
    58         80
    59         10
    67        140
    68        110
    69        280
    70        110
    71        140
    72         10
    77         20
    79         20
    80         30
    81        210
    82        200
    83        230
    84         40
    85         10
    93         10
    94         50
    95        999
    96        170
    97         30
    99         20
   100         10
   109         60
   110         40
   111         10
   112         20
   113        360
   114         20
   123        130
   124         10
   138        170
   139         10
   156         16