##TITLE=Library Entry 53810
##JCAMP-DX=Revision 4.10 
##DATA TYPE=MASS SPECTRUM
##SAMPLE DESCRIPTION=J. D. KRAMER
##NAMES=HP
##CAS NAME=Boranamine, 1-ethyl-N,N-dimethyl-1-(1-methyl-2-propenyl)-
##MOLFORM=C8H18BN
##CAS REGISTRY NO=42843-12-9
##MP= -300
##BP= -300
##MW= 139
##$RETENTION INDEX=0
##$CONDENSED SPECTRUM=NO
##NPOINTS= 86
##XYDATA=(XY..XY) 1 
    12          4
    13         16
    14          4
    15         47
    16          1
    18          3
    25          5
    26         58
    27        245
    28        102
    29        106
    30         61
    31          1
    36          9
    37         37
    38         21
    39        108
    40        115
    41        109
    42         55
    43          9
    44         37
    45         10
    46          2
    48          1
    49          4
    50         16
    51         44
    52         25
    53         77
    54         96
    55        314
    56        904
    57         31
    58          2
    60          2
    61          6
    62          4
    63          9
    64         11
    65         16
    66         17
    67         13
    68         21
    69         28
    70         43
    71         10
    72         31
    73          4
    74          1
    75          1
    76          1
    77          3
    78          5
    79          7
    80         17
    81         20
    82         68
    83        254
    84        999
    85         48
    86          1
    91          1
    92          3
    93          2
    94          6
    95          4
    96          4
    97          1
    98          2
    99          4
   100          2
   106          1
   107          2
   108          7
   109         12
   110         34
   111          3
   122          1
   124          1
   125          3
   126         11
   127          2
   138         13
   139         49
   140          5