##TITLE=Library Entry 49735
##JCAMP-DX=Revision 4.10 
##DATA TYPE=MASS SPECTRUM
##SAMPLE DESCRIPTION=NIST Mass Spectrometry Data Center
##NAMES=HP
##CAS NAME=1,2-Dibromo-5-hexene
##MOLFORM=C6H10Br2
##CAS REGISTRY NO=4285-48-7
##MP= -300
##BP= -300
##MW= 240
##$RETENTION INDEX=0
##$CONDENSED SPECTRUM=NO
##NPOINTS= 69
##XYDATA=(XY..XY) 1 
    14          2
    15         15
    25          1
    26         28
    27        167
    29         51
    37         11
    38         30
    39        324
    40         42
    41        440
    42         21
    43          1
    49          3
    50         26
    51         43
    52         18
    53        129
    54         48
    55        119
    56          4
    61          1
    62          2
    63          6
    64          1
    65         24
    66         14
    67         74
    68          3
    74          3
    75          1
    77         25
    79        132
    80         46
    81        999
    82         67
    83          2
    93         10
    95         12
   105          7
   106          5
   107         14
   108          5
   109         10
   117          1
   119         35
   120         28
   121         37
   122         28
   123          1
   133          9
   134          2
   135         10
   136          2
   160          5
   161         39
   162          7
   163         40
   164          2
   187          1
   198          1
   199          2
   200          2
   201          3
   202          1
   203          1
   240          3
   242          6
   244          2