##TITLE=Library Entry 53857
##JCAMP-DX=Revision 4.10 
##DATA TYPE=MASS SPECTRUM
##SAMPLE DESCRIPTION=B.SEN LOUISIANA STATE UNIV., BATON ROUGE, LOUISIANA, US
A
##NAMES=HP
##CAS NAME=Aluminum, tetrakis(2-methylpropyl)di-.mu.-1-piperidinyldi-
##MOLFORM=C26H56Al2N2
##CAS REGISTRY NO=42859-27-8
##MP= -300
##BP= -300
##MW= 450
##$RETENTION INDEX=0
##$CONDENSED SPECTRUM=NO
##NPOINTS= 14
##XYDATA=(XY..XY) 1 
    57        960
    84        999
    85        650
   195         28
   251         28
   295         13
   309          7
   323          7
   326         10
   337        149
   351         18
   365          6
   379          6
   393         89