##TITLE=Library Entry 16900
##JCAMP-DX=Revision 4.10 
##DATA TYPE=MASS SPECTRUM
##SAMPLE DESCRIPTION=D.HENNEBERG, MAX-PLANCK INSTITUTE, MULHEIM, WEST GERMAN
Y
##NAMES=HP
##CAS NAME=Propane, 2,2'-[ethylidenebis(oxy)]bis-
##MOLFORM=C8H18O2
##CAS REGISTRY NO=4285-59-0
##MP= -300
##BP= -300
##MW= 146
##$RETENTION INDEX=0
##$CONDENSED SPECTRUM=NO
##NPOINTS= 46
##XYDATA=(XY..XY) 1 
    26          2
    27         43
    28          4
    29         11
    30          0
    31         11
    37          6
    38          1
    39         15
    40          5
    41         76
    42         36
    43        450
    44         39
    45        999
    46         21
    47         26
    55          1
    56          1
    57          1
    58         23
    59         45
    60          2
    61         40
    62          1
    63          0
    68          4
    69         63
    70          4
    71          1
    72          0
    73          0
    74          0
    77          0
    85          0
    86         10
    87        417
    88         23
    89        107
    90          5
    91          0
   103          4
   104          0
   131         82
   132          6
   145          1