##TITLE=Library Entry 18193
##JCAMP-DX=Revision 4.10 
##DATA TYPE=MASS SPECTRUM
##SAMPLE DESCRIPTION=D.E. Johnson, Dep. Chem., N. Dakota State Univ., Fargo,
 N. Dakota, USA
##NAMES=HP
##CAS NAME=1-Butene, 1,1,2-trichloro-
##MOLFORM=C4H5Cl3
##CAS REGISTRY NO=42860-89-9
##MP= -300
##BP= -300
##MW= 158
##$RETENTION INDEX=0
##$CONDENSED SPECTRUM=NO
##NPOINTS= 70
##XYDATA=(XY..XY) 1 
    41         56
    43         37
    44         82
    47        322
    48        126
    49        388
    50        727
    51        999
    52        159
    53        243
    54         40
    57         30
    59        114
    60        117
    61        320
    62        164
    63        180
    65         40
    68         65
    69         35
    70         70
    71         40
    72        147
    73        435
    74         47
    75        140
    81         82
    82        138
    83        280
    84        143
    85        530
    86         68
    87        960
    88         63
    89        355
    94        100
    95         63
    97         35
   100         33
   105         54
   107        103
   108         26
   117         37
   118         51
   119         40
   120         63
   121         47
   122         33
   123        874
   125        453
   126         54
   127         37
   129         28
   130         61
   131         26
   132         30
   137         28
   138         33
   140         26
   143        320
   144          9
   145        322
   146         12
   147         89
   156         14
   158        325
   160        285
   162         33
   163         14
   164         19