##TITLE=Library Entry 18049
##JCAMP-DX=Revision 4.10 
##DATA TYPE=MASS SPECTRUM
##SAMPLE DESCRIPTION=J. SHAW, BORRISTON RESEARCH, ROCKVILLE, MD, USA
##NAMES=HP
##CAS NAME=Benzene, 2-chloro-1-(4-nitrophenoxy)-4-(trifluoromethyl)-
##MOLFORM=C13H7ClF3NO3
##CAS REGISTRY NO=42874-01-1
##MP= -300
##BP= -300
##MW= 317
##$RETENTION INDEX=0
##$CONDENSED SPECTRUM=NO
##NPOINTS= 218
##XYDATA=(XY..XY) 1 
    12          7
    14          7
    15          7
    16         21
    17         66
    18        237
    19          1
    20         17
    26         56
    27         40
    28        141
    30        791
    31         22
    32          9
    35          9
    36         25
    37         53
    38        253
    39        178
    40          8
    41          7
    42          4
    43          9
    44          5
    46        112
    47          4
    48          1
    50        999
    51        151
    52         64
    53         79
    54         39
    55         17
    56         10
    57         44
    58          1
    60          5
    61         48
    62        185
    63        696
    64        577
    65         50
    66         16
    67         12
    68         16
    69        163
    70          2
    71          1
    72         10
    73         49
    74        287
    75        490
    76        476
    77         44
    79         47
    80         36
    81         46
    82         16
    83          6
    84         15
    85         20
    86         20
    87         37
    88         28
    89         15
    90         12
    91         36
    92        274
    93         56
    94         45
    95         14
    96          6
    97         28
    98         12
    99         45
   100          7
   101          6
   102          3
   103          8
   104          7
   105          6
   106          6
   107         11
   108         24
   109         43
   110         13
   111         34
   112         21
   113         50
   114          7
   115          4
   117         28
   118          4
   119         17
   120          3
   121          2
   122          4
   123         11
   124          5
   125         74
   126         16
   127         11
   129         34
   130          3
   131         29
   132        123
   133         16
   134          1
   135          1
   136          2
   137         15
   138         29
   139        186
   140         22
   141         14
   143         51
   144         73
   145         13
   146         16
   147         14
   148         19
   149         11
   150          6
   151          5
   153          2
   155         23
   156          9
   157         39
   158         10
   159         13
   160         26
   161         14
   162         80
   163          9
   164         23
   165          2
   166          4
   167         26
   168          7
   169         21
   170          7
   173          9
   174          3
   175         10
   176          5
   177         11
   179         99
   180         12
   181         34
   182         29
   183         21
   184          1
   185          5
   186         51
   187         20
   188         70
   189         18
   190          4
   191          2
   193         14
   195        108
   196        115
   197         13
   198          3
   202         84
   203         11
   204         31
   205          9
   206         33
   207         78
   208         33
   209          3
   211         56
   212          6
   213         17
   214          1
   217         90
   218         11
   219         13
   220          2
   223         18
   224         52
   225          6
   231          4
   233          4
   236        404
   237         44
   238          2
   241          1
   243         33
   244          3
   245          9
   251         16
   252          9
   253          3
   254          1
   259          3
   265         17
   266          1
   270          3
   271          8
   272          1
   273          1
   282          1
   287        190
   288         26
   289         54
   290          5
   298         34
   299          3
   300         11
   301          7
   303          1
   317        358
   318         54
   319        120
   320         17
   321          1