##TITLE=Library Entry 9187
##JCAMP-DX=Revision 4.10 
##DATA TYPE=MASS SPECTRUM
##SAMPLE DESCRIPTION=Japan AIST/NIMC Database- Spectrum MS-NW-7714
##NAMES=HP
##CAS NAME=2-Propanol, 1-chloro-3-(1-methylethoxy)-
##MOLFORM=C6H13ClO2
##CAS REGISTRY NO=4288-84-0
##MP= -300
##BP= -300
##MW= 152
##$RETENTION INDEX=1000
##$CONDENSED SPECTRUM=NO
##NPOINTS= 77
##XYDATA=(XY..XY) 1 
    14          4
    15         55
    16          1
    17          1
    18          4
    26          9
    27        125
    28         15
    29        130
    30          4
    31         81
    32          2
    33          3
    35          1
    36          9
    37          2
    38          5
    39         54
    40         10
    41        194
    42         54
    43        999
    44        494
    45        215
    46          7
    47          1
    48          1
    49         20
    50          2
    51          7
    52          1
    55         30
    56          3
    57         93
    58         64
    59         58
    60          5
    61        292
    62          8
    63          8
    65          5
    67          2
    68          1
    69          1
    71          3
    72          4
    73        611
    74         37
    75          8
    76          1
    77          3
    78          6
    79         60
    80          4
    81         20
    85         32
    86         23
    87          3
    91          3
    92          4
    93         82
    94          4
    95         27
    99          3
   101          1
   103         13
   104          1
   109          4
   110          1
   111          2
   116         26
   117          2
   121          5
   123          2
   135          1
   137          9
   139          3