##TITLE=Library Entry 55292
##JCAMP-DX=Revision 4.10 
##DATA TYPE=MASS SPECTRUM
##SAMPLE DESCRIPTION=Japan AIST/NIMC Database- Spectrum MS-NW-2290
##NAMES=HP
##CAS NAME=N-Formyl-dl-valine
##MOLFORM=C6H11NO3
##CAS REGISTRY NO=4289-96-7
##MP= -300
##BP= -300
##MW= 145
##$RETENTION INDEX=0
##$CONDENSED SPECTRUM=NO
##NPOINTS= 87
##XYDATA=(XY..XY) 1 
    14          2
    15         16
    16          2
    17         11
    18         47
    19          2
    26         10
    27        141
    28        377
    29        104
    30         93
    31          7
    32          2
    36          1
    37          5
    38         12
    39        103
    40         13
    41        202
    42         36
    43        301
    44         18
    45         27
    46        138
    47          4
    50          3
    51          4
    52          7
    53         14
    54         21
    55        245
    56        112
    57        215
    58         29
    59          9
    60          6
    61          2
    67          3
    68          9
    69         16
    70         33
    71          8
    72        177
    73         11
    74         60
    75         12
    76          1
    79          1
    80          1
    81          8
    82         80
    83         13
    84         28
    85        999
    86         47
    87          8
    88          1
    91          1
    93          1
    95          3
    96          1
    97          4
    98          6
    99          8
   100        616
   101         52
   102         15
   103        227
   104          9
   105          2
   107          1
   109          2
   110          1
   111          2
   112          9
   113          1
   116          1
   117          2
   121          2
   123          2
   125          1
   126          1
   127         32
   128          2
   129          1
   130          1
   145          2