##TITLE=Library Entry 54545
##JCAMP-DX=Revision 4.10 
##DATA TYPE=MASS SPECTRUM
##SAMPLE DESCRIPTION=Japan AIST/NIMC Database- Spectrum MS-NW-4550
##NAMES=HP
##CAS NAME=L-Valine, N-formyl-
##MOLFORM=C6H11NO3
##CAS REGISTRY NO=4289-97-8
##MP= -300
##BP= -300
##MW= 145
##$RETENTION INDEX=0
##$CONDENSED SPECTRUM=NO
##NPOINTS= 71
##XYDATA=(XY..XY) 1 
    13          1
    14          4
    15         29
    16          2
    17          4
    18         12
    25          1
    26         16
    27        201
    28        536
    29        132
    30        125
    31          9
    36          1
    37          8
    38         16
    39        141
    40         20
    41        245
    42         50
    43        276
    44         23
    45         42
    46        163
    47          6
    48          1
    49          1
    50          4
    51          6
    52          8
    53         18
    54         30
    55        276
    56        140
    57        278
    58         36
    59         12
    60          2
    66          1
    67          2
    68          9
    69          8
    70         33
    71          4
    72        200
    73         12
    74         70
    75         14
    76          2
    81          1
    82         67
    83         10
    84         33
    85        999
    86         54
    87          7
    98          6
    99          8
   100        487
   101         51
   102         17
   103        210
   104          8
   105          1
   112          8
   116          1
   117          2
   126          1
   127         39
   128          3
   145          3