##TITLE=Library Entry 62410
##JCAMP-DX=Revision 4.10 
##DATA TYPE=MASS SPECTRUM
##SAMPLE DESCRIPTION=Japan AIST/NIMC Database- Spectrum MS-NW-2496
##NAMES=HP
##CAS NAME=DL-Phenylalanine, N-formyl-
##MOLFORM=C10H11NO3
##CAS REGISTRY NO=4289-95-6
##MP= -300
##BP= -300
##MW= 193
##$RETENTION INDEX=0
##$CONDENSED SPECTRUM=NO
##NPOINTS= 78
##XYDATA=(XY..XY) 1 
    15          2
    17          3
    18         12
    26          2
    27         10
    28         52
    29         16
    30          3
    37          2
    38          7
    39         42
    40          4
    41         12
    42          9
    43          6
    44          6
    45          3
    46         13
    49          1
    50         13
    51         37
    52          9
    53          3
    54          1
    55          1
    56          1
    58          3
    59          6
    60          8
    61          2
    62          7
    63         22
    64          7
    65         93
    66          6
    71          2
    74         15
    75          5
    76          4
    77         41
    78         15
    79          6
    80          1
    86          1
    87          1
    89         17
    90         13
    91        999
    92         99
    93          9
    94          1
   101          1
   102         15
   103         39
   104         17
   105          5
   107          2
   116          2
   117         15
   118         27
   119         17
   120         43
   121          4
   128          2
   129          1
   130         12
   131         14
   132          2
   146          3
   147        143
   148        406
   149         40
   150          4
   173          1
   175         48
   176          5
   193         13
   194          1