##TITLE=Library Entry 56715
##JCAMP-DX=Revision 4.10 
##DATA TYPE=MASS SPECTRUM
##SAMPLE DESCRIPTION=Japan AIST/NIMC Database- Spectrum MS-NW-9116
##NAMES=HP
##CAS NAME=Tetraethylammonium tetrafluoroborate
##MOLFORM=C8H20BF4N
##CAS REGISTRY NO=429-06-1
##MP= -300
##BP= -300
##MW= 217
##$RETENTION INDEX=0
##$CONDENSED SPECTRUM=NO
##NPOINTS= 70
##XYDATA=(XY..XY) 1 
    14          3
    15         13
    20         27
    24          1
    25          6
    26         58
    27        135
    28        205
    29        132
    30        339
    31          6
    32          3
    33         21
    39          4
    40          3
    41         19
    42         89
    43         17
    44        159
    45          8
    46          8
    47         87
    48         42
    49        146
    52          1
    53          1
    54          8
    55          9
    56         71
    57         21
    58        336
    59         12
    67          4
    68         11
    69          3
    70         38
    71         18
    72         65
    73          4
    74          1
    77          1
    78          1
    79          5
    81          1
    82          1
    83          2
    84         17
    85          5
    86        999
    87         60
    88          2
    91          1
    93          1
    95          1
    96          1
    97          2
    98          3
    99         10
   100        343
   101        202
   102         16
   111          1
   113          1
   116          1
   127          1
   128          1
   129          8
   130        461
   131         42
   132          2