##TITLE=Library Entry 61800
##JCAMP-DX=Revision 4.10 
##DATA TYPE=MASS SPECTRUM
##SAMPLE DESCRIPTION=RADIAN CORP
##NAMES=HP
##CAS NAME=Silane, trimethoxy(3,3,3-trifluoropropyl)-
##MOLFORM=C6H13F3O3Si
##CAS REGISTRY NO=429-60-7
##MP= -300
##BP= -300
##MW= 218
##$RETENTION INDEX=0
##$CONDENSED SPECTRUM=NO
##NPOINTS= 89
##XYDATA=(XY..XY) 1 
    15         11
    27          7
    28          6
    29          9
    30          3
    31         11
    33         16
    39         96
    40         10
    41         22
    43         14
    45         84
    46         11
    47         67
    48          2
    49         21
    51         61
    53          6
    55         39
    56          6
    57         41
    58         27
    59        428
    60         75
    61        220
    62         33
    63         21
    64          9
    65         40
    66          2
    67         16
    69         62
    71         12
    73          4
    74          2
    75         22
    76         26
    77        298
    78        313
    79        252
    80         13
    81         13
    83          8
    85         19
    87          6
    89         26
    90         82
    91        999
    92        108
    93         58
    94          6
    95         28
    96         10
    97         70
    98          5
    99          9
   103          2
   104          1
   105         15
   106          5
   107         15
   108          6
   109        239
   110         18
   111         13
   112         10
   113          6
   115          8
   117          1
   119         12
   120          9
   121        926
   122        153
   123         73
   124          8
   125         52
   126          2
   127         18
   137          1
   139          1
   140          1
   141         90
   142          8
   143          3
   149          1
   152          7
   155         19
   167         18
   187          3