##TITLE=Library Entry 53948
##JCAMP-DX=Revision 4.10 
##DATA TYPE=MASS SPECTRUM
##SAMPLE DESCRIPTION=LAC, NIDDK, NIH, Bethesda, MD 20892
##NAMES=HP
##CAS NAME=Solanocapsine [2-hydroxy]benzylidine
##MOLFORM=C34H50N2O3
##CAS REGISTRY NO=4290-46-4
##MP= -300
##BP= -300
##MW= 534
##$RETENTION INDEX=0
##$CONDENSED SPECTRUM=NO
##NPOINTS= 149
##XYDATA=(XY..XY) 1 
    41        228
    42         73
    43        178
    44        188
    45         17
    47         10
    49          7
    51          3
    53         34
    54         13
    55        306
    56        122
    57        102
    58         18
    59         32
    65         28
    67        175
    68         59
    69        107
    70        860
    71        129
    72         11
    77         76
    78         19
    79        110
    80         32
    81        155
    82         74
    83         97
    84        999
    85         49
    86         64
    91         99
    93        178
    94         64
    95        159
    96         53
    97         21
    98         30
   100         15
   101          8
   103          5
   105        131
   106         29
   107        131
   108         36
   109         45
   110         55
   111         52
   112        121
   113         65
   114        108
   115         27
   117         25
   118         19
   119         41
   120         55
   121        114
   122        262
   123         35
   124         42
   125         61
   126         12
   128          9
   129          7
   130        144
   131         38
   132         34
   133         39
   134         17
   135         28
   136         32
   137          6
   138         30
   139         38
   140         22
   141          9
   142        166
   143         20
   144          8
   145         25
   146         27
   147         32
   148         27
   149          9
   150          6
   152          9
   154         17
   156         69
   157        331
   158         24
   159         15
   160         16
   161         14
   162         19
   163          5
   164          7
   166          5
   171         27
   172          6
   173         13
   174          7
   175          7
   186          6
   187          6
   188         10
   196         16
   197          6
   214          7
   215          6
   216         18
   228          7
   230          5
   336         15
   337         49
   338         62
   339         17
   353          6
   376         19
   377         15
   378         83
   379         24
   393         15
   394         13
   404          6
   405        110
   406         88
   407         21
   408         13
   422          7
   423         64
   424         16
   432         60
   433         30
   434          7
   447         27
   448          6
   463         17
   515          6
   516         50
   517         33
   518          8
   519         17
   520          6
   532         27
   533         28
   534        169
   535         71
   536         14