##TITLE=Library Entry 53757
##JCAMP-DX=Revision 4.10 
##DATA TYPE=MASS SPECTRUM
##SAMPLE DESCRIPTION=Chemical Concepts
##NAMES=HP
##CAS NAME=Cyclohexanamine, N-cyclopentylidene-
##MOLFORM=C11H19N
##CAS REGISTRY NO=42908-34-9
##MP= -300
##BP= -300
##MW= 165
##$RETENTION INDEX=0
##$CONDENSED SPECTRUM=NO
##NPOINTS= 110
##XYDATA=(XY..XY) 1 
    26         26
    27        155
    28         89
    29        121
    30         35
    31          1
    32          5
    35          1
    36          1
    37          4
    38          6
    39        182
    40         55
    41        480
    42         54
    43         40
    44         13
    48          0
    49          1
    50          7
    51         17
    52         19
    53         90
    54        593
    55        671
    56         87
    57          8
    58          1
    59          1
    60          1
    62          1
    63          3
    64          2
    65         29
    66         26
    67        235
    68         39
    69         13
    70          7
    71          1
    72          0
    73          0
    74          0
    75          1
    76          0
    77         16
    78          6
    79         37
    80        101
    81         81
    82        146
    83        370
    84        999
    85         62
    86          2
    87          0
    89          0
    90          0
    91          8
    92          5
    93         12
    94         32
    95         26
    96         43
    97         23
    98         14
    99          3
   103          1
   104          0
   105          4
   106          8
   107          7
   108         32
   109         52
   110         71
   111         37
   112          6
   113          1
   117          1
   118          1
   119          4
   120         16
   121          7
   122        202
   123        119
   124         44
   125          4
   129          0
   131          0
   132          1
   133          2
   134          8
   135          5
   136        296
   137         56
   138          4
   145          0
   148          4
   149          1
   150         25
   151          3
   160          1
   161          1
   162          6
   163         14
   164         87
   165        271
   166         43
   167          3
   168          1