##TITLE=Library Entry 109997
##JCAMP-DX=Revision 4.10 
##DATA TYPE=MASS SPECTRUM
##SAMPLE DESCRIPTION=Exported from NIST MS Search
##NAMES=HP
##CAS NAME=Thiophene, 2-ethyl-5-hexyl-
##MOLFORM=C12H20S
##CAS REGISTRY NO=42908-64-5
##MP= -300
##BP= -300
##MW= 196
##$RETENTION INDEX=0
##$CONDENSED SPECTRUM=NO
##NPOINTS= 132
##XYDATA=(XY..XY) 1 
    37          1
    38          5
    39         55
    40          7
    41         66
    42          1
    43         34
    44          1
    45         42
    46          2
    47          8
    49          1
    50          6
    51         17
    52          6
    53         17
    54          2
    55         12
    56          1
    57          3
    58          9
    59         15
    60          1
    61          2
    62          2
    63          8
    64          2
    65         19
    66         11
    67          9
    68          1
    69          9
    70          5
    71         18
    72          2
    73          7
    74          1
    75          2
    76          2
    77         25
    78          8
    79         16
    80          2
    81          8
    82          3
    83          3
    84          6
    85         10
    86          1
    87          1
    88          1
    89          3
    90          2
    91         48
    92         15
    93          4
    94          1
    95          7
    96          3
    97         52
    98          4
    99          5
   100          1
   101          1
   102          1
   103          2
   104          2
   105          3
   106          1
   107          1
   108          3
   109         12
   110         72
   111         34
   112         12
   113         10
   114          3
   115          4
   116          1
   117          1
   118          1
   119          1
   120          1
   121          4
   122          3
   123         45
   124         15
   125        999
   126        124
   127         50
   128          5
   129          1
   130          1
   133          1
   134          2
   135          3
   136          2
   137          7
   138          4
   139         12
   140          2
   141          1
   147          1
   148          1
   149          1
   150          1
   151          3
   152          1
   153          4
   154          1
   155          1
   162          1
   163          1
   165          1
   167         12
   168          3
   169          1
   172          1
   174          1
   175          1
   179          1
   180          1
   181         54
   182          7
   183          4
   184          1
   194          1
   195          5
   196        245
   197         29
   198          9
   199          1