##TITLE=Library Entry 84540
##JCAMP-DX=Revision 4.10 
##DATA TYPE=MASS SPECTRUM
##SAMPLE DESCRIPTION=NIST Mass Spectrometry Data Center
##NAMES=HP
##CAS NAME=Santamarine
##MOLFORM=C15H20O3
##CAS REGISTRY NO=4290-13-5
##MP= -300
##BP= -300
##MW= 248
##$RETENTION INDEX=2227
##$CONDENSED SPECTRUM=NO
##NPOINTS= 140
##XYDATA=(XY..XY) 1 
    26         13
    27        170
    29        176
    31         42
    39        465
    40        114
    41        665
    42         62
    43        325
    44         45
    45         57
    50         34
    51        181
    52         96
    53        851
    54        107
    55        513
    56         60
    57         92
    63         78
    64         27
    65        344
    66        125
    67        500
    68        123
    69        177
    71        148
    72         21
    77        643
    78        144
    79        667
    80        174
    81        448
    82        134
    83         85
    84        124
    89         34
    90         13
    91        766
    92        128
    93        382
    94        142
    95        353
    96        129
    97        208
   102         25
   103        118
   104         45
   105        523
   106        175
   107        999
   108        190
   109        317
   111         38
   115        166
   116         87
   117        326
   118         83
   119        408
   120        113
   121        295
   122        159
   123        265
   124        140
   125         35
   127         40
   128        119
   129        139
   130         61
   131        264
   132        198
   133        389
   134        139
   135        215
   136         87
   137         94
   138         37
   141         55
   142         44
   143        139
   144         62
   145        264
   146         92
   147        254
   148         98
   149        100
   150        118
   151        334
   152        747
   153        106
   156         24
   157         55
   158         37
   159        199
   160         91
   161        186
   162         86
   163        291
   164         94
   165         61
   169         65
   170         19
   171         49
   173        128
   174         67
   175        191
   176         87
   177         71
   178         71
   179         27
   180         48
   183         23
   184         30
   185        121
   186         31
   187        113
   188         51
   189         70
   190         53
   191        102
   192         38
   193         23
   197         30
   201         97
   202         96
   203         61
   204         80
   205         84
   212         14
   215        114
   217         25
   219         69
   229         38
   230        160
   231         35
   233         71
   234         17
   248        853
   249        127
   250         17