##TITLE=Library Entry 97390
##JCAMP-DX=Revision 4.10 
##DATA TYPE=MASS SPECTRUM
##SAMPLE DESCRIPTION=Chemical Concepts
##NAMES=HP
##CAS NAME=Benzene, 1-bromo-2-(2-propenyl)-
##MOLFORM=C9H9Br
##CAS REGISTRY NO=42918-20-7
##MP= -300
##BP= -300
##MW= 196
##$RETENTION INDEX=0
##$CONDENSED SPECTRUM=NO
##NPOINTS= 109
##XYDATA=(XY..XY) 1 
    27         56
    28         13
    29          1
    31          4
    35          1
    36          5
    37         19
    38         43
    39        190
    40         14
    41         21
    42          1
    43          6
    44          4
    45          4
    48          1
    49         11
    50        103
    51        110
    52         22
    53          5
    54          0
    55          5
    56          5
    57         66
    58         94
    59          1
    60          3
    61         25
    62         69
    63        177
    64         38
    65         73
    66          5
    67          1
    68          1
    69          1
    70          2
    71          4
    72          1
    73          9
    74         47
    75         56
    76         34
    77         41
    78         12
    79          4
    80          6
    81          5
    82          5
    83          1
    84          2
    85         10
    86         21
    87         30
    88         20
    89        191
    90        108
    91        213
    92         17
    93          1
    95          1
    97          1
    98          4
    99          1
   101         10
   102         33
   103          5
   104          1
   105          1
   106          1
   108          0
   109          2
   110          2
   111          2
   112          1
   113         23
   114         24
   115        714
   116        236
   117        999
   118         94
   119          6
   128          2
   129          2
   130          1
   131          1
   143          4
   145          2
   156          1
   157          1
   158          2
   169         42
   170          3
   171         41
   172          3
   180          0
   181          2
   182          1
   183          2
   190          0
   192          0
   193          0
   195          2
   196        246
   197         26
   198        236
   199         21
   200          1