##TITLE=Library Entry 45146
##JCAMP-DX=Revision 4.10 
##DATA TYPE=MASS SPECTRUM
##SAMPLE DESCRIPTION=Chemical Concepts
##NAMES=HP
##CAS NAME=2-Propanol, 1,1-dimethoxy-
##MOLFORM=C5H12O3
##CAS REGISTRY NO=42919-42-6
##MP= -300
##BP= -300
##MW= 120
##$RETENTION INDEX=0
##$CONDENSED SPECTRUM=NO
##NPOINTS= 42
##XYDATA=(XY..XY) 1 
    26          3
    27         34
    28         14
    29        127
    30          5
    31        154
    32          8
    33         68
    34          1
    39          3
    40          1
    41         18
    42          4
    43         49
    44          6
    45        132
    46          3
    47        199
    48          4
    49          0
    53          0
    55          3
    56          3
    57        196
    58         14
    59         18
    60          2
    61          8
    71         48
    72          4
    73         31
    74          5
    75        999
    76         33
    77          4
    87          6
    88          4
    89        112
    90          5
    91          0
   103          0
   119          0