##TITLE=Library Entry 32915
##JCAMP-DX=Revision 4.10 
##DATA TYPE=MASS SPECTRUM
##SAMPLE DESCRIPTION=S.A. Rang et al., IR & MS of Unsatd. Hydrocarbons, 1977
##NAMES=HP
##CAS NAME=Cyclopentene,1-hexyl-
##MOLFORM=C11H20
##CAS REGISTRY NO=4291-99-0
##MP= -300
##BP= -300
##MW= 152
##$RETENTION INDEX=1132
##$CONDENSED SPECTRUM=NO
##NPOINTS= 68
##XYDATA=(XY..XY) 1 
    15          3
    26          5
    27        114
    28         14
    29        123
    30          2
    37          0
    38          2
    39         98
    40         21
    41        295
    42         31
    43         99
    44          2
    50          3
    51         17
    52         17
    53        106
    54         58
    55        110
    56         13
    57          6
    58          0
    63          3
    64          1
    65         41
    66         82
    67        999
    68        114
    69         40
    70          8
    71          4
    76          0
    77         58
    78         14
    79        147
    80         48
    81        217
    82        428
    83        100
    84         10
    85          2
    91         19
    92          3
    93         18
    94         14
    95        205
    96         37
    97          4
   103          0
   105          1
   106          0
   107          1
   108          1
   109         28
   110         15
   111          2
   121          0
   122          0
   123         14
   124          7
   125          0
   137          1
   150          0
   151          0
   152        131
   153         15
   154          1