##TITLE=Library Entry 32914
##JCAMP-DX=Revision 4.10 
##DATA TYPE=MASS SPECTRUM
##SAMPLE DESCRIPTION=S.A. Rang et al., IR & MS of Unsatd. Hydrocarbons, 1977
##NAMES=HP
##CAS NAME=Cyclopentene, 1-pentyl-
##MOLFORM=C10H18
##CAS REGISTRY NO=4291-98-9
##MP= -300
##BP= -300
##MW= 138
##$RETENTION INDEX=1035
##$CONDENSED SPECTRUM=NO
##NPOINTS= 94
##XYDATA=(XY..XY) 1 
    15          2
    16          0
    25          0
    26          5
    27         89
    28         47
    29         89
    30          2
    31          1
    37          0
    38          2
    39         99
    40         19
    41        213
    42         19
    43         35
    44          2
    45          1
    50          4
    51         18
    52         14
    53         88
    54         53
    55        106
    56         11
    57         13
    58          2
    59          0
    60          0
    62          0
    63          3
    64          1
    65         35
    66         69
    67        999
    68         94
    69         23
    70          8
    71          6
    72          0
    73          0
    74          0
    75          1
    76          0
    77         54
    78         13
    79        123
    80         64
    81        193
    82        277
    83         74
    84         10
    85          2
    86          0
    89          0
    90          0
    91         15
    92          2
    93         23
    94          9
    95        158
    96         33
    97         17
    98          3
    99          1
   100          0
   101          0
   103          0
   104          0
   105          1
   106          0
   107          2
   108          1
   109         15
   110          7
   111          3
   112          1
   113          0
   114          0
   115          0
   116          0
   117          0
   119          0
   121          2
   122          0
   123          2
   124          0
   134          0
   135          0
   136         10
   137          2
   138        163
   139         20
   140          1