##TITLE=Library Entry 21082
##JCAMP-DX=Revision 4.10 
##DATA TYPE=MASS SPECTRUM
##SAMPLE DESCRIPTION=D.HENNEBERG, MAX-PLANCK INSTITUTE, MULHEIM, WEST GERMAN
Y
##NAMES=HP
##CAS NAME=Cyclohexane, 1-methyl-3-propyl-
##MOLFORM=C10H20
##CAS REGISTRY NO=4291-80-9
##MP= -300
##BP= -300
##MW= 140
##$RETENTION INDEX=0
##$CONDENSED SPECTRUM=NO
##NPOINTS= 69
##XYDATA=(XY..XY) 1 
    23          0
    26          3
    27         75
    28         16
    29         92
    30          2
    31          3
    33          0
    36          0
    38          2
    39         78
    40          3
    41        231
    42         60
    43         92
    45          0
    46          1
    47          1
    48          0
    49          3
    50          1
    51          7
    52          2
    53         29
    54         31
    55        999
    56        118
    57         49
    58          2
    59          0
    62          0
    63          1
    64          1
    65          4
    66          6
    67         44
    68         25
    69        159
    70         32
    71          4
    72          0
    74          0
    75          0
    76          0
    77          7
    78          1
    79          6
    80          1
    81         68
    82         40
    83        108
    84         13
    85          1
    91          3
    94          1
    95         10
    96        158
    97        825
    98         71
    99          3
   105          0
   109          1
   111          4
   112          1
   125          7
   126          6
   139          0
   140         70
   141          9