##TITLE=Library Entry 20355
##JCAMP-DX=Revision 4.10 
##DATA TYPE=MASS SPECTRUM
##SAMPLE DESCRIPTION=Vladimir Zaikin,TIPS RAS, Moscow, Russia
##NAMES=HP
##CAS NAME=4-(Prop-2-enoyloxy)octane
##MOLFORM=C11H20O2
##CAS REGISTRY NO=42928-87-0
##MP= -300
##BP= -300
##MW= 184
##$RETENTION INDEX=0
##$CONDENSED SPECTRUM=NO
##NPOINTS= 40
##XYDATA=(XY..XY) 1 
    35         15
    39         90
    40         18
    41        280
    42        170
    43        212
    44         37
    45          7
    51          7
    53         19
    54         25
    55        999
    56        222
    57        408
    58         60
    63          6
    67         10
    68         15
    69        120
    70        730
    71         95
    72         12
    73         90
    77          3
    81          3
    82         25
    83        190
    84         88
    85         87
    86         49
    97         30
    98         25
   105          3
   109          2
   110          3
   111         15
   112        190
   113         21
   155          6
   156          2