##TITLE=Library Entry 33294
##JCAMP-DX=Revision 4.10 
##DATA TYPE=MASS SPECTRUM
##SAMPLE DESCRIPTION=Chemical Concepts
##NAMES=HP
##CAS NAME=9-Borabicyclo[3.3.1]nonane, 9-(1,1-dimethylethyl)-
##MOLFORM=C12H23B
##CAS REGISTRY NO=42928-43-8
##MP= -300
##BP= -300
##MW= 178
##$RETENTION INDEX=0
##$CONDENSED SPECTRUM=NO
##NPOINTS= 81
##XYDATA=(XY..XY) 1 
    24          1
    27         92
    29         39
    36          5
    37         24
    38         18
    39         93
    40        140
    41        512
    42         15
    43          5
    49          4
    50         23
    51         58
    52         85
    53        285
    54         40
    55         68
    56         15
    57        207
    58          8
    59          0
    60          1
    61          1
    62          3
    63         13
    64         34
    65         94
    66         71
    67        325
    68        999
    69         57
    70          3
    71          0
    74          2
    75          3
    76         12
    77         46
    78         49
    79        152
    80         75
    81         70
    82         10
    83          3
    84          1
    88          4
    89         13
    90         20
    91         55
    92         85
    93        275
    94        250
    95         35
    96          5
    97          0
   103          1
   104          1
   105          6
   106          6
   107         28
   108         22
   109         22
   110          2
   117          1
   118          2
   119         13
   120         37
   121        135
   122        128
   123         13
   134          4
   135         18
   136         12
   137          4
   149          1
   150          1
   163          3
   177         53
   178        233
   179         30
   180          1