##TITLE=Library Entry 32916
##JCAMP-DX=Revision 4.10 
##DATA TYPE=MASS SPECTRUM
##SAMPLE DESCRIPTION=S.A. Rang et al., IR & MS of Unsatd. Hydrocarbons, 1977
##NAMES=HP
##CAS NAME=Cyclopentene,1-heptyl-
##MOLFORM=C12H22
##CAS REGISTRY NO=4292-00-6
##MP= -300
##BP= -300
##MW= 166
##$RETENTION INDEX=1232
##$CONDENSED SPECTRUM=NO
##NPOINTS= 77
##XYDATA=(XY..XY) 1 
    15          3
    25          0
    26          5
    27        104
    28         21
    29        139
    30          3
    31          9
    37          0
    38          2
    39         93
    40         20
    41        329
    42         33
    43        135
    44          2
    45          3
    50          2
    51         12
    52         14
    53        100
    54         57
    55        131
    56         27
    57         24
    58          1
    59          4
    63          2
    64          1
    65         36
    66         80
    67        999
    68        116
    69         96
    70          7
    71          2
    74          2
    75          1
    76          0
    77         53
    78         13
    79        147
    80         51
    81        228
    82        528
    83        139
    84         15
    85          4
    91         18
    92          3
    93         20
    94         21
    95        205
    96         39
    97          9
    98          3
   103          0
   105          1
   106          0
   107          1
   108          1
   109         31
   110         20
   111          2
   115          0
   121          1
   122          1
   123         25
   124         11
   125          1
   136          0
   137         10
   138          7
   139          0
   166        120
   167         16
   168          1