##TITLE=Library Entry 24302
##JCAMP-DX=Revision 4.10 
##DATA TYPE=MASS SPECTRUM
##SAMPLE DESCRIPTION=Chemical Concepts
##NAMES=HP
##CAS NAME=Dodecane, 1-iodo-
##MOLFORM=C12H25I
##CAS REGISTRY NO=4292-19-7
##MP= -300
##BP= -300
##MW= 296
##$RETENTION INDEX=1635
##$CONDENSED SPECTRUM=NO
##NPOINTS= 81
##XYDATA=(XY..XY) 1 
    26          2
    27         85
    28         16
    29        179
    30          3
    36          0
    38          0
    39         51
    40         10
    41        331
    42         70
    43        690
    44         20
    50          0
    51          1
    52          1
    53         16
    54         11
    55        197
    56         62
    57        999
    58         53
    59          1
    63          0
    65          2
    66          1
    67         12
    68          5
    69         70
    70         23
    71        604
    72         36
    73          0
    77          0
    78          0
    79          1
    80          0
    81          2
    82          1
    83         21
    84          4
    85        365
    86         22
    87          0
    88          0
    91          0
    93          0
    95          0
    96          0
    97         10
    98          1
    99        119
   100          9
   105          0
   111          2
   112          1
   113         75
   114          7
   125          0
   127         31
   128          2
   141          2
   149          0
   154          1
   155         33
   156          0
   167          0
   169        137
   170         16
   171          1
   181          0
   183          4
   197          1
   211          1
   225          0
   226          0
   239          0
   295          0
   296        113
   297         15
   298          1