##TITLE=Library Entry 62181
##JCAMP-DX=Revision 4.10 
##DATA TYPE=MASS SPECTRUM
##SAMPLE DESCRIPTION=Div. of Experiment Therapeutics WRAIR, WRAMC, Washingto
n DC 20307
##NAMES=HP
##CAS NAME=2,2-Dimercapto-1,3-diphenylpropane
##MOLFORM=C15H16S2
##CAS REGISTRY NO=42937-97-3
##MP= -300
##BP= -300
##MW= 260
##$RETENTION INDEX=0
##$CONDENSED SPECTRUM=NO
##NPOINTS= 76
##XYDATA=(XY..XY) 1 
    41         20
    45         60
    47          9
    49         32
    50         20
    51         69
    52         12
    53          4
    58         12
    59          5
    63         50
    65        116
    66          5
    69         14
    71          5
    74          4
    75          5
    77         59
    78         24
    79          8
    82         10
    84         16
    86         12
    87          3
    89         51
    91        999
    92        120
    93         11
    94          1
    95          5
    97          2
   102         12
   103         14
   104          2
   105          3
   108          5
   109          3
   110          3
   111          2
   113          5
   115         94
   116         18
   117          9
   121          9
   123         44
   124          4
   125          2
   134         46
   135        677
   136         49
   137         19
   139          1
   147         11
   149         10
   150          1
   152          5
   155          5
   165         10
   168        381
   169        221
   170         48
   171         18
   172          2
   176          1
   178         19
   179          6
   181          7
   189          7
   191          9
   193        153
   194         16
   226         38
   227        120
   228         16
   229          5
   260          7