##TITLE=Library Entry 20957
##JCAMP-DX=Revision 4.10 
##DATA TYPE=MASS SPECTRUM
##SAMPLE DESCRIPTION=Japan AIST/NIMC Database- Spectrum MS-NW-3141
##NAMES=HP
##CAS NAME=4-Ethyl-2-methylthiazoline
##MOLFORM=C6H11NS
##CAS REGISTRY NO=4293-61-2
##MP= -300
##BP= -300
##MW= 129
##$RETENTION INDEX=966
##$CONDENSED SPECTRUM=NO
##NPOINTS= 94
##XYDATA=(XY..XY) 1 
    14          5
    15         52
    16          1
    17          2
    18         10
    25          2
    26         34
    27        195
    28         62
    29         99
    30          4
    32         18
    33          5
    34          5
    35          2
    36          1
    37          9
    38         21
    39        180
    40         39
    41        169
    42        449
    43         32
    44         15
    45        249
    46        415
    47        181
    48         21
    49          9
    50         12
    51         21
    52         20
    53         64
    54        562
    55        999
    56         78
    57         25
    58        128
    59        594
    60        677
    61         47
    62         29
    63          4
    64          3
    65          6
    66          4
    67          5
    68        458
    69         22
    70          7
    71        110
    72         21
    73        247
    74         15
    75         11
    76          7
    77          1
    78          1
    80          2
    81          3
    82        123
    83        162
    84         13
    85         77
    86         37
    87         49
    88        888
    89         51
    90         41
    91         41
    92         30
    93          3
    94          2
    96          6
    97          1
    98          1
    99         28
   100        522
   101         87
   102         26
   103          4
   106          1
   112         35
   113          5
   114          8
   115          1
   125          1
   126         96
   127        137
   128         18
   129        640
   130         49
   131         29
   132          2