##TITLE=Library Entry 40310
##JCAMP-DX=Revision 4.10 
##DATA TYPE=MASS SPECTRUM
##SAMPLE DESCRIPTION=D. M. DESIDERIO
##NAMES=HP
##CAS NAME=Propanediamide, 2-ethyl-N,N,N',N'-tetramethyl-2-(1-methylbutyl)-
##MOLFORM=C14H28N2O2
##CAS REGISTRY NO=42948-60-7
##MP= -300
##BP= -300
##MW= 256
##$RETENTION INDEX=0
##$CONDENSED SPECTRUM=NO
##NPOINTS= 39
##XYDATA=(XY..XY) 1 
    41         80
    42         30
    43         40
    44         70
    45         50
    46         40
    55         50
    56         20
    57         20
    58         20
    67         20
    69         70
    71         20
    72        999
    73         40
    97         80
    98         40
   112         20
   113         20
   114        100
   115         30
   126         20
   139         20
   140         30
   141         30
   142        220
   143         20
   158         30
   168         30
   171         20
   184        330
   185         60
   186        130
   187         20
   211         20
   212        120
   213         40
   241          4
   256          1