##TITLE=Library Entry 40299
##JCAMP-DX=Revision 4.10 
##DATA TYPE=MASS SPECTRUM
##SAMPLE DESCRIPTION=D. M. DESIDERIO
##NAMES=HP
##CAS NAME=Propanediamide, 2-(1-cyclohexen-1-yl)-N,N,N',N',2-pentamethyl-
##MOLFORM=C14H24N2O2
##CAS REGISTRY NO=42948-59-4
##MP= -300
##BP= -300
##MW= 252
##$RETENTION INDEX=0
##$CONDENSED SPECTRUM=NO
##NPOINTS= 77
##XYDATA=(XY..XY) 1 
    41        250
    42         90
    43        240
    44         80
    45         70
    46         50
    51         20
    53         60
    54         30
    55        260
    56         80
    57        320
    58         40
    65         30
    66         20
    67        150
    68         30
    69        190
    70         70
    71        220
    72        999
    73         60
    77         60
    78         30
    79        130
    80         40
    81        210
    82         60
    83        160
    84         40
    85        130
    91         80
    92         20
    93         70
    94         20
    95        110
    96         60
    97        130
    98         30
    99         60
   105         30
   107         90
   108         60
   109         60
   110         30
   111         80
   112         50
   113         30
   122         60
   123        320
   124         90
   125         60
   126         20
   127         30
   135        100
   136         50
   137         40
   138         20
   139         30
   150         30
   151        240
   152         50
   163         20
   164         20
   165         20
   166         20
   178         50
   179        190
   180        900
   181        130
   182         20
   207         70
   208         40
   237         70
   238         10
   252        120
   253         20