##TITLE=Library Entry 40215
##JCAMP-DX=Revision 4.10 
##DATA TYPE=MASS SPECTRUM
##SAMPLE DESCRIPTION=D. M. DESIDERIO
##NAMES=HP
##CAS NAME=Propanediamide, 2,2-diethyl-N,N,N',N'-tetramethyl-
##MOLFORM=C11H22N2O2
##CAS REGISTRY NO=42948-58-3
##MP= -300
##BP= -300
##MW= 214
##$RETENTION INDEX=0
##$CONDENSED SPECTRUM=NO
##NPOINTS= 32
##XYDATA=(XY..XY) 1 
    41         70
    42         40
    43         20
    44        100
    45         30
    46         20
    55         50
    56         20
    58         20
    69         40
    72        999
    73         40
    83         30
    97         50
    98         30
   114         30
   117         20
   126         20
   128         30
   142        430
   143         50
   154         20
   169        100
   170        120
   171         15
   184          2
   185          2
   186          3
   199         10
   200          1
   214         10
   215          2