##TITLE=Library Entry 22973
##JCAMP-DX=Revision 4.10 
##DATA TYPE=MASS SPECTRUM
##SAMPLE DESCRIPTION=Chemical Concepts
##NAMES=HP
##CAS NAME=Iron, bis[(1,2,3,4,5-.eta.)-bicyclo[3.2.0]hepta-2,4-dien-1-yl]-
##MOLFORM=C14H14Fe
##CAS REGISTRY NO=42942-10-9
##MP= -300
##BP= -300
##MW= 238
##$RETENTION INDEX=0
##$CONDENSED SPECTRUM=NO
##NPOINTS= 134
##XYDATA=(XY..XY) 1 
    26          5
    27         23
    37          2
    38         17
    39        250
    41         50
    46          2
    50         19
    51         75
    52         17
    53          6
    54         64
    56        999
    57         78
    62         16
    63         84
    64         15
    65        294
    66         19
    68          6
    69          4
    70         13
    71          6
    76          5
    77         19
    78          3
    79         11
    81        179
    82         45
    83         11
    87          5
    88          2
    89        101
    90         28
    91        850
    92         85
    93         34
    94         99
    95        117
    96         25
   102         22
   103         16
   104          9
   105         25
   106         40
   107         26
   108         13
   115         46
   116         19
   117          6
   118         25
   119         47
   120         85
   121        135
   122         26
   126          3
   127         11
   128         40
   129         14
   130          5
   131          8
   132         37
   133         16
   134        229
   135         30
   136          2
   137          2
   139         11
   140          7
   141         24
   142         19
   143          5
   144         15
   145         51
   146         79
   147         71
   148         43
   149          6
   150          2
   151         13
   152         75
   153         37
   154         33
   155         12
   156         20
   157         11
   158        182
   159         22
   160         70
   161          6
   162          2
   163          2
   164          8
   165        126
   166        102
   167         68
   168          9
   170         11
   171         15
   172         85
   173         13
   176          5
   177          6
   178        140
   179         75
   180        164
   181         48
   182         13
   184         36
   185          6
   186         24
   196          4
   197          9
   198          8
   206          8
   208         49
   209         12
   210         50
   211         10
   212         17
   221         39
   222         17
   223         83
   224         13
   230          2
   232         15
   233          4
   234         89
   235         32
   236        155
   237        142
   238        990
   239        176
   240         21