##TITLE=Library Entry 109619
##JCAMP-DX=Revision 4.10 
##DATA TYPE=MASS SPECTRUM
##SAMPLE DESCRIPTION=H. Luftmann, Org. Chem. Inst., Westfalisch Wilhelms Uni
v., Munster, Germany
##NAMES=HP
##CAS NAME=Benzene, (3-bromo-1,3,3-trichloropropyl)-
##MOLFORM=C9H8BrCl3
##CAS REGISTRY NO=42956-40-1
##MP= -300
##BP= -300
##MW= 300
##$RETENTION INDEX=0
##$CONDENSED SPECTRUM=NO
##NPOINTS= 44
##XYDATA=(XY..XY) 1 
    39         40
    50         30
    51         40
    52         10
    57         50
    58         40
    61         20
    62         20
    63         50
    64         10
    65         20
    74         20
    75         40
    76         20
    77         40
    78         40
    87         10
    89         60
    90         20
    91         60
    93         20
   102         20
   103         60
   104        170
   105         20
   114         20
   115        170
   116         30
   117         20
   119         10
   123         10
   125        999
   126         80
   127        340
   128         30
   185         20
   186         10
   187         20
   221         80
   222         10
   223         80
   224         10
   225         20
   227         10