##TITLE=Library Entry 114344
##JCAMP-DX=Revision 4.10 
##DATA TYPE=MASS SPECTRUM
##SAMPLE DESCRIPTION=V.A.Korolev, Moscow, Russia
##NAMES=HP
##CAS NAME=5-Bromo-2-chloro-4,6-dimethylpyridine-3-carbonitrile
##MOLFORM=C8H6BrClN2
##CAS REGISTRY NO=42951-71-3
##MP= -300
##BP= -300
##MW= 244
##$RETENTION INDEX=0
##$CONDENSED SPECTRUM=NO
##NPOINTS= 130
##XYDATA=(XY..XY) 1 
    34          4
    35         26
    36         26
    37        126
    38        208
    39        353
    40        199
    41         60
    42        111
    43         11
    44         68
    45          5
    47         56
    48         15
    49        143
    50        338
    51        493
    52        251
    53         79
    54         28
    55          7
    57          2
    60         34
    61        271
    62        392
    63        408
    64        331
    65        176
    66         55
    67          5
    68          3
    69          9
    71          7
    72         21
    73        118
    74        118
    75        424
    76        616
    77        240
    78        110
    79         47
    80         18
    81         26
    82         40
    83         13
    84         13
    85         75
    86         93
    87        158
    88        300
    89         73
    90         53
    91         30
    93         43
    95         38
    96         13
    97         83
    98         80
    99         82
   100        120
   101         78
   102        561
   103        247
   104         61
   105         16
   106          6
   107          8
   108          3
   109         29
   110         23
   111         49
   112         29
   113         27
   114         12
   115         27
   116         13
   117         28
   118         13
   119         27
   120          3
   122         21
   123         21
   124         50
   125         11
   126         16
   127         49
   128         90
   129        999
   130        345
   131         33
   132          3
   136          7
   137         38
   138         92
   139         44
   140         32
   141         16
   142          6
   143          6
   144          5
   149          3
   150          8
   151          5
   152          4
   153         12
   155         12
   156          2
   157          2
   163         55
   164         34
   165        195
   166         29
   167         66
   168          8
   180          4
   181          7
   182         21
   183          9
   184         21
   207         13
   208         67
   209         32
   210         67
   211         17
   244        703
   245         67
   246        916
   247         84
   248        224
   249         18