##TITLE=Library Entry 10658
##JCAMP-DX=Revision 4.10 
##DATA TYPE=MASS SPECTRUM
##SAMPLE DESCRIPTION=Exported from NIST MS Search
##NAMES=HP
##CAS NAME=1,2-Cyclohexanediol, 4-methyl-1-(1-methylethyl)-, (1.alpha.,2.alp
ha.,4.alpha.)-
##MOLFORM=C10H20O2
##CAS REGISTRY NO=42962-98-1
##MP= -300
##BP= -300
##MW= 172
##$RETENTION INDEX=1395
##$CONDENSED SPECTRUM=NO
##NPOINTS= 52
##XYDATA=(XY..XY) 1 
    15          3
    17          7
    18         85
    19          7
    27        110
    28         75
    29         87
    31         28
    39         85
    40         14
    41        268
    42         35
    43        999
    44         34
    45         28
    53         31
    55        310
    56         79
    57         59
    58          7
    67         41
    68         11
    69        137
    70         28
    71        270
    72         11
    73          6
    77          8
    79          8
    81         59
    82          7
    83        106
    84        162
    85         21
    86         70
    87         14
    91         70
    93        113
    94          6
    95         13
    97         11
    98         17
    99        611
   100         42
   111        242
   112         20
   128         10
   129        549
   130         31
   139         31
   154         31
   172         42