##TITLE=Library Entry 7174
##JCAMP-DX=Revision 4.10 
##DATA TYPE=MASS SPECTRUM
##SAMPLE DESCRIPTION=Exported from NIST MS Search
##NAMES=HP
##CAS NAME=1,2-Cyclohexanediol, 3-methyl-6-(1-methylethyl)-, (1.alpha.,2.bet
a.,3.beta.,6.alpha.)-
##MOLFORM=C10H20O2
##CAS REGISTRY NO=42962-93-6
##MP= -300
##BP= -300
##MW= 172
##$RETENTION INDEX=0
##$CONDENSED SPECTRUM=NO
##NPOINTS= 75
##XYDATA=(XY..XY) 1 
    16         15
    17         15
    18        134
    19         15
    27        235
    28         75
    29        267
    30          9
    31         99
    39        183
    40         29
    41        709
    42        100
    43        999
    44         48
    45         72
    53        107
    54         29
    55        710
    56        214
    57        429
    58        169
    59         45
    60         41
    65         24
    67        158
    68         75
    69        512
    70        162
    71        526
    72         71
    73         29
    77         48
    79         57
    80         27
    81        338
    82        163
    83        255
    84        555
    85        206
    86         61
    87         22
    88         15
    91         29
    92         20
    93        207
    94         29
    95        140
    96        141
    97        161
    98         81
    99        225
   107         52
   108         15
   109         37
   110         29
   111        588
   112        147
   113         29
   121        151
   122         15
   123         81
   125         23
   126          9
   127          9
   129         68
   136         43
   137         31
   139        557
   140         59
   154        141
   155         29
   156         26
   157          9
   172         59