##TITLE=Library Entry 64198
##JCAMP-DX=Revision 4.10 
##DATA TYPE=MASS SPECTRUM
##SAMPLE DESCRIPTION=A.A.Kutin, Moscow, Russia
##NAMES=HP
##CAS NAME=Propenone, 1-(2-benzyloxy-5-chlorophenyl)-3-phenyl-
##MOLFORM=C22H17ClO2
##CAS REGISTRY NO=42972-64-5
##MP= -300
##BP= -300
##MW= 348
##$RETENTION INDEX=0
##$CONDENSED SPECTRUM=NO
##NPOINTS= 214
##XYDATA=(XY..XY) 1 
    33          0
    34          0
    35          0
    36          3
    37          1
    38          4
    39         27
    40          8
    41         10
    42          0
    43          2
    44          6
    45          0
    49          1
    50          9
    51         32
    52          6
    53          3
    54          0
    55          1
    56          0
    57          1
    59          0
    60          0
    61          1
    62          6
    63         31
    65        107
    66          5
    67          0
    68          0
    69          1
    70          0
    71          0
    72          1
    73          4
    74          5
    75         11
    76         14
    77         71
    78          6
    79          1
    81          0
    82          1
    83          1
    84          0
    85          1
    86          1
    87          2
    89         28
    91        999
    92         84
    93          3
    94          0
    95          0
    97          2
    98          4
    99          8
   100          2
   101          7
   102         30
   103         47
   104          5
   105          2
   106          0
   107          0
   109          0
   110          2
   111          2
   112          0
   113          1
   114          1
   115         11
   116          6
   117          2
   118          1
   119          0
   120          0
   121          0
   122          0
   123          0
   124          0
   125          1
   126          6
   127          5
   128          3
   129          2
   130          0
   131         10
   132          1
   133          0
   134          0
   135          0
   136          0
   137          0
   138          1
   139          4
   140          1
   141          0
   147          0
   148          0
   149          3
   150          1
   151          2
   152          5
   153          2
   154          6
   155         25
   156          4
   157          8
   158          0
   159          0
   161          0
   162          1
   163          4
   164          6
   165         33
   166         16
   167          3
   168          1
   169          0
   173          0
   174          0
   175          0
   176          3
   177          2
   178          7
   179         11
   180         87
   181         28
   182          3
   183          1
   186          0
   188          0
   189          0
   190          0
   191          1
   192          6
   193         36
   194         45
   195          7
   196          0
   199          1
   201          5
   202          1
   203          2
   204          0
   205          0
   206          0
   207          1
   208          0
   209          0
   212          0
   214          0
   215          2
   216          0
   217          1
   218          0
   219          0
   220          0
   221          1
   222          1
   223          0
   224          0
   226          0
   227          0
   228          1
   229         12
   230          3
   231          4
   232          1
   235          0
   239          1
   240          0
   241          2
   242          1
   243          1
   244          3
   245          0
   246          1
   247          0
   252          1
   254          2
   255          3
   257        141
   258         25
   259         43
   260          7
   261          0
   265          0
   269          1
   270          2
   271         11
   272          2
   273          3
   274          0
   294          0
   295          1
   296          0
   313          9
   314          2
   315          0
   329          2
   330          7
   331          3
   332          2
   333          1
   346          0
   347          5
   348         26
   349          8
   350          8
   351          2
   352          0