##TITLE=Library Entry 69128
##JCAMP-DX=Revision 4.10 
##DATA TYPE=MASS SPECTRUM
##SAMPLE DESCRIPTION=Chemical Concepts
##NAMES=HP
##CAS NAME=1-Methylene-spiro[4.5]decan-6-one
##MOLFORM=C11H16O
##CAS REGISTRY NO=42988-49-8
##MP= -300
##BP= -300
##MW= 164
##$RETENTION INDEX=0
##$CONDENSED SPECTRUM=NO
##NPOINTS= 78
##XYDATA=(XY..XY) 1 
    26         14
    27        155
    28         54
    29         81
    38         15
    39        230
    40         84
    41        497
    42        103
    43         72
    44         22
    50         18
    51         65
    52         57
    53        181
    54         50
    55        125
    56         18
    57         19
    63         25
    64         11
    65        144
    66        128
    67        354
    68        263
    69        219
    70         18
    77        170
    78         67
    79        246
    80        131
    81        222
    82        136
    83         91
    84         59
    85         12
    91        137
    92         42
    93        129
    94         55
    95        255
    96        999
    97        476
    98         67
    99         12
   103         18
   104         16
   105         43
   106         13
   107         90
   108        124
   109         91
   110         44
   111         21
   112         10
   115         13
   117         58
   118         43
   119         20
   120         23
   121        117
   122        101
   123         90
   124         11
   131         40
   133         14
   135        114
   136        105
   137         16
   145         11
   146         33
   147         10
   149        107
   150         27
   163         56
   164        445
   165         83
   166          9