##TITLE=Library Entry 7338
##JCAMP-DX=Revision 4.10 
##DATA TYPE=MASS SPECTRUM
##SAMPLE DESCRIPTION=LAC, NIDDK, NIH, Bethesda, MD 20892
##NAMES=HP
##CAS NAME=Cholestan-3-ol, acetate, (3.beta.)-
##MOLFORM=C29H50O2
##CAS REGISTRY NO=42995-53-9
##MP= -300
##BP= -300
##MW= 430
##$RETENTION INDEX=0
##$CONDENSED SPECTRUM=NO
##NPOINTS= 116
##XYDATA=(XY..XY) 1 
    41        232
    43        999
    44         21
    47          3
    49         15
    51          7
    53         28
    55        297
    57        221
    58          5
    61         37
    65         10
    67        173
    68         42
    69        110
    70          4
    71         80
    72          1
    77         31
    78          2
    79        113
    81        243
    82         36
    83         69
    84         12
    85         15
    86          3
    91         84
    92          8
    93        174
    94         52
    95        173
    96          6
    97         51
   101          1
   103          1
   105         98
   106         53
   107        161
   108         70
   109         65
   110          6
   111         21
   115         10
   117         15
   118          9
   119         52
   120         29
   121         73
   122         33
   123         47
   124          7
   125          6
   127          2
   128          1
   131         18
   132          2
   133         53
   134         14
   135         50
   136         17
   137         12
   143          1
   145         48
   146         10
   147        115
   148         25
   149         32
   150          1
   151          4
   159         19
   160         13
   161         25
   162         12
   163         13
   173         18
   174          5
   175         16
   176          7
   177          5
   187         12
   188         11
   189          8
   201         44
   202         14
   203          6
   208          7
   215        210
   216         99
   217         51
   218          7
   229          4
   230         42
   231         11
   234          1
   247          4
   248          3
   257         12
   261         10
   262         18
   263          4
   274          5
   275         49
   276         63
   277         11
   290          7
   316          5
   328          1
   355         34
   356          9
   369          3
   370         72
   371         22
   415         10
   430         48
   431         15