##TITLE=Library Entry 61234
##JCAMP-DX=Revision 4.10 
##DATA TYPE=MASS SPECTRUM
##SAMPLE DESCRIPTION=Chuck Anderson, Aldrich Chemical Co.
##NAMES=HP
##CAS NAME=Benzyl ethyl malonate
##MOLFORM=C12H14O4
##CAS REGISTRY NO=42998-51-6
##MP= -300
##BP= -300
##MW= 222
##$RETENTION INDEX=0
##$CONDENSED SPECTRUM=NO
##NPOINTS= 93
##XYDATA=(XY..XY) 1 
    13          0
    14          7
    15         14
    16          1
    19          1
    25          0
    26         10
    27         67
    28         24
    29        235
    30          8
    31         14
    37          1
    38          6
    39         61
    40          5
    41         27
    42         83
    43         87
    44         11
    45         36
    46          2
    47          1
    49          0
    50         20
    51         61
    52         18
    53          6
    55          1
    59          2
    60         84
    61         69
    62         10
    63         35
    64          6
    65        145
    66          7
    69         16
    70         66
    71          3
    73          9
    74          4
    75          4
    76          2
    77        132
    78         15
    79        201
    80         13
    81          0
    86          2
    87         38
    88        354
    89        128
    90        110
    91        999
    92         78
    93          2
   103          0
   104          2
   105        141
   106         34
   107        861
   108        361
   109         24
   110          1
   114          0
   115         38
   116          1
   117          0
   118          4
   119          3
   120         32
   121          2
   131          2
   133          0
   134          6
   135          1
   137          1
   147          3
   148          8
   149          0
   176          1
   177          3
   178          0
   194         53
   195          5
   196          0
   204          5
   205          0
   207          0
   222         67
   223          9
   224          1