##TITLE=Library Entry 66563
##JCAMP-DX=Revision 4.10 
##DATA TYPE=MASS SPECTRUM
##SAMPLE DESCRIPTION=DOW CHEMICAL COMPANY / ASTM E14-UNCERTIFIED SPECTRUM 44
##NAMES=HP
##CAS NAME=1-Propene, 1,1-dichloro-2-fluoro-
##MOLFORM=C3H3Cl2F
##CAS REGISTRY NO=430-95-5
##MP= -300
##BP= -300
##MW= 128
##$RETENTION INDEX=0
##$CONDENSED SPECTRUM=NO
##NPOINTS= 83
##XYDATA=(XY..XY) 1 
    13          1
    14          2
    15          6
    24          6
    25          3
    26         13
    27         23
    28          1
    29          0
    31         74
    32          4
    33         11
    35         14
    36         26
    37         55
    38         29
    39         15
    40          0
    41          0
    42          1
    43         14
    44         11
    45         24
    46         16
    47         53
    48          8
    49         40
    50          3
    51          7
    53          2
    54          2
    55         12
    56         29
    57        242
    58          8
    59          4
    60          7
    61         29
    62          6
    63         13
    64         11
    65          8
    66         11
    67        391
    68          7
    69        126
    70          1
    71          9
    72         21
    73         34
    74          8
    75         10
    76          0
    77          0
    78         22
    79          2
    90          4
    91         75
    92         40
    93        999
    94         46
    95        318
    96         11
    97          2
   107          4
   108          0
   109          7
   110          0
   111          3
   113          5
   114          0
   115          3
   116          0
   117          0
   125          1
   126          1
   127        127
   128        428
   129         94
   130        274
   131         22
   132         42
   133          1