##TITLE=Library Entry 50113
##JCAMP-DX=Revision 4.10 
##DATA TYPE=MASS SPECTRUM
##SAMPLE DESCRIPTION=Exported from NIST MS Search
##NAMES=HP
##CAS NAME=Ethane, 1,2-dichloro-1-fluoro-
##MOLFORM=C2H3Cl2F
##CAS REGISTRY NO=430-57-9
##MP= -300
##BP= -300
##MW= 116
##$RETENTION INDEX=0
##$CONDENSED SPECTRUM=NO
##NPOINTS= 60
##XYDATA=(XY..XY) 1 
    12          2
    13          3
    14          4
    15         11
    24          4
    25         19
    26         64
    27         52
    28          4
    29          2
    31         22
    32          5
    35         18
    36          8
    37          8
    38          3
    39          2
    41          1
    42          4
    43         56
    44         44
    45        257
    46         38
    47         19
    48         18
    49        160
    50          7
    51         50
    58         20
    59          5
    60         33
    61        340
    62         61
    63        119
    64         17
    67        554
    68          7
    69        182
    78          3
    79         43
    80        175
    81        999
    82         80
    83        328
    84          7
    85          3
    95         14
    96         81
    97         17
    98         62
    99         10
   100         15
   101          4
   114          2
   115          4
   116        182
   117          7
   118        117
   119          3
   120         19