##TITLE=Library Entry 90243
##JCAMP-DX=Revision 4.10 
##DATA TYPE=MASS SPECTRUM
##SAMPLE DESCRIPTION=Dennis Rohrbaugh, CBDCOM/ERDEC, Edgewood, MD
##NAMES=HP
##CAS NAME=Arsine, ethyldifluoro-
##MOLFORM=C2H5AsF2
##CAS REGISTRY NO=430-40-0
##MP= -300
##BP= -300
##MW= 142
##$RETENTION INDEX=0
##$CONDENSED SPECTRUM=NO
##NPOINTS= 19
##XYDATA=(XY..XY) 1 
    75        153
    76         84
    77         18
    88         72
    89        125
    94        976
    95        337
   100         82
   101        187
   102        237
   103        243
   104         47
   113        999
   114        169
   121         23
   123        661
   124         13
   142        868
   143         27