##TITLE=Library Entry 5469
##JCAMP-DX=Revision 4.10 
##DATA TYPE=MASS SPECTRUM
##SAMPLE DESCRIPTION=Japan AIST/NIMC Database- Spectrum MS-NW-6796
##NAMES=HP
##CAS NAME=2-Propanone, 1-fluoro-
##MOLFORM=C3H5FO
##CAS REGISTRY NO=430-51-3
##MP= -300
##BP= -300
##MW= 76
##$RETENTION INDEX=0
##$CONDENSED SPECTRUM=NO
##NPOINTS= 43
##XYDATA=(XY..XY) 1 
    12          2
    13          8
    14         22
    15        180
    16          2
    18          1
    19          1
    20          3
    24          2
    25          7
    26         27
    27         52
    28         28
    29         17
    30          1
    31         14
    32         14
    33        156
    34          2
    36          4
    37         12
    38         10
    39         12
    40          6
    41          9
    42         67
    43        999
    44         31
    45         17
    46          5
    47         20
    55          5
    56          3
    57          9
    58          3
    59          5
    60          9
    61         88
    62          2
    73          3
    75          6
    76        112
    77          5