##TITLE=Library Entry 83815
##JCAMP-DX=Revision 4.10 
##DATA TYPE=MASS SPECTRUM
##SAMPLE DESCRIPTION=ASES Database, Dalian Institute, P.R. China
##NAMES=HP
##CAS NAME=N-(4-Methylphenyl)-N'-phenyl-urea
##MOLFORM=C14H14N2O
##CAS REGISTRY NO=4300-33-8
##MP= -300
##BP= -300
##MW= 226
##$RETENTION INDEX=0
##$CONDENSED SPECTRUM=NO
##NPOINTS= 20
##XYDATA=(XY..XY) 1 
    63        110
    64        118
    65        178
    66        179
    77        297
    78        148
    79        150
    91        149
    92        120
    93        847
    94        100
   104        119
   105        100
   106        750
   107        999
   119        219
   130        118
   131        199
   226        398
   227         79