##TITLE=Library Entry 78238
##JCAMP-DX=Revision 4.10 
##DATA TYPE=MASS SPECTRUM
##SAMPLE DESCRIPTION=Exported from NIST MS Search
##NAMES=HP
##CAS NAME=3-Cyclopenten-1-ol, benzoate
##MOLFORM=C12H12O2
##CAS REGISTRY NO=43019-84-7
##MP= -300
##BP= -300
##MW= 188
##$RETENTION INDEX=0
##$CONDENSED SPECTRUM=NO
##NPOINTS= 36
##XYDATA=(XY..XY) 1 
    39         77
    40         25
    41         67
    42         10
    43          7
    44         30
    50         38
    51        139
    52         20
    53         18
    54         12
    55         12
    62          5
    63         10
    65         41
    66        963
    67        103
    68         30
    69         10
    74         12
    75         10
    76         20
    77        420
    78         41
    79         20
    80          7
    81          7
    82         15
    83         15
   104          7
   105        999
   106         92
   107          7
   122         30
   123        154
   124         15