##TITLE=Library Entry 66192
##JCAMP-DX=Revision 4.10 
##DATA TYPE=MASS SPECTRUM
##SAMPLE DESCRIPTION=Chemical Concepts
##NAMES=HP
##CAS NAME=Bicyclo[3.2.0]hept-2-ene, 5-chloro-
##MOLFORM=C7H9Cl
##CAS REGISTRY NO=43011-86-5
##MP= -300
##BP= -300
##MW= 128
##$RETENTION INDEX=0
##$CONDENSED SPECTRUM=NO
##NPOINTS= 83
##XYDATA=(XY..XY) 1 
    25          3
    26         41
    27        203
    29          1
    31          1
    33          0
    34          0
    35          7
    36         34
    37         44
    38        109
    39        534
    40         63
    41        106
    42          6
    43         10
    44          4
    45         34
    46          9
    47          4
    48          2
    49         23
    50        105
    51        177
    52         74
    53        109
    54          9
    55          1
    57          0
    59          1
    60          6
    61         43
    62         61
    63        151
    64         60
    65        510
    66         86
    67         28
    68          1
    69          0
    71          0
    72          4
    73         44
    74         15
    75         28
    76          9
    77        675
    78        121
    79        380
    80         27
    82          0
    84          1
    85          7
    86          9
    87          8
    88          8
    89         37
    90         19
    91        827
    92        484
    93        999
    94         78
    95          3
    97          1
    99         19
   100        612
   101         40
   102        198
   103         12
   104          0
   111          1
   112          5
   113         78
   114          7
   115         29
   116          3
   125          5
   126          1
   127         10
   128         48
   129          6
   130         15
   131          1