##TITLE=Library Entry 23248
##JCAMP-DX=Revision 4.10 
##DATA TYPE=MASS SPECTRUM
##SAMPLE DESCRIPTION=H.J. MOECKEL & J. WEISS, HAHN-MEITNER-INST. BERLIN, W.
 G
##NAMES=HP
##CAS NAME=Disulfide, (1-methylethyl) (1,1-dimethylethyl)
##MOLFORM=C7H16S2
##CAS REGISTRY NO=43022-60-2
##MP= -300
##BP= -300
##MW= 164
##$RETENTION INDEX=1060
##$CONDENSED SPECTRUM=NO
##NPOINTS= 56
##XYDATA=(XY..XY) 1 
    15         12
    20          0
    26          8
    27        196
    29        345
    30          7
    31         12
    35          1
    37          1
    38         10
    39        149
    40         30
    41        594
    42         33
    43        283
    44         11
    45         25
    46          4
    47         14
    48          1
    49         14
    50          2
    51          3
    52          0
    53          9
    54          4
    55         30
    56         32
    57        999
    58         53
    59         45
    60          6
    61          4
    64         10
    65          1
    66         21
    68          1
    70          0
    71          0
    72          0
    73         12
    74          6
    75          3
    79          0
    83          0
    87          1
    88          4
    89          1
    93          2
   107         12
   108         81
   109          5
   110          7
   164         76
   165          6
   166          5