##TITLE=Library Entry 2351
##JCAMP-DX=Revision 4.10 
##DATA TYPE=MASS SPECTRUM
##SAMPLE DESCRIPTION=Dennis Rohrbaugh, CBDCOM/ERDEC, Edgewood, MD
##NAMES=HP
##CAS NAME=2-Chloroethyl n-propyl sulfide
##MOLFORM=C5H11ClS
##CAS REGISTRY NO=4303-42-8
##MP= -300
##BP= -300
##MW= 138
##$RETENTION INDEX=0
##$CONDENSED SPECTRUM=NO
##NPOINTS= 33
##XYDATA=(XY..XY) 1 
    39        654
    41        999
    43        679
    45        528
    46        283
    47        581
    57         89
    58        151
    59        266
    60        146
    61        404
    63        377
    65        143
    73        162
    74         49
    75        110
    76         95
    81         73
    88         49
    89        630
    90         97
    91         56
    96        230
    97        155
    98        108
   103         90
   109        233
   111        112
   123         55
   125         32
   126         23
   138        359
   140        163