##TITLE=Library Entry 63995
##JCAMP-DX=Revision 4.10 
##DATA TYPE=MASS SPECTRUM
##SAMPLE DESCRIPTION=R.L.FOLTZ BATTELLE COLUMBUS LAB., COLUMBUS, OHIO, USA
##NAMES=HP
##CAS NAME=2-Azabicyclo[2.2.2]oct-5-ene-2-carboxylic acid, 3-phenyl-, phenyl
methyl ester, (1.alpha.,3.beta.,4.alpha.)-
##MOLFORM=C21H21NO2
##CAS REGISTRY NO=43044-10-6
##MP= -300
##BP= -300
##MW= 319
##$RETENTION INDEX=0
##$CONDENSED SPECTRUM=NO
##NPOINTS= 137
##XYDATA=(XY..XY) 1 
    25          0
    26          1
    27         16
    28         65
    29          5
    30          1
    37          1
    38          1
    39         25
    40          2
    41         14
    43          2
    44          2
    45          0
    46          0
    50          7
    51         25
    52          6
    53          7
    54          2
    55          1
    56          1
    57          0
    62          3
    63         10
    64          2
    65         42
    66          3
    67          5
    68          0
    69          2
    71          0
    73          1
    74          1
    75          0
    76          1
    77         45
    78         15
    79         88
    80        177
    81         13
    83          0
    85          3
    88          0
    89          8
    90          8
    91        999
    92         98
    93          4
    97          0
   101          1
   102          0
   103          4
   104         12
   105          8
   106         27
   107          9
   108          4
   115          8
   116          0
   117          3
   118          1
   124          5
   127          0
   128          7
   129          5
   130          3
   131          2
   132         56
   133          7
   134          0
   135          2
   141          5
   142          1
   143          1
   149          0
   150         28
   151          2
   152          4
   153          1
   154          2
   155          6
   156         61
   157          8
   158          0
   159          9
   160          0
   165          0
   166          0
   167          8
   168          3
   169          3
   170         86
   171         13
   172          0
   179          0
   180          0
   181         10
   182          2
   183          0
   184         13
   185          0
   186          0
   194          2
   195          0
   196         54
   197         10
   200          4
   208          0
   209          1
   212          4
   214          5
   219          0
   222          5
   223          1
   228         68
   229         11
   230          2
   234          0
   239          0
   240        268
   241         48
   242          5
   246          6
   247          0
   258          0
   274          1
   275          0
   286          1
   291         29
   292          5
   293          1
   309          2
   315          2
   318          2
   319         11
   320          2