##TITLE=Library Entry 54855
##JCAMP-DX=Revision 4.10 
##DATA TYPE=MASS SPECTRUM
##SAMPLE DESCRIPTION=R.T.HOLMAN,UNIVERSITY OF MINNESOTA
##NAMES=HP
##CAS NAME=1-Decanol, 10-[(tetrahydro-2H-pyran-2-yl)oxy]-
##MOLFORM=C15H30O3
##CAS REGISTRY NO=43047-93-4
##MP= -300
##BP= -300
##MW= 258
##$RETENTION INDEX=0
##$CONDENSED SPECTRUM=NO
##NPOINTS= 129
##XYDATA=(XY..XY) 1 
    25          2
    26         12
    27         92
    28         70
    29        204
    30          9
    31        173
    32          5
    33          2
    36          1
    37          3
    38          5
    39         70
    40         19
    41        408
    42         79
    43        193
    44         27
    45         23
    46          2
    47          6
    48          2
    49          3
    50          6
    51          7
    52          4
    53         34
    54         78
    55        469
    56        255
    57        178
    58         11
    59          5
    60          2
    61          2
    62          2
    63          2
    65          6
    66         13
    67        130
    68         87
    69        234
    70         34
    71         32
    72          5
    73          7
    74          9
    75          4
    77          4
    78          2
    79          7
    80          5
    81         64
    82         66
    83        244
    84        115
    85        999
    86         57
    87          7
    88          3
    89          2
    91          3
    93          3
    94          4
    95         43
    96         32
    97         88
    98         14
    99          6
   100          6
   101        204
   102         17
   103          7
   104          1
   105          1
   107          2
   108          3
   109         15
   110         19
   111         10
   112          4
   113          4
   114          3
   115         12
   116          3
   117          1
   119          1
   121          2
   123          2
   124          2
   125          2
   126          5
   127          2
   128          2
   129          3
   135          2
   136          4
   137          4
   138          7
   139          5
   140          2
   141          2
   143          2
   144          2
   145          1
   153          2
   154          3
   155          3
   156          2
   157          8
   158          3
   171          3
   172          2
   173          5
   174          3
   175          3
   185          7
   186          2
   200          2
   201          2
   203          3
   205          2
   210          2
   228          2
   229          4
   230          2
   240          2
   257          8
   258          3