##TITLE=Library Entry 31023
##JCAMP-DX=Revision 4.10 
##DATA TYPE=MASS SPECTRUM
##SAMPLE DESCRIPTION=CARL DJERASSI DEPT OF CHEM STANFORD UNIV STANFORD CALIF
 94305
##NAMES=HP
##CAS NAME=Thietane, 2,4-dimethyl-
##MOLFORM=C5H10S
##CAS REGISTRY NO=43044-24-2
##MP= -300
##BP= -300
##MW= 102
##$RETENTION INDEX=0
##$CONDENSED SPECTRUM=NO
##NPOINTS= 19
##XYDATA=(XY..XY) 1 
    41         60
    42         10
    44         10
    45         90
    47         10
    53         20
    55         10
    58         10
    59         90
    60        999
    61         90
    62         20
    67         10
    69         30
    85         10
    87         30
   102        191
   103         10
   104         10