##TITLE=Library Entry 77610
##JCAMP-DX=Revision 4.10 
##DATA TYPE=MASS SPECTRUM
##SAMPLE DESCRIPTION=V.Zaikin,Topchiev Inst.Petrochem.Synth.,Moscow
##NAMES=HP
##CAS NAME=4-Chlorobenzoic acid, 2-phenylethyl ester
##MOLFORM=C15H13ClO2
##CAS REGISTRY NO=43047-95-6
##MP= -300
##BP= -300
##MW= 260
##$RETENTION INDEX=1985
##$CONDENSED SPECTRUM=NO
##NPOINTS= 42
##XYDATA=(XY..XY) 1 
    26          4
    27          5
    28          2
    29          4
    36          7
    39         12
    40          6
    41          4
    50         24
    51         29
    52          8
    63         10
    64          3
    65         28
    74         14
    75         75
    76         29
    77         54
    78         41
    79         18
    85          8
    89         10
    90          5
    91         78
    92          9
   102          9
   103         68
   104        999
   105        216
   106         10
   110          6
   111        279
   112         24
   113         83
   114          7
   130          4
   139        752
   140         55
   141        242
   142         17
   156          9
   165          4