##TITLE=Library Entry 10524
##JCAMP-DX=Revision 4.10 
##DATA TYPE=MASS SPECTRUM
##SAMPLE DESCRIPTION=CARL DJERASSI DEPT OF CHEM STANFORD UNIV STANFORD CALIF
 94305
##NAMES=HP
##CAS NAME=2-Hexanone, 6-(acetyloxy)-
##MOLFORM=C8H14O3
##CAS REGISTRY NO=4305-26-4
##MP= -300
##BP= -300
##MW= 158
##$RETENTION INDEX=0
##$CONDENSED SPECTRUM=NO
##NPOINTS= 16
##XYDATA=(XY..XY) 1 
    41         60
    42         30
    43        999
    44         30
    55         70
    56        100
    57         20
    58         50
    59         30
    61         50
    71         30
    83         50
    97         20
    98        170
    99         20
   101         60