##TITLE=Library Entry 73052
##JCAMP-DX=Revision 4.10 
##DATA TYPE=MASS SPECTRUM
##SAMPLE DESCRIPTION=NIST Mass Spectrometry Data Center
##NAMES=HP
##CAS NAME=2-Oxazolidinone, 3-amino-5-(4-morpholinylmethyl)-
##MOLFORM=C8H15N3O3
##CAS REGISTRY NO=43056-63-9
##MP= -300
##BP= -300
##MW= 201
##$RETENTION INDEX=0
##$CONDENSED SPECTRUM=NO
##NPOINTS= 66
##XYDATA=(XY..XY) 1 
    15          5
    16          2
    26          2
    27         12
    28         17
    29         12
    30         12
    31          3
    32          2
    39          6
    40          4
    41         42
    42         55
    43         34
    44         11
    45          7
    52          1
    53          2
    54         12
    55         20
    56        102
    57         20
    58          6
    59          1
    65          1
    67          2
    68         12
    69          9
    70         36
    71          8
    72         10
    73          1
    80          1
    81          2
    82          5
    83          3
    84          2
    85          4
    86          9
    87         15
    88         11
    89          1
    94          2
    96          3
    97          2
    98         14
    99          5
   100        999
   101         56
   102          4
   112          3
   113          2
   114          1
   124          2
   125          1
   126          5
   127          5
   128          2
   157          7
   158          1
   170          1
   184          1
   185          8
   186          2
   201          5
   202          1