##TITLE=Library Entry 2174
##JCAMP-DX=Revision 4.10 
##DATA TYPE=MASS SPECTRUM
##SAMPLE DESCRIPTION=D.HENNEBERG, MAX-PLANCK INSTITUTE, MULHEIM, WEST GERMAN
Y
##NAMES=HP
##CAS NAME=Nickel, bis[(1,2,3-.eta.)-2-pentenyl]-
##MOLFORM=C10H18Ni
##CAS REGISTRY NO=43062-19-7
##MP= -300
##BP= -300
##MW= 196
##$RETENTION INDEX=0
##$CONDENSED SPECTRUM=NO
##NPOINTS= 112
##XYDATA=(XY..XY) 1 
    26        338
    27        534
    28        705
    29        251
    30          5
    31         31
    32         43
    33          8
    34          9
    36          9
    37         77
    38        153
    39        965
    40        357
    41        999
    42        520
    43         68
    44         52
    45         11
    48          2
    49         16
    50         83
    51        123
    52         54
    53        567
    54         76
    55        632
    56         35
    57          4
    58        173
    59          3
    60         63
    61         25
    62         43
    63         48
    64          6
    65        111
    66         79
    67        772
    68        606
    69        518
    70        229
    71         65
    72          3
    74          1
    75          2
    77         10
    78          7
    79         10
    80          2
    81          8
    82          7
    83          6
    84        150
    85         30
    86         72
    87         12
    88         16
    89          1
    90          3
    91          6
    92          1
    93          2
    94          1
    95          5
    96          6
    97         33
    98         38
    99         77
   100        268
   101         34
   102        109
   103          9
   104         13
   105          2
   106          5
   107          2
   108          2
   109          9
   110         14
   111         19
   112        136
   113         23
   114         42
   115          9
   116         10
   117          3
   118          1
   119          1
   121          2
   123         43
   124         10
   125         60
   126        474
   127         51
   128        244
   129         23
   130         33
   131          5
   132          7
   134          0
   138          6
   139          2
   140          1
   149          0
   152          1
   196        227
   197         22
   198         89
   199         11
   200         12
   202          1