##TITLE=Library Entry 14940
##JCAMP-DX=Revision 4.10 
##DATA TYPE=MASS SPECTRUM
##SAMPLE DESCRIPTION=Div. of Experiment Therapeutics WRAIR, WRAMC, Washingto
n DC 20307
##NAMES=HP
##CAS NAME=6,7-Di-n-dodecylmercapto-5,8-dihydroxyquinoxaline
##MOLFORM=C32H54N2O2S2
##CAS REGISTRY NO=43064-20-6
##MP= -300
##BP= -300
##MW= 562
##$RETENTION INDEX=0
##$CONDENSED SPECTRUM=NO
##NPOINTS= 184
##XYDATA=(XY..XY) 1 
    41        414
    43        999
    44         28
    45         20
    47         17
    49          4
    50          1
    51          5
    52          9
    53         23
    55        500
    57        425
    58          7
    59         11
    60         21
    61         10
    63          2
    64          1
    65          5
    67         34
    69        209
    70         42
    71        106
    72          7
    73          5
    75          2
    77          7
    79         18
    80          9
    81         24
    83        123
    84         27
    85         49
    87         15
    88          1
    89          8
    91          5
    92          6
    93          5
    95         16
    97         52
    98          8
    99          2
   101          6
   103          7
   104          2
   105         11
   106          3
   107          6
   108          3
   109          5
   110          6
   111         18
   112          3
   113          7
   115          1
   116          1
   117          3
   118          2
   119          3
   121          1
   123          3
   124          5
   125          8
   126          2
   129          1
   131          2
   133          6
   134          1
   135          7
   136          9
   137          9
   138          2
   139          2
   140          3
   141          1
   143          2
   146          8
   147          4
   149         12
   150          1
   151          1
   153          2
   159         15
   161         13
   162         10
   163         12
   164          9
   165         12
   166          5
   167          2
   168          5
   174          2
   175         29
   176         10
   177          4
   178          2
   179          2
   181         11
   183          1
   185          2
   187          9
   188          1
   189          5
   191         13
   192         16
   193         54
   194         64
   195         18
   196          5
   197          4
   199          4
   200          2
   201          5
   202         10
   203          4
   205         13
   206          6
   207         25
   208          7
   209          3
   213          2
   215          4
   216          1
   217          2
   218          2
   219         34
   220         13
   221          6
   222          1
   223          2
   225        106
   226         88
   227         80
   228         13
   229          6
   231          2
   232          2
   233          9
   234          6
   235          3
   237         44
   238         17
   239         34
   240          4
   241          3
   242          1
   246          1
   247          1
   250          2
   251          2
   252          2
   293          2
   295          1
   307          3
   321          1
   327          1
   328          5
   329          6
   335          2
   349          1
   359          7
   360          5
   361         12
   362         18
   363          5
   364          1
   387          2
   391          7
   392          1
   393        578
   394        174
   395         85
   396         19
   397          4
   407          1
   528          2
   529          1
   560          6
   561          7
   562         56
   563         22
   564         10
   565          3