##TITLE=Library Entry 49541
##JCAMP-DX=Revision 4.10 
##DATA TYPE=MASS SPECTRUM
##SAMPLE DESCRIPTION=NIST Mass Spectrometry Data Center, 1994
##NAMES=HP
##CAS NAME=N-(p-Chlorophenyl)-4-cyclohexene-1,2-dicarboxamide
##MOLFORM=C14H12ClNO2
##CAS REGISTRY NO=43069-64-3
##MP= -300
##BP= -300
##MW= 261
##$RETENTION INDEX=0
##$CONDENSED SPECTRUM=NO
##NPOINTS= 157
##XYDATA=(XY..XY) 1 
    12          1
    15          3
    17          3
    18          5
    26         57
    27        199
    28         63
    35          2
    36          4
    37         19
    38         50
    39        290
    40         39
    41         52
    42          5
    44          0
    47          3
    49         10
    50         87
    51        169
    52        114
    53        112
    54         85
    55         23
    56          2
    60          1
    61         13
    62         42
    63        132
    64         57
    65         66
    66         21
    67         11
    68          6
    69          4
    70          5
    72          7
    73         24
    74         18
    75         70
    76          1
    77        389
    78        106
    79        949
    80        999
    81         66
    82          7
    84          8
    85          8
    86          3
    87          6
    88         12
    89         36
    90        139
    91         22
    92          8
    93         12
    94          1
    95          2
    96          4
    97          5
    98         20
    99         36
   100         18
   101         10
   102         14
   103          3
   104          1
   105         62
   106         25
   107        107
   108         25
   109          3
   110          1
   111         56
   112         14
   113         21
   114          5
   115          5
   116          7
   118          2
   119          4
   120          5
   121          3
   122          2
   123          9
   124          2
   125        136
   126         38
   127        227
   128         32
   129         60
   130          9
   132          5
   133          2
   134          2
   135          6
   136          2
   137         20
   138         34
   139         24
   140         15
   141          7
   142          2
   144          2
   151         18
   153        139
   154         48
   155        113
   156         27
   157         24
   158          3
   162          2
   163         10
   164          4
   165          5
   166          4
   167          4
   168          4
   169          2
   170         10
   171          1
   172          5
   177          2
   178          4
   179          5
   180          5
   181          3
   182          2
   183          2
   190          3
   195          6
   196          2
   197          3
   198         17
   199          2
   204          4
   206         21
   207         12
   208          8
   209          4
   216          4
   217          2
   218          8
   219          2
   220          2
   232         66
   233         18
   234         24
   235          5
   246          8
   248          3
   261        420
   262         77
   263        145
   264         21
   265          2