##TITLE=Library Entry 87798
##JCAMP-DX=Revision 4.10 
##DATA TYPE=MASS SPECTRUM
##SAMPLE DESCRIPTION=NIST Mass Spectrometry Data Center
##NAMES=HP
##CAS NAME=.gamma.-Chloro-2-butyrothienone
##MOLFORM=C8H9ClOS
##CAS REGISTRY NO=43076-59-1
##MP= -300
##BP= -300
##MW= 188
##$RETENTION INDEX=0
##$CONDENSED SPECTRUM=NO
##NPOINTS= 96
##XYDATA=(XY..XY) 1 
    13          1
    14          4
    15         12
    17          1
    25          4
    26         25
    27         80
    28         15
    29          3
    32          2
    33          1
    34          1
    35          4
    36          7
    37         26
    38         75
    39        462
    40         27
    41        109
    42         20
    43          4
    45         85
    46          3
    47          7
    49         52
    50         28
    51         34
    53         31
    55         15
    57         69
    58         24
    59          3
    60          3
    61          9
    62         13
    63         14
    64          3
    65          6
    66          3
    67          3
    68          4
    69         21
    70          4
    71          4
    72          1
    73          2
    74          2
    75          5
    76          5
    77         16
    78          5
    79          7
    81         20
    82         29
    83         97
    84         30
    85          7
    86          2
    89          2
    91          2
    92          1
    93          3
    94          1
    95          3
    96          4
    97         21
    98          3
    99          1
   104          1
   105          3
   106          1
   107          2
   108          2
   111        999
   112         66
   113         49
   114          3
   121          7
   122          4
   123          8
   126        370
   127         29
   128         15
   129          1
   133          2
   135          1
   139          1
   151          8
   152         20
   153          5
   154          1
   188         51
   189          6
   190         18
   191          1
   192          1