##TITLE=Library Entry 96882
##JCAMP-DX=Revision 4.10 
##DATA TYPE=MASS SPECTRUM
##SAMPLE DESCRIPTION=Chuck Anderson, Aldrich Chemical Co.
##NAMES=HP
##CAS NAME=Trimethyl orthobutyrate
##MOLFORM=C7H16O3
##CAS REGISTRY NO=43083-12-1
##MP= -300
##BP= -300
##MW= 148
##$RETENTION INDEX=0
##$CONDENSED SPECTRUM=NO
##NPOINTS= 68
##XYDATA=(XY..XY) 1 
    13          0
    14          3
    15        131
    16          2
    17          0
    26          7
    27         81
    28         15
    29         88
    30          9
    31         70
    32         39
    33          4
    37          3
    38         10
    39         93
    40         16
    41        185
    42         53
    43        749
    44         26
    45        111
    46          4
    47         26
    48          0
    50          1
    51          1
    52          0
    53         14
    54          1
    55        258
    56         13
    57         28
    58         18
    59        277
    60          7
    61         52
    62          2
    66          0
    67          1
    68          7
    69         52
    70          4
    71        215
    72          9
    73          7
    74         19
    75         18
    76          0
    83          2
    85          8
    86          0
    87          3
    88         20
    89          1
    99          2
   101        281
   102         15
   103          1
   105        740
   106         30
   107          5
   115         13
   116         19
   117        999
   118         58
   119          5
   120          0