##TITLE=Library Entry 18131
##JCAMP-DX=Revision 4.10 
##DATA TYPE=MASS SPECTRUM
##SAMPLE DESCRIPTION=Thomas J.Bruno
##NAMES=HP
##CAS NAME=1,1,1,2,3,3-Hexafluoropropane
##MOLFORM=C3H2F6
##CAS REGISTRY NO=431-63-0
##MP= -300
##BP= -300
##MW= 152
##$RETENTION INDEX=0
##$CONDENSED SPECTRUM=NO
##NPOINTS= 14
##XYDATA=(XY..XY) 1 
    31        730
    32        205
    33        339
    51        999
    52         45
    64        424
    69        940
    82        900
    83        134
   113         59
   133        365
   134         11
   150          6
   151          5