##TITLE=Library Entry 10621
##JCAMP-DX=Revision 4.10 
##DATA TYPE=MASS SPECTRUM
##SAMPLE DESCRIPTION=Japan AIST/NIMC Database- Spectrum MS-IW-6392
##NAMES=HP
##CAS NAME=Hexanohydroxamic acid
##MOLFORM=C6H13NO2
##CAS REGISTRY NO=4312-93-0
##MP= -300
##BP= -300
##MW= 131
##$RETENTION INDEX=0
##$CONDENSED SPECTRUM=NO
##NPOINTS= 78
##XYDATA=(XY..XY) 1 
    15          6
    16          1
    17          3
    18         11
    26          9
    27        113
    28         43
    29        174
    30          9
    31          5
    32         22
    33          5
    34          2
    37          2
    38          6
    39         85
    40         14
    41        238
    42         80
    43        999
    44         59
    45          3
    46          5
    48          2
    50          2
    51          6
    52          3
    53         14
    54         26
    55        140
    56         24
    57         36
    58          5
    59        104
    60         36
    61          2
    62          1
    63          1
    65          1
    66          1
    67          4
    68         12
    69         24
    70         13
    71        537
    72         42
    73          5
    74          3
    75        150
    76          5
    79          1
    80          1
    81         24
    82          9
    83          3
    84          6
    85          4
    86          9
    87          1
    88         29
    89          5
    96          6
    97          2
    98         15
    99        958
   100         64
   101          3
   102         19
   103          1
   112          4
   113          6
   114          1
   115          2
   116          1
   130          2
   131         59
   132         20
   133          1