##TITLE=Library Entry 66926
##JCAMP-DX=Revision 4.10 
##DATA TYPE=MASS SPECTRUM
##SAMPLE DESCRIPTION=Chemical Concepts
##NAMES=HP
##CAS NAME=1H-Imidazole, 2-ethenyl-
##MOLFORM=C5H6N2
##CAS REGISTRY NO=43129-93-7
##MP= -300
##BP= -300
##MW= 94
##$RETENTION INDEX=0
##$CONDENSED SPECTRUM=NO
##NPOINTS= 63
##XYDATA=(XY..XY) 1 
    25         14
    26        149
    27        309
    28        221
    29          6
    30          8
    31          3
    33          0
    36          2
    37         22
    38         57
    39        214
    40        407
    41        791
    42         62
    43          9
    44         70
    45          3
    46          0
    47         10
    48          0
    49          2
    50          5
    51         28
    52         76
    53         23
    54         38
    55          4
    56          3
    57          3
    58         11
    59          0
    61          0
    62          1
    63          4
    64         12
    65          6
    66         42
    67        325
    68         60
    69          2
    70          1
    71          0
    72          0
    73          2
    74          0
    75          1
    76          0
    77         11
    78          2
    79         22
    80          2
    81          2
    82          0
    83          0
    84          1
    85          0
    86          0
    91          1
    92          1
    93         31
    94        999
    95         59