##TITLE=Library Entry 61092
##JCAMP-DX=Revision 4.10 
##DATA TYPE=MASS SPECTRUM
##SAMPLE DESCRIPTION=A.A.Kutin, Moscow, Russia
##NAMES=HP
##CAS NAME=N1-Benzyl-N2-(3-pyridyl)oxamide
##MOLFORM=C14H13N3O2
##CAS REGISTRY NO=43129-05-1
##MP= -300
##BP= -300
##MW= 255
##$RETENTION INDEX=0
##$CONDENSED SPECTRUM=NO
##NPOINTS= 51
##XYDATA=(XY..XY) 1 
    37         92
    39        274
    40         81
    41         40
    43         13
    44         24
    45          0
    50         56
    51        196
    52         34
    53          5
    54          0
    55          0
    56          3
    62          6
    63         36
    65        263
    66         50
    67         32
    68          1
    74          3
    75          4
    77         85
    78        187
    79         38
    80          1
    89         27
    91        999
    92        152
    94        305
    95         71
    96          1
   104         35
   105         37
   106        339
   107         28
   117          0
   118         12
   120         19
   121        135
   122         18
   132          5
   133          5
   134         10
   135          0
   150          3
   183          1
   184          5
   212          1
   255         58
   256          7