##TITLE=Library Entry 23854
##JCAMP-DX=Revision 4.10 
##DATA TYPE=MASS SPECTRUM
##SAMPLE DESCRIPTION=NIST Mass Spectrometry Data Center, 1990.
##NAMES=HP
##CAS NAME=Triadimefon
##MOLFORM=C14H16ClN3O2
##CAS REGISTRY NO=43121-43-3
##MP= -300
##BP= -300
##MW= 293
##$RETENTION INDEX=1986
##$CONDENSED SPECTRUM=NO
##NPOINTS= 156
##XYDATA=(XY..XY) 1 
    12          0
    13          2
    14          2
    15          8
    25          0
    26          7
    27         65
    28        100
    29        193
    30          5
    31          1
    35          0
    36          1
    37          4
    38         18
    39         90
    40         31
    41        276
    42         33
    43         14
    44          0
    45          1
    46          0
    47          2
    49          6
    50         23
    51         17
    52          4
    53         20
    54         38
    55         53
    56          0
    57        999
    58         41
    59          0
    60          0
    61          3
    62         11
    63         41
    64         16
    65         21
    66          2
    67          3
    68          0
    69         70
    70         90
    71          5
    72          4
    73         39
    74         11
    75         80
    76         13
    77          7
    78          0
    79          0
    80          0
    82         50
    83          6
    85        180
    86         10
    87          2
    89          3
    90          4
    91          4
    92          3
    93          2
    94          0
    95          1
    96          2
    97          1
    99         79
   100         13
   101         25
   102          4
   103          0
   104          0
   105          0
   109          9
   110         82
   111         76
   112          7
   113         26
   114          2
   115          0
   117          5
   118          4
   119          1
   122          1
   123          0
   124          0
   125          9
   126         13
   127         60
   128        106
   129         24
   130         34
   131          3
   132          0
   133          1
   134          0
   136          0
   138          6
   139         12
   140          4
   141          5
   142          0
   143          0
   144          1
   145          1
   146          2
   147          0
   150          0
   151          2
   152          3
   153          8
   154         20
   155          5
   156          2
   157          0
   158          0
   166          6
   167          1
   168          1
   169          0
   170          0
   172          2
   173          3
   174          4
   175          0
   179          4
   180         22
   181         95
   182         21
   183         29
   184          4
   185          0
   197          0
   201          0
   208        241
   209         33
   210         76
   211          9
   212          0
   225          0
   236         13
   237          4
   238          4
   239          1
   258          5
   259          0
   264          0
   278          0
   293         17
   294          4
   295          5
   296          1