##TITLE=Library Entry 88155
##JCAMP-DX=Revision 4.10 
##DATA TYPE=MASS SPECTRUM
##SAMPLE DESCRIPTION=Chemical Concepts
##NAMES=HP
##CAS NAME=6,6-Dimethyl-10-methylene-1-oxa-spiro[4.5]decane
##MOLFORM=C12H20O
##CAS REGISTRY NO=43125-87-7
##MP= -300
##BP= -300
##MW= 180
##$RETENTION INDEX=0
##$CONDENSED SPECTRUM=NO
##NPOINTS= 124
##XYDATA=(XY..XY) 1 
    26          7
    27         66
    28         18
    29         83
    30          4
    31         12
    36          3
    37          3
    38          7
    39        121
    40         84
    41        324
    42         95
    43        116
    44         22
    45          7
    46          3
    47          2
    50          4
    51         18
    52         15
    53        102
    54         45
    55        179
    56         28
    57         18
    58          4
    59          5
    60          2
    61          5
    62          2
    63          6
    64          4
    65         38
    66         17
    67         99
    68         68
    69        414
    70         41
    71         56
    72          5
    73          3
    74          5
    75          4
    76          2
    77         62
    78         17
    79         81
    80         20
    81         90
    82         49
    83         60
    84         72
    85         44
    86          4
    87          3
    88          3
    89          8
    90          2
    91         63
    92         12
    93         50
    94         25
    95        102
    96         97
    97        167
    98         50
    99          7
   100          2
   101          2
   102          2
   103          7
   104          4
   105         34
   106          9
   107         37
   108         20
   109         49
   110         83
   111        999
   112        124
   113         10
   114          1
   115          5
   116          2
   117          6
   118          2
   119         20
   120          6
   121         26
   122         16
   123        175
   124        240
   125         83
   126         11
   127          2
   128          2
   131          3
   133          6
   134          3
   135         19
   136         16
   137         85
   138         28
   139          6
   141          2
   147          8
   149          9
   150          3
   151         19
   152          6
   153          2
   159          2
   161          2
   162          2
   163          4
   165         70
   166         10
   167          2
   178          3
   179         20
   180        336
   181         55
   182          5