##TITLE=Library Entry 18375
##JCAMP-DX=Revision 4.10 
##DATA TYPE=MASS SPECTRUM
##SAMPLE DESCRIPTION=Chemical Concepts
##NAMES=HP
##CAS NAME=Chromium, [(1,2,3,4,5,6-.eta.)-1,3,5-cycloheptatriene](.eta.5-2,4
-cyclopentadien-1-yl)-
##MOLFORM=C12H13Cr
##CAS REGISTRY NO=43138-04-1
##MP= -300
##BP= -300
##MW= 209
##$RETENTION INDEX=0
##$CONDENSED SPECTRUM=NO
##NPOINTS= 115
##XYDATA=(XY..XY) 1 
    26          3
    27          9
    28          5
    29          1
    31          0
    37          1
    38          4
    39         42
    40          8
    41          6
    42          1
    43          2
    44          1
    45          0
    46          0
    49          0
    50         46
    51          9
    52        999
    53        112
    54         26
    55          0
    56          1
    57          1
    60          0
    61          0
    62          2
    63         10
    64          2
    65         32
    66         11
    67          1
    68          0
    69          0
    71          0
    74          0
    75          1
    76          1
    77         28
    78          6
    79          9
    80          1
    81          0
    84          0
    86          0
    87          0
    88          2
    89          5
    90         31
    91        197
    92         22
    93          1
    95          0
    98          0
    99          0
   101          2
   102          1
   103          7
   104          2
   105          9
   106          1
   107          0
   113          0
   114          1
   115         17
   116          4
   117        295
   118         52
   119         11
   120          0
   123          0
   125          0
   126          0
   127          4
   128         13
   129         64
   130         38
   131        202
   132         39
   133          8
   134          0
   140          0
   141          3
   142          2
   143         52
   144         11
   145          1
   146          0
   152          0
   153          1
   154          1
   155          1
   156          1
   157          0
   166          0
   167          0
   179          0
   180          2
   181          2
   182         39
   183         11
   184          1
   193          0
   194          0
   195          0
   196          0
   204          0
   205          0
   206         20
   207         20
   208        316
   209        367
   210         85
   211         16
   212          1