##TITLE=Library Entry 48777
##JCAMP-DX=Revision 4.10 
##DATA TYPE=MASS SPECTRUM
##SAMPLE DESCRIPTION=NIST Mass Spectrometry Data Center, 1990.
##NAMES=HP
##CAS NAME=1,4-Cyclohexadiene, 1-methyl-
##MOLFORM=C7H10
##CAS REGISTRY NO=4313-57-9
##MP= -300
##BP= -300
##MW= 94
##$RETENTION INDEX=790
##$CONDENSED SPECTRUM=NO
##NPOINTS= 31
##XYDATA=(XY..XY) 1 
    15         17
    26         22
    27         81
    28         71
    37         17
    38         42
    39        212
    40         32
    41         39
    45         15
    46         11
    50         67
    51        115
    52         47
    53         59
    54         17
    61         17
    62         34
    63         73
    64         16
    65        113
    66         46
    67         16
    77        680
    79        999
    80         64
    91        423
    92         78
    93        125
    94        578
    95         43