##TITLE=Library Entry 50659
##JCAMP-DX=Revision 4.10 
##DATA TYPE=MASS SPECTRUM
##SAMPLE DESCRIPTION=Japan AIST/NIMC Database- Spectrum MS-IW-2339
##NAMES=HP
##CAS NAME=2,4-Heptadienal, (E,E)-
##MOLFORM=C7H10O
##CAS REGISTRY NO=4313-03-5
##MP= -300
##BP= -300
##MW= 110
##$RETENTION INDEX=1012
##$CONDENSED SPECTRUM=NO
##NPOINTS= 66
##XYDATA=(XY..XY) 1 
    14          1
    15          4
    26          9
    27         91
    28         15
    29         43
    30          1
    31          6
    37          6
    38         16
    39        164
    40         44
    41        191
    42         16
    43         14
    44          1
    45          3
    49          3
    50         26
    51         49
    52         23
    53        190
    54         36
    55         51
    56          9
    57         16
    58          3
    59         11
    61          3
    62          7
    63         13
    64          3
    65         52
    66         37
    67        119
    68         92
    69         13
    70          4
    71          9
    73          2
    74          5
    75          4
    76          1
    77         61
    78         10
    79         95
    80         12
    81        999
    82         73
    83         11
    84          2
    85          2
    91         24
    92          4
    93          5
    94          7
    95         54
    96          6
   105          4
   106          2
   107          5
   108          2
   109         35
   110        226
   111         18
   112          1