##TITLE=Library Entry 62878
##JCAMP-DX=Revision 4.10 
##DATA TYPE=MASS SPECTRUM
##SAMPLE DESCRIPTION=A.A.Kutin, Moscow, Russia
##NAMES=HP
##CAS NAME=Stannane, trimethyl(phenylmethyl)-
##MOLFORM=C10H16Sn
##CAS REGISTRY NO=4314-94-7
##MP= -300
##BP= -300
##MW= 256
##$RETENTION INDEX=0
##$CONDENSED SPECTRUM=NO
##NPOINTS= 103
##XYDATA=(XY..XY) 1 
    39        136
    41         29
    51         57
    52          8
    53          2
    63         74
    65        200
    74          2
    75          2
    77         25
    79         19
    86          1
    87          2
    91        999
   103         11
   105         37
   112          2
   113          1
   116         54
   117         41
   118         74
   119         56
   120         84
   121         29
   122         10
   123          6
   124         13
   125          5
   127          6
   131        117
   132         61
   133        137
   134         67
   135        157
   137         28
   139         32
   141          6
   142          5
   143          9
   145         21
   146         29
   147         25
   148         43
   149         29
   150         50
   151         12
   152          6
   154         12
   155          4
   157         26
   159         29
   161        319
   162        185
   163        415
   164        226
   165        520
   167        111
   169        122
   180          1
   181          2
   182          2
   183          3
   184          1
   185          2
   193          1
   194          1
   195          2
   196          1
   197          3
   203          1
   205          5
   207         27
   208         15
   209         31
   210         16
   211         30
   213          8
   215          6
   221          1
   222          1
   223          2
   224          1
   225          2
   233          1
   235          3
   237         34
   238         22
   239         44
   240         25
   241         51
   242          5
   243          7
   245         11
   248          1
   250          2
   252         28
   253         17
   254         37
   255         20
   256         45
   257          5
   258          6
   260          9