##TITLE=Library Entry 10217
##JCAMP-DX=Revision 4.10 
##DATA TYPE=MASS SPECTRUM
##SAMPLE DESCRIPTION=Exported from NIST MS Search
##NAMES=HP
##CAS NAME=3,5-Nonadien-7-yn-2-ol, (E,E)-
##MOLFORM=C9H12O
##CAS REGISTRY NO=43142-43-4
##MP= -300
##BP= -300
##MW= 136
##$RETENTION INDEX=0
##$CONDENSED SPECTRUM=NO
##NPOINTS= 19
##XYDATA=(XY..XY) 1 
    43        999
    44         12
    45         16
    50         36
    51        130
    52         40
    53        112
    63         77
    65        149
    77        502
    78         81
    79        116
    80         53
    91        510
    93        265
   119         59
   121        285
   135         61
   136        204