##TITLE=Library Entry 15121
##JCAMP-DX=Revision 4.10 
##DATA TYPE=MASS SPECTRUM
##SAMPLE DESCRIPTION=Chemical Concepts
##NAMES=HP
##CAS NAME=1-Imidazolidinecarboxaldehyde, 5-hydroxy-2,4-dioxo-
##MOLFORM=C4H4N2O4
##CAS REGISTRY NO=43152-24-5
##MP= -300
##BP= -300
##MW= 144
##$RETENTION INDEX=0
##$CONDENSED SPECTRUM=NO
##NPOINTS= 85
##XYDATA=(XY..XY) 1 
    25          0
    26          6
    27         88
    28        508
    29        660
    30         58
    31          8
    32          1
    35          8
    36         41
    37          2
    38         14
    39          6
    40          6
    41         12
    42         77
    43        289
    44        999
    45        643
    46         27
    47          2
    50          0
    51          1
    52          0
    53          3
    54         14
    55         44
    56          7
    57          6
    58          9
    59          2
    60        104
    61          4
    65          0
    67          4
    68          2
    69          6
    70         96
    71         16
    72        268
    73        236
    74         55
    75          3
    77          2
    78          0
    79          2
    80          6
    81          3
    82          5
    83          2
    84          2
    86         18
    87        107
    88        523
    89         24
    90          3
    91          1
    92          0
    93          1
    95          0
    98          5
    99         23
   100          4
   101          6
   104          2
   105          1
   106          1
   107          2
   108          1
   109          0
   110          0
   111          0
   112          2
   114         16
   115          7
   116        409
   117         17
   118          3
   120          1
   127          1
   128          2
   132          1
   133          0
   144          4
   145          3