##TITLE=Library Entry 77111
##JCAMP-DX=Revision 4.10 
##DATA TYPE=MASS SPECTRUM
##SAMPLE DESCRIPTION=A.A.Kutin, Moscow, Russia
##NAMES=HP
##CAS NAME=Pyrimidine, 4-hydrazino-2,6-diphenyl-
##MOLFORM=C16H14N4
##CAS REGISTRY NO=43154-69-4
##MP= -300
##BP= -300
##MW= 262
##$RETENTION INDEX=0
##$CONDENSED SPECTRUM=NO
##NPOINTS= 71
##XYDATA=(XY..XY) 1 
    37         32
    38         21
    39        328
    40        118
    41        191
    42         65
    43        252
    50        218
    51        360
    52        121
    55         32
    56         47
    61         12
    62         24
    63        104
    64          5
    65         29
    66         32
    68          4
    73         13
    74         95
    75        245
    76        693
    77        753
    78        140
    79         58
    80         16
    87         25
    88         30
    89         93
    90         52
    91         17
    98         61
    99         16
   100         65
   101        198
   102        471
   103        817
   104        999
   105         79
   108          7
   114         63
   115         19
   116         58
   117         14
   118          9
   119          7
   127         72
   128        333
   129         61
   130         81
   131         35
   132         12
   141         17
   142         18
   148         12
   155         42
   157         14
   166         10
   171          9
   177         41
   184          5
   185          4
   193          3
   199          8
   232         64
   233         14
   261         38
   262        434
   263         57
   264         25