##TITLE=Library Entry 55698
##JCAMP-DX=Revision 4.10 
##DATA TYPE=MASS SPECTRUM
##SAMPLE DESCRIPTION=Japan AIST/NIMC Database- Spectrum MS-NW-6744
##NAMES=HP
##CAS NAME=Pyrimidine, 4,6-dichloro-5-nitro-
##MOLFORM=C4HCl2N3O2
##CAS REGISTRY NO=4316-93-2
##MP= -300
##BP= -300
##MW= 193
##$RETENTION INDEX=1930
##$CONDENSED SPECTRUM=NO
##NPOINTS= 126
##XYDATA=(XY..XY) 1 
    12         10
    13          3
    14          5
    16          2
    24         16
    25          6
    26          9
    27         23
    28         39
    29          4
    30        915
    31          4
    32          1
    35         35
    36         24
    37         12
    38        106
    39         60
    40          3
    41          4
    42          2
    43          8
    44          6
    46        204
    47        202
    48          8
    49         67
    50         80
    51        135
    52         14
    53          9
    54         11
    55          2
    56          3
    57          5
    59         28
    60          8
    61         26
    62         26
    63         14
    64         16
    65          9
    66          1
    67          2
    68          1
    69          2
    70          3
    71         11
    72          1
    73         61
    74         96
    75         30
    76         65
    77         45
    78          3
    81          1
    82          1
    84          1
    85        628
    86        999
    87        251
    88        317
    89         63
    90          6
    91         16
    92          2
    94          4
    95          1
    96          3
    97          1
    98          1
    99          2
   100          9
   101          4
   102        291
   103         12
   104         94
   105          4
   106          7
   108         29
   109          1
   110         17
   111         18
   112         13
   113          8
   114          4
   115          1
   116         11
   117          1
   118          5
   120        402
   121         14
   122        259
   123         11
   124         43
   125          2
   127          1
   128          1
   134          1
   135        308
   136         14
   137        192
   138          9
   139         33
   140          2
   147        187
   148         10
   149        117
   150          7
   151         20
   152          2
   163         30
   164          2
   165         19
   166          1
   167          4
   177         15
   178          1
   179          9
   181          2
   193        896
   194         54
   195        590
   196         36
   197         94
   198          7