##TITLE=Library Entry 98616
##JCAMP-DX=Revision 4.10 
##DATA TYPE=MASS SPECTRUM
##SAMPLE DESCRIPTION=Japan AIST/NIMC Database- Spectrum MS-IW-4850
##NAMES=HP
##CAS NAME=1,2-Benzenedicarboxylic acid, 4-methyl-
##MOLFORM=C9H8O4
##CAS REGISTRY NO=4316-23-8
##MP= -300
##BP= -300
##MW= 180
##$RETENTION INDEX=0
##$CONDENSED SPECTRUM=NO
##NPOINTS= 88
##XYDATA=(XY..XY) 1 
    16          2
    17          4
    18         17
    26          4
    27         11
    28         26
    29          1
    36          2
    37         21
    38         31
    39         89
    40         21
    41          2
    42          3
    43         59
    44         48
    45         99
    48          1
    49         11
    50         62
    51         52
    52          7
    53          9
    54          1
    55          2
    57          2
    58          5
    59         22
    60          5
    61         36
    62         96
    63        191
    64         78
    65         10
    66          2
    67          1
    69          2
    71          1
    72          1
    73          9
    74         34
    75         25
    76          5
    77         14
    78          4
    79          3
    81          2
    83          1
    84          6
    85         17
    86         29
    87         23
    88         12
    89        406
    90        637
    91         97
    92         14
    93          2
    95          1
    96          1
    97          1
   101          1
   104          2
   105          2
   106          1
   107          5
   108          1
   111          1
   117          6
   118        999
   119        118
   120          8
   121          1
   122          1
   132          5
   133          1
   135          5
   136         43
   137          3
   149          1
   160          2
   161         11
   162        730
   163         83
   164          9
   165          1
   180         13
   181          1