##TITLE=Library Entry 51435
##JCAMP-DX=Revision 4.10 
##DATA TYPE=MASS SPECTRUM
##SAMPLE DESCRIPTION=NIST Mass Spectrometry Data Center
##NAMES=HP
##CAS NAME=1-Butylimidazole
##MOLFORM=C7H12N2
##CAS REGISTRY NO=4316-42-1
##MP= -300
##BP= -300
##MW= 124
##$RETENTION INDEX=1164
##$CONDENSED SPECTRUM=NO
##NPOINTS= 61
##XYDATA=(XY..XY) 1 
    13          1
    15         14
    25          2
    26         73
    27        285
    28        157
    29        294
    30         15
    37          6
    38         25
    39        215
    40        204
    41        576
    42        132
    43         23
    44          2
    47          1
    49          1
    50         10
    51         28
    52        100
    53         80
    54        369
    55        799
    56         72
    57         34
    58          1
    63          1
    64          2
    65          3
    66         15
    67         60
    68        310
    69        203
    70         11
    78          2
    79          8
    80         12
    81        940
    82        999
    83         60
    84         68
    85          3
    93          3
    94         11
    95         61
    96         51
    97        940
    98         66
    99          1
   106          1
   107         12
   108          6
   109         16
   110          1
   121          2
   122          1
   123         43
   124        553
   125         56
   126          2