##TITLE=Library Entry 24766
##JCAMP-DX=Revision 4.10 
##DATA TYPE=MASS SPECTRUM
##SAMPLE DESCRIPTION=Japan AIST/NIMC Database- Spectrum MS-NW-2204
##NAMES=HP
##CAS NAME=1-Hexene, 3,5,5-trimethyl-
##MOLFORM=C9H18
##CAS REGISTRY NO=4316-65-8
##MP= -300
##BP= -300
##MW= 126
##$RETENTION INDEX=769
##$CONDENSED SPECTRUM=NO
##NPOINTS= 56
##XYDATA=(XY..XY) 1 
    15          7
    26          5
    27        103
    28          9
    29        199
    30          4
    37          1
    38          4
    39        107
    40         14
    41        327
    42         35
    43        444
    44         13
    46          1
    50          5
    51         11
    52          5
    53         42
    54         15
    55        506
    56        152
    57        999
    58         45
    59          1
    62          1
    63          2
    65          5
    66          2
    67         21
    68         15
    69        269
    70        449
    71        259
    72         13
    77          5
    78          1
    79          6
    80          1
    81          7
    82          2
    83         33
    84         11
    85          1
    91          2
    93          1
    95         10
    96          1
    97          5
    98         11
    99          1
   109          1
   110          1
   111         49
   112          5
   126          1