##TITLE=Library Entry 73684
##JCAMP-DX=Revision 4.10 
##DATA TYPE=MASS SPECTRUM
##SAMPLE DESCRIPTION=Div. of Experiment Therapeutics WRAIR, WRAMC, Washingto
n DC 20307
##NAMES=HP
##CAS NAME=6-Chloro-1-[4-methyl-4-diethylaminobutyl]aminonaphthalene
##MOLFORM=C19H27ClN2
##CAS REGISTRY NO=43171-55-7
##MP= -300
##BP= -300
##MW= 318
##$RETENTION INDEX=0
##$CONDENSED SPECTRUM=NO
##NPOINTS= 229
##XYDATA=(XY..XY) 1 
    41         44
    42         51
    43         14
    44         94
    46          5
    49          0
    50          3
    51          5
    52          2
    53          7
    54          6
    55         24
    56         39
    57          4
    58         45
    59          0
    60          2
    62          3
    63          9
    65          3
    67          7
    68          6
    69         17
    70         29
    71          3
    72        151
    73          7
    74         22
    75          8
    76          4
    77         11
    78          1
    79          1
    80          2
    81          2
    82          6
    83          1
    84         26
    86         90
    88         10
    89          3
    90          0
    91          2
    93          0
    94          0
    95          2
    96          4
    97          2
    98         25
   100        999
   101         41
   102          1
   103          1
   104          0
   105          0
   107          0
   108          0
   109          1
   110          3
   111          3
   112         60
   113          5
   114         30
   115         12
   116          1
   117          0
   120          0
   121          0
   122          2
   123          2
   124          3
   125          2
   126         88
   127         29
   128         13
   129          4
   130          0
   133          0
   134          0
   135          0
   137          0
   138          1
   139          6
   140         12
   141          7
   142         23
   143          1
   144          3
   147          0
   149         22
   150          1
   151          9
   152          8
   153          2
   154         87
   155        111
   156         13
   157          0
   158          2
   160          3
   161         15
   162         14
   163          7
   164          5
   165          3
   166          1
   167         19
   168         13
   169          9
   170          1
   174          3
   175          3
   176          2
   177         12
   178          5
   179          4
   180          6
   181          2
   182          2
   183          2
   185          0
   187          0
   188         21
   189          3
   190         92
   191         13
   192         28
   193          5
   194          7
   195          3
   196          3
   201          4
   202         16
   203         15
   204         16
   205          7
   206          4
   207          0
   208          2
   209          2
   210          3
   211          2
   212          4
   214          5
   215          2
   216          7
   217          3
   218          4
   219          2
   220          1
   222          0
   226          0
   227          3
   228          6
   229          2
   230         31
   231          4
   232         13
   233          3
   234          2
   235          0
   238          0
   239          1
   240          1
   241          3
   242          3
   243          7
   244         28
   245         61
   246         41
   247         20
   248         10
   249          2
   253          1
   254          0
   255          6
   256          0
   257          8
   258          2
   259          2
   260          0
   261          1
   264          0
   266          1
   267          0
   268          4
   269          1
   270          5
   271          0
   272          2
   273          1
   274          1
   275          0
   276          2
   278          0
   279          0
   280          1
   281          3
   282          4
   283         17
   284         12
   285          1
   288          0
   289         10
   290         17
   291          7
   292          5
   293          2
   294          1
   295          0
   296          1
   302          2
   303         15
   304          0
   305          5
   306          2
   307          1
   308          0
   310          0
   311          0
   312          0
   313          0
   316          1
   317         17
   318        183
   319         40
   320         60
   321         14
   322          2