##TITLE=Library Entry 29260
##JCAMP-DX=Revision 4.10 
##DATA TYPE=MASS SPECTRUM
##SAMPLE DESCRIPTION=AAFS Toxicology Section MS DB Committee, U. Alberta, Ca
nada
##NAMES=HP
##CAS NAME=Amitriptylinoxide
##MOLFORM=C20H23NO
##CAS REGISTRY NO=4317-14-0
##MP= -300
##BP= -300
##MW= 293
##$RETENTION INDEX=1976
##$CONDENSED SPECTRUM=NO
##NPOINTS= 92
##XYDATA=(XY..XY) 1 
    41          5
    42         58
    43         22
    44         12
    45          2
    51          4
    52          2
    53          2
    55          3
    56         15
    58        999
    59         38
    63          4
    65          7
    67          2
    68          2
    69          2
    70          4
    71          6
    73          2
    75          3
    76          4
    77         13
    78          4
    79          2
    81          1
    82          4
    84          5
    87          2
    88          2
    89          8
    90          2
    91         19
    92          2
    94          2
   101          4
   102          5
   103          3
   105          3
   107          2
   113          2
   114          2
   115         23
   116          4
   126          3
   127          6
   128         13
   129          6
   139          6
   140          1
   141          2
   150          5
   151          7
   152         14
   153          3
   163          6
   164          5
   165         24
   166          4
   175          2
   176         12
   177          7
   178         34
   179         12
   187          5
   188          5
   189         29
   190         12
   191         21
   192          5
   193          2
   200          7
   201         11
   202         65
   203         30
   204          9
   205          8
   206          2
   207          3
   213          9
   215         42
   216         15
   217         18
   218          6
   219          7
   220          2
   228          2
   229          3
   231          2
   233          4
   234          2
   293          3