##TITLE=Library Entry 33880
##JCAMP-DX=Revision 4.10 
##DATA TYPE=MASS SPECTRUM
##SAMPLE DESCRIPTION=A.A.Kutin, Moscow, Russia
##NAMES=HP
##CAS NAME=2,4(1H,3H)-Pyrimidinedione, 6-chloro-3-methyl-
##MOLFORM=C5H5ClN2O2
##CAS REGISTRY NO=4318-56-3
##MP= -300
##BP= -300
##MW= 160
##$RETENTION INDEX=0
##$CONDENSED SPECTRUM=NO
##NPOINTS= 71
##XYDATA=(XY..XY) 1 
    33          1
    34          1
    35          6
    36          4
    37          3
    38         27
    39         61
    40        189
    41         25
    42         19
    43          7
    44          4
    45          0
    47          9
    48         19
    49          8
    50          5
    51          6
    52          6
    53          8
    54         10
    56         54
    58         66
    60         23
    62         30
    63         15
    64          6
    65          5
    68        999
    69         29
    70         10
    71          0
    74         31
    75          5
    76         12
    77          4
    78          1
    79          1
    80          1
    82          5
    83          0
    86          1
    87          5
    89          6
    90          5
    92          1
    94          1
    95          0
    97          7
    98          0
   103        167
   104         31
   105         52
   106          9
   107          0
   116          7
   117          3
   118          1
   119          0
   124          0
   125          8
   130          6
   131         14
   132         20
   133          4
   134          4
   157          0
   160        377
   162        140
   163          7
   164          0