##TITLE=Library Entry 70123
##JCAMP-DX=Revision 4.10 
##DATA TYPE=MASS SPECTRUM
##SAMPLE DESCRIPTION=J. H. BOWIE
##NAMES=HP
##CAS NAME=4H-1,2,4-Triazole, 4-ethyl-
##MOLFORM=C4H7N3
##CAS REGISTRY NO=43183-55-7
##MP= -300
##BP= -300
##MW= 97
##$RETENTION INDEX=0
##$CONDENSED SPECTRUM=NO
##NPOINTS= 16
##XYDATA=(XY..XY) 1 
    27        120
    28        260
    29        180
    40         80
    41         60
    42        150
    43         50
    44         20
    55        120
    56        100
    69         80
    70         60
    82        280
    83         10
    97        999
    98         60