##TITLE=Library Entry 31226
##JCAMP-DX=Revision 4.10 
##DATA TYPE=MASS SPECTRUM
##SAMPLE DESCRIPTION=LAC, NIDDK, NIH, Bethesda, MD 20892
##NAMES=HP
##CAS NAME=DL-Methionine, methyl ester
##MOLFORM=C6H13NO2S
##CAS REGISTRY NO=43189-32-8
##MP= -300
##BP= -300
##MW= 163
##$RETENTION INDEX=0
##$CONDENSED SPECTRUM=NO
##NPOINTS= 92
##XYDATA=(XY..XY) 1 
    42        325
    43        178
    44         25
    45        233
    46        107
    47        157
    48         46
    49         82
    50          3
    51         24
    52         16
    53          4
    54        110
    55        109
    56        833
    57        129
    58         34
    59         96
    60         74
    61        999
    63         84
    64          3
    65          7
    67          3
    68          5
    69         12
    70         14
    71         16
    72          5
    73          9
    74        110
    75         95
    76          7
    77          7
    78          4
    79          2
    80          1
    81          5
    82          6
    83        155
    84         33
    85         12
    86         30
    87         46
    88        246
    89         50
    90          1
    91         25
    92          4
    93          1
    94          0
    95          3
    96          0
    97          2
    98          1
    99         11
   100         82
   101         13
   102         26
   103         13
   104        369
   105         21
   106         17
   107          2
   108          1
   109          2
   111          2
   114         52
   115        136
   116         92
   117          7
   118          4
   119          0
   120          0
   125          1
   127          5
   128          2
   130          2
   131        102
   132          7
   133          6
   134          1
   146         12
   147          3
   148          8
   149          7
   150          2
   162          0
   163        265
   164         44
   165         15
   166          2