##TITLE=Library Entry 27808
##JCAMP-DX=Revision 4.10 
##DATA TYPE=MASS SPECTRUM
##SAMPLE DESCRIPTION=Japan AIST/NIMC Database- Spectrum MS-NW-1211
##NAMES=HP
##CAS NAME=N-Methylhomopiperazine
##MOLFORM=C6H14N2
##CAS REGISTRY NO=4318-37-0
##MP= -300
##BP= -300
##MW= 114
##$RETENTION INDEX=0
##$CONDENSED SPECTRUM=NO
##NPOINTS= 61
##XYDATA=(XY..XY) 1 
    14          4
    15         80
    16          1
    26         10
    27         59
    28        156
    29         38
    30         89
    31          8
    32          7
    37          1
    38          3
    39         39
    40         14
    41        117
    42        415
    43        400
    44        406
    45         17
    46         15
    50          3
    51          2
    52          5
    53          3
    54         22
    55         20
    56        102
    57        358
    58        999
    59         40
    66          1
    67          4
    68         25
    69         76
    70        266
    71        126
    72        318
    73         16
    74          1
    80          2
    81          3
    82         22
    83        118
    84        189
    85        104
    86         16
    87          8
    95          1
    96          2
    97          9
    98          4
    99         25
   100          3
   109          2
   110          2
   111          4
   112          8
   113         32
   114        386
   115         29
   116          1