##TITLE=Library Entry 34907
##JCAMP-DX=Revision 4.10 
##DATA TYPE=MASS SPECTRUM
##SAMPLE DESCRIPTION=NIST Mass Spectrometry Data Center, 1990.
##NAMES=HP
##CAS NAME=Hexane, 3-chloro-3-methyl-
##MOLFORM=C7H15Cl
##CAS REGISTRY NO=43197-78-0
##MP= -300
##BP= -300
##MW= 134
##$RETENTION INDEX=0
##$CONDENSED SPECTRUM=NO
##NPOINTS= 48
##XYDATA=(XY..XY) 1 
    15         14
    26         19
    27        147
    29        109
    35         19
    36         46
    37         12
    38         42
    39        265
    40         12
    41        599
    42         66
    43        110
    50         26
    51         51
    52         21
    53        117
    54         12
    55        660
    56        134
    57        302
    58         14
    62          9
    63         70
    65         41
    66         10
    67         73
    68          9
    69        999
    70        305
    71         20
    75         10
    76         42
    77         21
    78         17
    79         16
    81         11
    83         94
    90        104
    91        185
    92         41
    93         52
    98        255
    99         87
   104         58
   105         91
   106         18
   107         30