##TITLE=Library Entry 36090
##JCAMP-DX=Revision 4.10 
##DATA TYPE=MASS SPECTRUM
##SAMPLE DESCRIPTION=A.Pleshkova, Nesmeyanov Inst.Org.Elem.Cpds, Moscow
##NAMES=HP
##CAS NAME=Arsine, tris(trifluoromethyl)-
##MOLFORM=C3AsF9
##CAS REGISTRY NO=432-02-0
##MP= -300
##BP= -300
##MW= 282
##$RETENTION INDEX=0
##$CONDENSED SPECTRUM=NO
##NPOINTS= 25
##XYDATA=(XY..XY) 1 
    31        118
    32          2
    50         42
    51          1
    69        999
    70         11
    75        122
    94        307
   106         22
   113        499
   125         96
   126          1
   131          8
   144        192
   145          2
   163        320
   164          4
   175        122
   176          3
   194        166
   195          4
   263        112
   264          4
   282         26
   283          1