##TITLE=Library Entry 36290
##JCAMP-DX=Revision 4.10 
##DATA TYPE=MASS SPECTRUM
##SAMPLE DESCRIPTION=A.Pleshkova, Nesmeyanov Inst.Org.Elem.Cpds, Moscow
##NAMES=HP
##CAS NAME=Phosphine, tris(trifluoromethyl)-
##MOLFORM=C3F9P
##CAS REGISTRY NO=432-04-2
##MP= -300
##BP= -300
##MW= 238
##$RETENTION INDEX=0
##$CONDENSED SPECTRUM=NO
##NPOINTS= 19
##XYDATA=(XY..XY) 1 
    31         62
    32          1
    50         59
    51          1
    62         21
    69        999
    70         12
    81         29
    82          1
   100         69
   101          1
   131        129
   132          3
   150         45
   151          1
   219         71
   220          2
   238         38
   239          1