##TITLE=Library Entry 4060
##JCAMP-DX=Revision 4.10 
##DATA TYPE=MASS SPECTRUM
##SAMPLE DESCRIPTION=MASS SPECTRA OF ORGANIC COMPOUNDS, V. 6, B. H. KENNETT
 ET AL, DIV. OF FOOD RESEARCH, CSIRO, AUSTRALIA
##NAMES=HP
##CAS NAME=1-Cyclohexene-1-carboxaldehyde, 2,6,6-trimethyl-
##MOLFORM=C10H16O
##CAS REGISTRY NO=432-25-7
##MP= -300
##BP= -300
##MW= 152
##$RETENTION INDEX=1220
##$CONDENSED SPECTRUM=NO
##NPOINTS= 72
##XYDATA=(XY..XY) 1 
    26         30
    27        470
    29        420
    30         20
    31         20
    38         30
    39        660
    40        130
    41        999
    42         70
    43        570
    44        130
    45         60
    50         60
    51        180
    52         90
    53        370
    54         60
    55        490
    56         70
    57        100
    59         20
    60         70
    61         10
    62         20
    63         60
    64         20
    65        210
    66         70
    67        640
    68         70
    69        150
    70         20
    71         10
    74         10
    75         20
    77        280
    78         70
    79        310
    80         60
    81        660
    82         80
    83         60
    84         30
    91        280
    92         70
    93        230
    94         80
    95        230
    96         80
    97         30
   105         80
   106         40
   107        180
   108         60
   109        620
   110         80
   111         10
   119        120
   120         20
   121         70
   122         20
   123        660
   124         90
   125         10
   134         20
   135         20
   136         20
   137        900
   138        100
   152        670
   153         80