##TITLE=Library Entry 80523
##JCAMP-DX=Revision 4.10 
##DATA TYPE=MASS SPECTRUM
##SAMPLE DESCRIPTION=Japan AIST/NIMC Database- Spectrum MS-IW-7968
##NAMES=HP
##CAS NAME=5-Amino-4-methyl-3-phenylisoxazole
##MOLFORM=C10H10N2O
##CAS REGISTRY NO=4320-84-7
##MP= -300
##BP= -300
##MW= 174
##$RETENTION INDEX=0
##$CONDENSED SPECTRUM=NO
##NPOINTS= 92
##XYDATA=(XY..XY) 1 
    15          4
    16          1
    17          9
    18         48
    26          6
    27         29
    28         25
    29         18
    30          1
    31          1
    37          4
    38          6
    39         30
    40          3
    41          3
    42         24
    43         63
    44         50
    45          6
    49          2
    50         39
    51         95
    52         21
    53         11
    54         12
    55         35
    56          1
    61          5
    62         19
    63         50
    64          6
    65          5
    69          1
    70         17
    71         41
    72          3
    73          2
    74         10
    75         13
    76         43
    77        207
    78         29
    79          3
    82          1
    85          1
    86          5
    87          9
    88          9
    89         43
    90          6
    91          2
    92          1
    93          7
    94          1
    97          1
    98          1
    99          1
   100          1
   101          2
   102          9
   103         77
   104        839
   105        999
   106         79
   107          3
   111          1
   113          1
   114          3
   115         10
   116         11
   117          1
   118          2
   119         15
   120          1
   128         12
   129          9
   130        138
   131         26
   132          2
   145         75
   146         50
   147          5
   149          1
   155          1
   156          2
   157          4
   158         10
   159          1
   173          9
   174        146
   175         23
   176          4