##TITLE=Library Entry 60277
##JCAMP-DX=Revision 4.10 
##DATA TYPE=MASS SPECTRUM
##SAMPLE DESCRIPTION=Exported from NIST MS Search
##NAMES=HP
##CAS NAME=2,4-Nonadien-6-yn-1-ol, (E,E)-
##MOLFORM=C9H12O
##CAS REGISTRY NO=43212-86-8
##MP= -300
##BP= -300
##MW= 136
##$RETENTION INDEX=0
##$CONDENSED SPECTRUM=NO
##NPOINTS= 26
##XYDATA=(XY..XY) 1 
    51        475
    52        167
    53        232
    54         10
    63        178
    65        340
    77        891
    78        918
    79        945
    80         27
    91        999
    93        243
   103        205
   105        324
   106         43
   107        281
   115        118
   116         43
   117        216
   118         75
   119        135
   121         32
   133        756
   134         75
   135        194
   136        540