##TITLE=Library Entry 85748
##JCAMP-DX=Revision 4.10 
##DATA TYPE=MASS SPECTRUM
##SAMPLE DESCRIPTION=W.KREISER BRAUNSCHWEIG UNIV., BRAUNSCHWEIG, GERMANY, F.
R.G.
##NAMES=HP
##CAS NAME=Ethanone, 1-(1,4-dimethyl-3-cyclohexen-1-yl)-
##MOLFORM=C10H16O
##CAS REGISTRY NO=43219-68-7
##MP= -300
##BP= -300
##MW= 152
##$RETENTION INDEX=1149
##$CONDENSED SPECTRUM=NO
##NPOINTS= 69
##XYDATA=(XY..XY) 1 
    41        213
    42         20
    43        524
    44         15
    45         20
    50         14
    51         41
    52         17
    53        101
    54         10
    55        194
    56         11
    57         25
    58         10
    59         24
    63         10
    65         58
    66         20
    67        697
    68        183
    69         64
    70          6
    71          5
    72          8
    77        100
    78         26
    79        126
    80         36
    81        229
    82         19
    83         12
    84          8
    85         14
    91        118
    92         25
    93        142
    94         53
    95         80
    96          9
    97         15
   103         20
   104          3
   105         18
   106         10
   107         68
   108         56
   109        999
   110         92
   111         11
   115          4
   117          5
   119         54
   120          6
   121         10
   122          4
   123         35
   124          5
   125          7
   133          3
   134         30
   135          8
   136          4
   137        282
   138         28
   139          2
   151          2
   152         88
   153         11
   154          1