##TITLE=Library Entry 832
##JCAMP-DX=Revision 4.10 
##DATA TYPE=MASS SPECTRUM
##SAMPLE DESCRIPTION=J. SHAW, BORRISTON RESEARCH, ROCKVILLE, MD, USA
##NAMES=HP
##CAS NAME=Finaven
##MOLFORM=C18H20N2O4S
##CAS REGISTRY NO=43222-48-6
##MP= -300
##BP= -300
##MW= 360
##$RETENTION INDEX=0
##$CONDENSED SPECTRUM=NO
##NPOINTS= 198
##XYDATA=(XY..XY) 1 
    20          4
    22          1
    24          2
    25          5
    26         51
    27        183
    28        371
    29        999
    30        179
    31        979
    32        739
    33         57
    34          2
    35         67
    36        343
    37         30
    38        129
    39        169
    40         22
    41        160
    42        101
    43        314
    44        268
    45        540
    46        150
    47         34
    48         78
    49         32
    50        287
    51        223
    52        116
    53         41
    54         24
    55         84
    56         50
    57         95
    58         43
    59         24
    60         39
    61         25
    62         36
    63        112
    64         71
    65         92
    66        129
    67         21
    68         29
    69         66
    70         26
    71         32
    72         12
    73         46
    74         38
    75         48
    76         89
    77        445
    78         74
    79         62
    80         14
    81         37
    82         77
    84         48
    85         26
    86         18
    87         50
    88         24
    89        110
    90         31
    91        168
    92         18
    93         13
    95        439
    96        210
    97         56
    98         29
    99         16
   100         10
   101         31
   102        106
   103        207
   104        182
   105         26
   106          3
   107         18
   109         34
   110         28
   111         21
   112          6
   113         16
   114         11
   115         41
   116         83
   117        124
   118        212
   119         20
   120          1
   121         11
   122          4
   123         27
   124         40
   125        102
   126         26
   127         18
   128         63
   129         29
   130        158
   131         65
   132         15
   133          7
   134          3
   135          8
   136          1
   137          7
   138          4
   139         18
   140         10
   141         10
   142         14
   143         17
   144          8
   145          7
   146          4
   147          4
   148          1
   149         24
   150         13
   151          9
   152         14
   153          4
   154          2
   155         13
   156          3
   157         17
   158          1
   159          1
   161          3
   162         12
   163         19
   164         16
   165         42
   166          9
   167          4
   168          1
   169          4
   171          4
   173          3
   175          3
   176          5
   177          6
   178         10
   179          8
   180          3
   181          2
   185          3
   186          5
   187         10
   188         12
   189         77
   190         23
   191         58
   192         13
   193         14
   194          2
   195          1
   196          9
   197          1
   198          7
   200          1
   202          1
   203          4
   204         14
   205          8
   206         21
   207          7
   208          1
   209          2
   214          1
   215          1
   216          4
   217          4
   218          7
   219          3
   220          7
   221          1
   222          2
   228          4
   231          5
   232         22
   233        265
   234        992
   235        172
   236         13
   247         29
   249        411
   250         71
   251          4
   256          5
   258          2