##TITLE=Library Entry 43447
##JCAMP-DX=Revision 4.10 
##DATA TYPE=MASS SPECTRUM
##SAMPLE DESCRIPTION=O A MAMER, MCGILL UNIVERSITY, MONTRE
##NAMES=HP
##CAS NAME=Boric acid, 3TMS derivative
##MOLFORM=C9H27BO3Si3
##CAS REGISTRY NO=4325-85-3
##MP= -300
##BP= -300
##MW= 278
##$RETENTION INDEX=1010
##$CONDENSED SPECTRUM=NO
##NPOINTS= 108
##XYDATA=(XY..XY) 1 
    39          2
    40          3
    41          7
    42          3
    43         19
    44         13
    45         82
    46          6
    47          9
    51          1
    52          3
    55          2
    56          1
    57          5
    58          8
    59         51
    60          4
    61          7
    66          2
    70          2
    71          6
    72         10
    73        999
    74         90
    75         85
    76          5
    77          2
    79          1
    80          2
    81          1
    85         11
    86          1
    87         13
    88          3
    89          3
    95         12
    96          5
    99          1
   100          2
   101          9
   102          4
   103         21
   104          3
   105          8
   108          2
   113          3
   114          1
   115         20
   116         16
   117         24
   118          4
   119         14
   120          2
   129          2
   130          1
   131         35
   132          8
   133        119
   134         18
   135          9
   143          1
   145          7
   146          1
   147         79
   148         12
   149         11
   159          7
   160          2
   161          8
   163          2
   172          1
   173          4
   174         23
   175         94
   176         17
   177         17
   178          2
   179          1
   186          9
   189         43
   190         12
   191         54
   192         11
   193         10
   194          1
   205         89
   206         21
   207         36
   208          8
   209          3
   221        884
   222        212
   223        118
   224         20
   225         10
   231          1
   233          2
   235          2
   246          2
   247          9
   248          5
   249          2
   262         62
   263        266
   264         70
   265         37
   266          6
   267          2