##TITLE=Library Entry 22484
##JCAMP-DX=Revision 4.10 
##DATA TYPE=MASS SPECTRUM
##SAMPLE DESCRIPTION=NIST Mass Spectrometry Data Center, 1990.
##NAMES=HP
##CAS NAME=2-Chloro-2-methylnonane
##MOLFORM=C10H21Cl
##CAS REGISTRY NO=4325-50-2
##MP= -300
##BP= -300
##MW= 176
##$RETENTION INDEX=0
##$CONDENSED SPECTRUM=NO
##NPOINTS= 49
##XYDATA=(XY..XY) 1 
    27        125
    28         13
    29        144
    35         22
    36         52
    37          9
    38         27
    39        192
    40         59
    41        641
    42        102
    43        237
    44          9
    50          8
    51         22
    52         13
    53         95
    54         48
    55        458
    56        999
    57        425
    58         19
    63          9
    65         19
    66         10
    67         98
    68         86
    69        791
    70        169
    71         50
    76         28
    77         84
    78         14
    79         43
    81         19
    82         34
    83        101
    84        154
    85         55
    91          7
    96         16
    97         60
    98         35
    99          8
   111         24
   112         70
   125         52
   140        114
   141         18