##TITLE=Library Entry 83129
##JCAMP-DX=Revision 4.10 
##DATA TYPE=MASS SPECTRUM
##SAMPLE DESCRIPTION=J.E. WILKINSON S-CUBED, SAN DIEGO, CA.
##NAMES=HP
##CAS NAME=2-Pyridinemethanamine, N-phenyl-
##MOLFORM=C12H12N2
##CAS REGISTRY NO=4329-81-1
##MP= -300
##BP= -300
##MW= 184
##$RETENTION INDEX=0
##$CONDENSED SPECTRUM=NO
##NPOINTS= 39
##XYDATA=(XY..XY) 1 
    41         56
    50         47
    51        200
    52        111
    53         12
    62         11
    63         51
    65        246
    66         10
    74          4
    75          4
    76          3
    77         40
    78        360
    79        349
    80         40
    84          5
    86          0
    89         44
    91        505
    92         30
   104         21
   106        999
   107        159
   115          3
   127         11
   128          8
   140          0
   154         27
   155          4
   156          8
   166          5
   167         17
   168         14
   181         28
   183        286
   184        632
   185         54
   186          0