##TITLE=Library Entry 82628
##JCAMP-DX=Revision 4.10 
##DATA TYPE=MASS SPECTRUM
##SAMPLE DESCRIPTION=Japan AIST/NIMC Database- Spectrum MS-IW-1003
##NAMES=HP
##CAS NAME=Hydrazine, 1,2-diisonicotinoyl-
##MOLFORM=C12H10N4O2
##CAS REGISTRY NO=4329-75-3
##MP= -300
##BP= -300
##MW= 242
##$RETENTION INDEX=0
##$CONDENSED SPECTRUM=NO
##NPOINTS= 73
##XYDATA=(XY..XY) 1 
    26          2
    27          2
    28         13
    38          2
    39          2
    41          2
    43          2
    44          1
    49          1
    50         19
    51        130
    52         14
    53          3
    55          2
    57          3
    62          1
    63          3
    64          3
    65          1
    67          1
    69          2
    70          1
    71          2
    75          1
    76          4
    77         11
    78        525
    79         45
    80          2
    81          1
    82          1
    83          2
    85          1
    90          1
    91          1
    93          2
    95          1
    96          1
    97          2
   104         13
   105          3
   106        999
   107         71
   108          5
   111          1
   112          2
   114          4
   115          1
   119          1
   122          4
   123          3
   137          1
   140          2
   141          6
   142          1
   149          1
   167          5
   168         10
   169          2
   184         84
   185         10
   186          1
   195          1
   196          1
   212        408
   213         56
   214          5
   224         81
   225         12
   226          1
   242        204
   243         32
   244          3