##TITLE=Library Entry 93958
##JCAMP-DX=Revision 4.10 
##DATA TYPE=MASS SPECTRUM
##SAMPLE DESCRIPTION=R RYHAGE MS-LAB KAROLINSKA INSTITUTET STOCKHOLM SWEDEN
##NAMES=HP
##CAS NAME=Glycine, N-[N-(trifluoroacetyl)glycyl]-, methyl ester
##MOLFORM=C7H9F3N2O4
##CAS REGISTRY NO=433-33-0
##MP= -300
##BP= -300
##MW= 242
##$RETENTION INDEX=0
##$CONDENSED SPECTRUM=NO
##NPOINTS= 146
##XYDATA=(XY..XY) 1 
    14          2
    15         26
    18          6
    27          5
    28         66
    29         37
    30        560
    31         19
    32          2
    33         13
    38          1
    39          3
    40          7
    41         71
    42         45
    43        146
    44         36
    45         10
    49          9
    50          8
    51          1
    52          1
    53          4
    54          7
    55        392
    56         33
    57        220
    58         73
    59         11
    60          2
    61          2
    63          6
    64          1
    66          1
    67          2
    68        271
    69          7
    70         19
    71         21
    72         14
    73         19
    74          1
    75          3
    76          2
    77        112
    78         18
    80          1
    81          1
    82          5
    83         13
    84         38
    85          5
    86          4
    87        615
    88         33
    89         56
    90          9
    91          2
    94          1
    95          7
    96         46
    97         17
    98          7
    99         34
   100          6
   101         38
   102          4
   103          3
   104          2
   105         19
   106         12
   107          2
   108          3
   109          4
   110          2
   111          2
   112         62
   113         16
   114          4
   115        999
   116         51
   117          9
   118          7
   119          2
   123          3
   124         11
   125        615
   126        911
   127         49
   128         11
   129         30
   130          9
   131          2
   134          6
   136          2
   137          2
   138          2
   139         21
   140         49
   141          4
   142          1
   146          4
   148          2
   152          0
   153         32
   154          6
   155          2
   156         21
   157          3
   161          4
   162         13
   163          2
   164          4
   165          3
   166          2
   167          7
   168          1
   170          2
   171          1
   172         45
   173          4
   174         11
   175          1
   183        201
   184         18
   185          2
   186          2
   191          2
   193          1
   194          8
   195          2
   196          9
   197          2
   210         53
   211        135
   212         11
   213          2
   222          6
   223          3
   224         22
   225          2
   232          1
   241         30
   242        428
   243         41
   244          6