##TITLE=Library Entry 443
##JCAMP-DX=Revision 4.10 
##DATA TYPE=MASS SPECTRUM
##SAMPLE DESCRIPTION=Japan AIST/NIMC Database- Spectrum MS-NW-2709
##NAMES=HP
##CAS NAME=Ethanol, 1-ethoxy-2,2,2-trifluoro-
##MOLFORM=C4H7F3O2
##CAS REGISTRY NO=433-27-2
##MP= -300
##BP= -300
##MW= 144
##$RETENTION INDEX=0
##$CONDENSED SPECTRUM=NO
##NPOINTS= 52
##XYDATA=(XY..XY) 1 
    12          9
    13         11
    14         16
    15         41
    16          5
    17         39
    18        175
    19         19
    20          5
    24          4
    25         11
    26         48
    27        155
    28         58
    29        999
    30         54
    31        864
    32         35
    33          4
    39          2
    40          3
    41          6
    42         26
    43        100
    44         12
    45        391
    46        150
    47         16
    48          7
    50        286
    51        533
    52          6
    58          5
    59          5
    61          2
    62          1
    63          6
    67          1
    69        192
    70          3
    74          3
    75          3
    78         11
    79         32
    80          1
    81          1
    82          6
    85          3
    98         92
    99          2
   103          4
   127          5