##TITLE=Library Entry 56272
##JCAMP-DX=Revision 4.10 
##DATA TYPE=MASS SPECTRUM
##SAMPLE DESCRIPTION=Dennis Rohrbaugh, CBDCOM/ERDEC, Edgewood, MD
##NAMES=HP
##CAS NAME=Cyanomethyl 2-chloroethyl sulfide
##MOLFORM=C4H6ClNS
##CAS REGISTRY NO=4332-57-4
##MP= -300
##BP= -300
##MW= 135
##$RETENTION INDEX=0
##$CONDENSED SPECTRUM=NO
##NPOINTS= 19
##XYDATA=(XY..XY) 1 
    58        327
    59        301
    60        104
    62         52
    63        272
    65         61
    70         84
    71         51
    72         45
    73        334
    86        999
    87         27
    88         35
    90         54
    95        125
    97         28
   100         69
   135        302
   137         97