##TITLE=Library Entry 59585
##JCAMP-DX=Revision 4.10 
##DATA TYPE=MASS SPECTRUM
##SAMPLE DESCRIPTION=NIST Mass Spectrometry Data Center, 1994
##NAMES=HP
##CAS NAME=2-Chloroethyl benzyl sulfide
##MOLFORM=C9H11ClS
##CAS REGISTRY NO=4332-51-8
##MP= -300
##BP= -300
##MW= 186
##$RETENTION INDEX=0
##$CONDENSED SPECTRUM=NO
##NPOINTS= 67
##XYDATA=(XY..XY) 1 
    18          0
    25          1
    26         15
    27         66
    33          1
    35          2
    36          2
    37          4
    38         15
    39         93
    40          6
    41         16
    42          1
    45        118
    46         16
    47          9
    48          2
    49         11
    50         24
    51         58
    52         14
    53          3
    57          4
    58         12
    59         16
    60          7
    61          7
    62         17
    63         57
    64         14
    65        143
    66          9
    69          8
    70          1
    71          2
    73          2
    74          2
    75          4
    76          3
    77         36
    78         11
    79          8
    82          1
    85          1
    86          2
    87          2
    89         34
    91        999
    92         85
    93          6
    94          1
    97          1
   115          1
   116          0
   121         20
   122          3
   123         12
   124          1
   125          1
   135          1
   137          3
   151          3
   186        115
   187         14
   188         44
   189          4
   190          2