##TITLE=Library Entry 12013
##JCAMP-DX=Revision 4.10 
##DATA TYPE=MASS SPECTRUM
##SAMPLE DESCRIPTION=NIST Mass Spectrometry Data Center, 1992
##NAMES=HP
##CAS NAME=3-Benzylidene-2,4-pentanedione
##MOLFORM=C12H12O2
##CAS REGISTRY NO=4335-90-4
##MP= -300
##BP= -300
##MW= 188
##$RETENTION INDEX=0
##$CONDENSED SPECTRUM=NO
##NPOINTS= 95
##XYDATA=(XY..XY) 1 
    12          0
    13          1
    14         10
    15         97
    16          2
    17          0
    18          1
    26          3
    27         17
    28         18
    29          3
    32          4
    37          3
    38         11
    39         46
    40          4
    41          4
    42          3
    43        999
    44         23
    45          3
    50         69
    51        107
    52         35
    53         19
    54          0
    55          2
    58          1
    61          6
    62         30
    63         68
    64          9
    65         16
    66          1
    67          2
    69          1
    73          5
    74         51
    75         58
    76         78
    77        127
    78         20
    79          1
    85          3
    86          8
    87         12
    88          5
    89         21
    90          4
    91         19
    92          1
    97          1
    98          8
    99          4
   101         21
   102        117
   103        300
   104         31
   105          4
   110          1
   113          4
   115         69
   116         16
   117         32
   118          5
   126          7
   127         31
   128         26
   129         27
   130          4
   131        813
   132         83
   133          6
   134          0
   141          2
   142          1
   145        251
   146         44
   147          4
   155         18
   156          1
   157          1
   159          4
   160          1
   169          5
   170          1
   171          1
   172          1
   173        114
   174         14
   175          1
   187        402
   188        491
   189         63
   190          6