##TITLE=Library Entry 19985
##JCAMP-DX=Revision 4.10 
##DATA TYPE=MASS SPECTRUM
##SAMPLE DESCRIPTION=Chemical Concepts
##NAMES=HP
##CAS NAME=1,2,4-Butanetricarboxylic acid, trimethyl ester
##MOLFORM=C10H16O6
##CAS REGISTRY NO=4339-27-9
##MP= -300
##BP= -300
##MW= 232
##$RETENTION INDEX=0
##$CONDENSED SPECTRUM=NO
##NPOINTS= 126
##XYDATA=(XY..XY) 1 
    26         22
    27        189
    29        248
    30         27
    31        138
    33         11
    37          4
    38         10
    39        145
    40         24
    41        230
    42        148
    43        419
    44        118
    45        157
    46         10
    47          5
    50          8
    51         15
    52          9
    53         96
    54         96
    55        999
    56        139
    57         79
    58         53
    59        747
    60         31
    61         11
    64          5
    65          5
    66          4
    67         20
    68         28
    69        108
    70         18
    71        550
    72         52
    73         84
    74         81
    75         19
    77         14
    79         13
    80          7
    81         79
    82         58
    83        143
    84         29
    85         81
    86         22
    87        115
    88         70
    89          6
    91          6
    93          6
    95         36
    96         10
    97         38
    98         38
    99        165
   100         85
   101        124
   102         23
   103          6
   105         11
   107         10
   108         54
   109         89
   110         15
   111         25
   112         61
   113        407
   114        502
   115        106
   116         14
   117          6
   121          4
   122          3
   123          5
   124          5
   125         15
   126        128
   127        244
   128         40
   129         56
   130         16
   131         19
   132         13
   133          4
   135          4
   136          4
   137          7
   138          6
   139         23
   140        113
   141        213
   142         43
   143         53
   144          9
   145         13
   146         53
   147          6
   149          7
   152          4
   153          9
   154         11
   155         45
   156          6
   157         16
   158         11
   159        102
   160         10
   168        257
   169         79
   170         10
   171          7
   172         76
   173         49
   174          5
   185          5
   186          5
   187         10
   200         54
   201        195
   202         20
   203          4