##TITLE=Library Entry 34772
##JCAMP-DX=Revision 4.10 
##DATA TYPE=MASS SPECTRUM
##SAMPLE DESCRIPTION=NIST Mass Spectrometry Data Center, 1990.
##NAMES=HP
##CAS NAME=1-Hexyn-3-ol, 3-methyl-
##MOLFORM=C7H12O
##CAS REGISTRY NO=4339-05-3
##MP= -300
##BP= -300
##MW= 112
##$RETENTION INDEX=0
##$CONDENSED SPECTRUM=NO
##NPOINTS= 40
##XYDATA=(XY..XY) 1 
    26         14
    27         62
    28        109
    29         29
    31          7
    32         33
    38         21
    39        120
    40         34
    41        115
    42         42
    43        344
    44         12
    45         17
    50         42
    51         59
    52         20
    53         89
    54         12
    55         96
    56         10
    57         11
    62          9
    63         15
    65         21
    66         18
    67         30
    68          9
    69        999
    70         59
    71         14
    77         57
    78          9
    79         45
    83         11
    84         68
    91          9
    93          8
    97        177
    98         10