##TITLE=Library Entry 28252
##JCAMP-DX=Revision 4.10 
##DATA TYPE=MASS SPECTRUM
##SAMPLE DESCRIPTION=A.M. FALICK
##NAMES=HP
##CAS NAME=1-Propanol, 3-(dimethylamino)-, acetate
##MOLFORM=C7H15NO2
##CAS REGISTRY NO=4339-94-0
##MP= -300
##BP= -300
##MW= 145
##$RETENTION INDEX=0
##$CONDENSED SPECTRUM=NO
##NPOINTS= 12
##XYDATA=(XY..XY) 1 
    42         10
    43         30
    44         50
    46         10
    56         10
    58        999
    59         70
    60         10
    85         20
   103         10
   130         10
   145         40