##TITLE=Library Entry 13102
##JCAMP-DX=Revision 4.10 
##DATA TYPE=MASS SPECTRUM
##SAMPLE DESCRIPTION=NIST Mass Spectrometry Data Center, 1998.
##NAMES=HP
##CAS NAME=Oxymetholone
##MOLFORM=C21H32O3
##CAS REGISTRY NO=434-07-1
##MP= -300
##BP= -300
##MW= 332
##$RETENTION INDEX=2835
##$CONDENSED SPECTRUM=NO
##NPOINTS= 260
##XYDATA=(XY..XY) 1 
    15          3
    26          2
    27         47
    29        110
    30          3
    31         14
    36          1
    38          1
    39         96
    40         25
    41        442
    42         46
    43        999
    44         26
    45         42
    50          4
    51         23
    52         20
    53        210
    54         44
    55        633
    56        150
    57        202
    58        121
    59         42
    60          2
    61          1
    62          2
    63          9
    64          3
    65        114
    66         41
    67        431
    68         83
    69        230
    70         79
    71        528
    72         91
    73          8
    74          3
    75          3
    76          3
    77        302
    78         64
    79        536
    80        110
    81        502
    82         64
    83        244
    84         66
    85        156
    86         12
    87         10
    88          4
    89          9
    90          7
    91        567
    92        102
    93        464
    94        139
    95        446
    96         53
    97        106
    98         43
    99         45
   100         99
   101         26
   102         10
   103         50
   104         30
   105        489
   106        197
   107        498
   108        302
   109        415
   110         58
   111        112
   112         15
   113         17
   114          8
   115         71
   116         39
   117        111
   118         79
   119        285
   120        145
   121        325
   122        121
   123        356
   124         63
   125         77
   126         15
   127         20
   128         46
   129         58
   130         26
   131        153
   132         55
   133        212
   134        165
   135        229
   136        137
   137        226
   138         62
   139         95
   140         13
   141         29
   142         21
   143         62
   144         29
   145        196
   146         71
   147        319
   148        121
   149        183
   150        311
   151        144
   152         89
   153         34
   154          9
   155         20
   156         13
   157         75
   158         52
   159        370
   160        147
   161        480
   162        255
   163        284
   164         78
   165         51
   166         13
   167          8
   168          4
   169         22
   170         12
   171         42
   172        169
   173        120
   174        742
   175        307
   176        550
   177        125
   178         22
   179         21
   180          3
   181          6
   182          4
   183         20
   184         10
   185         29
   186         24
   187         64
   188         35
   189         54
   190         48
   191         61
   192         14
   193         10
   194          4
   195          9
   196          3
   197         17
   198          8
   199         92
   200         26
   201        106
   202         24
   203         22
   204         10
   205         24
   206         33
   207          8
   209          8
   210          2
   211         18
   212         14
   213         40
   214        213
   215        207
   216        317
   217         86
   218         15
   219         15
   220          4
   221          3
   223          8
   224          3
   225         26
   226          9
   227         25
   228         21
   229         21
   230         17
   231         23
   232         61
   233         26
   234         92
   235         17
   236          3
   237          2
   238         19
   239         14
   240          2
   241         27
   242          6
   243         37
   244         17
   245         26
   246         19
   247         15
   248          8
   249          3
   253          5
   254          4
   255          3
   256         42
   257         35
   258         24
   259         90
   260         20
   261        115
   262         57
   263         12
   264          1
   267          2
   268          1
   269          1
   271          8
   272         56
   273         13
   274        358
   275        439
   276         78
   277          8
   278          2
   281         16
   282          3
   283          1
   285          6
   286          3
   289          3
   296         17
   297          5
   299         81
   300         17
   301          1
   303          7
   304         39
   305          7
   313          4
   314         80
   315         20
   316          2
   317         32
   318          6
   331          4
   332        457
   333        103
   334         14