##TITLE=Library Entry 44864
##JCAMP-DX=Revision 4.10 
##DATA TYPE=MASS SPECTRUM
##SAMPLE DESCRIPTION=Chemical Concepts
##NAMES=HP
##CAS NAME=Threonine, 4,4,4-trifluoro-
##MOLFORM=C4H6F3NO3
##CAS REGISTRY NO=434-38-8
##MP= -300
##BP= -300
##MW= 173
##$RETENTION INDEX=0
##$CONDENSED SPECTRUM=NO
##NPOINTS= 130
##XYDATA=(XY..XY) 1 
    25          6
    27         29
    28        520
    29        168
    30        289
    31         29
    33         17
    34          0
    35          1
    36         11
    37          1
    38          5
    39         13
    40         13
    41         63
    42         71
    43         30
    44         45
    45         44
    46        129
    47          9
    48         70
    49         21
    50         14
    51         43
    52          4
    53          5
    54          5
    55         27
    56         25
    57         61
    58         77
    59        263
    60         76
    61         16
    62          2
    63          7
    64          4
    65         14
    66          5
    67          8
    68          5
    69         52
    70         20
    71         14
    72          4
    73          7
    74        999
    75         54
    76         11
    77          7
    78         14
    79         13
    80        185
    81         17
    82          7
    83         16
    84          6
    85          8
    86          4
    87          8
    88         16
    89          7
    90         48
    91         51
    92         19
    93          6
    94          2
    95          7
    96          4
    97         10
    98          9
    99         11
   100          3
   101          3
   102          1
   103          1
   104         53
   105          8
   106          3
   107          6
   108         29
   109          7
   110         21
   111         40
   112          6
   113          2
   114          2
   115          3
   116          7
   117         10
   118          1
   119          2
   120          1
   121          5
   122          4
   123          3
   124          1
   125          3
   126          7
   127          8
   128        598
   129         28
   130          3
   131          1
   132          0
   133          1
   134          2
   135          3
   136          2
   137          3
   138          3
   139          3
   140          2
   141          7
   142          4
   143          2
   144          0
   145          2
   146          0
   147          1
   148          1
   153          1
   154          3
   155         32
   156          4
   157          1
   172          1
   173         10
   174          1