##TITLE=Library Entry 61876
##JCAMP-DX=Revision 4.10 
##DATA TYPE=MASS SPECTRUM
##SAMPLE DESCRIPTION=NIST Mass Spectrometry Data Center, 2012
##NAMES=HP
##CAS NAME=Ethisterone
##MOLFORM=C21H28O2
##CAS REGISTRY NO=434-03-7
##MP= -300
##BP= -300
##MW= 312
##$RETENTION INDEX=0
##$CONDENSED SPECTRUM=NO
##NPOINTS= 273
##XYDATA=(XY..XY) 1 
    15          3
    17          1
    24          4
    25         16
    26         74
    27         91
    28         47
    29        122
    30          3
    31          7
    37          3
    38          7
    39        252
    40         86
    41        512
    42         52
    43        222
    44          9
    45          9
    46          1
    47          1
    49          1
    50         13
    51         89
    52         57
    53        519
    54         78
    55        582
    56         31
    57         31
    58          6
    59          4
    60          2
    61          1
    62          4
    63         28
    64         26
    65        220
    66         83
    67        486
    68        202
    69        105
    70         10
    71         16
    72          6
    73          4
    74          3
    75          5
    76         11
    77        605
    78        144
    79        804
    80        120
    81        424
    82         58
    83         80
    84          9
    85         16
    86         19
    87         31
    88          1
    89         25
    90         17
    91        999
    92        158
    93        487
    94        131
    95        343
    96         83
    97        218
    98         20
    99         19
   100          7
   101         18
   102         21
   103        121
   104         67
   105        656
   106        202
   107        534
   108        189
   109        379
   110        102
   111         87
   112          8
   113         16
   114          8
   115        209
   116         78
   117        287
   118        106
   119        429
   120        231
   121        601
   122        368
   123        431
   124        926
   125        107
   126         12
   127         49
   128        145
   129        193
   130         73
   131        322
   132        109
   133        346
   134        211
   135        278
   136        199
   137        220
   138         55
   139         15
   140          3
   141         88
   142         69
   143        156
   144         84
   145        256
   146        125
   147        276
   148        422
   149        323
   150         98
   151         25
   152         22
   153         31
   154         22
   155         96
   156         50
   157        122
   158         59
   159        222
   160        110
   161        235
   162        122
   163        143
   164         32
   165         27
   166         10
   167         23
   168         15
   169         64
   170         54
   171        137
   172         63
   173        168
   174        109
   175        111
   176         64
   177         67
   178         23
   179         15
   180          6
   181         29
   182         15
   183         61
   184         43
   185         93
   186         50
   187        192
   188        109
   189        226
   190         60
   191         26
   192         13
   193         12
   194          7
   195         27
   196         15
   197         45
   198         34
   199         55
   200         61
   201        118
   202         66
   203         38
   204         11
   205          7
   206          3
   207          9
   208          7
   209         35
   210         15
   211         84
   212         26
   213         82
   214         33
   215         46
   216         24
   217         29
   218          6
   219          7
   220          3
   221          7
   222          7
   223         28
   224         16
   225         30
   226         46
   227        132
   228         39
   229        256
   230         53
   231         32
   232         10
   233          7
   234          4
   235         13
   236          6
   237         42
   238         20
   239         23
   240         15
   241         22
   242        106
   243         36
   244        101
   245        281
   246         49
   247          8
   248          3
   249          4
   250          8
   251         34
   252         26
   253         17
   254          5
   255         30
   256         12
   257          9
   258         10
   259          2
   260          1
   261         14
   262          4
   263          1
   264          2
   265         13
   266         16
   267          7
   268         10
   269         35
   270         76
   271         29
   272          4
   275          2
   276          4
   277          9
   278          2
   279        100
   280         23
   281          4
   282          1
   283         28
   284         30
   285          7
   286        132
   287         29
   288          3
   292          1
   293          5
   294         22
   295         19
   296          5
   297        246
   298         55
   299          7
   300          1
   311          4
   312        415
   313         95
   314         12
   315          2