##TITLE=Library Entry 20519
##JCAMP-DX=Revision 4.10 
##DATA TYPE=MASS SPECTRUM
##SAMPLE DESCRIPTION=Chemical Sci. & Tec. Lab., NIST, Gaithersburg, MD 20899
##NAMES=HP
##CAS NAME=Lithocholic acid
##MOLFORM=C24H40O3
##CAS REGISTRY NO=434-13-9
##MP= -300
##BP= -300
##MW= 376
##$RETENTION INDEX=0
##$CONDENSED SPECTRUM=NO
##NPOINTS= 182
##XYDATA=(XY..XY) 1 
    41        602
    42         40
    43        390
    44         25
    45         62
    47          5
    49         21
    51         11
    52          3
    53        140
    54         44
    55        999
    56         60
    57        164
    58         14
    59         91
    60         90
    61          3
    65         54
    66         29
    67        633
    68        201
    69        318
    70         42
    71         48
    72          3
    73         39
    74         13
    77        150
    78         34
    79        506
    80        110
    81        698
    82        130
    83        210
    84         30
    85         62
    86         12
    87         11
    88          7
    91        338
    92         84
    93        513
    94        228
    95        544
    96         66
    97         87
    98         11
    99         19
   100          6
   101         36
   102          6
   103         14
   104         20
   105        363
   106        215
   107        443
   108        195
   109        250
   110         44
   111         48
   112          7
   113          6
   114          6
   115         22
   116          8
   117         52
   118         37
   119        209
   120        146
   121        252
   122        135
   123        117
   124         48
   125         20
   126          3
   127         19
   128         17
   129         17
   130          9
   131         70
   132         25
   133        170
   134        105
   135        193
   136         57
   137         32
   138         10
   139          6
   140         32
   141         11
   142          5
   143         13
   144          8
   145        135
   146         37
   147        182
   148         92
   149        206
   150         39
   151         31
   152          3
   153          6
   157         10
   158          5
   159         91
   160         58
   161        155
   162        120
   163         44
   164          9
   165        204
   166         59
   167         18
   171          8
   173         70
   174         55
   175        109
   176         64
   177         20
   178          8
   179          3
   181          6
   185          6
   187         40
   188         31
   189         28
   190          7
   191          8
   193          3
   194          3
   195          6
   196          3
   199          9
   201         71
   202         23
   203         29
   204          6
   213          6
   215        505
   216        196
   217        113
   218         52
   219         16
   229         27
   230        114
   231         25
   232         10
   233         39
   234         21
   235          8
   243          1
   248         64
   249         19
   250         10
   257         34
   258          7
   262          8
   263          7
   264          3
   275          5
   276          1
   285          6
   301          1
   302          6
   303         22
   304         46
   305          9
   316         14
   317          9
   325         10
   341          1
   343         94
   344         23
   345         15
   358        519
   359        136
   360         40
   361         10
   375          1
   376         61
   377         16