##TITLE=Library Entry 78581
##JCAMP-DX=Revision 4.10 
##DATA TYPE=MASS SPECTRUM
##SAMPLE DESCRIPTION=Japan AIST/NIMC Database- Spectrum MS-NW-2205
##NAMES=HP
##CAS NAME=Ethanone, 2,2,2-trifluoro-1-phenyl-
##MOLFORM=C8H5F3O
##CAS REGISTRY NO=434-45-7
##MP= -300
##BP= -300
##MW= 174
##$RETENTION INDEX=866
##$CONDENSED SPECTRUM=NO
##NPOINTS= 63
##XYDATA=(XY..XY) 1 
    25          1
    26          5
    27         24
    28          5
    29          1
    31          5
    32          1
    36          2
    37         15
    38         27
    39         19
    40          2
    41          2
    43          4
    44          1
    45          6
    48          1
    49         11
    50        122
    51        308
    52         22
    53          7
    55          1
    57          2
    58          1
    60          1
    61          6
    62          7
    63          5
    65          2
    66          2
    68          1
    69         35
    73          8
    74         40
    75         29
    76         33
    77        848
    78         59
    79          3
    80          1
    81          1
    85          2
    86          1
    87          1
    89          1
    91          4
    94          7
    95          9
    96          1
    99          2
   103          6
   104         14
   105        999
   106         77
   107          7
   115          2
   117          7
   118          6
   123          5
   125          1
   174         76
   175          7