##TITLE=Library Entry 47177
##JCAMP-DX=Revision 4.10 
##DATA TYPE=MASS SPECTRUM
##SAMPLE DESCRIPTION=Exported from NIST MS Search
##NAMES=HP
##CAS NAME=Diazene, (4-chlorophenyl)phenyl-
##MOLFORM=C12H9ClN2
##CAS REGISTRY NO=4340-77-6
##MP= -300
##BP= -300
##MW= 216
##$RETENTION INDEX=0
##$CONDENSED SPECTRUM=NO
##NPOINTS= 48
##XYDATA=(XY..XY) 1 
    37         30
    38         50
    39         78
    50        229
    51        352
    52         40
    61         43
    62         53
    63        108
    64         75
    65         18
    73         28
    74         88
    75        377
    76         80
    77        999
    78         83
    84         13
    85         65
    86         13
    87         25
    88         10
    89         15
    90         30
    91         20
   105         30
   106         23
   111        749
   112         38
   113        344
   114         15
   125         23
   126         25
   139        274
   140         10
   141         70
   142         10
   150         18
   151         43
   152        181
   153         30
   162         13
   188         40
   190         15
   216        447
   217         30
   218        153
   219         10