##TITLE=Library Entry 17038
##JCAMP-DX=Revision 4.10 
##DATA TYPE=MASS SPECTRUM
##SAMPLE DESCRIPTION=R RYHAGE MS-LAB KAROLINSKA INSTITUTET STOCKHOLM SWEDEN
##NAMES=HP
##CAS NAME=2-Eicosanol
##MOLFORM=C20H42O
##CAS REGISTRY NO=4340-76-5
##MP= -300
##BP= -300
##MW= 298
##$RETENTION INDEX=0
##$CONDENSED SPECTRUM=NO
##NPOINTS= 263
##XYDATA=(XY..XY) 1 
    15          2
    16          1
    17          7
    18         39
    19          5
    26          3
    27         44
    28         17
    29        140
    30          4
    31         15
    32          1
    33          1
    37          1
    38          1
    39         35
    40          9
    41        425
    42         96
    43        755
    44         91
    45        999
    46         44
    47          5
    48          4
    51          2
    52          2
    53         27
    54         70
    55        574
    56        251
    57        817
    58        165
    59        117
    60          5
    61          1
    62          1
    63          1
    64          1
    65          7
    66          8
    67        118
    68         74
    69        486
    70        236
    71        506
    72         32
    73          5
    74          8
    75          2
    76          3
    77          5
    78          2
    79         14
    80          7
    81         86
    82        188
    83        469
    84        169
    85        293
    86         20
    87         10
    88          2
    91          4
    92          1
    93          7
    94          5
    95         69
    96        140
    97        550
    98        141
    99        106
   100         11
   101          4
   102          1
   103          0
   104          5
   105          4
   106          1
   107          3
   108          2
   109         33
   110         69
   111        347
   112        116
   113         72
   114         10
   115          2
   116          1
   117          1
   118          1
   119          1
   120          1
   121          4
   122          3
   123         15
   124         50
   125        194
   126         76
   127         55
   128          6
   129          3
   130          1
   131          1
   132          1
   133          1
   134          1
   135          3
   136          2
   137         12
   138         43
   139        129
   140         74
   141         41
   142          5
   143          3
   144          1
   145          1
   146          0
   147          1
   148          1
   149         52
   150          5
   151          6
   152         35
   153         84
   154         64
   155         35
   156          5
   157          2
   158          0
   159          1
   160          1
   161          1
   162          0
   163          1
   164          1
   165          3
   166         28
   167         68
   168         58
   169         28
   170          4
   171          1
   172          0
   173          1
   174          1
   175          1
   176          1
   177          1
   178          1
   179          2
   180         29
   181         48
   182         45
   183         26
   184          4
   185          2
   186          1
   187          0
   189          1
   191          1
   192          1
   193          2
   194         21
   195         38
   196         40
   197         22
   198          5
   199          9
   200         12
   201          7
   202         16
   203          1
   204          3
   205          3
   206          1
   207          2
   208         15
   209         30
   210         34
   211         16
   212          2
   213          1
   214          0
   215          0
   216          0
   217          0
   218          0
   219          1
   220          1
   221          1
   222         11
   223         23
   224         27
   225          1
   226          2
   227          2
   228          1
   229          1
   230          0
   231          0
   232          0
   233          1
   234          1
   235          1
   236         18
   237         18
   238         47
   239         13
   240          3
   241          1
   242          0
   245          0
   246          0
   247          0
   248          1
   249          1
   250          4
   251          1
   252        113
   253         28
   254         28
   255          6
   256          2
   257          1
   261          1
   262          1
   263          1
   264          2
   265          2
   266          3
   267          1
   268          1
   269          1
   270          0
   274          0
   275          1
   276          1
   277          1
   278         12
   279          3
   280        291
   281         79
   282         10
   283         86
   284         18
   285          2
   286          0
   287          0
   291          1
   292          1
   293          1
   294          1
   295          2
   296         48
   297         21
   298          5
   299          1
   300          1
   301          1
   302          0
   303          1