##TITLE=Library Entry 63732
##JCAMP-DX=Revision 4.10 
##DATA TYPE=MASS SPECTRUM
##SAMPLE DESCRIPTION=A.A.Kutin, Moscow, Russia
##NAMES=HP
##CAS NAME=1H-[1,2,3]Triazole-4-carboxamide, 5-amino-1-(phenylmethyl)-
##MOLFORM=C10H11N5O
##CAS REGISTRY NO=4342-08-9
##MP= -300
##BP= -300
##MW= 217
##$RETENTION INDEX=0
##$CONDENSED SPECTRUM=NO
##NPOINTS= 124
##XYDATA=(XY..XY) 1 
    34          0
    36          0
    37          3
    38         19
    39        113
    40         47
    41         58
    42         39
    43         59
    44        113
    45         16
    47          0
    50         37
    51         82
    52         24
    53         40
    54         28
    55        263
    56         11
    57         10
    58          5
    59          2
    61          4
    62         16
    63         64
    64         20
    65        230
    66         17
    67         17
    68         37
    69         16
    70         67
    71         35
    72          3
    73          2
    74          8
    75         10
    76         11
    77         45
    78         14
    79         10
    80          2
    81          6
    82          1
    83          2
    84         14
    85         16
    86         10
    87          3
    89         65
    91        999
    92        101
    93          8
    94          1
    95         11
    96          1
    98         85
    99          4
   100          1
   101          2
   102          6
   103         12
   104         29
   105         20
   106         23
   107          2
   109         10
   110          1
   111          2
   112          6
   113          1
   114          0
   115          2
   116         25
   117         70
   118         29
   119         10
   120          1
   121          0
   122          0
   123          4
   124          0
   125          1
   128         21
   129         11
   130          2
   131          4
   132          7
   133          4
   134          0
   136          0
   137          3
   138          0
   139          1
   140          1
   142          4
   143         34
   144        101
   145         45
   146          6
   147          1
   148          0
   149          1
   151          0
   153          0
   156          5
   157          0
   159          2
   160          7
   161          2
   162          1
   165          2
   171        188
   172         36
   173          4
   174          0
   185          0
   188         15
   189          2
   190          1
   199          0
   217        327
   218         41
   219          1