##TITLE=Library Entry 96180
##JCAMP-DX=Revision 4.10 
##DATA TYPE=MASS SPECTRUM
##SAMPLE DESCRIPTION=James Little,Eastman Chem.Co.,Kingsport,TN
##NAMES=HP
##CAS NAME=4-Amino-3-mercapto-1,2,4-triazole
##MOLFORM=C2H4N4S
##CAS REGISTRY NO=4343-75-3
##MP= -300
##BP= -300
##MW= 116
##$RETENTION INDEX=0
##$CONDENSED SPECTRUM=NO
##NPOINTS= 28
##XYDATA=(XY..XY) 1 
    27         85
    28        395
    29         98
    30         74
    31         67
    32        145
    41         29
    42         57
    43         95
    44         97
    45         81
    46         33
    57         20
    58        233
    59        166
    60        222
    69         17
    70         39
    71         62
    74         56
    77          9
    85         41
    86         43
    87         15
   116        999
   117         57
   118         54
   119          8