##TITLE=Library Entry 49913
##JCAMP-DX=Revision 4.10 
##DATA TYPE=MASS SPECTRUM
##SAMPLE DESCRIPTION=Div. of Experiment Therapeutics WRAIR, WRAMC, Washingto
n DC 20307
##NAMES=HP
##CAS NAME=5-Furfuryl hydantoin
##MOLFORM=C8H8N2O3
##CAS REGISTRY NO=4349-14-8
##MP= -300
##BP= -300
##MW= 180
##$RETENTION INDEX=0
##$CONDENSED SPECTRUM=NO
##NPOINTS= 84
##XYDATA=(XY..XY) 1 
    42        119
    43        131
    44        545
    45         86
    46         73
    47          7
    49         33
    50         67
    51        138
    52        111
    53        557
    54         86
    55         61
    56         13
    57          4
    59          9
    60          3
    61         26
    62         11
    63         26
    64          4
    65         40
    66         38
    67         22
    68         15
    69          6
    70         19
    71          6
    72          2
    74         95
    75          1
    76          5
    77          6
    78          8
    79         12
    80         32
    81        999
    82        124
    83         24
    84         14
    86         28
    87          3
    88          1
    90          0
    91          1
    92         17
    94         69
    95          7
    96          5
    97          5
    98          1
    99         11
   100          3
   105          5
   106          2
   107          4
   108          8
   109         22
   110         58
   111          3
   112          1
   113          1
   117          2
   119          1
   120          2
   121          8
   122          1
   123          0
   126          0
   134          2
   135          2
   137          8
   138        252
   139         20
   140          2
   152          7
   153          6
   154          2
   155          0
   156          4
   163          0
   179          1
   180         30
   181          3