##TITLE=Library Entry 32953
##JCAMP-DX=Revision 4.10 
##DATA TYPE=MASS SPECTRUM
##SAMPLE DESCRIPTION=Exported from NIST MS Search
##NAMES=HP
##CAS NAME=Formic acid, cyclohexyl ester
##MOLFORM=C7H12O2
##CAS REGISTRY NO=4351-54-6
##MP= -300
##BP= -300
##MW= 128
##$RETENTION INDEX=951
##$CONDENSED SPECTRUM=NO
##NPOINTS= 60
##XYDATA=(XY..XY) 1 
    15         14
    17          5
    18          2
    26         11
    27        132
    28         49
    29        164
    30          9
    31         48
    32          2
    37          3
    38          9
    39        140
    40         25
    41        329
    42         94
    43        112
    44        168
    45         29
    46         13
    47          2
    50          9
    51         16
    52          8
    53         46
    54        364
    55        324
    56         80
    57        550
    58         38
    59          5
    60         16
    62          3
    65          9
    66         12
    67        999
    68         60
    69         28
    70         19
    71         54
    72         18
    73          8
    74          1
    77          9
    78          1
    79         23
    80          7
    81         86
    82        939
    83        188
    84         12
    85          7
    88          1
    89          8
    96          2
    97          5
    98         21
    99          9
   100          6
   111          2