##TITLE=Library Entry 19976
##JCAMP-DX=Revision 4.10 
##DATA TYPE=MASS SPECTRUM
##SAMPLE DESCRIPTION=NIST Mass Spectrometry Data Center, 1990.
##NAMES=HP
##CAS NAME=1-Cyclohexyl-2-propen-1-ol
##MOLFORM=C9H16O
##CAS REGISTRY NO=4352-44-7
##MP= -300
##BP= -300
##MW= 140
##$RETENTION INDEX=0
##$CONDENSED SPECTRUM=NO
##NPOINTS= 52
##XYDATA=(XY..XY) 1 
    14          2
    26         16
    27        123
    28         27
    29        147
    30          7
    31         38
    39        193
    40         45
    41        336
    42         40
    43         53
    50         18
    51         44
    52         23
    53         99
    54        103
    55        999
    56         73
    57        346
    58        497
    59         34
    63         14
    65         48
    66         28
    67        271
    68         42
    69         31
    70          7
    77         76
    78         33
    79        190
    80         81
    81        177
    82        186
    83        462
    84         34
    85         15
    91         76
    92         13
    93         69
    94         64
    95         31
    96         97
    97         26
    99         15
   105          8
   107         58
   111         51
   112         12
   122         68
   123          7