##TITLE=Library Entry 57289
##JCAMP-DX=Revision 4.10 
##DATA TYPE=MASS SPECTRUM
##SAMPLE DESCRIPTION=NIST Mass Spectrometry Data Center
##NAMES=HP
##CAS NAME=1,3-Dioxolane, 4-methyl-2-propyl-
##MOLFORM=C7H14O2
##CAS REGISTRY NO=4352-99-2
##MP= -300
##BP= -300
##MW= 130
##$RETENTION INDEX=840
##$CONDENSED SPECTRUM=NO
##NPOINTS= 30
##XYDATA=(XY..XY) 1 
    26          4
    27         49
    29         56
    30          3
    31        142
    38          6
    39         81
    40         13
    41        295
    42         33
    43        143
    44          9
    45         20
    47          6
    54          5
    55         66
    56        240
    57         76
    59        474
    60         16
    71         55
    72          9
    73          5
    74          4
    85          9
    86         24
    87        999
    88         48
    89          4
   129         32