##TITLE=Library Entry 12579
##JCAMP-DX=Revision 4.10 
##DATA TYPE=MASS SPECTRUM
##SAMPLE DESCRIPTION=Asinex Ltd, Moscow, Russia
##NAMES=HP
##CAS NAME=Furane-2-carboxaldehyde, iminosemicarbazone
##MOLFORM=C6H8N4O
##CAS REGISTRY NO=4353-50-8
##MP= -300
##BP= -300
##MW= 152
##$RETENTION INDEX=0
##$CONDENSED SPECTRUM=NO
##NPOINTS= 121
##XYDATA=(XY..XY) 1 
    35          0
    36          5
    37         19
    38         59
    39        184
    40         18
    41         31
    42         84
    43        999
    44        571
    45        132
    46        508
    47          4
    48          3
    49          3
    50         69
    51        147
    52        504
    53        120
    54         53
    55         27
    56          8
    57         16
    58         42
    59         74
    60          4
    61          1
    62          0
    63          8
    64         10
    65          7
    66          9
    67          4
    68         16
    69         13
    70          6
    71          2
    72          0
    73          5
    74          0
    75          0
    76          5
    77          2
    78         17
    79         26
    80        153
    81         62
    82         10
    83          4
    84          9
    85         19
    86          1
    87          0
    88          0
    89          0
    90          0
    91          1
    92          0
    93          5
    94         16
    95         29
    96         43
    97          4
    98          2
    99          3
   100          0
   101          0
   102          0
   103          0
   104          0
   105          1
   106          2
   107          4
   108         30
   109         13
   110         25
   111          3
   112          0
   113          0
   114          0
   115          2
   116          0
   117          0
   118          0
   119          1
   120          1
   121          4
   122          0
   123          8
   124          2
   125          1
   126          0
   127          2
   128          0
   129          0
   130          2
   131          1
   132          1
   133          1
   134         17
   135         73
   136         20
   137          2
   138          1
   139          2
   140          0
   141          1
   142          0
   143          1
   144          0
   145          1
   146          0
   147          0
   148          0
   149          0
   150          7
   151        155
   152        794
   153        135
   154         11
   155          2