##TITLE=Library Entry 57485
##JCAMP-DX=Revision 4.10 
##DATA TYPE=MASS SPECTRUM
##SAMPLE DESCRIPTION=Chemical Concepts
##NAMES=HP
##CAS NAME=2-Methyl-2-[2-(2,6,6-trimethylcyclohex-2-enyl)ethyl][1,3]dioxolan
e
##MOLFORM=C15H26O2
##CAS REGISTRY NO=4353-04-2
##MP= -300
##BP= -300
##MW= 238
##$RETENTION INDEX=0
##$CONDENSED SPECTRUM=NO
##NPOINTS= 95
##XYDATA=(XY..XY) 1 
    27         23
    28         12
    29         29
    39         28
    40          5
    41        101
    42         13
    43        278
    44          9
    45         35
    51          4
    52          2
    53         34
    54          5
    55         59
    56         10
    57         12
    58          2
    59         37
    63          2
    65         14
    66          4
    67         33
    68          7
    69         25
    70          2
    71         66
    72          4
    73          7
    77         32
    78          7
    79         51
    80         24
    81         91
    82         11
    83          6
    85          5
    86         10
    87        999
    88         47
    89         23
    90          2
    91         42
    92         18
    93         91
    94         33
    95         77
    96          8
    97          4
    99         66
   100          4
   101          5
   102         39
   103          9
   104         37
   105         18
   107         58
   108         25
   109         37
   110          4
   111          2
   113          9
   115        124
   116          9
   117          2
   119         25
   120         53
   121        169
   122         37
   123         75
   124          8
   125          3
   133         16
   134          9
   135         12
   136        399
   137         57
   138          6
   147          5
   149          3
   151          2
   161        105
   162         12
   163         17
   167         19
   175          2
   176        103
   177         17
   179          3
   182          4
   193          2
   223         28
   224          4
   238         22
   239          3