##TITLE=Library Entry 17241
##JCAMP-DX=Revision 4.10 
##DATA TYPE=MASS SPECTRUM
##SAMPLE DESCRIPTION=Japan AIST/NIMC Database- Spectrum MS-NW-8333
##NAMES=HP
##CAS NAME=Tetraethylene glycol diethyl ether
##MOLFORM=C12H26O5
##CAS REGISTRY NO=4353-28-0
##MP= -300
##BP= -300
##MW= 250
##$RETENTION INDEX=0
##$CONDENSED SPECTRUM=NO
##NPOINTS= 62
##XYDATA=(XY..XY) 1 
    14          1
    15         11
    18          2
    26          3
    27         35
    28         48
    29        106
    30          7
    31        118
    32          2
    41         12
    42         11
    43        101
    44         74
    45        999
    46         22
    47          3
    55          4
    56          7
    57         12
    58         23
    59        293
    60         12
    61          6
    69          1
    70         14
    71          9
    72        444
    73        585
    74         26
    75          7
    76          1
    85          1
    86          5
    87         55
    88         20
    89         65
    90          3
    91          4
    99          1
   100          1
   101         23
   102          5
   103        112
   104          7
   105          2
   115          3
   116         22
   117        123
   118          9
   119          3
   129          1
   131          7
   132          1
   133         14
   134          1
   145          1
   147         11
   148          2
   161          3
   177          2
   191          2