##TITLE=Library Entry 70171
##JCAMP-DX=Revision 4.10 
##DATA TYPE=MASS SPECTRUM
##SAMPLE DESCRIPTION=VERIFINN
##NAMES=HP
##CAS NAME=Cyclohexaneglycolic acid, .alpha.-phenyl-, 1-methyl-3-piperidyl e
ster
##MOLFORM=C20H29NO3
##CAS REGISTRY NO=4354-45-4
##MP= -300
##BP= -300
##MW= 331
##$RETENTION INDEX=0
##$CONDENSED SPECTRUM=NO
##NPOINTS= 44
##XYDATA=(XY..XY) 1 
    27         12
    29         15
    39         11
    41         51
    42         65
    43         58
    44         87
    55         61
    56         12
    57         16
    58         25
    67         14
    68         11
    69         18
    70         55
    71         52
    77         42
    79         38
    82         60
    83         16
    84        243
    85         15
    91         42
    94          8
    96        110
    97        999
    98        196
    99         38
   105         68
   106          8
   107         73
   108          6
   114         29
   115         10
   116         17
   117          6
   129         11
   133          7
   143          5
   188          7
   189         65
   190          9
   248         10
   249          9