##TITLE=Library Entry 19514
##JCAMP-DX=Revision 4.10 
##DATA TYPE=MASS SPECTRUM
##SAMPLE DESCRIPTION=Chemical Concepts
##NAMES=HP
##CAS NAME=Propanedinitrile, cyclohexylidene-
##MOLFORM=C9H10N2
##CAS REGISTRY NO=4354-73-8
##MP= -300
##BP= -300
##MW= 146
##$RETENTION INDEX=0
##$CONDENSED SPECTRUM=NO
##NPOINTS= 80
##XYDATA=(XY..XY) 1 
    25          0
    26         46
    27        284
    29        141
    30          6
    36          0
    37         27
    38         43
    39        256
    41        313
    42        179
    43          3
    48          1
    49          1
    50         47
    51         84
    52         58
    53         67
    54         29
    55        999
    56         35
    61         11
    62         26
    63         69
    64         98
    65         54
    66         39
    67         99
    68        159
    69          3
    72          0
    73          1
    74          5
    75         27
    76         50
    77        105
    78         95
    79         73
    80         75
    81        144
    82         10
    86          0
    87          7
    88         15
    89         26
    90         40
    91        111
    92        169
    93        115
    94         12
    96          1
    99          2
   100          2
   101          4
   102         15
   103         21
   104         96
   105        169
   106         79
   107          6
   114          5
   115          5
   116         18
   117         15
   118        127
   119         74
   120         26
   121          0
   128         12
   129         18
   130          8
   131        239
   132         20
   133          1
   143          4
   144          2
   145        257
   146        303
   147         36
   148          1