##TITLE=Library Entry 68350
##JCAMP-DX=Revision 4.10 
##DATA TYPE=MASS SPECTRUM
##SAMPLE DESCRIPTION=Chemical Concepts
##NAMES=HP
##CAS NAME=3-Ethyl-4-(3-methyl-3H-imidazol-4-ylmethyl)dihydrofuran-2-one
##MOLFORM=C11H16N2O2
##CAS REGISTRY NO=4354-74-9
##MP= -300
##BP= -300
##MW= 208
##$RETENTION INDEX=0
##$CONDENSED SPECTRUM=NO
##NPOINTS= 67
##XYDATA=(XY..XY) 1 
    26          5
    27         32
    28         64
    29         15
    30         36
    36          4
    38          4
    39         41
    40         11
    41         64
    42         87
    43          5
    44         20
    46         57
    50          3
    51          8
    52         11
    53         25
    54         57
    55         26
    56          5
    57          3
    59          4
    63          3
    65         10
    66         12
    67         19
    68         36
    69          7
    77          7
    78          4
    79          6
    80         14
    81         17
    82         28
    83         29
    85          4
    91          3
    92          5
    93          6
    94         18
    95        999
    96        284
    97         17
    98          4
   106          5
   107          6
   108          7
   109        123
   110         12
   111          4
   119          3
   121         27
   122          9
   123         16
   124          7
   133          6
   135          6
   138          3
   147          3
   149          8
   150          3
   151          5
   164          4
   193          5
   208         91
   209         13