##TITLE=Library Entry 64157
##JCAMP-DX=Revision 4.10 
##DATA TYPE=MASS SPECTRUM
##SAMPLE DESCRIPTION=Chemical Concepts
##NAMES=HP
##CAS NAME=.beta.-d-Glucopyranoside, methyl 2,3,4-tris-O-(phenylmethyl)-, ac
etate
##MOLFORM=C30H34O7
##CAS REGISTRY NO=4356-79-0
##MP= -300
##BP= -300
##MW= 506
##$RETENTION INDEX=0
##$CONDENSED SPECTRUM=NO
##NPOINTS= 269
##XYDATA=(XY..XY) 1 
    27          3
    28          5
    29          3
    31          1
    33          2
    38          0
    39         12
    40          1
    41          9
    42          2
    43         55
    44          2
    45          7
    50          4
    51         13
    52          4
    53          2
    54          1
    55          5
    56          1
    57          4
    58          0
    59          1
    60          1
    61          4
    62          1
    63          7
    64          2
    65         49
    66          3
    67          1
    68          1
    69          7
    70          2
    71          4
    72          3
    73          4
    74          2
    75          2
    76          1
    77         23
    78          5
    79         15
    80          5
    81         26
    82          4
    83          2
    84          1
    85          4
    86          0
    87          5
    89          7
    90          7
    91        999
    92         77
    93          4
    94          4
    95          1
    96          1
    97          4
    98          1
    99          6
   100          1
   101          1
   102          0
   103          3
   104          5
   105         27
   106         16
   107         13
   108          4
   109         17
   110          1
   111          2
   112          0
   113          1
   115         23
   116          2
   117          9
   118          4
   119          6
   120          3
   121         42
   122          4
   123          1
   124          0
   125          2
   126          1
   127         24
   128          3
   129          9
   130          2
   131          5
   132          5
   133         17
   134         68
   135         19
   136          3
   138          1
   139          2
   140          2
   141         11
   142          3
   143          8
   144          5
   145         20
   146         11
   147          7
   148          3
   149          5
   150          5
   151          5
   152          2
   153          4
   154          2
   155          2
   156          1
   157          9
   158          3
   159         11
   160          6
   161         10
   162          2
   163         15
   164          6
   165          6
   166          3
   167         10
   168          2
   169         11
   170          2
   171         19
   172          4
   173          4
   174          1
   175         18
   176          4
   177         16
   178          4
   179          8
   180          4
   181         69
   182         15
   183          3
   184          4
   185          3
   186          1
   187         72
   188          8
   189         10
   190          2
   191          2
   192          1
   193         33
   194          5
   195          1
   196          1
   197         41
   198          7
   199         24
   200         26
   201         11
   202          8
   203          6
   204          1
   205          5
   206          9
   207          3
   209          2
   210          4
   211         21
   212          4
   213          0
   214          0
   215          4
   216          1
   217         31
   218          5
   219          4
   221          1
   223         13
   224          4
   225          6
   226          2
   227          1
   231          7
   232          3
   233          3
   234          1
   235          4
   236          1
   237          1
   239          1
   240         23
   241          5
   242          1
   244          2
   245          1
   247          2
   248          1
   249          4
   250          1
   251          1
   253        119
   254         24
   255          3
   257          1
   258          1
   259          5
   260          4
   261          4
   262          2
   263          3
   265          2
   266          1
   267          1
   271          6
   272          1
   275          4
   276          1
   277        100
   278         17
   279          3
   280          1
   281          0
   290          1
   291          3
   292          1
   293          2
   294          0
   295          2
   296          1
   305          1
   306          1
   307          2
   308          2
   309         60
   310         10
   311          2
   313          1
   323         10
   324          2
   325          2
   337          1
   338          2
   339          0
   340          1
   341          1
   353          0
   355          1
   367          3
   368          3
   369          2
   370          1
   383         42
   384         10
   385          2
   397          1
   399          0
   414          4
   415         24
   416          4
   417          1
   429          0
   451          2
   474          1
   475          1
   476          0
   505          1