##TITLE=Library Entry 15311
##JCAMP-DX=Revision 4.10 
##DATA TYPE=MASS SPECTRUM
##SAMPLE DESCRIPTION=Chuck Anderson, Aldrich Chemical Co.
##NAMES=HP
##CAS NAME=3,4-Furandiol, tetrahydro-, cis-
##MOLFORM=C4H8O3
##CAS REGISTRY NO=4358-64-9
##MP= -300
##BP= -300
##MW= 104
##$RETENTION INDEX=0
##$CONDENSED SPECTRUM=NO
##NPOINTS= 40
##XYDATA=(XY..XY) 1 
    14         16
    15         98
    16          5
    17         16
    18         54
    19         84
    20         10
    26         41
    27        136
    28        249
    29        333
    30         39
    31        222
    32         15
    35         72
    36        450
    37         27
    38        164
    39         24
    41         18
    42         89
    43        547
    44        999
    45        257
    46         12
    47         28
    55        230
    56        150
    57         78
    58         12
    59          2
    60        174
    61        396
    62          9
    69          8
    73        117
    74         37
    75          5
    76          7
    86         10