##TITLE=Library Entry 40726
##JCAMP-DX=Revision 4.10 
##DATA TYPE=MASS SPECTRUM
##SAMPLE DESCRIPTION=Chemical Concepts
##NAMES=HP
##CAS NAME=1,3-Dioxolane, 2-heptyl-
##MOLFORM=C10H20O2
##CAS REGISTRY NO=4359-57-3
##MP= -300
##BP= -300
##MW= 172
##$RETENTION INDEX=0
##$CONDENSED SPECTRUM=NO
##NPOINTS= 71
##XYDATA=(XY..XY) 1 
    26          2
    27         40
    28          3
    29         29
    30          0
    31          6
    38          0
    39         17
    40         10
    41         44
    42         11
    43         23
    44          9
    45        106
    46          2
    47          0
    50          0
    51          0
    52          0
    53          3
    54          2
    55         17
    56          4
    57         18
    58          4
    59          0
    60          0
    63          0
    65          0
    66          0
    67          5
    68          3
    69          7
    70          1
    71          8
    72          0
    73        999
    74         28
    75          4
    77          0
    79          0
    80          0
    81          3
    82          2
    83          1
    84          0
    85          1
    86          2
    87          2
    88          2
    89          0
    95          1
    96          0
    97          0
    99          4
   100          0
   101          1
   109          1
   110          2
   111          1
   112          0
   113          0
   115          0
   127          0
   129          0
   142          0
   143          0
   144          1
   171         16
   172          2
   173          0