##TITLE=Library Entry 7979
##JCAMP-DX=Revision 4.10 
##DATA TYPE=MASS SPECTRUM
##SAMPLE DESCRIPTION=Chemical Concepts
##NAMES=HP
##CAS NAME=1,3-Dioxolane, 2-ethyl-2,4,5-trimethyl-
##MOLFORM=C8H16O2
##CAS REGISTRY NO=4359-51-7
##MP= -300
##BP= -300
##MW= 144
##$RETENTION INDEX=0
##$CONDENSED SPECTRUM=NO
##NPOINTS= 59
##XYDATA=(XY..XY) 1 
    25          1
    26         24
    27        182
    28         71
    29        232
    30          6
    31         20
    32          2
    37          1
    38          4
    39         80
    40         16
    41        220
    42         31
    43        999
    44         43
    45         96
    46          2
    49          0
    50          4
    51          6
    52          4
    53         23
    54         13
    55        319
    56        209
    57        492
    58         22
    59          1
    61         19
    62          0
    69          5
    70          1
    71         24
    72        325
    73        295
    74         13
    75         22
    76          0
    81          0
    83          1
    85          2
    87          0
    99          3
   100        125
   101          9
   102          0
   111          5
   112          0
   113          1
   114          0
   115        477
   116         36
   117          3
   128          0
   129        114
   130          8
   131          0
   143          0