##TITLE=Library Entry 57283
##JCAMP-DX=Revision 4.10 
##DATA TYPE=MASS SPECTRUM
##SAMPLE DESCRIPTION=Exported from NIST MS Search
##NAMES=HP
##CAS NAME=1,3-Dioxolane, 2-ethyl-4-methyl-
##MOLFORM=C6H12O2
##CAS REGISTRY NO=4359-46-0
##MP= -300
##BP= -300
##MW= 116
##$RETENTION INDEX=778
##$CONDENSED SPECTRUM=NO
##NPOINTS= 56
##XYDATA=(XY..XY) 1 
    14         10
    15         61
    16          4
    19          3
    25          3
    26         39
    27        188
    28        120
    29        340
    30         25
    31        582
    32          8
    33          2
    36          1
    37          5
    38         12
    39        104
    40         39
    41        511
    42        226
    43        172
    44         22
    45         55
    47         12
    53          3
    54          1
    55         22
    56         14
    57        291
    58         89
    59        624
    60         23
    61          8
    69          2
    70          5
    71         61
    72        235
    73         14
    74          1
    75          4
    83          2
    85          2
    86         18
    87        999
    88         46
    89          5
    94          2
    96          4
   101          9
   102          1
   111          1
   112          2
   113          1
   114          2
   115         39
   116          3