##TITLE=Library Entry 40759
##JCAMP-DX=Revision 4.10 
##DATA TYPE=MASS SPECTRUM
##SAMPLE DESCRIPTION=Japan AIST/NIMC Database- Spectrum MS-NW-8578
##NAMES=HP
##CAS NAME=2-Bromomethyl-1,3-dioxolane
##MOLFORM=C4H7BrO2
##CAS REGISTRY NO=4360-63-8
##MP= -300
##BP= -300
##MW= 166
##$RETENTION INDEX=0
##$CONDENSED SPECTRUM=NO
##NPOINTS= 63
##XYDATA=(XY..XY) 1 
    13          1
    14         11
    15         68
    16          2
    18          1
    19          7
    25          1
    26         17
    27        108
    28         17
    29        104
    30          8
    31         83
    32          1
    33          1
    39          1
    41          9
    42         33
    43        136
    44         16
    45        319
    46          7
    47          1
    57         61
    58          4
    59          8
    61          2
    71          2
    72          1
    73        999
    74         34
    75          5
    79          4
    80          4
    81          4
    82          4
    86          3
    87         29
    88          1
    91          1
    92          3
    93         23
    94          7
    95         21
    96          5
   105          5
   106          5
   107          9
   108          4
   109          6
   120          1
   121         20
   122          2
   123         22
   124          1
   125          2
   136          1
   137          1
   138          1
   139          1
   165         11
   167         12
   169          1