##TITLE=Library Entry 40594
##JCAMP-DX=Revision 4.10 
##DATA TYPE=MASS SPECTRUM
##SAMPLE DESCRIPTION=R.T.HOLMAN,UNIVERSITY OF MINNESOTA
##NAMES=HP
##CAS NAME=1,3-Dioxolane, 2-pentadecyl-
##MOLFORM=C18H36O2
##CAS REGISTRY NO=4360-57-0
##MP= -300
##BP= -300
##MW= 284
##$RETENTION INDEX=0
##$CONDENSED SPECTRUM=NO
##NPOINTS= 108
##XYDATA=(XY..XY) 1 
    26          1
    27          7
    28          3
    29         17
    30          1
    31          1
    32          1
    39          4
    40          1
    41         39
    42         10
    43         53
    44          7
    45         46
    46          1
    47          1
    53          3
    54          4
    55         33
    56         10
    57         28
    58          3
    59          1
    60          1
    63          1
    65          1
    66          1
    67          8
    68          5
    69         16
    70          4
    71         11
    72          1
    73        999
    74         35
    75          4
    76          1
    77          1
    79          1
    80          1
    81          7
    82          8
    83         10
    84          2
    85          4
    86          3
    87          1
    88          5
    89          2
    91          1
    93          1
    94          1
    95          7
    96          4
    97          6
    98          1
    99          8
   100          1
   101          4
   102          1
   109          3
   110          1
   111          2
   112          1
   113          1
   114          1
   115          3
   116          1
   123          1
   124          1
   125          1
   126          1
   127          1
   129          1
   137          1
   138          1
   139          1
   140          1
   141          1
   151          1
   152          1
   153          1
   154          1
   155          1
   156          1
   157          1
   165          1
   166          1
   167          1
   169          1
   179          1
   180          1
   183          1
   194          1
   197          1
   211          1
   221          1
   222          2
   223          1
   239          1
   240          1
   241          1
   254          1
   255          1
   256          1
   283         18
   284          4
   285          1