##TITLE=Library Entry 20494
##JCAMP-DX=Revision 4.10 
##DATA TYPE=MASS SPECTRUM
##SAMPLE DESCRIPTION=Chuck Anderson, Aldrich Chemical Co.
##NAMES=HP
##CAS NAME=Cyclohexanepropanal
##MOLFORM=C9H16O
##CAS REGISTRY NO=4361-28-8
##MP= -300
##BP= -300
##MW= 140
##$RETENTION INDEX=0
##$CONDENSED SPECTRUM=NO
##NPOINTS= 78
##XYDATA=(XY..XY) 1 
    14          0
    15          7
    25          0
    26         10
    27        142
    28         41
    29        198
    30          7
    31          8
    37          2
    38          9
    39        296
    40         50
    41        715
    42         97
    43         96
    44         33
    45         14
    46          0
    47          0
    49          0
    50         12
    51         33
    52         18
    53        117
    54        254
    55        999
    56         72
    57         91
    58        110
    59          7
    62          2
    63          6
    64          1
    65         34
    66         63
    67        695
    68        301
    69         79
    70         18
    71          6
    72          2
    73          0
    74          1
    75          0
    76          0
    77         39
    78         15
    79        129
    80        140
    81        953
    82         98
    83        230
    84         21
    85          2
    91         14
    92          2
    93         79
    94        190
    95         43
    96        589
    97        119
    98         10
    99          5
   105          1
   107         44
   108          4
   109         18
   110          0
   111         26
   112         25
   113          1
   121          1
   122        140
   123         12
   124          0
   140         10
   141          1