##TITLE=Library Entry 35039
##JCAMP-DX=Revision 4.10 
##DATA TYPE=MASS SPECTRUM
##SAMPLE DESCRIPTION=Insect Chem. Ecol. Lab., USDA, Beltsville, MD 20705
##NAMES=HP
##CAS NAME=Cyclohexanepropanol, .alpha.,2,2,6-tetramethyl-
##MOLFORM=C13H26O
##CAS REGISTRY NO=4361-23-3
##MP= -300
##BP= -300
##MW= 198
##$RETENTION INDEX=1428
##$CONDENSED SPECTRUM=NO
##NPOINTS= 116
##XYDATA=(XY..XY) 1 
    41        638
    42         15
    43        624
    45        697
    47         38
    48         12
    49        146
    51         62
    52          1
    53        158
    54          7
    55        802
    56        311
    57        256
    58        125
    59         51
    60          2
    61          0
    63          5
    65         40
    66          5
    67        412
    68        448
    69        999
    70         62
    71        288
    72         30
    73          5
    75          0
    77         49
    79         95
    80         61
    81        626
    82        625
    83        399
    84        191
    85        147
    86         42
    87         10
    88          8
    89          0
    91         34
    93         58
    94         38
    95        731
    96        304
    97        125
    98          8
    99         67
   100          0
   101         27
   102          0
   103          2
   105          9
   107         38
   109        746
   110        193
   111         73
   112          6
   113         38
   114          1
   115          6
   116          0
   117          1
   119          3
   121         21
   122         18
   123        633
   124        569
   125        162
   126          6
   127         13
   128          2
   129          1
   131          1
   133          1
   134          0
   135          6
   136         14
   137        105
   138        340
   139         45
   140         12
   141          4
   142          0
   143          0
   147          0
   149          3
   150          1
   151         14
   152          4
   153          1
   154          7
   155         12
   156          1
   159          1
   161          0
   163         28
   165        458
   166         50
   167          3
   169          0
   170          0
   171          0
   174          0
   175          0
   176          0
   177          1
   178          1
   179          6
   180        167
   181         33
   183         28
   184          3
   198          6
   199          0