##TITLE=Library Entry 56722
##JCAMP-DX=Revision 4.10 
##DATA TYPE=MASS SPECTRUM
##SAMPLE DESCRIPTION=Patti Price, Georgia Bureau of Investigation, Decatur,
 Georgia
##NAMES=HP
##CAS NAME=Cinnamic acid, 3-(diethylamino) propyl ester
##MOLFORM=C16H23NO2
##CAS REGISTRY NO=4361-80-2
##MP= -300
##BP= -300
##MW= 261
##$RETENTION INDEX=0
##$CONDENSED SPECTRUM=NO
##NPOINTS= 97
##XYDATA=(XY..XY) 1 
    42         18
    49          1
    50          4
    51         12
    52          2
    53          1
    54          2
    55          2
    56         22
    57         11
    58         40
    59          1
    61          1
    63          3
    64          1
    65          1
    67          1
    68          2
    69          1
    70          8
    71          5
    72         49
    73          3
    74          2
    75          4
    76          7
    77         65
    78          5
    79          1
    82          1
    83          1
    84         22
    85          6
    86        999
    87         54
    88          1
    89          1
    90          1
    91          3
    93          1
    94          1
    95          1
    96          2
    97          1
    98         22
    99          2
   100          1
   101          1
   102         18
   103        102
   104          8
   107          1
   108          1
   110          1
   111         12
   112         13
   113          5
   114          3
   115          1
   116          4
   117          1
   118          1
   119          1
   123          4
   126          1
   127          1
   128          2
   129          1
   130         18
   131        232
   132         21
   133          1
   142          1
   143          1
   145          1
   146          1
   147          4
   148          1
   158          1
   174          1
   188          1
   189         69
   190          9
   191          1
   202          1
   203          1
   207          1
   216          1
   232          7
   233          1
   246         39
   247          6
   248          1
   260          1
   261         51
   262          9
   263          1