##TITLE=Library Entry 39885
##JCAMP-DX=Revision 4.10 
##DATA TYPE=MASS SPECTRUM
##SAMPLE DESCRIPTION=Div. of Experiment Therapeutics WRAIR, WRAMC, Washingto
n DC 20307
##NAMES=HP
##CAS NAME=3-Cyclohexylpropionamide
##MOLFORM=C9H17NO
##CAS REGISTRY NO=4361-29-9
##MP= -300
##BP= -300
##MW= 155
##$RETENTION INDEX=0
##$CONDENSED SPECTRUM=NO
##NPOINTS= 74
##XYDATA=(XY..XY) 1 
    41        327
    42         84
    43         20
    44        489
    45         18
    46          6
    50          5
    51         19
    52         12
    53         75
    54         67
    55        371
    56         42
    57         48
    59        934
    60        166
    61          5
    63          7
    65         22
    67         84
    68          4
    69         48
    70          7
    72        999
    73        189
    74          2
    75          5
    77         21
    78          6
    79         23
    81         44
    82          0
    83         44
    84          5
    85          2
    86          7
    89          0
    91         23
    93         18
    94          4
    95         59
    96         18
    97         30
    98         24
    99          9
   100          2
   103          2
   104          8
   105          8
   106          2
   107          0
   109          6
   110          1
   111          0
   112         13
   113          2
   114          1
   118          1
   119          3
   121          8
   123          0
   124          0
   126        132
   127          7
   136          1
   137         10
   138         18
   139          3
   140          2
   153         22
   154         56
   155        363
   156         40
   157          9