##TITLE=Library Entry 40840
##JCAMP-DX=Revision 4.10 
##DATA TYPE=MASS SPECTRUM
##SAMPLE DESCRIPTION=TNO Volatile Compounds in Food - Chemical Concepts
##NAMES=HP
##CAS NAME=1,3-Dioxolane, 2-(1-phenylethyl)-
##MOLFORM=C11H14O2
##CAS REGISTRY NO=4362-22-5
##MP= -300
##BP= -300
##MW= 178
##$RETENTION INDEX=0
##$CONDENSED SPECTRUM=NO
##NPOINTS= 43
##XYDATA=(XY..XY) 1 
    26          7
    27         44
    29          4
    30          1
    31          1
    38          2
    39         26
    41          7
    42          3
    43         13
    45        215
    46          5
    50          7
    51         31
    52          8
    53          4
    55          2
    62          2
    63          7
    64          2
    65         10
    66          1
    73        999
    74         34
    75          8
    76          4
    77         55
    78         20
    79         26
    89          4
    90          2
    91         23
   102          4
   103         18
   104          9
   105         75
   106          7
   115          5
   117         12
   118         13
   119          2
   131          3
   177          4