##TITLE=Library Entry 999
##JCAMP-DX=Revision 4.10 
##DATA TYPE=MASS SPECTRUM
##SAMPLE DESCRIPTION=Japan AIST/NIMC Database- Spectrum MS-IW-6936
##NAMES=HP
##CAS NAME=3-Guanidino-1-propanol mononitrate
##MOLFORM=C4H11N3O
##CAS REGISTRY NO=4362-87-2
##MP= -300
##BP= -300
##MW= 117
##$RETENTION INDEX=0
##$CONDENSED SPECTRUM=NO
##NPOINTS= 86
##XYDATA=(XY..XY) 1 
    12          5
    13         10
    14         16
    15         34
    16        173
    17        302
    18         22
    24          3
    25         13
    26        120
    27        277
    28        628
    29        430
    30        999
    31        117
    32          4
    33          1
    34          5
    36          3
    37          7
    38         15
    39         51
    40         45
    41        121
    42        340
    43        800
    44        683
    45         39
    50          3
    51         16
    52         33
    53         78
    54         90
    55        159
    56        231
    57        229
    58         52
    59        177
    60         45
    61          9
    63         14
    64          5
    65          1
    66          4
    67         12
    68         34
    69         41
    70         28
    71         24
    72        441
    73        447
    74         45
    75          9
    76          5
    77          2
    78          2
    79         12
    80         16
    81         11
    82         11
    83         14
    84         12
    85          9
    86        142
    87        104
    88         14
    89          1
    91          1
    92          1
    93          1
    94          5
    95         56
    96         38
    97         34
    98         43
    99        111
   100        696
   101         63
   102          4
   114          9
   115          2
   116         12
   117         10
   118         15
   119          2
   120          1