##TITLE=Library Entry 79302
##JCAMP-DX=Revision 4.10 
##DATA TYPE=MASS SPECTRUM
##SAMPLE DESCRIPTION=S.Sobol ET AL.JAOAC,55,866(1971)
##NAMES=HP
##CAS NAME=1-Propanone, 3-(4-hydroxy-4-phenyl-1-piperidinyl)-1-phenyl-
##MOLFORM=C20H23NO2
##CAS REGISTRY NO=4370-48-3
##MP= -300
##BP= -300
##MW= 309
##$RETENTION INDEX=0
##$CONDENSED SPECTRUM=NO
##NPOINTS= 83
##XYDATA=(XY..XY) 1 
    39         30
    41         19
    42        274
    43         81
    44         89
    50         70
    51        233
    52         26
    53         15
    54          4
    55        115
    56        193
    57        185
    58         22
    60         19
    63         19
    64         15
    66         19
    68         19
    69         19
    70         41
    71         19
    74         26
    75         15
    76         37
    77        733
    78         93
    79         11
    80         11
    81         11
    82         59
    83         19
    84         48
    91         63
   102         26
   103         41
   104         74
   105        999
   106         89
   112         19
   115         41
   116         19
   117         19
   120         37
   121         19
   127         19
   128         26
   129         33
   130         70
   131        211
   132        470
   133         78
   134         67
   154         41
   155        133
   156         30
   157         11
   158        100
   159        226
   160         41
   170         26
   171         70
   173         22
   176         30
   177         59
   185         22
   188         19
   189        107
   190        207
   191         33
   202         33
   203         19
   204         93
   205         41
   269         44
   270         19
   289         22
   290         22
   291         44
   292         22
   309        167
   310         52
   311         15