##TITLE=Library Entry 62449
##JCAMP-DX=Revision 4.10 
##DATA TYPE=MASS SPECTRUM
##SAMPLE DESCRIPTION=Chemical Concepts
##NAMES=HP
##CAS NAME=Dibenzylmalonic acid
##MOLFORM=C17H16O4
##CAS REGISTRY NO=4372-32-1
##MP= -300
##BP= -300
##MW= 284
##$RETENTION INDEX=0
##$CONDENSED SPECTRUM=NO
##NPOINTS= 110
##XYDATA=(XY..XY) 1 
    27          9
    28          9
    39         39
    40          3
    41         18
    43         11
    44        147
    45         10
    50         10
    51         40
    52          9
    53          5
    55          8
    57         10
    62          3
    63         23
    64          6
    65        105
    66          6
    69          6
    71          7
    74          3
    75          6
    76          9
    77         73
    78         26
    79         28
    81          4
    82          2
    83          6
    85          3
    89         29
    90         13
    91        999
    92        301
    93         24
    94          2
    95          4
    96          3
    97          8
   101          3
   102         21
   103        115
   104         38
   105         23
   107         35
   108          3
   111          3
   113          3
   114          3
   115         95
   116         56
   117         40
   118          9
   119          3
   120          3
   127          3
   128          4
   129          3
   130          6
   131        296
   132         34
   133          4
   136          5
   139          4
   143          2
   144          6
   145          4
   146          3
   147         26
   148        114
   149        463
   150         55
   151          6
   152         11
   153          3
   161          3
   162          6
   163          3
   164          3
   165         25
   166          6
   167         10
   168          5
   175        156
   176         21
   177          5
   178         38
   179         30
   180          6
   189         10
   190          4
   191         19
   192         31
   193        136
   194         32
   195          5
   203          3
   204          3
   205          3
   207          2
   221         21
   222        116
   223         23
   238          9
   240        324
   241         61
   242          6
   284         14
   285          3