##TITLE=Library Entry 288
##JCAMP-DX=Revision 4.10 
##DATA TYPE=MASS SPECTRUM
##SAMPLE DESCRIPTION=Japan AIST/NIMC Database- Spectrum MS-NW-9884
##NAMES=HP
##CAS NAME=8-Azidoadenosine
##MOLFORM=C10H12N8O4
##CAS REGISTRY NO=4372-67-2
##MP= -300
##BP= -300
##MW= 308
##$RETENTION INDEX=0
##$CONDENSED SPECTRUM=NO
##NPOINTS= 155
##XYDATA=(XY..XY) 1 
    14         22
    15         12
    16          8
    17          7
    18         19
    19          2
    25          1
    26          7
    27         31
    28        999
    29         53
    30         15
    31         37
    32          4
    36          1
    38          3
    39          9
    40          5
    41         18
    42         22
    43        121
    44        144
    45         22
    46          6
    47          3
    50          1
    51          2
    52          3
    53         22
    54         30
    55         51
    56         15
    57         38
    58          8
    59          3
    60         10
    61         12
    63          1
    64          2
    65          3
    66          5
    67          7
    68         21
    69         19
    70          8
    71         19
    72          5
    73         18
    74          3
    75          2
    77          3
    78          3
    79          7
    80          9
    81         20
    82          6
    83          9
    84          6
    85         11
    86          2
    87          2
    91          2
    92          2
    93          3
    94          3
    95          9
    96         19
    97          9
    98          2
    99          3
   100          6
   101          7
   102          2
   105          1
   106         10
   107          9
   108          8
   109          5
   110          2
   111          5
   112         10
   113          3
   114          1
   115          3
   119          4
   120          6
   121          9
   122          9
   123         58
   124          6
   125          3
   126          1
   127          2
   128          1
   129          1
   130          7
   131          3
   132          1
   133          9
   134         10
   135         11
   136          3
   137          1
   139          2
   141          2
   146          2
   147          2
   148         30
   149         13
   150        202
   151         32
   152          3
   153          1
   155          1
   157          1
   160         10
   161          8
   162          3
   163         11
   164          4
   165          1
   167          1
   173          2
   174          5
   175          4
   176         24
   177          9
   178          7
   179          7
   183          1
   186          1
   187          1
   189          1
   190          3
   191          2
   192          2
   193          6
   203          1
   204          1
   205          5
   214          1
   216          1
   217          1
   219         10
   220          1
   247          1
   251          1
   262          7
   263          1
   277          3
   278          9
   279          1
   280          3
   282          7
   308          5