##TITLE=Library Entry 32384
##JCAMP-DX=Revision 4.10 
##DATA TYPE=MASS SPECTRUM
##SAMPLE DESCRIPTION=D.HENNEBERG, MAX-PLANCK INSTITUTE, MULHEIM, WEST GERMAN
Y
##NAMES=HP
##CAS NAME=Cyclopropane, 1,1-dimethyl-2-methylene-
##MOLFORM=C6H10
##CAS REGISTRY NO=4372-94-5
##MP= -300
##BP= -300
##MW= 82
##$RETENTION INDEX=0
##$CONDENSED SPECTRUM=NO
##NPOINTS= 56
##XYDATA=(XY..XY) 1 
    22          0
    23          0
    24          0
    25          3
    26         16
    27        143
    28         37
    29         37
    30          1
    31          2
    32          0
    33          0
    34          0
    35          3
    36          2
    37         28
    38         53
    39        580
    40        155
    41        666
    42        102
    43         69
    44          0
    47          0
    48          1
    49          6
    50         33
    51         51
    52         22
    53        154
    54        175
    55         54
    56         25
    57          1
    58          0
    60          1
    61          6
    62         12
    63         24
    64          3
    65        108
    66         28
    67        999
    68         60
    69          1
    73          1
    74          2
    75          3
    76          0
    77         22
    78          3
    79         44
    80          8
    81         90
    82        195
    83         13