##TITLE=Library Entry 72037
##JCAMP-DX=Revision 4.10 
##DATA TYPE=MASS SPECTRUM
##SAMPLE DESCRIPTION=Japan AIST/NIMC Database- Spectrum MS-NW-8552
##NAMES=HP
##CAS NAME=Tris(dimethylamino)borane
##MOLFORM=C6H18BN3
##CAS REGISTRY NO=4375-83-1
##MP= -300
##BP= -300
##MW= 143
##$RETENTION INDEX=0
##$CONDENSED SPECTRUM=NO
##NPOINTS= 90
##XYDATA=(XY..XY) 1 
    12          1
    13          5
    14          6
    15         47
    16          1
    25          2
    26         19
    27         85
    28        183
    29         34
    30         63
    31          1
    32          1
    37          1
    38          9
    39         23
    40         73
    41         59
    42        133
    43         62
    44        432
    45        216
    46          7
    47          1
    48          6
    49         26
    50          1
    51          2
    52          7
    53         14
    54         47
    55        116
    56        464
    57         20
    58         40
    59          2
    61          1
    62         15
    63         29
    64          3
    65          3
    66          4
    67         12
    68          8
    69         28
    70         77
    71         10
    72          3
    73          1
    75          1
    77          1
    80          1
    81          7
    82         54
    83        192
    84         35
    85         91
    86          4
    87          1
    93          3
    95          2
    96         13
    97         54
    98        289
    99        999
   100         50
   101          1
   103          1
   105          1
   109          1
   110          5
   111         16
   112         16
   113          2
   114          2
   121          3
   123          2
   124          6
   125          7
   126         12
   127          3
   128          9
   130          1
   137          1
   139          3
   140         10
   141          2
   142         95
   143        379
   144         28