##TITLE=Library Entry 51706
##JCAMP-DX=Revision 4.10 
##DATA TYPE=MASS SPECTRUM
##SAMPLE DESCRIPTION=Japan AIST/NIMC Database- Spectrum MS-NW-7547
##NAMES=HP
##CAS NAME=1H-Indole, octahydro-
##MOLFORM=C8H15N
##CAS REGISTRY NO=4375-14-8
##MP= -300
##BP= -300
##MW= 125
##$RETENTION INDEX=1145
##$CONDENSED SPECTRUM=NO
##NPOINTS= 64
##XYDATA=(XY..XY) 1 
    15          7
    26          3
    27         38
    28         54
    29         24
    30         71
    31          1
    37          1
    38          4
    39         51
    40          9
    41         73
    42         26
    43         30
    44         15
    45          2
    46          1
    50          3
    51          8
    52          5
    53         24
    54         26
    55         44
    56         80
    57         13
    58          1
    63          2
    64          1
    65          8
    66          5
    67         39
    68        115
    69        105
    70         27
    71          5
    77          8
    78          2
    79         15
    80         18
    81         28
    82        999
    83         68
    84         13
    85          1
    91          7
    92          3
    93          7
    94         10
    95         22
    96         33
    97          5
    98          1
   107          1
   108          3
   109          1
   110          3
   120          1
   121          1
   122          8
   123          7
   124         92
   125        163
   126         15
   127          2