##TITLE=Library Entry 51997
##JCAMP-DX=Revision 4.10 
##DATA TYPE=MASS SPECTRUM
##SAMPLE DESCRIPTION=NIST Mass Spectrometry Data Center, 1994
##NAMES=HP
##CAS NAME=4-Methyl-2-heptyn-4-ol
##MOLFORM=C8H14O
##CAS REGISTRY NO=4376-16-3
##MP= -300
##BP= -300
##MW= 126
##$RETENTION INDEX=0
##$CONDENSED SPECTRUM=NO
##NPOINTS= 64
##XYDATA=(XY..XY) 1 
    14          3
    15         42
    18          0
    19          1
    26         14
    27        133
    28         19
    29         56
    30          1
    31          1
    32          0
    36          1
    37          8
    38         27
    39        182
    40         27
    41         97
    42         25
    43        587
    44         17
    45         12
    49          1
    50         15
    51         31
    52         10
    53         37
    54          8
    55         47
    56          3
    57         16
    58          2
    61          2
    62          7
    63         19
    64          5
    65         31
    66         11
    67         61
    68          6
    69         59
    70          2
    71         11
    75          1
    77         25
    78          5
    79         15
    80          5
    81          6
    82          1
    83        999
    84         53
    85          4
    86          2
    91         13
    92          2
    93         11
    95          4
    97          1
    98          6
   107          1
   108          2
   109          1
   111         60
   112          5