##TITLE=Library Entry 46336
##JCAMP-DX=Revision 4.10 
##DATA TYPE=MASS SPECTRUM
##SAMPLE DESCRIPTION=NIST Mass Spectrometry Data Center, 1994
##NAMES=HP
##CAS NAME=Methyl hydrogen phthalate
##MOLFORM=C9H8O4
##CAS REGISTRY NO=4376-18-5
##MP= -300
##BP= -300
##MW= 180
##$RETENTION INDEX=0
##$CONDENSED SPECTRUM=NO
##NPOINTS= 60
##XYDATA=(XY..XY) 1 
    15         92
    17          9
    25          8
    26         33
    27         13
    28         46
    29        161
    30         27
    31         90
    32         81
    36         17
    37        143
    38        142
    39        111
    40          8
    44         24
    45         16
    48          9
    49        103
    50        682
    51        101
    52         46
    53         41
    59          0
    60         10
    61         31
    62         30
    63         35
    64         24
    65        151
    66         20
    72          7
    73         72
    74        269
    75        189
    76        999
    77        172
    78         13
    90          6
    91         67
    92        159
    93        130
    94          8
   104        994
   105        223
   106         26
   118         14
   119          8
   121         89
   122         14
   133          6
   135         98
   136        138
   137         14
   148        163
   149        404
   150         40
   163         18
   180          7
   181          0