##TITLE=Library Entry 57913
##JCAMP-DX=Revision 4.10 
##DATA TYPE=MASS SPECTRUM
##SAMPLE DESCRIPTION=Chemical Concepts
##NAMES=HP
##CAS NAME=Isovaline, 3-methyl-
##MOLFORM=C6H13NO2
##CAS REGISTRY NO=4378-19-2
##MP= -300
##BP= -300
##MW= 131
##$RETENTION INDEX=0
##$CONDENSED SPECTRUM=NO
##NPOINTS= 72
##XYDATA=(XY..XY) 1 
    26          3
    27         39
    28         23
    29         15
    30         26
    31          2
    37          1
    38          3
    39         33
    40          8
    41        141
    42        580
    43        129
    44         27
    45         13
    46          4
    47          0
    50          1
    51          3
    52          2
    53         10
    54         10
    55         25
    56         25
    57         17
    58          3
    59          3
    60          8
    61          1
    65          1
    66          1
    67          8
    68          7
    69        134
    70         98
    71         79
    72         41
    73          3
    74          1
    79          1
    80          1
    81          4
    82          4
    83          6
    84         10
    85          5
    86        669
    87         36
    88        999
    89         48
    90          5
    91          1
    93          1
    94          0
    95          3
    96          5
    97          5
    98          8
    99          3
   100          1
   110          1
   111          2
   112          2
   113          1
   114          2
   115          1
   116          8
   117          0
   130          0
   131          3
   132          7
   133          1