##TITLE=Library Entry 34393
##JCAMP-DX=Revision 4.10 
##DATA TYPE=MASS SPECTRUM
##SAMPLE DESCRIPTION=Exported from NIST MS Search
##NAMES=HP
##CAS NAME=2,6,10-Dodecatrienal, 3,7,11-trimethyl-, (Z,E)-
##MOLFORM=C15H24O
##CAS REGISTRY NO=4380-32-9
##MP= -300
##BP= -300
##MW= 220
##$RETENTION INDEX=1727
##$CONDENSED SPECTRUM=NO
##NPOINTS= 76
##XYDATA=(XY..XY) 1 
    26          5
    27         61
    28         30
    29         77
    39         82
    40         18
    41        488
    42         28
    43         66
    51         12
    52          6
    53         81
    54         14
    55        108
    56         15
    57         17
    65         20
    66         11
    67         88
    68         48
    69        999
    70         66
    71         29
    77         41
    78          8
    79         43
    80         29
    81        221
    82         67
    83         40
    84        453
    85         27
    91         42
    92         15
    93         76
    94         36
    95         89
    96         19
    97         18
   105         23
   106         10
   107         55
   108         31
   109         78
   110         20
   111          5
   117          6
   119         12
   120          8
   121         44
   122         11
   123         43
   124         16
   131          8
   132          7
   133         21
   134          8
   135         25
   136         25
   137         49
   138         22
   139          9
   145          5
   147          8
   149         24
   150         16
   151         16
   152          6
   159         16
   177         21
   178          5
   187          6
   191          5
   202          9
   205         14
   220         29