##TITLE=Library Entry 65103
##JCAMP-DX=Revision 4.10 
##DATA TYPE=MASS SPECTRUM
##SAMPLE DESCRIPTION=ORMSBG,9(4)422(1974); MACDONALD
##NAMES=HP
##CAS NAME=Sulfoximine, S-methyl-S-phenyl-
##MOLFORM=C7H9NOS
##CAS REGISTRY NO=4381-25-3
##MP= -300
##BP= -300
##MW= 155
##$RETENTION INDEX=0
##$CONDENSED SPECTRUM=NO
##NPOINTS= 18
##XYDATA=(XY..XY) 1 
    50        110
    51        340
    65        250
    77        940
    78         90
    91         90
    92        999
    93         70
    94        140
    97         60
   109         30
   124         40
   125        140
   140        640
   141         40
   142         20
   155         80
   156         10