##TITLE=Library Entry 8166
##JCAMP-DX=Revision 4.10 
##DATA TYPE=MASS SPECTRUM
##SAMPLE DESCRIPTION=U.SCHUBERT, INORG. CHEM. LAB., UNIV., MUNICH, GERMANY,
 F.R.G.
##NAMES=HP
##CAS NAME=Ethanol, 1-methoxy-, acetate
##MOLFORM=C5H10O3
##CAS REGISTRY NO=4382-77-8
##MP= -300
##BP= -300
##MW= 118
##$RETENTION INDEX=0
##$CONDENSED SPECTRUM=NO
##NPOINTS= 12
##XYDATA=(XY..XY) 1 
    41         29
    42         84
    43        999
    44         57
    45        260
    58         63
    59        740
    60        190
    75        120
    87         23
   103         17
   118          1