##TITLE=Library Entry 31929
##JCAMP-DX=Revision 4.10 
##DATA TYPE=MASS SPECTRUM
##SAMPLE DESCRIPTION=NIST Mass Spectrometry Data Center, 1994
##NAMES=HP
##CAS NAME=2-Hydroxy-3-methoxybenzyl alcohol
##MOLFORM=C8H10O3
##CAS REGISTRY NO=4383-05-5
##MP= -300
##BP= -300
##MW= 154
##$RETENTION INDEX=0
##$CONDENSED SPECTRUM=NO
##NPOINTS= 91
##XYDATA=(XY..XY) 1 
    12          6
    13          9
    14         36
    15        296
    16          8
    17         21
    18         38
    19         14
    25          6
    26         57
    27        161
    28         49
    29        228
    30         31
    31        104
    33         21
    36          4
    37         49
    38        125
    39        554
    40         67
    41         49
    42         23
    43         38
    44          4
    45          6
    46          4
    47         31
    49         21
    50        159
    51        305
    52        140
    53        256
    54         56
    55        120
    56          6
    61         28
    62         69
    63        185
    64        111
    65        999
    66        151
    67         41
    68         29
    69         13
    71          6
    73          8
    74         35
    75         24
    76         48
    77        200
    78        294
    79        298
    80        223
    81        134
    82         40
    83          7
    89         10
    90        117
    91         42
    92         86
    93        347
    94         78
    95         24
    96          3
   105        260
   106        412
   107        551
   108        242
   109         81
   110         60
   111          8
   118         81
   119         21
   120         29
   121         23
   122         43
   123         45
   124         23
   125         11
   133          7
   135        556
   136        795
   137        204
   138         72
   139         10
   151          6
   152         26
   154        312
   155         28
   156          5