##TITLE=Library Entry 48781
##JCAMP-DX=Revision 4.10 
##DATA TYPE=MASS SPECTRUM
##SAMPLE DESCRIPTION=NIST Mass Spectrometry Data Center, 1990.
##NAMES=HP
##CAS NAME=2-Methyl-1-phenyl-2-propen-1-ol
##MOLFORM=C10H12O
##CAS REGISTRY NO=4383-08-8
##MP= -300
##BP= -300
##MW= 148
##$RETENTION INDEX=0
##$CONDENSED SPECTRUM=NO
##NPOINTS= 75
##XYDATA=(XY..XY) 1 
    15         16
    16          8
    17         10
    18         29
    26         19
    27        142
    28         36
    29         71
    31         23
    37         11
    38         54
    39        326
    40         42
    41        198
    42         46
    43         85
    44         15
    50        159
    51        380
    52         94
    53         78
    54         11
    55        360
    56         14
    58          8
    61         11
    62         47
    63        125
    64         56
    65         76
    66         22
    69         69
    70         29
    71         18
    73          9
    74         61
    75         41
    76          9
    77        868
    78        244
    79        999
    80         64
    86         15
    87         15
    88          9
    89         66
    90          9
    91        219
    92         28
   102         41
   103         58
   105        629
   106         94
   107        376
   108         27
   113          8
   115        336
   116         51
   117         52
   118         13
   119         28
   120         65
   126         19
   127         67
   128        133
   129        246
   130        222
   131         57
   132         13
   133        416
   134         35
   145         13
   147        375
   148        296
   149         33