##TITLE=Library Entry 29869
##JCAMP-DX=Revision 4.10 
##DATA TYPE=MASS SPECTRUM
##SAMPLE DESCRIPTION=ORMSBG,9(7)672(1974); TAMAS
##NAMES=HP
##CAS NAME=Butanoic acid, 2-(aminooxy)-
##MOLFORM=C4H9NO3
##CAS REGISTRY NO=4385-95-9
##MP= -300
##BP= -300
##MW= 119
##$RETENTION INDEX=0
##$CONDENSED SPECTRUM=NO
##NPOINTS= 13
##XYDATA=(XY..XY) 1 
    33        180
    41        900
    43        890
    44        860
    45        940
    57        330
    58        350
    59        999
    69        550
    74        390
    87        620
   101        120
   119         89