##TITLE=Library Entry 78749
##JCAMP-DX=Revision 4.10 
##DATA TYPE=MASS SPECTRUM
##SAMPLE DESCRIPTION=A.A.Kutin, Moscow, Russia
##NAMES=HP
##CAS NAME=Butanoic acid, 2-benzoylamino-
##MOLFORM=C11H13NO3
##CAS REGISTRY NO=4385-97-1
##MP= -300
##BP= -300
##MW= 207
##$RETENTION INDEX=0
##$CONDENSED SPECTRUM=NO
##NPOINTS= 112
##XYDATA=(XY..XY) 1 
    34          0
    36          0
    37          2
    38          6
    39         26
    40         19
    41         21
    42          5
    43          6
    44         19
    45         27
    46          1
    47          0
    49          1
    50         50
    51        173
    52         16
    53          4
    54          4
    55          5
    56         29
    57          7
    58          7
    59          0
    60          0
    61          0
    62          2
    63          3
    64          1
    65          3
    66          1
    67          1
    68          1
    69          3
    70          2
    71          0
    73         20
    75         20
    76         31
    77        447
    78         37
    79          4
    80          1
    81          4
    82          0
    83          0
    84          1
    85          2
    86          0
    87          1
    89          0
    90          0
    91          3
    92          1
    93          0
    94          0
    97          0
   101          0
   102          8
   103          3
   105        999
   106         80
   107          4
   108          0
   111          0
   112          0
   115          0
   116          0
   117          1
   118          1
   119          0
   120          1
   121         27
   122         19
   123          1
   124          0
   125          0
   127          0
   128          0
   129          0
   130          0
   131          0
   132          2
   133          3
   134          5
   135          2
   144          1
   145          1
   146          5
   147          1
   148          4
   149          0
   160          1
   161         20
   162         99
   163         30
   164          3
   171          0
   172          0
   174          2
   175          0
   179         40
   180          3
   181          0
   189          2
   190          5
   191          0
   192          0
   206          1
   207         31
   208          3
   209          0