##TITLE=Library Entry 31781
##JCAMP-DX=Revision 4.10 
##DATA TYPE=MASS SPECTRUM
##SAMPLE DESCRIPTION=Chemical Concepts
##NAMES=HP
##CAS NAME=1,4-Dioxaspiro[4.5]deca-6,9-diene-2,8-dione
##MOLFORM=C8H6O4
##CAS REGISTRY NO=4385-47-1
##MP= -300
##BP= -300
##MW= 166
##$RETENTION INDEX=0
##$CONDENSED SPECTRUM=NO
##NPOINTS= 119
##XYDATA=(XY..XY) 1 
    25         50
    26        525
    27        128
    28        289
    29        162
    30         64
    31         39
    33         24
    34          5
    35         34
    36         18
    37         80
    38        228
    39        154
    40         42
    41         57
    42        100
    43         44
    44        427
    45         19
    46         13
    47         66
    48         35
    49        427
    50        131
    51        153
    52        381
    53        244
    54        698
    55         81
    56        144
    57         93
    58          4
    59          5
    60         22
    61         73
    62        152
    63        505
    64        999
    65        163
    66        280
    67         29
    68         57
    69         19
    70         10
    71         16
    73         11
    74         17
    75          7
    76          8
    77         34
    78         29
    80        316
    81        150
    82        843
    83         38
    84        307
    85         11
    86        189
    87          3
    88         30
    89          2
    90          3
    91         10
    92        111
    93         65
    94        304
    95         42
    96         17
    97         12
    98          4
    99        160
   100         12
   101          3
   102          3
   103          9
   104          7
   105          7
   106         22
   107         21
   108        651
   109        384
   110        116
   111         13
   112         10
   113          2
   116         18
   117          4
   118          2
   119          3
   120          3
   121         97
   122        473
   123         61
   124         51
   125          6
   126          2
   127          2
   128          3
   129          3
   130          3
   131         10
   132          3
   135          2
   137          2
   138        269
   139         23
   140         13
   141         12
   142          6
   143          8
   149         20
   150          1
   151          2
   152          1
   165          2
   166        411
   167         38
   168          7