##TITLE=Library Entry 33266
##JCAMP-DX=Revision 4.10 
##DATA TYPE=MASS SPECTRUM
##SAMPLE DESCRIPTION=James Little,Eastman Chem.Co.,Kingsport,TN
##NAMES=HP
##CAS NAME=2-Cyano-1-hexene
##MOLFORM=C7H11N
##CAS REGISTRY NO=4388-91-4
##MP= -300
##BP= -300
##MW= 109
##$RETENTION INDEX=0
##$CONDENSED SPECTRUM=NO
##NPOINTS= 31
##XYDATA=(XY..XY) 1 
    27        686
    29        213
    39        555
    40        330
    41        705
    42        389
    43        652
    52        184
    53        250
    54         76
    55         64
    56         74
    65         59
    66        140
    67        591
    68        999
    69         49
    77         21
    79         29
    80         34
    81         44
    82         35
    91          8
    92          9
    93          8
    94         70
    95          7
   108         41
   109         16
   110         68
   111          7