##TITLE=Library Entry 82854
##JCAMP-DX=Revision 4.10 
##DATA TYPE=MASS SPECTRUM
##SAMPLE DESCRIPTION=Div. of Experiment Therapeutics WRAIR, WRAMC, Washingto
n DC 20307
##NAMES=HP
##CAS NAME=4-Aminobenzyl-4'-aminophenyl sulfone
##MOLFORM=C13H14N2O2S
##CAS REGISTRY NO=4389-37-1
##MP= -300
##BP= -300
##MW= 262
##$RETENTION INDEX=0
##$CONDENSED SPECTRUM=NO
##NPOINTS= 81
##XYDATA=(XY..XY) 1 
    41         12
    42          6
    43          1
    45          3
    46          1
    48          4
    50          6
    51         16
    52         21
    53         17
    54         11
    55          0
    61          1
    62          4
    63         15
    64         16
    65         64
    66         22
    67          5
    68          0
    69          2
    70          1
    71          1
    74          1
    75          1
    76          2
    77         72
    78         26
    79         28
    80         19
    81          3
    82          1
    83          0
    84          0
    85          0
    89          5
    90          2
    91          7
    92         35
    93         32
    94          2
    96          1
    97          3
    98          2
   104         19
   106        999
   107         72
   108         16
   109          0
   110          0
   112          0
   120          1
   122          0
   123          2
   124          8
   125         15
   126          1
   127          0
   140          7
   141          1
   152          4
   153          0
   156          6
   157          2
   165          0
   167          1
   178          0
   180          7
   181          1
   182          2
   183          0
   184          1
   194          1
   195          1
   196          1
   197          6
   198          2
   261          1
   262         54
   263          9
   264          3