##TITLE=Library Entry 24533
##JCAMP-DX=Revision 4.10 
##DATA TYPE=MASS SPECTRUM
##SAMPLE DESCRIPTION=James Little, Eastman Chemical Co.
##NAMES=HP
##CAS NAME=2-hexyldecyl 2-ethylhexanoate
##MOLFORM=C24H48O2
##CAS REGISTRY NO=439134-25-5
##MP= -300
##BP= -300
##MW= 368
##$RETENTION INDEX=0
##$CONDENSED SPECTRUM=NO
##NPOINTS= 151
##XYDATA=(XY..XY) 1 
    26          1
    27         32
    28          7
    29         98
    30          3
    31          2
    38          1
    39         27
    40          7
    41        265
    42         51
    43        396
    44         13
    45          7
    47          1
    51          1
    52          1
    53         16
    54         28
    55        321
    56        247
    57        999
    58         44
    59          8
    60          1
    65          4
    66          4
    67         47
    68         47
    69        244
    70        160
    71        219
    72         12
    73         36
    74          2
    75          1
    77          3
    79          7
    80          3
    81         36
    82         54
    83        214
    84         99
    85        141
    86         10
    87         28
    88        209
    89         21
    90          2
    91          1
    93          2
    94          1
    95         18
    96         42
    97        186
    98        122
    99        182
   100         14
   101         31
   102          6
   103          4
   108          1
   109          8
   110         63
   111        245
   112         76
   113         29
   114          3
   115         31
   116         44
   117          7
   123          3
   124         15
   125         55
   126        119
   127        236
   128         22
   129         12
   130          1
   137          2
   138         35
   139        114
   140         43
   141         16
   142          3
   143          8
   144         29
   145        339
   146         30
   147          3
   151          1
   152          7
   153         14
   154         65
   155         29
   156          4
   157          1
   158          2
   159          2
   166          3
   167          7
   168          8
   169          6
   170          5
   171          1
   180          2
   181          5
   182          6
   183          3
   184          1
   194          1
   195          3
   196         24
   197          4
   198          3
   199          1
   209          1
   210          2
   211          4
   212          1
   214          1
   222          2
   223          4
   224        121
   225         59
   226         11
   227          1
   228          3
   233          1
   238          1
   239          2
   240          1
   241          2
   242          1
   251          6
   254          1
   255          1
   256          2
   269         48
   270          9
   271          1
   279          1
   282          1
   283          1
   284          1
   294          1
   307          1
   312          2
   313          1
   340          1
   350          1