##TITLE=Library Entry 76965
##JCAMP-DX=Revision 4.10 
##DATA TYPE=MASS SPECTRUM
##SAMPLE DESCRIPTION=Exported from NIST MS Search
##NAMES=HP
##CAS NAME=Benzene, cyclobutyl-
##MOLFORM=C10H12
##CAS REGISTRY NO=4392-30-7
##MP= -300
##BP= -300
##MW= 132
##$RETENTION INDEX=0
##$CONDENSED SPECTRUM=NO
##NPOINTS= 30
##XYDATA=(XY..XY) 1 
    38         12
    39         78
    40         14
    49         38
    50         98
    51         30
    52         18
    58         12
    62         12
    63         38
    64         20
    65         38
    74         12
    75         12
    76         18
    77        102
    78        180
    79         32
    91         92
    92          6
   102         26
   103        132
   104        999
   105         96
   106         32
   115         26
   116          4
   117         14
   132        124
   133         10