##TITLE=Library Entry 716
##JCAMP-DX=Revision 4.10 
##DATA TYPE=MASS SPECTRUM
##SAMPLE DESCRIPTION=Japan AIST/NIMC Database- Spectrum MS-NW-1423
##NAMES=HP
##CAS NAME=N-Formylmorpholine
##MOLFORM=C5H9NO2
##CAS REGISTRY NO=4394-85-8
##MP= -300
##BP= -300
##MW= 115
##$RETENTION INDEX=1133
##$CONDENSED SPECTRUM=NO
##NPOINTS= 56
##XYDATA=(XY..XY) 1 
    13          2
    14         13
    15        114
    16          2
    17          1
    18          7
    25          2
    26         49
    27        178
    28        582
    29        999
    30        274
    31         55
    32          6
    36          2
    38          2
    39          7
    40         17
    41         70
    42        502
    43         47
    44         63
    45         39
    46          2
    51          2
    52          8
    53          2
    54         37
    55         33
    56        496
    57        447
    58         84
    59         27
    60          2
    68          5
    69          5
    70         21
    71         26
    72        120
    73          9
    84         13
    85        147
    86        276
    87         85
    88          5
    97          1
    98         12
    99          1
   100        319
   101         13
   102          1
   113          1
   114         27
   115        664
   116         40
   117          4