##TITLE=Library Entry 35472
##JCAMP-DX=Revision 4.10 
##DATA TYPE=MASS SPECTRUM
##SAMPLE DESCRIPTION=A.Pleshkova, Nesmeyanov Inst.Org.Elem.Cpds, Moscow
##NAMES=HP
##CAS NAME=Hexafluoromethanediamine
##MOLFORM=CF6N2
##CAS REGISTRY NO=4394-93-8
##MP= -300
##BP= -300
##MW= 154
##$RETENTION INDEX=0
##$CONDENSED SPECTRUM=NO
##NPOINTS= 21
##XYDATA=(XY..XY) 1 
    19         31
    26         22
    28         16
    31        208
    32          2
    33        139
    34          1
    45         69
    46          1
    50        244
    51          3
    52        391
    53          2
    64        138
    65          2
    69        999
    70         11
    83        706
    84         12
   102        165
   103          2