##TITLE=Library Entry 45712
##JCAMP-DX=Revision 4.10 
##DATA TYPE=MASS SPECTRUM
##SAMPLE DESCRIPTION=TNO Volatile Compounds in Food - Chemical Concepts
##NAMES=HP
##CAS NAME=Ethane, 1,1'-[methylenebis(thio)]bis-
##MOLFORM=C5H12S2
##CAS REGISTRY NO=4396-19-4
##MP= -300
##BP= -300
##MW= 136
##$RETENTION INDEX=1055
##$CONDENSED SPECTRUM=NO
##NPOINTS= 39
##XYDATA=(XY..XY) 1 
    26         22
    27        149
    28         13
    29        146
    30          4
    32          2
    33          4
    34          3
    35         30
    39          3
    41         96
    42          3
    43          1
    44          2
    45        169
    46         86
    47        426
    48         14
    49         20
    57          5
    58         19
    59         37
    60         11
    61         37
    62          9
    63          7
    73          4
    74        137
    75        999
    76         52
    77         49
    78         13
    79         86
    81          5
    89         17
   107         19
   136        452
   137         33
   138         40