##TITLE=Library Entry 63679
##JCAMP-DX=Revision 4.10 
##DATA TYPE=MASS SPECTRUM
##SAMPLE DESCRIPTION=Japan AIST/NIMC Database- Spectrum MS-NW-9452
##NAMES=HP
##CAS NAME=Benzaldehyde, 4-(phenylmethoxy)-
##MOLFORM=C14H12O2
##CAS REGISTRY NO=4397-53-9
##MP= -300
##BP= -300
##MW= 212
##$RETENTION INDEX=0
##$CONDENSED SPECTRUM=NO
##NPOINTS= 32
##XYDATA=(XY..XY) 1 
    27          1
    28          2
    38          3
    39         27
    40          1
    41          7
    50          5
    51         14
    52          2
    62          3
    63         14
    64          6
    65         94
    66          5
    74          1
    75          1
    76          4
    77          8
    78          1
    89         13
    90          8
    91        999
    92         81
    93          5
   105          2
   121          1
   152          1
   153          1
   181          1
   212        106
   213         15
   214          1