##TITLE=Library Entry 73252
##JCAMP-DX=Revision 4.10 
##DATA TYPE=MASS SPECTRUM
##SAMPLE DESCRIPTION=NIST Mass Spectrometry Data Center, 1994
##NAMES=HP
##CAS NAME=1-Pyrrolidinyloxy, 3-(aminocarbonyl)-2,2,5,5-tetramethyl-
##MOLFORM=C9H17N2O2
##CAS REGISTRY NO=4399-80-8
##MP= -300
##BP= -300
##MW= 185
##$RETENTION INDEX=0
##$CONDENSED SPECTRUM=NO
##NPOINTS= 74
##XYDATA=(XY..XY) 1 
    15         67
    16          1
    17         29
    18         19
    27        242
    28        139
    29        164
    30        108
    39        381
    40         78
    41        781
    42        224
    43        148
    44        405
    50         17
    51         44
    52         29
    53        181
    54         62
    55        393
    56        243
    57        128
    58        129
    59          4
    65         42
    66         16
    67        145
    68         51
    69        254
    70         78
    71         24
    72         44
    73          4
    74         60
    77         46
    78         19
    79         45
    80         24
    81         52
    82        128
    83        840
    84        111
    85         11
    86         11
    87        180
    91         20
    93         28
    94         35
    95        126
    96         63
    97         36
    98         11
    99        732
   100        999
   101         55
   108         32
   109         23
   110        110
   111         45
   112        197
   113         49
   123         19
   126        295
   127         34
   137         31
   138         23
   140         92
   154         14
   155         94
   168         48
   170         18
   171          2
   185        154
   186         16