##TITLE=Library Entry 5517
##JCAMP-DX=Revision 4.10 
##DATA TYPE=MASS SPECTRUM
##SAMPLE DESCRIPTION=CARL DJERASSI DEPT OF CHEM STANFORD UNIV STANFORD CALIF
 94305
##NAMES=HP
##CAS NAME=Ethanone, 1-oxiranyl-
##MOLFORM=C4H6O2
##CAS REGISTRY NO=4401-11-0
##MP= -300
##BP= -300
##MW= 86
##$RETENTION INDEX=0
##$CONDENSED SPECTRUM=NO
##NPOINTS= 15
##XYDATA=(XY..XY) 1 
    26        100
    27        200
    28         80
    29        160
    31         40
    39         20
    41         20
    42        140
    43        999
    44         50
    55        150
    57         10
    71        170
    85        110
    86        190