##TITLE=Library Entry 58135
##JCAMP-DX=Revision 4.10 
##DATA TYPE=MASS SPECTRUM
##SAMPLE DESCRIPTION=A.A.Kutin, Moscow, Russia
##NAMES=HP
##CAS NAME=Thiazolo[5,4-d]thiazole, 2,5-bis(3-nitrophenyl)-
##MOLFORM=C16H8N4O4S2
##CAS REGISTRY NO=4402-39-5
##MP= -300
##BP= -300
##MW= 384
##$RETENTION INDEX=0
##$CONDENSED SPECTRUM=NO
##NPOINTS= 176
##XYDATA=(XY..XY) 1 
    34          0
    35          0
    36          3
    37         10
    38         15
    39         33
    40         17
    41          4
    42         13
    43         17
    44         17
    45         19
    46         32
    47          0
    49          3
    50         64
    51        118
    52         15
    54          6
    55          3
    56          1
    57          5
    58          2
    60          1
    61          4
    62         12
    63         18
    64         17
    65         15
    66          1
    67          1
    69         27
    70         27
    71          8
    72          1
    74         27
    75        109
    76         76
    77        122
    79          4
    80          0
    81          2
    82          8
    83          3
    85          2
    86          0
    87          5
    88        999
    90        127
    91          5
    92          2
    93         30
    94         15
    95          6
    96          6
    97          2
    98          0
    99          2
   100          2
   102        159
   103         18
   104          7
   105          3
   107          7
   108         12
   110          2
   111          8
   112          0
   113          0
   114         24
   116          3
   118         18
   119         29
   120         47
   121          3
   122          5
   123         51
   124         15
   127          1
   129          1
   130          1
   132         35
   133          9
   134         12
   135          2
   136          1
   138          0
   139          5
   140          2
   144          4
   145          8
   146        185
   147         25
   148          9
   149          2
   150         24
   151          5
   152          1
   153          2
   157          1
   158          3
   159          1
   160          1
   161          0
   163          4
   165          1
   166         10
   168          1
   169          1
   170          1
   171          2
   172          2
   173          1
   175          2
   176          0
   177          0
   178          2
   179          0
   184          4
   186          0
   188          1
   189          4
   190          9
   191          3
   192         18
   193          0
   195          0
   201          0
   203          2
   204          0
   207          0
   215          1
   216          2
   220          2
   221          1
   222          1
   224          0
   226          0
   232          1
   233          3
   235          0
   236          0
   241          1
   244          0
   247          3
   248          0
   249          1
   257          0
   258          0
   264          1
   265          2
   266          2
   279          2
   280          9
   281          3
   285          0
   290          1
   291         17
   292         46
   293          8
   294          5
   298          1
   305          0
   307          1
   308          0
   315          0
   326          2
   338         28
   339          5
   340          4
   354          1
   372          0
   384         79
   385         13
   386          8
   387          1