##TITLE=Library Entry 56021
##JCAMP-DX=Revision 4.10 
##DATA TYPE=MASS SPECTRUM
##SAMPLE DESCRIPTION=Japan AIST/NIMC Database- Spectrum MS-NW-3160
##NAMES=HP
##CAS NAME=2-Propanol, 1-(diethylamino)-
##MOLFORM=C7H17NO
##CAS REGISTRY NO=4402-32-8
##MP= -300
##BP= -300
##MW= 131
##$RETENTION INDEX=0
##$CONDENSED SPECTRUM=NO
##NPOINTS= 48
##XYDATA=(XY..XY) 1 
    15         10
    18          1
    26          3
    27         31
    28         39
    29         52
    30        138
    31         12
    32          1
    39          7
    40          2
    41         25
    42         47
    43         14
    44         28
    45          9
    50          2
    54          5
    55          3
    56         39
    57         10
    58        198
    59         21
    60          7
    68          2
    70         11
    71          5
    72         23
    73          2
    84          8
    85          3
    86        999
    87         58
    88          7
    98         13
    99          1
   100         14
   101          2
   102          2
   112          1
   113          5
   114         11
   115          1
   116         72
   117          5
   130         11
   131         22
   132          2