##TITLE=Library Entry 11308
##JCAMP-DX=Revision 4.10 
##DATA TYPE=MASS SPECTRUM
##SAMPLE DESCRIPTION=James Little,Eastman Chem.Co.,Kingsport,TN
##NAMES=HP
##CAS NAME=Hexane, 1-isothiocyanato-
##MOLFORM=C7H13NS
##CAS REGISTRY NO=4404-45-9
##MP= -300
##BP= -300
##MW= 143
##$RETENTION INDEX=1190
##$CONDENSED SPECTRUM=NO
##NPOINTS= 40
##XYDATA=(XY..XY) 1 
    27        214
    29        244
    30         35
    39        136
    41        463
    42        122
    43        999
    44         46
    45         43
    53         27
    55        139
    56        123
    57         67
    59         33
    60         41
    68         27
    69         70
    72        265
    73         40
    74         46
    75         18
    82         42
    83         47
    86         31
   100         80
   101         75
   102         10
   110        242
   111         19
   114         64
   115        613
   116         44
   117         35
   128         60
   129          5
   142         42
   143         59
   144         17
   145          5
   146          1