##TITLE=Library Entry 2339
##JCAMP-DX=Revision 4.10 
##DATA TYPE=MASS SPECTRUM
##SAMPLE DESCRIPTION=NIST Mass Spectrometry Data Center, 1994
##NAMES=HP
##CAS NAME=2-Methylbutyl isothiocyanate
##MOLFORM=C6H11NS
##CAS REGISTRY NO=4404-51-7
##MP= -300
##BP= -300
##MW= 129
##$RETENTION INDEX=1412
##$CONDENSED SPECTRUM=NO
##NPOINTS= 68
##XYDATA=(XY..XY) 1 
    14          5
    15         42
    26         54
    27        384
    28        118
    29        717
    30         25
    32         29
    33          4
    34          4
    37         13
    38         42
    39        394
    40         90
    41        999
    42        149
    43        787
    44         60
    45        133
    46         42
    47          9
    49          3
    50         23
    51         34
    52         17
    53         47
    54         25
    55        201
    56         48
    57        506
    58         55
    59         42
    60         30
    61          4
    62          4
    63          3
    64          4
    65          4
    67          7
    68          6
    69         18
    70        111
    71        210
    72        405
    73        342
    74         50
    75         17
    76          3
    78          2
    81          7
    82          5
    84          8
    85          7
    86         21
    87          6
    96         16
    97          2
    98          7
    99          2
   100        150
   101         15
   102          9
   114        130
   115          9
   116          6
   129        343
   130         28
   131         15