##TITLE=Library Entry 10037
##JCAMP-DX=Revision 4.10 
##DATA TYPE=MASS SPECTRUM
##SAMPLE DESCRIPTION=D.H.WILLIAMS CHEMISTRY DEPT., UNIVERSITY OF CAMBRIDGE
##NAMES=HP
##CAS NAME=1,3-Dioxolane, 2-methyl-2-(1-methylethyl)-
##MOLFORM=C7H14O2
##CAS REGISTRY NO=4405-16-7
##MP= -300
##BP= -300
##MW= 130
##$RETENTION INDEX=0
##$CONDENSED SPECTRUM=NO
##NPOINTS= 32
##XYDATA=(XY..XY) 1 
    26         50
    27        250
    28        100
    29        100
    30         20
    31         30
    38         20
    39        250
    40         40
    41        250
    42        100
    43        999
    44         50
    45         70
    50         30
    51         50
    52         20
    53         70
    54         20
    55        160
    56         30
    57         50
    69         40
    70         50
    71         80
    85        180
    86         30
    87        950
    88         70
    98         60
   100         60
   115        200