##TITLE=Library Entry 14527
##JCAMP-DX=Revision 4.10 
##DATA TYPE=MASS SPECTRUM
##SAMPLE DESCRIPTION=DENNIS H SMITH DEPT OF CHEM STANFORD UNIV STANFORD CALI
F 9430
##NAMES=HP
##CAS NAME=Pregnan-20-one, 3-hydroxy-, (3.beta.)-
##MOLFORM=C21H34O2
##CAS REGISTRY NO=4406-37-5
##MP= -300
##BP= -300
##MW= 318
##$RETENTION INDEX=0
##$CONDENSED SPECTRUM=NO
##NPOINTS= 161
##XYDATA=(XY..XY) 1 
    40          9
    41        209
    43        999
    45         22
    50          8
    51         12
    52         10
    53         59
    54         17
    55        274
    57         64
    58         16
    65         29
    66         15
    67        239
    68         68
    69        125
    70          8
    71        172
    75          9
    77         92
    78         28
    79        268
    81        321
    83         71
    84        405
    85        128
    86         16
    91        186
    92         40
    93        299
    94        113
    95        278
    96         34
    97         33
    98         13
    99          9
   103          8
   104          6
   105        200
   106         75
   107        307
   108        214
   109        173
   110         29
   111         51
   115          9
   117         34
   118         42
   119        139
   120         94
   121        195
   122         96
   123         84
   124         86
   125         21
   129         18
   130          7
   131         75
   132         44
   133        136
   134        105
   135        169
   136         39
   137         44
   138         12
   143         21
   145        109
   146         43
   147        175
   148         80
   149        102
   150         26
   151          8
   157         23
   158          9
   159         88
   160         73
   161        116
   162         50
   163         55
   165         11
   171         25
   172         15
   173         71
   174         59
   175        109
   176         26
   177         31
   178         11
   179          7
   185         20
   186         13
   187         40
   188         27
   189         35
   190         28
   191         37
   192         50
   193         16
   197         13
   199         16
   200         15
   201         40
   202         11
   203         27
   204         14
   205         12
   206         24
   211         13
   213         39
   214         16
   215        249
   216         75
   217         79
   218         53
   219         21
   225          7
   227         28
   228         20
   229         67
   230         40
   231         24
   232         26
   233        118
   234         41
   241         16
   242         50
   243         23
   244         22
   245         27
   246         39
   247         21
   248         30
   249          7
   253         13
   255         33
   256         14
   257        108
   258         21
   259         29
   260         72
   261         74
   267         37
   268          8
   271         23
   272         21
   273         26
   274         38
   275         35
   282         27
   283          6
   285        138
   286         32
   298          9
   300        519
   301        138
   303        119
   304         30
   316         14
   318        322