##TITLE=Library Entry 65843
##JCAMP-DX=Revision 4.10 
##DATA TYPE=MASS SPECTRUM
##SAMPLE DESCRIPTION=Japan AIST/NIMC Database- Spectrum MS-NW-9842
##NAMES=HP
##CAS NAME=isobutyranilide
##MOLFORM=C10H13NO
##CAS REGISTRY NO=4406-41-1
##MP= -300
##BP= -300
##MW= 163
##$RETENTION INDEX=1484
##$CONDENSED SPECTRUM=NO
##NPOINTS= 77
##XYDATA=(XY..XY) 1 
    14          1
    15          1
    26          2
    27         32
    28         12
    29          1
    37          2
    38          7
    39         45
    40          9
    41         60
    42         14
    43        349
    44          4
    45          1
    46          2
    50          8
    51         30
    52          7
    53          2
    54          3
    55          6
    56          1
    61          1
    62          2
    63         10
    64         11
    65         50
    66         73
    67          6
    69          3
    70          9
    71         56
    72          2
    73          2
    74          2
    75          2
    76          4
    77         63
    78          7
    79          2
    89          1
    90          1
    91         14
    92         34
    93        999
    94         78
    95          2
   103          5
   104          8
   105          2
   106          3
   115          1
   117          1
   118          3
   119          9
   120         29
   121          3
   128          1
   129          1
   130          5
   131          1
   134          2
   144          6
   145          9
   146          4
   147          7
   148          2
   152          1
   153          2
   154          1
   155          5
   161          1
   162          7
   163        157
   164         20
   165          1