##TITLE=Library Entry 65164
##JCAMP-DX=Revision 4.10 
##DATA TYPE=MASS SPECTRUM
##SAMPLE DESCRIPTION=NIST Mass Spectrometry Data Center
##NAMES=HP
##CAS NAME=2-Propen-1-ol, 3-phenyl-, (E)-
##MOLFORM=C9H10O
##CAS REGISTRY NO=4407-36-7
##MP= -300
##BP= -300
##MW= 134
##$RETENTION INDEX=1310
##$CONDENSED SPECTRUM=NO
##NPOINTS= 82
##XYDATA=(XY..XY) 1 
    25          1
    26         10
    27         82
    28         16
    29         72
    30          7
    31         56
    36          1
    37         18
    38         45
    39        222
    40         21
    41         22
    42          5
    43         34
    44          5
    45          2
    48          1
    49         13
    50        185
    51        446
    52        108
    53         52
    54          8
    55        269
    56         59
    57         73
    59          2
    60          2
    61         30
    62         81
    63        219
    64         39
    65        161
    66         70
    67         15
    68          3
    73         14
    74         94
    75         77
    76         85
    77        633
    78        776
    79        363
    80         23
    81          4
    85          8
    86         20
    87         21
    88          9
    89        102
    90         26
    91        834
    92        999
    93         75
    94          4
    97          1
    98          9
    99          2
   101         11
   102         95
   103        276
   104         55
   105        554
   106         65
   107         30
   108          2
   110          2
   113          9
   114          8
   115        591
   116        178
   117         80
   118         16
   119         14
   120          1
   131         47
   132         14
   133        186
   134        685
   135         65
   136          4