##TITLE=Library Entry 4614
##JCAMP-DX=Revision 4.10 
##DATA TYPE=MASS SPECTRUM
##SAMPLE DESCRIPTION=Japan AIST/NIMC Database- Spectrum MS-NW-3871
##NAMES=HP
##CAS NAME=1,2-Diaminopropane-N,N,N',N'-tetraacetic acid
##MOLFORM=C11H18N2O8
##CAS REGISTRY NO=4408-81-5
##MP= -300
##BP= -300
##MW= 306
##$RETENTION INDEX=0
##$CONDENSED SPECTRUM=NO
##NPOINTS= 254
##XYDATA=(XY..XY) 1 
    12         18
    13          4
    14         26
    15        138
    16         46
    17         77
    18        278
    25          3
    26         20
    27         74
    28        416
    29         43
    30         99
    31         43
    32          4
    34          3
    35          2
    36         18
    37          6
    38         13
    39         74
    40         42
    41        217
    42        999
    43        155
    44        943
    45         67
    46          7
    47          1
    48          2
    49          4
    50          3
    51          8
    52         11
    53         12
    54         40
    55         64
    56        239
    57        158
    58        381
    59         39
    60         70
    61          3
    62          2
    63          9
    64          3
    65          5
    66          8
    67         16
    68         49
    69         52
    70        321
    71        114
    72        149
    73         15
    74         24
    75          2
    76          2
    77          5
    78          4
    79          5
    80         11
    81         15
    82         34
    83         34
    84        100
    85         37
    86         43
    87         22
    88        120
    89         10
    90          2
    91          4
    92          4
    93          6
    94         12
    95         18
    96         22
    97         39
    98         33
    99         35
   100        147
   101        139
   102        108
   103         11
   104          4
   105          4
   106          5
   107          7
   108         10
   109         17
   110         18
   111         41
   112         18
   113         83
   114         50
   115         53
   116         33
   117          5
   118          7
   119          3
   120          5
   121          7
   122          8
   123         10
   124         13
   125         24
   126         21
   127         32
   128        310
   129         47
   130         18
   131          6
   132          4
   133          5
   134          5
   135          6
   136          5
   137          9
   138          8
   139         19
   140         31
   141        112
   142        111
   143         28
   144         10
   145         12
   146         47
   147          9
   148          6
   149          5
   150          6
   151          6
   152          9
   153          7
   154          9
   155         28
   156         11
   157         77
   158         12
   159          4
   160         81
   161          9
   162          4
   163          4
   164          5
   165          6
   166          7
   167          6
   168         12
   169         10
   170          8
   171         25
   172          9
   173         50
   174         12
   175          5
   176          4
   177          3
   178          3
   179          4
   180          5
   181          4
   182          5
   183          7
   184         32
   185        147
   186         71
   187         13
   188          3
   189          4
   190          3
   191          3
   192          7
   193          3
   194          3
   195          3
   196          3
   197          3
   198          6
   199          5
   200          4
   201          9
   202          4
   203          2
   204          2
   205          3
   206          2
   207          2
   208          2
   209          3
   210          3
   211          3
   212          8
   213          6
   214          2
   215          6
   216          3
   217          2
   218          2
   219          1
   220          2
   221          1
   222          1
   223          2
   224          3
   225          2
   226          5
   227          2
   228          2
   229          2
   230          7
   231          2
   232          1
   233          2
   234          2
   235          1
   236          1
   237          1
   238          2
   239          2
   240          2
   241          1
   242          1
   243          2
   244          2
   245          1
   248          1
   249          2
   250          1
   252          1
   253          1
   254          1
   255          1
   256          2
   257          3
   258          2
   260          1
   261          2
   262          1
   263          1
   264          1
   265          1
   268          1
   269          2
   270          3
   271          1
   272          1
   278          2
   280          1
   281          1
   282          1
   283          2
   306          1