##TITLE=Library Entry 15831
##JCAMP-DX=Revision 4.10 
##DATA TYPE=MASS SPECTRUM
##SAMPLE DESCRIPTION=Japan AIST/NIMC Database- Spectrum MS-IW-1025
##NAMES=HP
##CAS NAME=Phosphonoacetic acid
##MOLFORM=C2H5O5P
##CAS REGISTRY NO=4408-78-0
##MP= -300
##BP= -300
##MW= 140
##$RETENTION INDEX=0
##$CONDENSED SPECTRUM=NO
##NPOINTS= 84
##XYDATA=(XY..XY) 1 
    12          4
    13          3
    14         34
    15         14
    16         22
    17          9
    18         37
    19          2
    25          2
    26          1
    27          3
    28        105
    29         19
    30          2
    31         56
    32         10
    33          1
    36          8
    38          3
    39          4
    40          6
    41         41
    42        357
    43         80
    44        999
    45         63
    46          5
    47         76
    48         39
    49          8
    50          4
    51          2
    55          9
    56          3
    57         11
    58          7
    60        259
    61          8
    62          2
    63         36
    64         10
    65         60
    66          2
    67          5
    68          2
    69          6
    70          3
    71          8
    73          2
    77          4
    78        154
    79         23
    80         12
    81        430
    82         12
    83          7
    84          2
    85          5
    91          2
    93          2
    94          2
    95          9
    96        253
    97          7
    98         28
    99         69
   100          1
   104          2
   105         50
   106          2
   107          2
   109          3
   110          1
   111          3
   112          6
   113          1
   121          1
   122         22
   123         33
   124          1
   125          2
   138          1
   139          1
   141          3