##TITLE=Library Entry 83503
##JCAMP-DX=Revision 4.10 
##DATA TYPE=MASS SPECTRUM
##SAMPLE DESCRIPTION=RADIAN CORP
##NAMES=HP
##CAS NAME=Ethanone, 2-hydroxy-1,2-diphenyl-, oxime
##MOLFORM=C14H13NO2
##CAS REGISTRY NO=441-38-3
##MP= -300
##BP= -300
##MW= 227
##$RETENTION INDEX=0
##$CONDENSED SPECTRUM=NO
##NPOINTS= 121
##XYDATA=(XY..XY) 1 
    26          7
    27         28
    29         34
    30          7
    31          1
    37         12
    38         20
    39         77
    41         20
    42          3
    43         21
    44          4
    45          3
    47          2
    49         10
    50        121
    51        266
    52         69
    53         33
    54          5
    55         20
    56          4
    57         15
    60          8
    61          9
    62         20
    63         58
    64         23
    65         21
    66          5
    67          8
    68          5
    69         19
    70          5
    71          9
    73         15
    74         37
    75         49
    76        170
    77        794
    78        119
    79        753
    80         52
    81         15
    82          8
    83         10
    84          4
    85          7
    86          6
    87          9
    88          9
    89         37
    90         16
    91         20
    92          5
    93          5
    94          3
    95          9
    96          5
    97          7
    98          5
    99          6
   100          1
   101          4
   102         13
   103        196
   104        297
   105        197
   106         86
   107        999
   108         82
   109          9
   110          2
   111          3
   113          4
   115         10
   116          4
   117          1
   119          9
   120          9
   121          4
   122         17
   123          4
   125          2
   126          4
   127          4
   128          4
   129          4
   132         12
   133          3
   135          2
   136          1
   137          2
   139          6
   145          1
   149          8
   150          4
   151          6
   152         17
   153          5
   155          2
   163          4
   164          5
   165         22
   166          5
   167          8
   176          5
   177          4
   178         19
   179         63
   180        221
   181         33
   182          7
   183          4
   193          2
   198          7
   209         40
   210         43
   211          7
   227         11
   228          5