##TITLE=Library Entry 65158
##JCAMP-DX=Revision 4.10 
##DATA TYPE=MASS SPECTRUM
##SAMPLE DESCRIPTION=V.A.KOPTYUG, ATLAS OF MASS SPECTRA OF ORGANIC COMPOUNDS
##NAMES=HP
##CAS NAME=Benzylcyclopentane
##MOLFORM=C12H16
##CAS REGISTRY NO=4410-78-0
##MP= -300
##BP= -300
##MW= 160
##$RETENTION INDEX=0
##$CONDENSED SPECTRUM=NO
##NPOINTS= 23
##XYDATA=(XY..XY) 1 
    51         30
    53         10
    60         70
    61         40
    62         60
    63        220
    64         10
    77         20
    78         10
    79         10
    91        400
    92        999
    93         60
   103         10
   104         20
   105         10
   115         30
   116         10
   117         30
   118         10
   131         10
   160        170
   161         20