##TITLE=Library Entry 83733
##JCAMP-DX=Revision 4.10 
##DATA TYPE=MASS SPECTRUM
##SAMPLE DESCRIPTION=K. Kirk, LC, NIDDK, NIH, Bethesda, MD 20892
##NAMES=HP
##CAS NAME=Phenylacetylamino, N-benzyl-.alpha.-hydroxy-, (2'.alpha)-
##MOLFORM=C15H15NO2
##CAS REGISTRY NO=4410-32-6
##MP= -300
##BP= -300
##MW= 241
##$RETENTION INDEX=0
##$CONDENSED SPECTRUM=NO
##NPOINTS= 113
##XYDATA=(XY..XY) 1 
    41         31
    42         31
    43         38
    44         56
    45          4
    46          1
    48          2
    50         71
    51        177
    52         49
    53         30
    54          4
    55          7
    56          7
    57          5
    58          3
    59          7
    60          2
    61          3
    62         15
    63         48
    64         21
    65        150
    66          9
    67          2
    68          0
    69          3
    70          4
    71          1
    73          3
    74         10
    75          9
    77        495
    78        100
    79        677
    80         44
    81          3
    82          0
    83          0
    84          2
    85          1
    86          3
    87          2
    88          0
    89         56
    90         50
    91        746
    92        211
    93         14
    94          1
    95          1
    96          0
    97          0
    98          0
   100          1
   102          1
   103          4
   104         36
   105         86
   106        294
   107        999
   108        495
   109         37
   110          2
   111          0
   115          3
   116          4
   117          6
   118         71
   119          7
   120          0
   121          1
   122          0
   124          3
   128          1
   130          1
   132          9
   133          9
   134         43
   135        282
   136         39
   137          3
   139          0
   141          0
   149          2
   151          0
   152          2
   153          0
   155          1
   162          1
   163          4
   164          0
   165          3
   166          0
   167          4
   168          1
   170          0
   177         29
   178          2
   179          1
   180          1
   193          0
   194          0
   195          0
   196          1
   197          0
   204          0
   223         81
   224         13
   225          2
   241        138
   242         27
   243          3