##TITLE=Library Entry 64984
##JCAMP-DX=Revision 4.10 
##DATA TYPE=MASS SPECTRUM
##SAMPLE DESCRIPTION=Chemical Concepts
##NAMES=HP
##CAS NAME=Benzene, (cyclohexylmethyl)-
##MOLFORM=C13H18
##CAS REGISTRY NO=4410-75-7
##MP= -300
##BP= -300
##MW= 174
##$RETENTION INDEX=0
##$CONDENSED SPECTRUM=NO
##NPOINTS= 80
##XYDATA=(XY..XY) 1 
    25          1
    27         30
    28          5
    29         31
    30          0
    37          0
    38          2
    39         68
    40          6
    41        197
    42          9
    43         16
    44          0
    50          7
    51         27
    52          9
    53         24
    54         29
    55        525
    56         23
    57          1
    58          1
    62          2
    63         16
    64          7
    65         82
    66          9
    67        104
    68          8
    69          5
    71          0
    74          1
    75          3
    76          3
    77         25
    78         16
    79         15
    80          4
    81         23
    82        124
    83        408
    84         26
    85          0
    87          0
    88          1
    89         13
    90         10
    91        320
    92        999
    93         91
    94          3
    95          2
    96          1
   101          0
   102          4
   103         11
   104         11
   105         10
   106          2
   113          0
   114          1
   115         27
   116         10
   117         19
   118          3
   126          0
   127          3
   128          9
   129          7
   130          3
   131          3
   139          0
   141          1
   143          0
   168          0
   172          0
   173          1
   174        237
   175         33
   176          2