##TITLE=Library Entry 83804
##JCAMP-DX=Revision 4.10 
##DATA TYPE=MASS SPECTRUM
##SAMPLE DESCRIPTION=Chemical Concepts
##NAMES=HP
##CAS NAME=Mandelanilide
##MOLFORM=C14H13NO2
##CAS REGISTRY NO=4410-33-7
##MP= -300
##BP= -300
##MW= 227
##$RETENTION INDEX=0
##$CONDENSED SPECTRUM=NO
##NPOINTS= 112
##XYDATA=(XY..XY) 1 
    25          1
    26          5
    27         48
    28         14
    29         50
    30          2
    31          5
    36          0
    37          4
    38         20
    39        116
    40         17
    41         86
    42         17
    43         89
    44         10
    45         22
    46          1
    49          1
    50         44
    51        155
    52         42
    53         33
    54         13
    55         87
    56         39
    57        115
    58          8
    59          6
    60         18
    61          6
    62         12
    63         44
    64         37
    65        141
    66         68
    67         30
    68         10
    69         60
    70         22
    71         57
    72          4
    73         15
    74         12
    75         16
    76         28
    77        537
    78         82
    79        594
    80         56
    81         33
    82         17
    83         47
    84         17
    85         36
    86          3
    87          6
    88          4
    89         31
    90         49
    91         52
    92        116
    93        623
    94         68
    95         32
    96         15
    97         42
    98         11
    99         11
   100          2
   101          4
   102          3
   103          4
   104         17
   105         66
   106         22
   107        999
   108        542
   109         58
   110         11
   111         25
   112          8
   113          8
   114          2
   115          5
   116          3
   117          2
   118          6
   119         91
   120        113
   121        321
   122         38
   123         16
   124          8
   125         17
   126          7
   127          8
   128          3
   129          5
   130          1
   131          2
   132          6
   133          4
   134          2
   135          6
   136          4
   212          2
   226          1
   227        253
   228         45
   229          5
   230          1