##TITLE=Library Entry 33185
##JCAMP-DX=Revision 4.10 
##DATA TYPE=MASS SPECTRUM
##SAMPLE DESCRIPTION=Chemical Concepts
##NAMES=HP
##CAS NAME=Benzene, (cyclopentylidenemethyl)-
##MOLFORM=C12H14
##CAS REGISTRY NO=4410-77-9
##MP= -300
##BP= -300
##MW= 158
##$RETENTION INDEX=0
##$CONDENSED SPECTRUM=NO
##NPOINTS= 84
##XYDATA=(XY..XY) 1 
    26          7
    27         78
    28         23
    29         16
    37          4
    38         14
    39        147
    40         10
    41         89
    42          5
    43          1
    50         44
    51        128
    52         35
    53         31
    54          3
    55          4
    57          2
    58          3
    61          5
    62         23
    63         86
    64         54
    65        111
    66        212
    67        999
    68         53
    69          4
    70          6
    71          5
    74         19
    75         25
    76         36
    77        108
    78         59
    79        104
    80        175
    81         15
    86          6
    87          9
    88          6
    89         51
    90          9
    91        332
    92         68
    93          5
    98          3
    99          2
   101          8
   102         41
   103         31
   104         49
   105          9
   106          2
   113         10
   114         10
   115        341
   116         80
   117        478
   118         45
   119          2
   125          4
   126         10
   127         70
   128        186
   129        385
   130        235
   131         28
   139          5
   140          3
   141         33
   142         25
   143        113
   144         13
   151          4
   152         11
   153          9
   154          4
   155          8
   156          8
   157         38
   158        682
   159         83
   160          5