##TITLE=Library Entry 97593
##JCAMP-DX=Revision 4.10 
##DATA TYPE=MASS SPECTRUM
##SAMPLE DESCRIPTION=TNO Volatile Compounds in Food - Chemical Concepts
##NAMES=HP
##CAS NAME=Benzeneacetaldehyde, .alpha.-ethylidene-
##MOLFORM=C10H10O
##CAS REGISTRY NO=4411-89-6
##MP= -300
##BP= -300
##MW= 146
##$RETENTION INDEX=1279
##$CONDENSED SPECTRUM=NO
##NPOINTS= 79
##XYDATA=(XY..XY) 1 
    26          1
    27         36
    29         40
    31         12
    35          4
    36          5
    37         16
    38          4
    39        188
    41         18
    42         12
    46          5
    47          4
    48          6
    49          6
    50         69
    51        150
    52         44
    53         11
    54         16
    55         14
    56         29
    57         15
    58          7
    63         88
    64          4
    65         12
    66         21
    68          6
    69          1
    72         18
    73         17
    74         22
    75         31
    76         33
    77         63
    78        128
    79         20
    82          2
    85         16
    86         10
    87         14
    88          8
    89         56
    90         17
    91        292
    92         59
    93          4
    94         13
    96          3
    97          6
    98         11
   101          1
   102         81
   103         47
   106          7
   109          8
   110          7
   113         33
   114         22
   115        606
   116        275
   117        999
   118        157
   119         14
   120         13
   122         11
   127          5
   128         32
   129         26
   131         43
   132          1
   141          7
   143          6
   144          6
   145         91
   146        675
   147         81
   148          8