##TITLE=Library Entry 3953
##JCAMP-DX=Revision 4.10 
##DATA TYPE=MASS SPECTRUM
##SAMPLE DESCRIPTION=Chemical Concepts
##NAMES=HP
##CAS NAME=2-Butenoic acid, 2,3-dimethyl-
##MOLFORM=C6H10O2
##CAS REGISTRY NO=4411-97-6
##MP= -300
##BP= -300
##MW= 114
##$RETENTION INDEX=1033
##$CONDENSED SPECTRUM=NO
##NPOINTS= 70
##XYDATA=(XY..XY) 1 
    24          0
    25          6
    26         61
    27        433
    28         80
    29        139
    30          4
    31         35
    33          0
    37         18
    38         46
    39        426
    40         96
    41        999
    42         85
    43        203
    44          8
    45         72
    46          4
    47          3
    48          1
    49          8
    50         52
    51         78
    52         33
    53        237
    54         35
    55        131
    56        114
    57         18
    58         10
    59        235
    60         25
    61          5
    62         10
    63         12
    64          1
    65         23
    66         26
    67        290
    68        206
    69        287
    70         17
    71         60
    72          8
    73         18
    74          9
    77          0
    79          1
    81         25
    82          4
    83          4
    84          0
    85          9
    86          2
    87          0
    95         10
    96        212
    97         94
    98          4
    99        299
   100         27
   101          1
   109          1
   111          1
   112          0
   113          1
   114        498
   115         35
   116          2