##TITLE=Library Entry 80691
##JCAMP-DX=Revision 4.10 
##DATA TYPE=MASS SPECTRUM
##SAMPLE DESCRIPTION=CONTINENTAL OIL CO., PONCA CITY, OKLA, USA
##NAMES=HP
##CAS NAME=Benzene, (1-cyclohexylethyl)-
##MOLFORM=C14H20
##CAS REGISTRY NO=4413-16-5
##MP= -300
##BP= -300
##MW= 188
##$RETENTION INDEX=0
##$CONDENSED SPECTRUM=NO
##NPOINTS= 138
##XYDATA=(XY..XY) 1 
    26          5
    27         81
    28         16
    29         41
    30          1
    33          0
    36          0
    37          1
    38          3
    39         75
    40          9
    41        153
    42          9
    43         11
    44          0
    49          0
    50         11
    51         43
    52         12
    53         28
    54         17
    55        191
    56         10
    57          1
    58          0
    60          0
    61          0
    62          2
    63         14
    64          4
    65         24
    66          4
    67         40
    68          3
    69          7
    70          1
    71          1
    72          0
    73          0
    74          2
    75         10
    76         11
    77        161
    78         65
    79        105
    80          9
    81         15
    82         42
    83        183
    84         13
    85          0
    86          1
    87          2
    88          1
    89         13
    90          5
    91        271
    92         23
    93          2
    94          0
    95          3
    96          0
    97          0
    98          0
    99          0
   100          0
   101          4
   102         16
   103         73
   104        151
   105        999
   106        819
   107         72
   108          3
   109          1
   110          2
   111          2
   112          0
   113          1
   114          2
   115         47
   116         16
   117         33
   118          7
   119          2
   120          1
   121          0
   125          0
   126          1
   127          8
   128         23
   129         20
   130          6
   131          9
   132          1
   133          0
   138          0
   139          1
   140          0
   141          4
   142          2
   143          4
   144          1
   145          2
   146          0
   151          0
   152          1
   153          0
   154          0
   155          0
   156          0
   157          0
   158          0
   159          0
   160          0
   163          0
   165          1
   166          0
   167          1
   168          0
   169          0
   170          0
   171          2
   172          0
   173          1
   174          0
   178          0
   179          0
   180          0
   182          0
   183          0
   184          0
   185          0
   186          3
   187          1
   188        176
   189         27
   190          2