##TITLE=Library Entry 17106
##JCAMP-DX=Revision 4.10 
##DATA TYPE=MASS SPECTRUM
##SAMPLE DESCRIPTION=Dennis Rohrbaugh, CBDCOM/ERDEC, Edgewood, MD
##NAMES=HP
##CAS NAME=Ethane, 1,2-bis(vinylthio)-
##MOLFORM=C6H10S2
##CAS REGISTRY NO=4413-12-1
##MP= -300
##BP= -300
##MW= 146
##$RETENTION INDEX=0
##$CONDENSED SPECTRUM=NO
##NPOINTS= 26
##XYDATA=(XY..XY) 1 
    41         43
    45        999
    46         57
    47        178
    48         13
    53        116
    57        146
    58        515
    59        659
    60         86
    61         54
    64         15
    71          3
    73        178
    85        402
    86         27
    87        652
    88         24
    89         20
    91         26
   105          7
   112         82
   113          5
   118        169
   119         16
   120         11