##TITLE=Library Entry 69810
##JCAMP-DX=Revision 4.10 
##DATA TYPE=MASS SPECTRUM
##SAMPLE DESCRIPTION=Exported from NIST MS Search
##NAMES=HP
##CAS NAME=Cyclopentane, 1,1'-ethylidenebis-
##MOLFORM=C12H22
##CAS REGISTRY NO=4413-21-2
##MP= -300
##BP= -300
##MW= 166
##$RETENTION INDEX=0
##$CONDENSED SPECTRUM=NO
##NPOINTS= 102
##XYDATA=(XY..XY) 1 
    36          1
    37          3
    38         11
    39        225
    40         44
    41        541
    42         86
    43         60
    44          2
    45          1
    46          1
    47          1
    49          1
    50          5
    51         19
    52         11
    53         82
    54         40
    55        768
    56         50
    57          9
    58          1
    59          1
    60          1
    61          1
    62          1
    63          5
    64          2
    65         22
    66         35
    67        281
    68        332
    69        168
    70         15
    71          2
    72          1
    74          1
    75          1
    76          1
    77         21
    78          5
    79         24
    80          7
    81        105
    82         26
    83         28
    84          3
    85          1
    86          1
    87          1
    89          1
    90          1
    91         10
    92          2
    93          7
    94          4
    95         55
    96        296
    97        999
    98         79
    99          3
   100          1
   102          1
   103          1
   104          1
   105          1
   106          1
   107          2
   108          2
   109         39
   110         11
   111          1
   112          1
   115          1
   116          1
   117          1
   118          1
   119          1
   120          1
   121          1
   122          1
   123          7
   124          3
   125          1
   126          1
   128          1
   133          1
   135          1
   136          1
   137          3
   138          1
   139          1
   149          1
   150          1
   151          3
   152          1
   162          1
   164          1
   165          1
   166         15
   167          2
   168          1