##TITLE=Library Entry 23050
##JCAMP-DX=Revision 4.10 
##DATA TYPE=MASS SPECTRUM
##SAMPLE DESCRIPTION=NIST Mass Spectrometry Data Center, 1990.
##NAMES=HP
##CAS NAME=Cyclobutanemethanol
##MOLFORM=C5H10O
##CAS REGISTRY NO=4415-82-1
##MP= -300
##BP= -300
##MW= 86
##$RETENTION INDEX=0
##$CONDENSED SPECTRUM=NO
##NPOINTS= 36
##XYDATA=(XY..XY) 1 
    14          1
    15         17
    16          9
    17          4
    18          9
    26         52
    27        218
    28        165
    29        317
    30         79
    31        160
    32          8
    37         13
    38         28
    39        208
    40         71
    41        136
    42         29
    43         68
    44        147
    45         24
    50         24
    51         22
    52          9
    53         69
    54          9
    55        153
    56          9
    57        999
    58        160
    59          9
    65          6
    67        115
    68         70
    69          6
    71         25