##TITLE=Library Entry 218
##JCAMP-DX=Revision 4.10 
##DATA TYPE=MASS SPECTRUM
##SAMPLE DESCRIPTION=Japan AIST/NIMC Database- Spectrum MS-NW- 319
##NAMES=HP
##CAS NAME=1H-Tetrazol-5-amine
##MOLFORM=CH3N5
##CAS REGISTRY NO=4418-61-5
##MP= -300
##BP= -300
##MW= 85
##$RETENTION INDEX=0
##$CONDENSED SPECTRUM=NO
##NPOINTS= 29
##XYDATA=(XY..XY) 1 
    12          9
    13         20
    14          9
    15         16
    16         16
    17          7
    18          2
    26         27
    27        178
    28        999
    29        144
    30         51
    31          4
    32          2
    36         13
    38          4
    40          7
    41         45
    42        173
    43        114
    44          3
    54          3
    55          3
    57        498
    58         10
    59          4
    69          2
    85        374
    86         11