##TITLE=Library Entry 90118
##JCAMP-DX=Revision 4.10 
##DATA TYPE=MASS SPECTRUM
##SAMPLE DESCRIPTION=CARL DJERASSI DEPT OF CHEM STANFORD UNIV STANFORD CALIF
 94305
##NAMES=HP
##CAS NAME=Pyrrolidine, 1-(1-oxopentyl)-
##MOLFORM=C9H17NO
##CAS REGISTRY NO=4419-57-2
##MP= -300
##BP= -300
##MW= 155
##$RETENTION INDEX=0
##$CONDENSED SPECTRUM=NO
##NPOINTS= 26
##XYDATA=(XY..XY) 1 
    41        188
    42         69
    43        316
    44         29
    55        267
    56        138
    57        178
    68         29
    69         39
    70        534
    71        277
    72         79
    84         19
    85        267
    86         29
    98        168
    99         39
   112         79
   113        999
   114         79
   126        138
   127         39
   140         59
   154         19
   155        118
   156         19