##TITLE=Library Entry 107513
##JCAMP-DX=Revision 4.10 
##DATA TYPE=MASS SPECTRUM
##SAMPLE DESCRIPTION=Zaikin V.G., TIPS RAS, Moscow, Russia
##NAMES=HP
##CAS NAME=Benzamide, 4-fluoro-N-(1-naphtyl)-
##MOLFORM=C17H12FNO
##CAS REGISTRY NO=442-72-8
##MP= -300
##BP= -300
##MW= 265
##$RETENTION INDEX=2440
##$CONDENSED SPECTRUM=NO
##NPOINTS= 36
##XYDATA=(XY..XY) 1 
    28          1
    39          4
    50          4
    51          4
    63          7
    65          3
    74          3
    75         28
    76          4
    88          3
    89         10
    94          6
    95        224
    96         18
   113          6
   114         11
   115         81
   116         14
   122          3
   123        999
   124         67
   125          4
   126          3
   127          4
   140         13
   141          7
   142          6
   143         32
   144         38
   145          3
   234          3
   235          4
   264          2
   265        466
   266         82
   267          8