##TITLE=Library Entry 91389
##JCAMP-DX=Revision 4.10 
##DATA TYPE=MASS SPECTRUM
##SAMPLE DESCRIPTION=Japan AIST/NIMC Database- Spectrum MS-NW-5176
##NAMES=HP
##CAS NAME=2,2-Diisopropyl-1,3-dioxolane
##MOLFORM=C9H18O2
##CAS REGISTRY NO=4421-10-7
##MP= -300
##BP= -300
##MW= 158
##$RETENTION INDEX=0
##$CONDENSED SPECTRUM=NO
##NPOINTS= 52
##XYDATA=(XY..XY) 1 
    14          1
    15         12
    18          2
    26          5
    27         75
    28         17
    29         14
    31          3
    32          1
    38          2
    39         36
    40          7
    41         93
    42         17
    43        689
    44         23
    45         35
    51          2
    53          6
    54          1
    55         27
    56          6
    57          8
    59          3
    65          1
    67          4
    69          8
    70          5
    71        142
    72          9
    73          9
    77          1
    79          1
    81         12
    83          8
    85         13
    86          2
    87          8
    96          1
    97          2
    99         22
   100          6
   101          6
   113         22
   114          9
   115        999
   116         67
   117          6
   127          1
   128          5
   129          2
   143          6