##TITLE=Library Entry 4214
##JCAMP-DX=Revision 4.10 
##DATA TYPE=MASS SPECTRUM
##SAMPLE DESCRIPTION=V.G.Zaikin, TIPS, Russian Acad. Sci.
##NAMES=HP
##CAS NAME=.alpha.-Ketocyclododecanone oxime
##MOLFORM=C12H21NO2
##CAS REGISTRY NO=4422-06-4
##MP= -300
##BP= -300
##MW= 211
##$RETENTION INDEX=0
##$CONDENSED SPECTRUM=NO
##NPOINTS= 55
##XYDATA=(XY..XY) 1 
    39        380
    41        999
    42        360
    43        700
    44        210
    45         98
    46        350
    53        140
    54        200
    55        740
    56        160
    57        240
    58        110
    67        230
    69        330
    70         87
    71         98
    72         55
    79         87
    80         51
    81        170
    82        190
    83        170
    84         98
    93         66
    95        110
    96        210
    97         87
    98         87
    99         87
   101         77
   107         90
   109         53
   110        240
   111         50
   112         98
   113         87
   122         60
   123         50
   124        170
   126         98
   136         55
   140         50
   149         98
   150         54
   151         77
   166        350
   167         51
   168         77
   183        150
   194        780
   195        110
   211        360
   212         49
   213          3