##TITLE=Library Entry 70999
##JCAMP-DX=Revision 4.10 
##DATA TYPE=MASS SPECTRUM
##SAMPLE DESCRIPTION=NIST Mass Spectrometry Data Center, 1990.
##NAMES=HP
##CAS NAME=Cyclohexanone, 2-ethyl-
##MOLFORM=C8H14O
##CAS REGISTRY NO=4423-94-3
##MP= -300
##BP= -300
##MW= 126
##$RETENTION INDEX=1158
##$CONDENSED SPECTRUM=NO
##NPOINTS= 44
##XYDATA=(XY..XY) 1 
    15         15
    26         34
    27        202
    28        122
    29        113
    39        357
    40         83
    41        471
    42        367
    43         77
    50         28
    51         47
    52         28
    53        105
    54         88
    55        756
    56        203
    57         45
    58         11
    63         17
    65         31
    67        269
    68         79
    69        226
    70        259
    71         23
    72         11
    77         29
    79         42
    80         19
    81         41
    82        257
    83        495
    84        156
    85         15
    91         10
    93         39
    95         12
    97        300
    98        999
    99         68
   111         84
   126        248
   127         23