##TITLE=Library Entry 64029
##JCAMP-DX=Revision 4.10 
##DATA TYPE=MASS SPECTRUM
##SAMPLE DESCRIPTION=Organic Synthesis Lab, MSU, Moscow.TRC 666
##NAMES=HP
##CAS NAME=Phenylmethyl 3,4,5-trimethyl-1H-pyrrole-2-carboxylate
##MOLFORM=C15H17NO2
##CAS REGISTRY NO=4424-76-4
##MP= -300
##BP= -300
##MW= 243
##$RETENTION INDEX=0
##$CONDENSED SPECTRUM=NO
##NPOINTS= 78
##XYDATA=(XY..XY) 1 
    26          1
    27         16
    29          8
    30          1
    31          1
    38          2
    39         40
    40         11
    41         34
    42         23
    43          5
    44         13
    50          3
    51         17
    52          7
    53         24
    54          4
    55          5
    57          1
    62          1
    63         10
    64          4
    65         93
    66         16
    67         13
    68          1
    77         23
    78          6
    79         30
    80         12
    81         24
    82          1
    89         11
    90          5
    91        999
    92         83
    93         15
    94          4
   104          1
   105          3
   106         17
   107         20
   108         34
   109        130
   110         10
   120          2
   122          5
   124          1
   128          1
   133          2
   134         44
   135         33
   136        111
   137         17
   138          0
   148          2
   151          0
   152         87
   153          8
   154          0
   166          2
   167          1
   168          2
   169          0
   181          1
   182          3
   183          2
   184          8
   196          1
   198         22
   199          5
   224          3
   225          1
   228          1
   242          2
   243        297
   244         51
   245          4