##TITLE=Library Entry 46913
##JCAMP-DX=Revision 4.10 
##DATA TYPE=MASS SPECTRUM
##SAMPLE DESCRIPTION=C.L. PEDERSEN, DEP. GEN. ORG. CHEM., UNIV. COPENHAGEN,
 DENMA ULHE
##NAMES=HP
##CAS NAME=Phenyl isoselenocyanate
##MOLFORM=C7H5NSe
##CAS REGISTRY NO=4426-68-0
##MP= -300
##BP= -300
##MW= 183
##$RETENTION INDEX=0
##$CONDENSED SPECTRUM=NO
##NPOINTS= 26
##XYDATA=(XY..XY) 1 
    50        300
    51        480
    52         85
    62         22
    63         63
    64         44
    73         20
    74         84
    75        110
    76        460
    77        999
    78         94
    80         30
    91         60
    92         30
   102         26
   103        960
   104         78
   156         28
   179         88
   180         78
   181        220
   182         23
   183        480
   184         38
   185         80