##TITLE=Library Entry 77687
##JCAMP-DX=Revision 4.10 
##DATA TYPE=MASS SPECTRUM
##SAMPLE DESCRIPTION=Exported from NIST MS Search
##NAMES=HP
##CAS NAME=1H-2-Benzothiopyran, 3,4-dihydro-
##MOLFORM=C9H10S
##CAS REGISTRY NO=4426-75-9
##MP= -300
##BP= -300
##MW= 150
##$RETENTION INDEX=0
##$CONDENSED SPECTRUM=NO
##NPOINTS= 128
##XYDATA=(XY..XY) 1 
    24          1
    25          3
    26         41
    27        160
    28         15
    29          4
    30          1
    31          1
    32         13
    33         16
    34         15
    35          4
    36          1
    37         22
    38         64
    39        318
    40         23
    41         25
    42          2
    43          2
    44          8
    45         25
    46         61
    47         24
    48          4
    49          9
    50         14
    51        267
    52         85
    53         35
    54          4
    55          2
    56          1
    57         15
    58         33
    59         16
    60          7
    61         25
    62         71
    63        196
    64         34
    65        107
    66         11
    67         11
    68          2
    69         60
    70         11
    71         19
    72          8
    73         31
    74         91
    75         81
    76         42
    77        223
    78        261
    79         36
    80          2
    81          6
    82         10
    83          3
    84          5
    85          6
    86         13
    87         16
    88          8
    89         83
    90         21
    91        186
    92         16
    93         15
    94          4
    95          8
    96          3
    97          8
    98          5
    99          2
   100          1
   101          8
   102         56
   103        202
   104        999
   105        116
   106          7
   107          1
   108          7
   109          5
   110          3
   111          1
   112         31
   113          5
   114          9
   115        406
   116        137
   117        417
   118         42
   119          4
   120          5
   121        117
   122        308
   123         36
   124         15
   125          1
   126          1
   127          1
   128          1
   129          1
   130          1
   131          1
   132          1
   133          5
   134        104
   135        286
   136         32
   137         14
   138          1
   139          1
   141          1
   142          1
   143          1
   144          1
   145          5
   146          2
   147         47
   148         12
   149        215
   150        963
   151        111
   152         45