##TITLE=Library Entry 2548
##JCAMP-DX=Revision 4.10 
##DATA TYPE=MASS SPECTRUM
##SAMPLE DESCRIPTION=NIST Mass Spectrometry Data Center, 1994
##NAMES=HP
##CAS NAME=Hexadecyl isothiocyanate
##MOLFORM=C17H33NS
##CAS REGISTRY NO=4426-87-3
##MP= -300
##BP= -300
##MW= 283
##$RETENTION INDEX=0
##$CONDENSED SPECTRUM=NO
##NPOINTS= 105
##XYDATA=(XY..XY) 1 
    18          9
    27        164
    28         23
    29        453
    30         48
    39        139
    41        999
    42        179
    43        926
    44         55
    45         19
    53         56
    54         98
    55        885
    56        190
    57        441
    58         29
    59         17
    60         22
    62          8
    65          9
    67        105
    68         65
    69        383
    70        124
    71        133
    72        209
    73         14
    74         31
    75         24
    76         10
    77          8
    79         25
    80         10
    81         47
    82         89
    83        170
    84         64
    85         54
    86         29
    87         12
    88          9
    89          5
    93         15
    94          7
    95         39
    96        246
    97         80
    98         31
    99         17
   100         48
   101        100
   102         14
   103          6
   107          9
   108         10
   109         20
   110         99
   111         22
   112         26
   113          6
   114        105
   115        919
   116         76
   117         42
   121          9
   122         10
   123         14
   124         38
   125          6
   126         13
   127          6
   128        120
   129        138
   130         17
   131          6
   135          5
   136          7
   138         22
   140         10
   142         26
   143          7
   152         24
   154          5
   156         11
   166         29
   168          7
   170          8
   180         31
   181          5
   184          6
   194         35
   195          5
   198          6
   208         43
   209          7
   222         22
   226          7
   240          9
   250        861
   251        176
   252         15
   254          8
   282         17
   283          6