##TITLE=Library Entry 23126
##JCAMP-DX=Revision 4.10 
##DATA TYPE=MASS SPECTRUM
##SAMPLE DESCRIPTION=Chemical Concepts
##NAMES=HP
##CAS NAME=Borinic acid, diethyl-
##MOLFORM=C4H11BO
##CAS REGISTRY NO=4426-31-7
##MP= -300
##BP= -300
##MW= 86
##$RETENTION INDEX=0
##$CONDENSED SPECTRUM=NO
##NPOINTS= 56
##XYDATA=(XY..XY) 1 
    26         34
    27         85
    28        125
    29        502
    30          6
    31         12
    33          0
    34          1
    35          0
    36          3
    37          8
    38          4
    39         16
    40          9
    41         27
    42         31
    43         19
    44          2
    45          6
    46          1
    47          0
    48          0
    49          1
    50          3
    51          2
    52          6
    53         16
    54         11
    55         32
    56        237
    57        999
    58         23
    59          3
    60          0
    61          0
    63          0
    64          0
    65          0
    66          0
    67          0
    68          1
    69          5
    70          1
    71          2
    73          0
    75          0
    76          0
    77          1
    78          0
    83          0
    84          7
    85         36
    86         51
    87          2
    88          0
    89          0