##TITLE=Library Entry 91291
##JCAMP-DX=Revision 4.10 
##DATA TYPE=MASS SPECTRUM
##SAMPLE DESCRIPTION=RADIAN CORP
##NAMES=HP
##CAS NAME=Heptane, 1-isothiocyanato-
##MOLFORM=C8H15NS
##CAS REGISTRY NO=4426-83-9
##MP= -300
##BP= -300
##MW= 157
##$RETENTION INDEX=1264
##$CONDENSED SPECTRUM=NO
##NPOINTS= 79
##XYDATA=(XY..XY) 1 
    26         14
    27         92
    28         32
    29        102
    30         12
    32          6
    37          2
    38         13
    39        134
    40         44
    41        394
    42        103
    43        268
    44         29
    45         37
    46          5
    50          5
    51         11
    52          9
    53         38
    54         38
    55        250
    56        116
    57        293
    58         38
    59         39
    60         46
    61          4
    62          8
    65          6
    66          3
    67         28
    68         41
    69         94
    70         88
    71         34
    72        363
    73         48
    74         64
    75         26
    76          6
    77          3
    79         11
    80          4
    81         27
    82         77
    83         27
    84         19
    85         19
    86         40
    87         11
    88          7
    94          7
    95         11
    96         49
    97         35
    98         19
    99         13
   100        157
   101        107
   102         16
   103          5
   107         16
   108          3
   109          5
   110          1
   114        242
   115        999
   116         91
   117         48
   122          7
   124        290
   125         30
   128         33
   129         38
   130          4
   142         27
   156         20
   157         11