##TITLE=Library Entry 84879
##JCAMP-DX=Revision 4.10 
##DATA TYPE=MASS SPECTRUM
##SAMPLE DESCRIPTION=V.A.Korolev, Moscow, Russia
##NAMES=HP
##CAS NAME=3-(Furan-2-yl)propan-1-amine
##MOLFORM=C7H11NO
##CAS REGISTRY NO=4428-38-0
##MP= -300
##BP= -300
##MW= 125
##$RETENTION INDEX=0
##$CONDENSED SPECTRUM=NO
##NPOINTS= 54
##XYDATA=(XY..XY) 1 
    29        109
    30        354
    36          6
    37         52
    38        147
    39        266
    40        181
    41        389
    42        291
    43        597
    44        372
    45         11
    49          5
    50         92
    51        177
    52        116
    53        483
    54         89
    55         66
    56        134
    57         48
    61          6
    62         17
    63         35
    64          9
    65        124
    66        180
    67        108
    68         72
    69         33
    70          4
    71          2
    76          5
    77        122
    78         25
    79        579
    80        183
    81        803
    82         54
    83          5
    93          4
    94         64
    95         49
    96         49
    97          2
   106          8
   107        174
   108        999
   109         79
   110          4
   124          5
   125        183
   126         15
   127          1