##TITLE=Library Entry 20569
##JCAMP-DX=Revision 4.10 
##DATA TYPE=MASS SPECTRUM
##SAMPLE DESCRIPTION=Exported from NIST MS Search
##NAMES=HP
##CAS NAME=Cycloheptadecanol
##MOLFORM=C17H34O
##CAS REGISTRY NO=4429-77-0
##MP= -300
##BP= -300
##MW= 254
##$RETENTION INDEX=2236
##$CONDENSED SPECTRUM=NO
##NPOINTS= 194
##XYDATA=(XY..XY) 1 
    13          1
    15          1
    17          5
    18          2
    19          3
    25          1
    26          9
    27        105
    28         35
    29        298
    30          7
    31         58
    32          5
    35          1
    36          1
    37          1
    38          1
    39         81
    40         32
    41        825
    42        239
    43        629
    44        127
    45         72
    46          1
    48          1
    49          1
    51          5
    52          2
    53         72
    54        236
    55        999
    56        249
    57        827
    58         86
    59         16
    60          3
    62          1
    63          2
    64          1
    65         12
    66        113
    67        485
    68        534
    69        566
    70        165
    71        285
    72         47
    73         16
    74          1
    75          1
    76          1
    77         11
    78          7
    79         40
    80         53
    81        466
    82        974
    83        516
    84        115
    85        132
    86         17
    87          3
    88          1
    89          2
    90          3
    91          9
    92          2
    93         19
    94         40
    95        370
    96        698
    97        347
    98         74
    99         48
   100          5
   101          2
   103          1
   104          2
   105          1
   107          7
   108         21
   109        217
   110        229
   111        133
   112         39
   113         22
   114          4
   115          2
   116          1
   117          2
   118          1
   119          2
   120          1
   121          6
   122         17
   123        137
   124        143
   125         57
   126         18
   127         12
   128          2
   129          1
   130          1
   131          1
   132          1
   133          1
   135          5
   136         14
   137         90
   138         96
   139         21
   140         18
   141          8
   142          1
   143          1
   145          2
   146          1
   147          3
   149          4
   150          1
   151         31
   152         46
   153          7
   154         22
   155          5
   156          3
   158          2
   159          1
   160          1
   161          1
   162          1
   163          1
   164          1
   165         15
   166         34
   167          8
   168         15
   169          7
   170          2
   171          1
   173          1
   174          1
   175          1
   177          1
   178          2
   179         24
   180         43
   181          7
   182          7
   183          3
   184          3
   185          1
   186          1
   187          1
   189          1
   190          1
   191          2
   192          1
   193         15
   194         25
   195          6
   196          2
   197          4
   200          2
   202          1
   203          1
   205          2
   207         14
   208         98
   209         16
   210         21
   211          5
   212          2
   215          1
   216          1
   218          1
   221          1
   222          1
   223          1
   225          1
   226          1
   232          1
   234          3
   235          1
   236        357
   237         65
   238         10
   239          2
   252          7
   253          7
   254          8
   255          2
   259          1