##TITLE=Library Entry 50751
##JCAMP-DX=Revision 4.10 
##DATA TYPE=MASS SPECTRUM
##SAMPLE DESCRIPTION=NIST Mass Spectrometry Data Center
##NAMES=HP
##CAS NAME=Metronidazole
##MOLFORM=C6H9N3O3
##CAS REGISTRY NO=443-48-1
##MP= -300
##BP= -300
##MW= 171
##$RETENTION INDEX=1592
##$CONDENSED SPECTRUM=NO
##NPOINTS= 100
##XYDATA=(XY..XY) 1 
    14          2
    15         15
    16          1
    19         11
    25          2
    26         67
    27        115
    28        108
    29         50
    30         54
    31         74
    37          4
    38         14
    39         39
    40         64
    41         66
    42        266
    43        200
    44         48
    45        302
    46         11
    47          5
    48          1
    50          1
    51         33
    52        341
    53        683
    54        802
    55        102
    56         43
    57          7
    58          5
    59          1
    60         15
    61          1
    62          1
    63          2
    64          5
    65          5
    66         25
    67        120
    68         44
    69         46
    70         16
    71          5
    72         42
    73          2
    76          1
    77          3
    78          2
    79         14
    80        235
    81        999
    82        115
    83         73
    84         17
    85         11
    86          8
    87          1
    93          7
    94         33
    95         34
    96         72
    97         25
    98         11
    99          5
   100         11
   101          1
   106          4
   107          9
   108         30
   109         21
   110         14
   111         31
   112        100
   113          6
   114          1
   120          2
   121          2
   123         55
   124        997
   125        435
   126         35
   127          8
   128         21
   129          1
   136          2
   137          1
   138          2
   139          1
   140          4
   141          5
   153          1
   154         69
   155          7
   156          1
   169          1
   171        231
   172         19
   173          2