##TITLE=Library Entry 86320
##JCAMP-DX=Revision 4.10 
##DATA TYPE=MASS SPECTRUM
##SAMPLE DESCRIPTION=NIST Mass Spectrometry Data Center, 1994
##NAMES=HP
##CAS NAME=2,6-Dimethylfluorobenzene
##MOLFORM=C8H9F
##CAS REGISTRY NO=443-88-9
##MP= -300
##BP= -300
##MW= 124
##$RETENTION INDEX=0
##$CONDENSED SPECTRUM=NO
##NPOINTS= 80
##XYDATA=(XY..XY) 1 
    14          2
    15         14
    26          9
    27         42
    28          4
    29          0
    31         14
    33          8
    37          8
    38         21
    39         73
    40          4
    41          4
    43          1
    44          2
    45          5
    46          3
    47          3
    49          6
    50         52
    51        116
    52         18
    53         11
    54          1
    55          1
    56          9
    57         58
    58          3
    59         11
    60         17
    61         45
    62         26
    63         50
    64          8
    65         10
    68          8
    69         12
    70         21
    71          6
    73          4
    74         23
    75         42
    76         13
    77        121
    78         23
    79          5
    80          4
    81         24
    82          4
    83         66
    84          7
    85          3
    86          4
    87          6
    88          1
    89         10
    90          2
    91          9
    92          2
    93          2
    94          7
    95         22
    96         54
    97         25
    98          4
   101         39
   102         25
   103         60
   104          7
   105          7
   107         18
   109        999
   110         76
   111          3
   120          6
   121         22
   122         23
   123        251
   124        423
   125         38