##TITLE=Library Entry 20394
##JCAMP-DX=Revision 4.10 
##DATA TYPE=MASS SPECTRUM
##SAMPLE DESCRIPTION=NIST Mass Spectrometry Data Center
##NAMES=HP
##CAS NAME=1-Isothiocyanato-6-(methylsulfinyl)hexane
##MOLFORM=C8H15NOS2
##CAS REGISTRY NO=4430-35-7
##MP= -300
##BP= -300
##MW= 205
##$RETENTION INDEX=2009
##$CONDENSED SPECTRUM=NO
##NPOINTS= 117
##XYDATA=(XY..XY) 1 
    26          2
    27         29
    28         12
    29         41
    30          3
    31          3
    32          3
    33          1
    34          2
    35          4
    38          3
    39         85
    40         15
    41        325
    42         27
    43         31
    44          6
    45         40
    46         13
    47         29
    48         13
    49          6
    50          4
    51          8
    52          5
    53         42
    54         26
    55        999
    56         56
    57         10
    58         16
    59         30
    60         37
    61         85
    62          9
    63         94
    64        136
    65         27
    66         12
    67         40
    68          9
    69         43
    70         17
    71          9
    72        531
    73         24
    74         45
    75          7
    76          4
    77         10
    78         41
    79         25
    80         15
    81         60
    82         18
    83        103
    84         20
    85         20
    86         28
    87         11
    88          3
    89          4
    91          9
    94          4
    96         15
    97          7
    98         42
    99         10
   100         15
   101          9
   102          4
   103         90
   104          6
   105          7
   106          4
   108         35
   109        109
   110         10
   112          6
   113         14
   114         25
   115         16
   116          3
   119          8
   124          4
   125          3
   126        150
   127         10
   128         20
   129          5
   130          5
   131          3
   132          2
   133          3
   140         37
   141         61
   142        347
   143         35
   144         24
   145          2
   147         50
   148          5
   156          7
   158          5
   160          1
   172         13
   173          1
   174          2
   188        299
   189         38
   190         46
   191          5
   192          3
   205         41
   206          5
   207          4
   208          1