##TITLE=Library Entry 31357
##JCAMP-DX=Revision 4.10 
##DATA TYPE=MASS SPECTRUM
##SAMPLE DESCRIPTION=NIST Mass Spectrometry Data Center
##NAMES=HP
##CAS NAME=Berteroin
##MOLFORM=C7H13NS2
##CAS REGISTRY NO=4430-42-6
##MP= -300
##BP= -300
##MW= 175
##$RETENTION INDEX=1544
##$CONDENSED SPECTRUM=NO
##NPOINTS= 95
##XYDATA=(XY..XY) 1 
    26          5
    27         58
    28         15
    29         28
    35         38
    37          5
    38         10
    39        134
    40         28
    41        442
    42         36
    43         33
    44         16
    45        127
    46         62
    47        102
    48         46
    49         37
    50         11
    51         20
    52          9
    53         47
    54         26
    55        176
    56         18
    58         49
    59        110
    60         71
    61        999
    62         67
    63         56
    65         23
    66         14
    67        266
    68        330
    69        493
    70         64
    71         46
    72        442
    73         66
    74         75
    75         73
    76         20
    77         29
    78         14
    80         10
    81          8
    82         14
    83         19
    84         41
    85         88
    86         74
    87         56
    88         43
    89         19
    90          7
    93          8
    94         53
    95         26
    96        126
    97         23
    98         52
    99        114
   100         84
   101        348
   102         28
   103         37
   104        104
   105         14
   110          6
   111         16
   112         19
   114        153
   115         23
   116        126
   117         43
   118         13
   126         77
   127        303
   128        192
   129        508
   130         44
   131         24
   132        136
   133         17
   142        178
   143         17
   144          9
   160         98
   161          8
   162         12
   175        489
   176         46
   177         46
   178          7