##TITLE=Library Entry 3968
##JCAMP-DX=Revision 4.10 
##DATA TYPE=MASS SPECTRUM
##SAMPLE DESCRIPTION=DC-11-9
##NAMES=HP
##CAS NAME=Octane, 1-isothiocyanato-
##MOLFORM=C9H17NS
##CAS REGISTRY NO=4430-45-9
##MP= -300
##BP= -300
##MW= 171
##$RETENTION INDEX=1368
##$CONDENSED SPECTRUM=NO
##NPOINTS= 57
##XYDATA=(XY..XY) 1 
    41        999
    42        260
    43        920
    44         80
    45         70
    46         10
    51         30
    52         10
    53         70
    54         50
    55        460
    56        230
    57        380
    58         50
    59         50
    60         60
    63         20
    67         50
    68         50
    69        230
    70        120
    71        120
    72        420
    73         50
    74         80
    75         50
    76         10
    81         30
    82        100
    83         50
    84         40
    85         20
    86         50
    87         10
    88         10
    93         10
    95         20
    96        100
    97         20
    98         10
   100        100
   101        150
   102         20
   109         10
   110         30
   111         10
   114        170
   115        980
   116         70
   117         50
   128        100
   129        120
   138        500
   139         50
   143         30
   156         10
   171         20