##TITLE=Library Entry 2547
##JCAMP-DX=Revision 4.10 
##DATA TYPE=MASS SPECTRUM
##SAMPLE DESCRIPTION=NIST Mass Spectrometry Data Center, 1994
##NAMES=HP
##CAS NAME=Nonyl isothiocyanate
##MOLFORM=C10H19NS
##CAS REGISTRY NO=4430-43-7
##MP= -300
##BP= -300
##MW= 185
##$RETENTION INDEX=1458
##$CONDENSED SPECTRUM=NO
##NPOINTS= 92
##XYDATA=(XY..XY) 1 
    14          6
    15         14
    18          6
    27        367
    28        132
    29        497
    30         51
    32         18
    39        280
    40         78
    41        999
    42        208
    43        758
    44         50
    45         45
    46          8
    50          3
    51         14
    52          9
    53         68
    54         63
    55        526
    56        196
    57        248
    58         37
    59         40
    60         54
    61          6
    62         11
    63          3
    65         13
    66          6
    67         53
    68         49
    69        214
    70        114
    71         92
    72        399
    73         34
    74         51
    75         30
    76          7
    77          6
    79         17
    80          7
    81         24
    82         96
    83         64
    84         45
    85         38
    86         39
    87         11
    88          8
    89          3
    93         18
    94          9
    95         21
    96        138
    97         23
    98         23
    99          3
   100        113
   101        122
   102         16
   103          5
   107         11
   108          5
   109         15
   110         43
   111          6
   112          4
   113          4
   114        155
   115        758
   116         57
   117         34
   122          6
   123          7
   124         23
   125          4
   128         89
   129         70
   130         10
   135          5
   142         19
   143          4
   152        482
   153         55
   154          3
   156         13
   184         10
   185          5