##TITLE=Library Entry 40016
##JCAMP-DX=Revision 4.10 
##DATA TYPE=MASS SPECTRUM
##SAMPLE DESCRIPTION=NIST Mass Spectrometry Data Center, 1994
##NAMES=HP
##CAS NAME=1,4-Butane diisothiocyanate
##MOLFORM=C6H8N2S2
##CAS REGISTRY NO=4430-51-7
##MP= -300
##BP= -300
##MW= 172
##$RETENTION INDEX=0
##$CONDENSED SPECTRUM=NO
##NPOINTS= 93
##XYDATA=(XY..XY) 1 
    13          1
    14          3
    15         16
    26         42
    27        247
    28        111
    29        133
    30         34
    31          3
    32         35
    33          5
    34          4
    36          1
    37          9
    38         26
    39        191
    40         43
    41        128
    42         25
    43         11
    44         45
    45        133
    46         16
    47          7
    49          2
    50         11
    51         21
    52         16
    53         45
    54         35
    55        246
    56         19
    57         16
    58        108
    59        100
    60         76
    61          6
    62          3
    64          8
    66          3
    67          9
    68         18
    69         10
    70         35
    71          3
    72        999
    73         40
    74        101
    75          4
    76          5
    78         15
    79          3
    80         15
    81          6
    82          4
    83          4
    84          3
    85        362
    86         51
    87         27
    88          2
    95          2
    96         29
    97          7
    98         25
    99          2
   100          4
   105          2
   106          1
   107          5
   108          9
   111         10
   112         15
   113         38
   114         47
   115          7
   116          2
   117          3
   125          8
   126          4
   131          6
   139        131
   140         10
   141          6
   142          4
   143         44
   144          7
   145          8
   171         45
   172        141
   173         17
   174         11
   175          1