##TITLE=Library Entry 74791
##JCAMP-DX=Revision 4.10 
##DATA TYPE=MASS SPECTRUM
##SAMPLE DESCRIPTION=HCACAV, 61(8)3062(1978); B. SCHOLL ET AL
##NAMES=HP
##CAS NAME=Butanoic acid, 2-(aminocarbonyl)-2-ethyl-
##MOLFORM=C7H13NO3
##CAS REGISTRY NO=4431-54-3
##MP= -300
##BP= -300
##MW= 159
##$RETENTION INDEX=0
##$CONDENSED SPECTRUM=NO
##NPOINTS= 28
##XYDATA=(XY..XY) 1 
    44        460
    45        290
    55        490
    57        250
    59         80
    69        300
    70        100
    71         80
    72         90
    73         90
    83        200
    85        160
    86        140
    87        290
    97         60
    98        220
    99        100
   100        570
   101        999
   112        170
   113        140
   114        210
   115        290
   116        600
   130        120
   131        320
   144         80
   159        180