##TITLE=Library Entry 52779
##JCAMP-DX=Revision 4.10 
##DATA TYPE=MASS SPECTRUM
##SAMPLE DESCRIPTION=CONTINENTAL OIL CO., PONCA CITY, OKLA, USA
##NAMES=HP
##CAS NAME=Cyclohexane, (cyclopentylmethyl)-
##MOLFORM=C12H22
##CAS REGISTRY NO=4431-89-4
##MP= -300
##BP= -300
##MW= 166
##$RETENTION INDEX=0
##$CONDENSED SPECTRUM=NO
##NPOINTS= 68
##XYDATA=(XY..XY) 1 
    14          7
    15         20
    16          4
    26         12
    27        168
    28         83
    29        147
    30          4
    38          7
    39        198
    40         36
    41        625
    42         57
    43         54
    44          4
    50          6
    51         19
    52         13
    53         86
    54        120
    55        750
    56         49
    57         15
    63          5
    65         25
    66         30
    67        472
    68        256
    69        214
    70         16
    71          5
    77         25
    78          9
    79         37
    80         20
    81        212
    82        943
    83        999
    84         77
    85          7
    89          4
    91         37
    92         38
    93         15
    94         12
    95        120
    96        388
    97        161
    98         17
   103          3
   104          3
   105          4
   107          4
   108         10
   109        155
   110         41
   111          6
   115          5
   117          4
   122          3
   123         21
   124         28
   125          4
   137         11
   138         25
   139          4
   166        263
   167         34