##TITLE=Library Entry 73592
##JCAMP-DX=Revision 4.10 
##DATA TYPE=MASS SPECTRUM
##SAMPLE DESCRIPTION=Exported from NIST MS Search
##NAMES=HP
##CAS NAME=4-Morpholineethanol, .alpha.-phenyl-
##MOLFORM=C12H17NO2
##CAS REGISTRY NO=4432-34-2
##MP= -300
##BP= -300
##MW= 207
##$RETENTION INDEX=0
##$CONDENSED SPECTRUM=NO
##NPOINTS= 81
##XYDATA=(XY..XY) 1 
    15         13
    18          5
    27         11
    28         39
    29         21
    30         12
    31          2
    32          2
    39          9
    40          2
    41         16
    42         31
    43         20
    44          9
    45          6
    50          6
    51         22
    52          5
    53          3
    54          6
    55          5
    56        106
    57         13
    58          4
    63          5
    64          2
    65         12
    66          2
    68          2
    70         18
    71          4
    72          8
    73          2
    74          3
    75          2
    76          3
    77         58
    78         13
    79         22
    80          2
    85          2
    86          9
    87          2
    89          6
    90          5
    91         62
    92          6
    93          3
    98          3
   100        999
   101         62
   102          9
   103         29
   104         11
   105         56
   106          6
   107          9
   108          2
   110          2
   115          3
   117         11
   118         10
   119          4
   120          5
   121          4
   130          7
   131          2
   132          3
   137          4
   138          4
   139          2
   165          2
   169          2
   172          3
   174          4
   176        425
   177         57
   178          5
   184          3
   206          3
   207          9