##TITLE=Library Entry 56019
##JCAMP-DX=Revision 4.10 
##DATA TYPE=MASS SPECTRUM
##SAMPLE DESCRIPTION=Japan AIST/NIMC Database- Spectrum MS-NW-3359
##NAMES=HP
##CAS NAME=N-tert-Butylethylamine
##MOLFORM=C6H15N
##CAS REGISTRY NO=4432-77-3
##MP= -300
##BP= -300
##MW= 101
##$RETENTION INDEX=658
##$CONDENSED SPECTRUM=NO
##NPOINTS= 45
##XYDATA=(XY..XY) 1 
    14          2
    15         23
    26          5
    27         44
    28         32
    29         77
    30        168
    31          9
    32          3
    37          1
    38          3
    39         38
    40          8
    41        106
    42         90
    43         13
    44         94
    45          5
    46          5
    50          2
    51          2
    52          2
    53          4
    54          5
    55         18
    56         21
    57         97
    58        370
    59         22
    67          1
    68          3
    69          2
    70         20
    71          9
    72          8
    78          1
    82          1
    84         11
    85          7
    86        999
    87         61
    88          2
   100          2
   101         30
   102          2