##TITLE=Library Entry 18267
##JCAMP-DX=Revision 4.10 
##DATA TYPE=MASS SPECTRUM
##SAMPLE DESCRIPTION=James Little,Eastman Chem.Co.,Kingsport,TN
##NAMES=HP
##CAS NAME=5-Azabicyclo[2.2.0]hex-2-en-6-one
##MOLFORM=C5H5NO
##CAS REGISTRY NO=4432-69-3
##MP= -300
##BP= -300
##MW= 95
##$RETENTION INDEX=0
##$CONDENSED SPECTRUM=NO
##NPOINTS= 17
##XYDATA=(XY..XY) 1 
    27         43
    28        347
    37         81
    38        143
    39        361
    40        170
    41        247
    50        171
    51        206
    52        999
    53         56
    66         21
    67         76
    68         17
    69         19
    95         88
    96          7