##TITLE=Library Entry 8499
##JCAMP-DX=Revision 4.10 
##DATA TYPE=MASS SPECTRUM
##SAMPLE DESCRIPTION=Exported from NIST MS Search
##NAMES=HP
##CAS NAME=9-Undecen-2-one, 6,10-dimethyl-
##MOLFORM=C13H24O
##CAS REGISTRY NO=4433-36-7
##MP= -300
##BP= -300
##MW= 196
##$RETENTION INDEX=1377
##$CONDENSED SPECTRUM=NO
##NPOINTS= 58
##XYDATA=(XY..XY) 1 
    41        700
    42        310
    43        999
    44        150
    53        320
    54         90
    55        600
    56        500
    57        220
    58        450
    59        220
    67        330
    68        400
    69        750
    70        400
    71        570
    72        110
    73        140
    74         40
    81        300
    82        460
    83        410
    84        150
    85        350
    93        180
    94        100
    95        500
    96        350
    97        300
   107        110
   108        160
   109        450
   110        150
   111        340
   112        100
   113        110
   121        130
   122        110
   123        370
   124         80
   125        110
   126        100
   135         80
   136        120
   137         50
   138        180
   139        130
   140         40
   141         50
   142         30
   153         60
   154         10
   163        100
   164         20
   178         50
   179         10
   196        100
   197         10