##TITLE=Library Entry 16929
##JCAMP-DX=Revision 4.10 
##DATA TYPE=MASS SPECTRUM
##SAMPLE DESCRIPTION=Chemical Concepts
##NAMES=HP
##CAS NAME=Boronic acid, ethyl-
##MOLFORM=C2H7BO2
##CAS REGISTRY NO=4433-63-0
##MP= -300
##BP= -300
##MW= 74
##$RETENTION INDEX=0
##$CONDENSED SPECTRUM=NO
##NPOINTS= 38
##XYDATA=(XY..XY) 1 
    24          6
    26         36
    27         63
    28         29
    29         55
    30          0
    31          2
    34          0
    36          0
    37          0
    38          0
    39          0
    40          1
    41          3
    42          3
    43          3
    44        258
    45        999
    46          2
    47          4
    51          0
    52          3
    53          8
    54          5
    55         18
    56         14
    57         30
    58          1
    59          1
    67          0
    68          0
    69          0
    71          0
    72          0
    73          9
    74         37
    75          1
    76          0