##TITLE=Library Entry 60309
##JCAMP-DX=Revision 4.10 
##DATA TYPE=MASS SPECTRUM
##SAMPLE DESCRIPTION=Japan AIST/NIMC Database- Spectrum MS-NW-2455
##NAMES=HP
##CAS NAME=DL-Methionine, N-[(phenylmethoxy)carbonyl]-
##MOLFORM=C13H17NO4S
##CAS REGISTRY NO=4434-61-1
##MP= -300
##BP= -300
##MW= 283
##$RETENTION INDEX=0
##$CONDENSED SPECTRUM=NO
##NPOINTS= 155
##XYDATA=(XY..XY) 1 
    12          1
    14          4
    15         25
    16          3
    17          2
    18          7
    25          3
    26         30
    27        174
    28        244
    29         48
    30         21
    31         29
    32          6
    33          3
    34          4
    35         59
    36          2
    37         17
    38         34
    39        168
    40         20
    41        193
    42         38
    43         15
    44         60
    45        144
    46         83
    47        224
    48         98
    49         58
    50         87
    51        197
    52         61
    53         53
    54        106
    55         70
    56        240
    57         26
    58         17
    59         55
    60         26
    61        625
    62        199
    63         90
    64         21
    65        149
    66          9
    67          2
    68         13
    69          5
    70          5
    71         10
    72          6
    73         41
    74        152
    75        521
    76         36
    77        425
    78         97
    79        880
    80         92
    81          9
    82         34
    83         85
    84         78
    85         30
    86         51
    87         56
    88         51
    89         76
    90         89
    91        999
    92         93
    93          5
    95          1
    96         26
    97          2
    98          3
    99         22
   100        127
   101         97
   102         57
   103         18
   104         21
   105         35
   106          9
   107        563
   108        705
   109         58
   110          6
   111          8
   112         10
   113          1
   114         75
   115          5
   116         30
   117          8
   118         22
   119          6
   120          2
   121          1
   123          1
   126          2
   127         49
   128          9
   129        344
   130         27
   131        363
   132         30
   133         21
   134          2
   135          1
   137          9
   138         10
   139          2
   142          4
   144          6
   145          3
   146         25
   147          4
   148        190
   149         15
   150          8
   151          1
   152          2
   157         49
   158          4
   159          2
   160          1
   161          1
   164          1
   165          5
   167          2
   168          1
   173          1
   174          2
   175        318
   176         27
   177         14
   178          3
   179          2
   180          2
   191          2
   192         37
   193          3
   194          4
   209         31
   210          4
   222          5
   223          1
   235          1
   283         21
   284          4
   285          1