##TITLE=Library Entry 36042
##JCAMP-DX=Revision 4.10 
##DATA TYPE=MASS SPECTRUM
##SAMPLE DESCRIPTION=M.Lounasmaa, Acta Chem.Scand., 25,3441(1971)
##NAMES=HP
##CAS NAME=6-Ethyl-2,3-dihydropyran-2,4-dione
##MOLFORM=C7H8O3
##CAS REGISTRY NO=4435-30-7
##MP= -300
##BP= -300
##MW= 140
##$RETENTION INDEX=0
##$CONDENSED SPECTRUM=NO
##NPOINTS= 29
##XYDATA=(XY..XY) 1 
    26         64
    27        174
    28        107
    29        326
    37         15
    38         46
    39         95
    41         95
    42        156
    43        105
    53         35
    54         20
    55        164
    56         43
    57        336
    58         15
    69        999
    70         56
    83         15
    84         17
    97         77
    98         53
    99        164
   100         17
   111        539
   112        267
   113         28
   140        280
   141         35