##TITLE=Library Entry 15460
##JCAMP-DX=Revision 4.10 
##DATA TYPE=MASS SPECTRUM
##SAMPLE DESCRIPTION=Japan AIST/NIMC Database- Spectrum MS-NW-4348
##NAMES=HP
##CAS NAME=1,2,3-Butanetriol
##MOLFORM=C4H10O3
##CAS REGISTRY NO=4435-50-1
##MP= -300
##BP= -300
##MW= 106
##$RETENTION INDEX=0
##$CONDENSED SPECTRUM=NO
##NPOINTS= 74
##XYDATA=(XY..XY) 1 
    13          2
    14          9
    15         77
    16          3
    17          8
    18         30
    25          2
    26         17
    27        140
    28        101
    29        176
    30         17
    31        178
    32         20
    33          3
    37          3
    38          7
    39         41
    40          9
    41         62
    42         57
    43        510
    44        999
    45        924
    46         24
    47         15
    49          1
    50          3
    51          3
    52          1
    53          9
    54          9
    55         66
    56         12
    57        357
    58         89
    59         16
    60         36
    61        196
    62         24
    63         14
    67          1
    68          1
    69         14
    70         15
    71         58
    72          9
    73         25
    74         14
    75        172
    76          7
    77          3
    79          1
    80          1
    81          1
    83          4
    84          1
    85          3
    86          5
    87         12
    88         18
    89         16
    90          1
    91          7
    97          1
    98          3
    99          9
   100          2
   101          6
   102          1
   103         11
   104          2
   105          2
   106          1