##TITLE=Library Entry 29755
##JCAMP-DX=Revision 4.10 
##DATA TYPE=MASS SPECTRUM
##SAMPLE DESCRIPTION=NIST Mass Spectrometry Data Center, 1994
##NAMES=HP
##CAS NAME=1-Butanol, 3-methoxy-, acetate
##MOLFORM=C7H14O3
##CAS REGISTRY NO=4435-53-4
##MP= -300
##BP= -300
##MW= 146
##$RETENTION INDEX=914
##$CONDENSED SPECTRUM=NO
##NPOINTS= 50
##XYDATA=(XY..XY) 1 
    12          1
    13          4
    14         25
    15        174
    16          1
    17          0
    18          0
    19          1
    26         17
    27         91
    28         28
    29        217
    30          0
    31        159
    33         21
    37          1
    39         63
    41        138
    42        104
    43        668
    44         21
    45         44
    46          1
    50          2
    51          3
    53         13
    55        106
    56         36
    57         19
    58          1
    59        999
    60         36
    61         22
    69          1
    71        263
    72         26
    73         12
    74          1
    75          7
    85         26
    86         91
    87         13
    88          3
   101          1
   103          3
   104          1
   114          1
   115          2
   116          4
   131          1