##TITLE=Library Entry 12904
##JCAMP-DX=Revision 4.10 
##DATA TYPE=MASS SPECTRUM
##SAMPLE DESCRIPTION=Japan AIST/NIMC Database- Spectrum MS-IW-6628
##NAMES=HP
##CAS NAME=2(3H)-Furanone, dihydro-5,5-dimethyl-4-(3-oxobutyl)-
##MOLFORM=C10H16O3
##CAS REGISTRY NO=4436-81-1
##MP= -300
##BP= -300
##MW= 184
##$RETENTION INDEX=1558
##$CONDENSED SPECTRUM=NO
##NPOINTS= 109
##XYDATA=(XY..XY) 1 
    14          1
    15         22
    17          1
    26          3
    27         45
    28         13
    29         37
    31          6
    38          3
    39         65
    40         12
    41        121
    42         21
    43        999
    44         31
    45          8
    49          1
    50          3
    51          8
    52          5
    53         32
    54         23
    55        156
    56         17
    57         10
    58         73
    59         71
    60          3
    61          1
    63          4
    65          5
    66          3
    67         73
    68        118
    69         85
    70         16
    71         53
    72          5
    77          7
    78          1
    79         13
    80          5
    81         80
    82        136
    83        116
    84         13
    85         53
    86          4
    87          1
    91          9
    92          1
    93          3
    94          1
    95         30
    96         26
    97         32
    98        422
    99         55
   100          4
   101          1
   105          9
   106         15
   107        102
   108         15
   109         57
   110          6
   111        299
   112         20
   113          8
   114         44
   115          4
   116          4
   117          1
   120          5
   121         14
   122         25
   123         94
   124         30
   125         28
   126         74
   127        139
   128         10
   129          1
   133          7
   135          7
   136          1
   138         11
   139          7
   140          2
   141          7
   142         35
   143          3
   148          3
   149          1
   150          2
   151        173
   152         16
   153          2
   165          1
   166        508
   167         79
   168          7
   169         96
   170          9
   171          1
   182          1
   183          9
   184         46
   185          5