##TITLE=Library Entry 58805
##JCAMP-DX=Revision 4.10 
##DATA TYPE=MASS SPECTRUM
##SAMPLE DESCRIPTION=Drug Lab
##NAMES=HP
##CAS NAME=Oxirane, 2-methyl-3-phenyl-
##MOLFORM=C9H10O
##CAS REGISTRY NO=4436-22-0
##MP= -300
##BP= -300
##MW= 134
##$RETENTION INDEX=0
##$CONDENSED SPECTRUM=NO
##NPOINTS= 60
##XYDATA=(XY..XY) 1 
    29         55
    30          1
    31          1
    37         18
    38         69
    39        235
    40         34
    41         17
    43        187
    44          8
    45          5
    50        141
    51        308
    52         61
    53         17
    55         11
    56          4
    58          8
    61         21
    62         88
    63        265
    64         98
    65         91
    66         10
    73          6
    74         37
    75         27
    76          4
    77        311
    78         95
    79         97
    80          6
    84          1
    85          5
    86         14
    87         14
    89        811
    90        999
    91        446
    92        122
    93          8
    98          1
   102          7
   103         36
   105        452
   106         76
   107         17
   108          1
   113          1
   115         50
   116         24
   117         56
   118         34
   119         68
   120          5
   131          2
   133        405
   134        364
   135         35
   136          2