##TITLE=Library Entry 5552
##JCAMP-DX=Revision 4.10 
##DATA TYPE=MASS SPECTRUM
##SAMPLE DESCRIPTION=CARL DJERASSI DEPT OF CHEM STANFORD UNIV STANFORD CALIF
 94305
##NAMES=HP
##CAS NAME=1,3-Dioxolan-2-one, 4,5-dimethyl-
##MOLFORM=C5H8O3
##CAS REGISTRY NO=4437-70-1
##MP= -300
##BP= -300
##MW= 116
##$RETENTION INDEX=0
##$CONDENSED SPECTRUM=NO
##NPOINTS= 19
##XYDATA=(XY..XY) 1 
    26         70
    27        210
    28        330
    29        410
    39         40
    41         70
    42         30
    43        999
    44        330
    45        240
    55         10
    57         60
    70         20
    71         60
    72         90
    73         20
    86         10
   101        220
   116         80