##TITLE=Library Entry 17110
##JCAMP-DX=Revision 4.10 
##DATA TYPE=MASS SPECTRUM
##SAMPLE DESCRIPTION=NIST Mass Spectrometry Data Center, 2007
##NAMES=HP
##CAS NAME=2-[2-[2-[2-[2-[2-(2-Methoxyethoxy)ethoxy]ethoxy]ethoxy]ethoxy]eth
oxy]ethanol
##MOLFORM=C15H32O8
##CAS REGISTRY NO=4437-01-8
##MP= -300
##BP= -300
##MW= 340
##$RETENTION INDEX=2342
##$CONDENSED SPECTRUM=NO
##NPOINTS= 112
##XYDATA=(XY..XY) 1 
    14          1
    15         13
    16          1
    19          8
    26          4
    27         25
    28         62
    29        110
    30         13
    31        102
    32          2
    33          3
    39          1
    40          1
    41         23
    42         29
    43        165
    44        118
    45        999
    46         24
    47          3
    55          2
    56          5
    57         33
    58        262
    59        900
    60         35
    61         11
    62          1
    68          1
    69          5
    70         28
    71         31
    72         93
    73        130
    74         10
    75         32
    76          2
    77         11
    78          1
    80          2
    83          2
    84          2
    85          4
    86         29
    87        279
    88         99
    89        540
    90         27
    91          6
    97          1
    99          5
   100          6
   101         60
   102         50
   103        387
   104         26
   105          9
   106          1
   107          3
   112          1
   113          4
   114          5
   115         13
   116          8
   117         35
   118          6
   119         12
   120          1
   121         19
   122          1
   129          1
   130          1
   131         76
   132          8
   133        190
   134         13
   135          3
   145          5
   146          1
   147         57
   148          5
   149          2
   151          3
   157          1
   158          1
   159          6
   160          1
   161          2
   162          1
   163         10
   164          1
   165          6
   166          1
   175         24
   176          2
   177         25
   178          2
   189          1
   191          2
   195          1
   201          1
   203          1
   207          6
   208          1
   209          2
   219          2
   221          3
   251          2
   253          3
   265          1
   297          1