##TITLE=Library Entry 49930
##JCAMP-DX=Revision 4.10 
##DATA TYPE=MASS SPECTRUM
##SAMPLE DESCRIPTION=Chuck Anderson, Aldrich Chemical Co.
##NAMES=HP
##CAS NAME=Bis(2-furfuryl)disulfide
##MOLFORM=C10H10O2S2
##CAS REGISTRY NO=4437-20-1
##MP= -300
##BP= -300
##MW= 226
##$RETENTION INDEX=1678
##$CONDENSED SPECTRUM=NO
##NPOINTS= 48
##XYDATA=(XY..XY) 1 
    18          0
    26          4
    27         54
    28          1
    29          7
    32          0
    36          1
    37          2
    38          5
    39         18
    40          1
    41          7
    42          2
    44          0
    45         44
    46          2
    47          2
    50         11
    51         27
    52         16
    53        150
    54          7
    55          1
    57          2
    58          7
    59          7
    64          6
    66          1
    68          1
    69         11
    71          1
    79          3
    81        999
    82         56
    83          6
    84          4
    85         28
    86          0
    87          0
   111          4
   112          3
   113          6
   114          1
   161         16
   162          2
   226         18
   227          1
   228          1