##TITLE=Library Entry 50363
##JCAMP-DX=Revision 4.10 
##DATA TYPE=MASS SPECTRUM
##SAMPLE DESCRIPTION=Exported from NIST MS Search
##NAMES=HP
##CAS NAME=Furan, 2,2'-[oxybis(methylene)]bis-
##MOLFORM=C10H10O3
##CAS REGISTRY NO=4437-22-3
##MP= -300
##BP= -300
##MW= 178
##$RETENTION INDEX=1299
##$CONDENSED SPECTRUM=NO
##NPOINTS= 21
##XYDATA=(XY..XY) 1 
    27         97
    29         23
    38         13
    39         82
    41         49
    50         10
    51         28
    52         23
    53        197
    54         43
    69         38
    80         18
    81        999
    82        468
    83         26
    95         33
    96         13
    97         87
   110         38
   178         67
   179          7