##TITLE=Library Entry 67248
##JCAMP-DX=Revision 4.10 
##DATA TYPE=MASS SPECTRUM
##SAMPLE DESCRIPTION=CARL DJERASSI DEPT OF CHEM STANFORD UNIV STANFORD CALIF
 94305
##NAMES=HP
##CAS NAME=8-Azabicyclo[3.2.1]oct-6-en-3-one, 8-methyl-
##MOLFORM=C8H11NO
##CAS REGISTRY NO=4438-38-4
##MP= -300
##BP= -300
##MW= 137
##$RETENTION INDEX=0
##$CONDENSED SPECTRUM=NO
##NPOINTS= 49
##XYDATA=(XY..XY) 1 
    32         60
    35         10
    36          5
    37         10
    38         15
    39         75
    40         15
    41         65
    42        130
    43         65
    44          5
    47         30
    48         15
    49         15
    50         15
    51         30
    52         30
    53         85
    54         15
    55         10
    56          5
    58          5
    59         10
    62          5
    63         10
    64          5
    65         30
    66         25
    67         40
    68         15
    77         15
    78         20
    79         10
    80         15
    81         10
    82         10
    83        105
    84          5
    85         65
    87         10
    92         15
    93         60
    94        999
    95        155
    96         10
   108          5
   109          5
   137        115
   138         15