##TITLE=Library Entry 50893
##JCAMP-DX=Revision 4.10 
##DATA TYPE=MASS SPECTRUM
##SAMPLE DESCRIPTION=Japan AIST/NIMC Database- Spectrum MS-IW-2858
##NAMES=HP
##CAS NAME=N-Furfurylaniline
##MOLFORM=C11H11NO
##CAS REGISTRY NO=4439-56-9
##MP= -300
##BP= -300
##MW= 173
##$RETENTION INDEX=0
##$CONDENSED SPECTRUM=NO
##NPOINTS= 91
##XYDATA=(XY..XY) 1 
    26          1
    27         26
    28          3
    29          1
    30          2
    37          3
    38          8
    39         34
    40          4
    41          9
    42          3
    43          6
    50         14
    51         55
    52         16
    53        139
    54          9
    55          5
    58          2
    61          1
    62          4
    63         11
    64          8
    65         35
    66         11
    67          3
    68          5
    69          1
    70          1
    71          9
    72          1
    74          4
    75          4
    76          5
    77        102
    78         18
    79         10
    80          2
    81        999
    82         57
    83          4
    84          1
    85          2
    86          8
    87          2
    89          4
    90          4
    91         23
    92         11
    93         28
    94          4
    95          6
    96          2
   102          1
   103          3
   104         27
   105          8
   106        205
   107         19
   108          1
   112          4
   114          1
   115         14
   116          5
   117         12
   118          9
   119          3
   120         10
   121          1
   127          4
   128          5
   129          2
   130         12
   131          2
   132          2
   140          1
   141          1
   142          4
   143         12
   144         37
   145         43
   146          5
   154          3
   156          9
   157          1
   158          1
   170          4
   172        233
   173        473
   174         57
   175          4