##TITLE=Library Entry 97331
##JCAMP-DX=Revision 4.10 
##DATA TYPE=MASS SPECTRUM
##SAMPLE DESCRIPTION=Chemical Concepts
##NAMES=HP
##CAS NAME=Benzene, 1,1'-(1,5-hexadiene-1,6-diyl)bis-
##MOLFORM=C18H18
##CAS REGISTRY NO=4439-45-6
##MP= -300
##BP= -300
##MW= 234
##$RETENTION INDEX=0
##$CONDENSED SPECTRUM=NO
##NPOINTS= 63
##XYDATA=(XY..XY) 1 
    27          8
    31          0
    38          2
    39         46
    40          2
    41          4
    43          0
    50          7
    51         30
    52          6
    53          2
    57          2
    58          0
    59          0
    62          3
    63         18
    64          4
    65         29
    66          2
    74          2
    75          5
    76          5
    77         22
    78          9
    79          1
    87          1
    88          2
    89         16
    90          2
    91        119
    92          8
   101          4
   102         11
   103          4
   104          1
   113          5
   114          4
   115        198
   116         64
   117        999
   118         95
   119          5
   126          1
   127          5
   128         11
   129          7
   130          5
   139          1
   141          2
   142          1
   143          3
   151          0
   152          2
   153          1
   165          1
   178          1
   189          1
   191          1
   193          1
   202          1
   203          1
   234         24
   235          5