##TITLE=Library Entry 57767
##JCAMP-DX=Revision 4.10 
##DATA TYPE=MASS SPECTRUM
##SAMPLE DESCRIPTION=Chemical Concepts
##NAMES=HP
##CAS NAME=Timonacic
##MOLFORM=C4H7NO2S
##CAS REGISTRY NO=444-27-9
##MP= -300
##BP= -300
##MW= 133
##$RETENTION INDEX=0
##$CONDENSED SPECTRUM=NO
##NPOINTS= 81
##XYDATA=(XY..XY) 1 
    24          3
    26         21
    27         78
    28        157
    29         21
    30        169
    31         28
    33          8
    34         15
    35         12
    36          1
    37          0
    38          1
    39          2
    41        230
    42        119
    43         55
    44        235
    45        105
    46         42
    47         23
    48          1
    49          0
    50          1
    51          1
    52          4
    53          4
    54         26
    55         30
    56         27
    57         16
    58         64
    59        200
    60         35
    61        804
    62         20
    63         32
    67          1
    68          1
    69        198
    70         11
    71          2
    72          4
    73         14
    74          1
    75          1
    76          0
    79          0
    81          0
    82          3
    83          0
    84          1
    85          2
    86        119
    87        141
    88        999
    89         45
    90         41
    91          0
    98          0
    99          2
   100         16
   101          1
   102          0
   103          2
   104          0
   105          1
   110          0
   111          2
   112          1
   113          0
   114          1
   115          0
   116          0
   117          1
   131          0
   132         15
   133        576
   134         39
   135         29
   136          2