##TITLE=Library Entry 91179
##JCAMP-DX=Revision 4.10 
##DATA TYPE=MASS SPECTRUM
##SAMPLE DESCRIPTION=J.E. WILKINSON S-CUBED, SAN DIEGO, CA.
##NAMES=HP
##CAS NAME=Phenol, 2-(trifluoromethyl)-
##MOLFORM=C7H5F3O
##CAS REGISTRY NO=444-30-4
##MP= -300
##BP= -300
##MW= 162
##$RETENTION INDEX=0
##$CONDENSED SPECTRUM=NO
##NPOINTS= 16
##XYDATA=(XY..XY) 1 
    50          7
    51         19
    63         20
    69         61
    75         19
    88         35
    92         21
    95          8
   113         17
   114        999
   115         27
   120         24
   142        594
   143        139
   162        916
   163         20