##TITLE=Library Entry 3369
##JCAMP-DX=Revision 4.10 
##DATA TYPE=MASS SPECTRUM
##SAMPLE DESCRIPTION=NIST Mass Spectrometry Data Center
##NAMES=HP
##CAS NAME=3-Hexenal
##MOLFORM=C6H10O
##CAS REGISTRY NO=4440-65-7
##MP= -300
##BP= -300
##MW= 98
##$RETENTION INDEX=810
##$CONDENSED SPECTRUM=NO
##NPOINTS= 59
##XYDATA=(XY..XY) 1 
    14          1
    15          6
    25          1
    26         20
    27        134
    28         25
    29        149
    30          3
    31          4
    36          1
    37         17
    38         42
    39        352
    40         49
    41        999
    42        190
    43        103
    44          9
    45          1
    48          1
    49          7
    50         46
    51         62
    52         24
    53        147
    54         62
    55        398
    56         73
    57         24
    58          2
    60          1
    61          9
    62         15
    63         19
    64          3
    65         30
    66          9
    67         70
    68         18
    69        516
    70        149
    71          9
    72          1
    73          1
    74          2
    75          1
    77          8
    78          4
    79         27
    80        158
    81         23
    83        150
    84          8
    85          1
    95          2
    96          1
    97         36
    98         93
    99          6