##TITLE=Library Entry 79137
##JCAMP-DX=Revision 4.10 
##DATA TYPE=MASS SPECTRUM
##SAMPLE DESCRIPTION=NIST Mass Spectrometry Data Center
##NAMES=HP
##CAS NAME=1,2,4-Triphenyl-1,4-butanedione
##MOLFORM=C22H18O2
##CAS REGISTRY NO=4441-01-4
##MP= -300
##BP= -300
##MW= 314
##$RETENTION INDEX=0
##$CONDENSED SPECTRUM=NO
##NPOINTS= 58
##XYDATA=(XY..XY) 1 
    27          3
    39          6
    50         17
    51         86
    52          7
    53          1
    62          1
    63          6
    64          1
    65          3
    74          4
    75          5
    76         17
    77        432
    78         55
    79          3
    89          5
    90          2
    91          3
   101          1
   102          7
   103         35
   104         68
   105        999
   106         98
   107          6
   115          4
   126          1
   128          1
   131          6
   139          1
   151          2
   152          6
   153          1
   163          1
   164          1
   165         11
   166          3
   167          1
   176          1
   177          1
   178          5
   179          2
   181          2
   189          2
   191          3
   192         20
   193          3
   194          2
   207          2
   209         95
   210         15
   211          1
   296          5
   297          1
   314         48
   315         11
   316          1