##TITLE=Library Entry 50111
##JCAMP-DX=Revision 4.10 
##DATA TYPE=MASS SPECTRUM
##SAMPLE DESCRIPTION=Div. of Experiment Therapeutics WRAIR, WRAMC, Washingto
n DC 20307
##NAMES=HP
##CAS NAME=4-Cyclohexylidene-n-butanol
##MOLFORM=C10H18O
##CAS REGISTRY NO=4441-58-1
##MP= -300
##BP= -300
##MW= 154
##$RETENTION INDEX=0
##$CONDENSED SPECTRUM=NO
##NPOINTS= 59
##XYDATA=(XY..XY) 1 
    41        629
    42         48
    43        231
    45         89
    51         23
    52          5
    53        175
    54         31
    55        758
    56         44
    57         62
    58          8
    59          5
    65         52
    67        875
    68        107
    69        372
    70         36
    71         34
    72          3
    73         29
    77         89
    79        357
    81        999
    82         85
    83        111
    84         17
    85         14
    89         15
    91         70
    93        135
    95        560
    96         67
    97         82
    99        278
   100         14
   105         29
   107        111
   109        482
   110        114
   111         88
   112         14
   115          7
   117          6
   119         14
   121         22
   122         86
   123        166
   124         13
   125         68
   126         36
   127          3
   136         24
   137        257
   139        112
   140         17
   153         16
   154         43
   155          4