##TITLE=Library Entry 21045
##JCAMP-DX=Revision 4.10 
##DATA TYPE=MASS SPECTRUM
##SAMPLE DESCRIPTION=Chuck Anderson, Aldrich Chemical Co.
##NAMES=HP
##CAS NAME=4-Cyclohexyl-1-butanol
##MOLFORM=C10H20O
##CAS REGISTRY NO=4441-57-0
##MP= -300
##BP= -300
##MW= 156
##$RETENTION INDEX=0
##$CONDENSED SPECTRUM=NO
##NPOINTS= 63
##XYDATA=(XY..XY) 1 
    15          4
    18          1
    19          4
    26          8
    27        144
    28         45
    29        195
    30          7
    31        166
    32          3
    36          5
    38          5
    39        162
    40         27
    41        523
    42         63
    43         93
    44         21
    45          9
    50          2
    51         12
    52          7
    53         74
    54        164
    55        999
    56        256
    57         69
    58          4
    63          1
    65         26
    66         48
    67        691
    68        206
    69        135
    70         21
    71         14
    73         50
    74         14
    77         23
    78          4
    79         62
    80         36
    81        630
    82        612
    83        465
    84         31
    85          7
    91          8
    93         14
    94         14
    95        222
    96        698
    97         81
    98          4
   107          3
   108          6
   109        210
   110        107
   111         10
   113          7
   123          8
   138         59
   139          5