##TITLE=Library Entry 24722
##JCAMP-DX=Revision 4.10 
##DATA TYPE=MASS SPECTRUM
##SAMPLE DESCRIPTION=Exported from NIST MS Search
##NAMES=HP
##CAS NAME=Eicosane, 9-cyclohexyl-
##MOLFORM=C26H52
##CAS REGISTRY NO=4443-61-2
##MP= -300
##BP= -300
##MW= 364
##$RETENTION INDEX=0
##$CONDENSED SPECTRUM=NO
##NPOINTS= 207
##XYDATA=(XY..XY) 1 
    36          1
    37          2
    38          3
    39         69
    40         15
    41        705
    42        123
    43        957
    44         33
    45          1
    46          1
    48          1
    49          1
    50          2
    51          3
    52          3
    53         37
    54        102
    55        986
    56        232
    57        999
    58         45
    59          1
    60          1
    61          1
    62          1
    63          1
    64          1
    65          7
    66         10
    67        247
    68         70
    69        405
    70        142
    71        555
    72         33
    73          1
    74          1
    75          1
    76          1
    77          8
    78          2
    79         22
    80         10
    81        101
    82        659
    83        725
    84        112
    85        384
    86         26
    87          1
    90          1
    91         11
    92          2
    93          7
    94          4
    95         47
    96        111
    97        428
    98         67
    99        118
   100          9
   101          1
   103          1
   104          1
   105          2
   106          1
   107          2
   108          2
   109         31
   110         23
   111        212
   112         42
   113         77
   114          7
   115          1
   116          1
   117          1
   118          1
   119          1
   120          1
   121          1
   122          1
   123          8
   124         16
   125        117
   126         28
   127         53
   128          5
   129          1
   130          1
   131          1
   132          1
   133          1
   134          1
   135          1
   136          1
   137          4
   138         12
   139         63
   140         19
   141         34
   142          4
   143          1
   144          1
   145          1
   146          1
   147          1
   148          1
   149          1
   150          1
   151          2
   152          9
   153         39
   154         14
   155         27
   156          3
   157          1
   161          1
   163          1
   164          1
   165          1
   166          6
   167         23
   168         10
   169         21
   170          3
   171          1
   179          1
   180          6
   181         15
   182          7
   183         15
   184          2
   185          1
   189          1
   191          1
   192          1
   193          1
   194          5
   195         11
   196          5
   197         11
   198          2
   199          1
   200          1
   201          1
   202          1
   203          1
   204          1
   205          1
   206          1
   207          1
   208         41
   209         65
   210         13
   211          9
   212          1
   213          1
   221          1
   222          4
   223          5
   224          2
   225          5
   226          1
   227          1
   235          1
   236          2
   237          4
   238          2
   239          2
   240          1
   245          1
   249          1
   250         25
   251         41
   252         14
   253          2
   254          1
   263          1
   264          1
   265          1
   266          1
   267          1
   268          1
   273          1
   277          1
   278          1
   279          1
   280         70
   281         46
   282          8
   283          1
   284          1
   292          1
   293          1
   294          1
   295          1
   306          1
   307          1
   308          1
   309          1
   358          1
   362          1
   363          1
   364          1
   365          1