##TITLE=Library Entry 49738
##JCAMP-DX=Revision 4.10 
##DATA TYPE=MASS SPECTRUM
##SAMPLE DESCRIPTION=NIST Mass Spectrometry Data Center, 1994
##NAMES=HP
##CAS NAME=Bornyl bromide
##MOLFORM=C10H17Br
##CAS REGISTRY NO=4443-48-5
##MP= -300
##BP= -300
##MW= 216
##$RETENTION INDEX=0
##$CONDENSED SPECTRUM=NO
##NPOINTS= 86
##XYDATA=(XY..XY) 1 
    15         35
    16          1
    17          2
    18          2
    26         12
    27        165
    28         39
    29        101
    30          2
    37          2
    38         14
    39        218
    40         36
    41        274
    42         19
    43         52
    44          2
    50         16
    51         55
    52         28
    53        138
    54         22
    55        185
    56         14
    57         20
    58          3
    59          2
    61          1
    62          4
    63         16
    64          4
    65         58
    66         21
    67        196
    68         23
    69         99
    70          9
    71          2
    75          1
    77         98
    78         21
    79        144
    80          1
    81        999
    82         81
    83         22
    89          2
    91         78
    92         19
    93         99
    94         25
    95        126
    96         18
    97          1
   103          5
   104          2
   105         20
   106          4
   107         26
   108          9
   109         21
   110          2
   115          2
   117          2
   119          4
   121         43
   123        159
   124         14
   133          4
   134         14
   135          7
   136         31
   137        114
   138         13
   146          3
   148          3
   159          1
   161          2
   173          2
   174          1
   175          2
   201          6
   203          6
   216         26
   218         22
   219          2