##TITLE=Library Entry 52792
##JCAMP-DX=Revision 4.10 
##DATA TYPE=MASS SPECTRUM
##SAMPLE DESCRIPTION=CONTINENTAL OIL CO., PONCA CITY, OKLA, USA
##NAMES=HP
##CAS NAME=Cyclohexane, eicosyl-
##MOLFORM=C26H52
##CAS REGISTRY NO=4443-55-4
##MP= -300
##BP= -300
##MW= 364
##$RETENTION INDEX=0
##$CONDENSED SPECTRUM=NO
##NPOINTS= 154
##XYDATA=(XY..XY) 1 
    14          2
    15          2
    16          0
    25          0
    26          2
    27         43
    28         25
    29        117
    30          3
    36          0
    37          0
    38          1
    39         27
    40          7
    41        265
    42         51
    43        359
    44         12
    45          0
    50          1
    51          1
    52          1
    53         14
    54         39
    55        405
    56         78
    57        229
    58         10
    59          0
    63          0
    65          2
    66          4
    67         82
    68         44
    69        147
    70         44
    71         88
    72          5
    73          0
    74          0
    75          0
    76          0
    77          4
    78          1
    79          7
    80          3
    81         34
    82        771
    83        999
    84         80
    85         45
    86          3
    89          0
    91          3
    92          2
    93          1
    94          1
    95         12
    96         28
    97         88
    98         14
    99          6
   100          0
   103          0
   104          0
   105          1
   106          0
   107          0
   108          0
   109          6
   110          5
   111         27
   112          8
   113          3
   114          0
   115          0
   117          0
   119          0
   121          0
   122          0
   123          1
   124          2
   125         11
   126          5
   127          2
   128          0
   131          0
   133          0
   135          0
   137          0
   138          2
   139          6
   140          3
   141          1
   142          0
   151          0
   152          1
   153          3
   154          3
   155          1
   165          0
   166          1
   167          2
   168          2
   169          1
   177          0
   179          0
   180          1
   181          1
   182          1
   183          0
   191          0
   193          0
   194          1
   195          3
   196          1
   197          0
   208          1
   209          1
   210          1
   211          0
   222          1
   223          2
   224          1
   225          0
   236          0
   237          0
   238          1
   239          0
   250          0
   251          0
   252          3
   253          0
   264          0
   265          0
   266          0
   267          0
   278          0
   280         12
   281          3
   292          0
   293          0
   294          0
   306          0
   307          0
   334          0
   335          1
   336          0
   358          0
   362          1
   363          0
   364         21
   365          6
   366          0