##TITLE=Library Entry 51465
##JCAMP-DX=Revision 4.10 
##DATA TYPE=MASS SPECTRUM
##SAMPLE DESCRIPTION=Exported from NIST MS Search
##NAMES=HP
##CAS NAME=Eicosane, 2-cyclohexyl-
##MOLFORM=C26H52
##CAS REGISTRY NO=4443-56-5
##MP= -300
##BP= -300
##MW= 364
##$RETENTION INDEX=0
##$CONDENSED SPECTRUM=NO
##NPOINTS= 227
##XYDATA=(XY..XY) 1 
    36          1
    37          1
    38          2
    39         54
    40         14
    41        465
    42        107
    43        552
    44         19
    45          1
    47          1
    48          1
    49          1
    50          1
    51          3
    52          2
    53         27
    54         60
    55        599
    56        154
    57        395
    58         18
    59          1
    60          1
    61          1
    62          1
    63          1
    64          1
    65          4
    66          5
    67        152
    68         41
    69        318
    70         78
    71        187
    72         10
    73          1
    74          1
    75          1
    76          1
    77          4
    78          2
    79         10
    80          5
    81         48
    82        999
    83        764
    84         78
    85        116
    86          8
    87          1
    88          1
    89          1
    90          1
    91          4
    92          1
    93          3
    94          1
    95         15
    96         19
    97        113
    98         24
    99         26
   100          2
   101          1
   102          1
   103          1
   104          1
   105          2
   106          1
   107          1
   108          1
   109         10
   110         85
   111        350
   112         41
   113         17
   114          2
   115          1
   116          1
   117          1
   118          1
   119          1
   120          1
   121          1
   122          1
   123          3
   124          7
   125         25
   126         11
   127         12
   128          1
   129          1
   130          1
   131          1
   132          1
   133          1
   134          1
   135          1
   136          1
   137          1
   138          4
   139         10
   140          7
   141          8
   142          1
   143          1
   144          1
   145          1
   146          1
   147          1
   149          1
   150          1
   151          1
   152          3
   153          6
   154          5
   155          6
   156          1
   157          1
   158          1
   159          1
   160          1
   161          1
   164          1
   165          1
   166          2
   167          5
   168          4
   169          5
   170          1
   171          1
   177          1
   178          1
   179          1
   180          2
   181          3
   182          3
   183          4
   184          1
   193          1
   194          1
   195          2
   196          3
   197          3
   198          1
   199          1
   200          1
   201          1
   202          1
   203          1
   206          1
   207          1
   208          1
   209          2
   210          2
   211          3
   212          1
   213          1
   214          1
   215          1
   216          1
   217          1
   218          1
   219          1
   222          1
   223          1
   224          2
   225          2
   226          1
   227          1
   228          1
   229          1
   230          1
   231          1
   236          1
   237          1
   238          2
   239          1
   240          1
   241          1
   242          1
   250          1
   251          1
   252          5
   253          1
   254          1
   256          1
   264          1
   265          1
   266          1
   267          1
   268          1
   269          1
   277          1
   278          1
   279          1
   280         58
   281         32
   282          6
   283          1
   292          1
   293          1
   294          1
   295          1
   296          1
   306          1
   307          1
   308          1
   309          1
   320          1
   321          1
   322          1
   334          1
   335          2
   336          1
   348          1
   349          2
   350          1
   351          1
   352          1
   358          1
   362          1
   363          1
   364          3
   365          1
   366          1