##TITLE=Library Entry 7753
##JCAMP-DX=Revision 4.10 
##DATA TYPE=MASS SPECTRUM
##SAMPLE DESCRIPTION=Exported from NIST MS Search
##NAMES=HP
##CAS NAME=Cyclohexane, (1-butylhexadecyl)-
##MOLFORM=C26H52
##CAS REGISTRY NO=4443-59-8
##MP= -300
##BP= -300
##MW= 364
##$RETENTION INDEX=0
##$CONDENSED SPECTRUM=NO
##NPOINTS= 184
##XYDATA=(XY..XY) 1 
    15          1
    16          2
    17          1
    18          6
    24          1
    25          2
    26         11
    27        106
    28         31
    29        330
    30          8
    37          2
    38          2
    39         53
    40         12
    41        672
    42        135
    43        999
    44         33
    45          1
    50          1
    51          2
    52          2
    53         30
    54         92
    55        952
    56        247
    57        964
    58         42
    59          1
    65          5
    66          8
    67        233
    68         65
    69        414
    70        136
    71        558
    72         30
    73          1
    77          5
    78          1
    79         15
    80          7
    81         85
    82        739
    83        786
    84        108
    85        335
    86         22
    87          1
    90          1
    91          5
    92          1
    93          5
    94          3
    95         40
    96         77
    97        383
    98         55
    99         77
   100          6
   101          1
   103          1
   104          1
   105          1
   106          1
   107          2
   108          2
   109         26
   110         18
   111        147
   112         30
   113         50
   114          4
   115          1
   117          1
   118          1
   119          1
   120          1
   121          1
   122          1
   123          5
   124         12
   125         59
   126         19
   127         35
   128          4
   129          1
   133          1
   135          1
   136          1
   137          3
   138          9
   139         34
   140         13
   141         26
   142          3
   143          1
   147          1
   149          1
   150          1
   151          2
   152         76
   153        158
   154         26
   155         20
   156          2
   157          1
   165          1
   166          6
   167         18
   168          8
   169         15
   170          2
   171          1
   179          1
   180          4
   181         12
   182          7
   183         12
   184          2
   185          1
   193          1
   194          3
   195          8
   196          5
   197         10
   198          1
   199          1
   203          1
   207          1
   208          2
   209          7
   210          4
   211          9
   212          1
   213          1
   221          1
   222          2
   223          6
   224          3
   225          6
   226          1
   235          1
   236          1
   237          4
   238          2
   239          3
   240          1
   250          1
   251          2
   252          7
   253          2
   254          1
   263          1
   264          1
   265          1
   266          1
   267          1
   278          1
   279          1
   280        109
   281         64
   282         11
   292          1
   293          2
   294          1
   295          1
   305          1
   306         24
   307         60
   308         14
   309          2
   310          1
   320          1
   321          1
   322          1
   334          1
   335          1
   336          1
   362          1
   363          1
   364          1
   365          1