##TITLE=Library Entry 52239
##JCAMP-DX=Revision 4.10 
##DATA TYPE=MASS SPECTRUM
##SAMPLE DESCRIPTION=Exported from NIST MS Search
##NAMES=HP
##CAS NAME=Cyclohexane, (1-propylheptadecyl)-
##MOLFORM=C26H52
##CAS REGISTRY NO=4443-58-7
##MP= -300
##BP= -300
##MW= 364
##$RETENTION INDEX=0
##$CONDENSED SPECTRUM=NO
##NPOINTS= 235
##XYDATA=(XY..XY) 1 
    36          1
    37          2
    38          4
    39         90
    40         20
    41        799
    42        181
    43        967
    44         34
    48          1
    49          1
    50          2
    51          4
    52          4
    53         47
    54        105
    55        989
    56        230
    57        777
    58         36
    59          1
    60          1
    61          1
    62          1
    63          1
    64          1
    65          8
    66          9
    67        236
    68         65
    69        434
    70        151
    71        419
    72         24
    73          1
    74          1
    75          1
    76          1
    77          9
    78          3
    79         21
    80          9
    81         93
    82        804
    83        999
    84        124
    85        282
    86         19
    87          1
    88          1
    89          1
    90          1
    91          7
    92          2
    93          7
    94          3
    95         45
    96         76
    97        338
    98         53
    99         68
   100          6
   101          1
   102          1
   103          1
   104          1
   105          3
   106          1
   107          2
   108          2
   109         33
   110         20
   111        121
   112         29
   113         45
   114          4
   115          1
   116          1
   117          1
   118          1
   119          1
   120          1
   121          1
   122          1
   123          6
   124         12
   125         65
   126         20
   127         32
   128          3
   129          1
   131          1
   132          1
   133          1
   134          1
   135          1
   136          1
   137          5
   138         98
   139        217
   140         34
   141         25
   142          3
   143          1
   145          1
   147          1
   150          1
   151          2
   152          8
   153         23
   154         11
   155         18
   156          3
   157          1
   161          1
   164          1
   165          1
   166          4
   167         15
   168          8
   169         14
   170          2
   171          1
   179          1
   180          3
   181         11
   182          7
   183         12
   184          2
   185          1
   193          1
   194          2
   195          8
   196          6
   197         10
   198          2
   199          1
   200          1
   201          1
   202          1
   203          1
   207          1
   208          2
   209          6
   210          4
   211          8
   212          1
   213          1
   215          1
   216          1
   217          1
   220          1
   221          1
   222          2
   223          5
   224          3
   225          6
   226          1
   230          2
   231          1
   232          1
   235          1
   236          1
   237          4
   238          3
   239          5
   240          1
   241          1
   242          1
   245          1
   246          1
   247          1
   248          1
   249          1
   250          1
   251          3
   252          9
   253          2
   263          1
   264          1
   265          2
   266          2
   267          1
   268          1
   269          1
   276          1
   277          1
   278          1
   279          2
   280        129
   281         74
   282         14
   283          2
   284          1
   291          1
   292          1
   293          1
   294          1
   295          1
   296          1
   306          1
   307          4
   308          1
   309          1
   310          1
   313          1
   314          1
   315          1
   316          1
   317          1
   318          1
   319          1
   320         30
   321         88
   322         23
   323          3
   324          1
   325          1
   326          1
   327          1
   329          1
   330          1
   331          1
   332          1
   333          1
   334          1
   335          2
   336          1
   337          1
   338          1
   362          1
   363          1
   364          1
   365          1
   366          1