##TITLE=Library Entry 52236
##JCAMP-DX=Revision 4.10 
##DATA TYPE=MASS SPECTRUM
##SAMPLE DESCRIPTION=Exported from NIST MS Search
##NAMES=HP
##CAS NAME=Eicosane, 3-cyclohexyl-
##MOLFORM=C26H52
##CAS REGISTRY NO=4443-57-6
##MP= -300
##BP= -300
##MW= 364
##$RETENTION INDEX=0
##$CONDENSED SPECTRUM=NO
##NPOINTS= 220
##XYDATA=(XY..XY) 1 
    36          1
    37          2
    38          3
    39         88
    40         21
    41        768
    42        162
    43        905
    44         31
    45          1
    47          1
    48          1
    49          1
    50          2
    51          5
    52          4
    53         46
    54         98
    55        937
    56        233
    57        705
    58         32
    59          1
    61          1
    62          1
    63          1
    64          1
    65          8
    66          9
    67        228
    68         63
    69        537
    70        149
    71        365
    72         20
    73          1
    74          1
    75          1
    76          1
    77          8
    78          3
    79         19
    80          9
    81         90
    82        900
    83        999
    84        112
    85        243
    86         16
    87          1
    88          1
    89          1
    90          1
    91          6
    92          2
    93          6
    94          3
    95         40
    96         56
    97        250
    98         44
    99         59
   100          5
   101          1
   102          1
   103          1
   104          1
   105          3
   106          1
   107          2
   108          2
   109         22
   110         19
   111        128
   112         28
   113         38
   114          4
   115          1
   116          1
   117          1
   118          1
   119          1
   120          1
   121          1
   122          1
   123          8
   124         98
   125        310
   126         43
   127         27
   128          3
   129          1
   130          1
   131          1
   132          1
   133          1
   134          1
   135          1
   136          1
   137          4
   138          9
   139         31
   140         14
   141         20
   142          2
   143          1
   144          1
   145          1
   147          1
   148          1
   149          1
   150          1
   151          1
   152          5
   153         19
   154          9
   155         15
   156          2
   157          1
   158          1
   165          1
   166          4
   167         13
   168          8
   169         12
   170          2
   171          1
   179          1
   180          3
   181         10
   182          6
   183          9
   184          1
   193          1
   194          2
   195          8
   196          5
   197          8
   198          1
   199          1
   200          1
   201          1
   202          1
   203          1
   207          1
   208          2
   209          6
   210          4
   211          6
   212          1
   213          1
   222          1
   223          5
   224          4
   225          4
   226          1
   227          1
   230          2
   231          1
   233          1
   234          1
   235          1
   236          1
   237          4
   238          3
   239          4
   240          1
   241          1
   249          1
   250          1
   251          4
   252         14
   253          7
   254          1
   255          1
   256          1
   263          1
   264          1
   265          2
   266          2
   267          1
   268          1
   269          1
   270          1
   277          1
   278          1
   279          3
   280         90
   281         50
   282          9
   283          1
   284          1
   291          1
   292          1
   293          1
   294          1
   295          1
   306          3
   307          8
   308          2
   309          1
   310          1
   320          1
   321          3
   322          1
   332          1
   333          1
   334         26
   335         99
   336         27
   337          4
   338          1
   339          1
   348          1
   349          1
   350          1
   362          1
   363          1
   364          1
   365          1