##TITLE=Library Entry 65215
##JCAMP-DX=Revision 4.10 
##DATA TYPE=MASS SPECTRUM
##SAMPLE DESCRIPTION=Japan AIST/NIMC Database- Spectrum MS-NW-5994
##NAMES=HP
##CAS NAME=Benzene, octadecyl-
##MOLFORM=C24H42
##CAS REGISTRY NO=4445-07-2
##MP= -300
##BP= -300
##MW= 330
##$RETENTION INDEX=2502
##$CONDENSED SPECTRUM=NO
##NPOINTS= 95
##XYDATA=(XY..XY) 1 
    26          1
    27         18
    28          4
    29         59
    30          1
    39         14
    40          2
    41        113
    42         19
    43        188
    44          6
    51          4
    52          1
    53          5
    54          7
    55         76
    56         20
    57        122
    58          5
    63          2
    65         16
    66          2
    67          9
    68          5
    69         31
    70          9
    71         51
    72          3
    77          9
    78         24
    79         15
    80          7
    81          5
    82          9
    83         19
    84          5
    85         28
    86          2
    89          2
    90          2
    91        484
    92        999
    93         82
    94         16
    95          5
    96          4
    97          9
    98          2
    99          5
   103          6
   104         56
   105         76
   106         21
   107          3
   108          1
   109          1
   110          1
   111          4
   112          1
   113          3
   115          3
   116          1
   117         15
   118          9
   119         25
   120          9
   121          2
   122          1
   125          2
   126          1
   127          2
   129          1
   131          4
   132          5
   133         78
   134         25
   135          5
   136          1
   141          1
   145          1
   146          1
   147         12
   148          6
   149          1
   161          6
   162          1
   175          3
   176          1
   189          2
   203          1
   329          1
   330        373
   331         99
   332         13
   333          1