##TITLE=Library Entry 51464
##JCAMP-DX=Revision 4.10 
##DATA TYPE=MASS SPECTRUM
##SAMPLE DESCRIPTION=Japan AIST/NIMC Database- Spectrum MS-NW-6125
##NAMES=HP
##CAS NAME=Cyclohexane, octadecyl-
##MOLFORM=C24H48
##CAS REGISTRY NO=4445-06-1
##MP= -300
##BP= -300
##MW= 336
##$RETENTION INDEX=2486
##$CONDENSED SPECTRUM=NO
##NPOINTS= 117
##XYDATA=(XY..XY) 1 
    26          2
    27         14
    28          6
    29         48
    30          1
    36          1
    39         11
    40          3
    41        126
    42         24
    43        180
    44          6
    51          1
    52          1
    53          9
    54         23
    55        237
    56         50
    57        151
    58          8
    65          2
    66          3
    67         70
    68         31
    69        100
    70         34
    71         71
    72          5
    77          2
    78          1
    79          5
    80          2
    81         26
    82        999
    83        691
    84         59
    85         43
    86          3
    91          1
    93          1
    94          1
    95         10
    96         39
    97         94
    98         17
    99          9
   100          1
   109          6
   110         12
   111         47
   112         11
   113          7
   114          1
   122          1
   123          2
   124          7
   125         21
   126          9
   127          4
   137          2
   138          6
   139         17
   140          7
   141          3
   149          1
   150          1
   151          3
   152          4
   153          9
   154          6
   155          3
   165          1
   166          3
   167          7
   168          6
   169          2
   180          3
   181          6
   182          4
   183          2
   189          1
   194          2
   195          5
   196          3
   197          1
   208          2
   209          3
   210          2
   211          1
   222          1
   223          3
   224          7
   225          2
   236          1
   237          2
   238          2
   239          1
   250          1
   251          1
   252         42
   253         17
   254          3
   264          1
   265          1
   266          1
   278          1
   279          1
   280          1
   293          1
   307          1
   308          2
   309          1
   334          2
   335          2
   336        194
   337         54
   338          8