##TITLE=Library Entry 21115
##JCAMP-DX=Revision 4.10 
##DATA TYPE=MASS SPECTRUM
##SAMPLE DESCRIPTION=Japan AIST/NIMC Database- Spectrum MS-NW-9726
##NAMES=HP
##CAS NAME=Cycloheptanemethanol
##MOLFORM=C8H16O
##CAS REGISTRY NO=4448-75-3
##MP= -300
##BP= -300
##MW= 128
##$RETENTION INDEX=0
##$CONDENSED SPECTRUM=NO
##NPOINTS= 65
##XYDATA=(XY..XY) 1 
    15          2
    17          1
    18          3
    26          2
    27         54
    28         18
    29         73
    30          2
    31         34
    32          1
    38          2
    39         81
    40         12
    41        221
    42         27
    43         89
    44          7
    45          4
    50          2
    51          7
    52          3
    53         35
    54         88
    55        999
    56         79
    57         52
    58          4
    59          1
    63          1
    65          9
    66         32
    67        191
    68        119
    69        140
    70         20
    71          9
    72          1
    73          3
    77          9
    78          3
    79         18
    80         14
    81        288
    82        311
    83         32
    84         10
    85          4
    87          2
    91          6
    92          1
    93          7
    94          2
    95        129
    96        129
    97        644
    98         52
    99          2
   105          1
   107          2
   108          2
   109          9
   110         34
   111          9
   112          2
   129          1