##TITLE=Library Entry 109327
##JCAMP-DX=Revision 4.10 
##DATA TYPE=MASS SPECTRUM
##SAMPLE DESCRIPTION=NIST Mass Spectrometry Data Center
##NAMES=HP
##CAS NAME=2-Fluorophenylmethylcarbinol
##MOLFORM=C8H9FO
##CAS REGISTRY NO=445-26-1
##MP= -300
##BP= -300
##MW= 140
##$RETENTION INDEX=0
##$CONDENSED SPECTRUM=NO
##NPOINTS= 97
##XYDATA=(XY..XY) 1 
    14          1
    15          8
    19          2
    26          3
    27         15
    28          2
    29         19
    30          1
    31          5
    33          2
    37          4
    38          9
    39         26
    40          2
    41          2
    42          4
    43        126
    44          8
    45         32
    46          2
    47          1
    48          2
    49          6
    50         57
    51        108
    52         12
    53          4
    54          1
    55          2
    56          4
    57         25
    58          1
    59          3
    60          6
    61          9
    62         62
    64          4
    65         12
    66          2
    68         16
    69         28
    70         31
    71          5
    72          1
    73          6
    74         36
    75        101
    76         27
    77        279
    78         24
    79          2
    80          2
    81         11
    82          2
    83         14
    84          2
    85          2
    86          3
    87          4
    88          1
    89          7
    90          2
    91         24
    92          7
    93          6
    94         17
    95        115
    96        128
    97        563
    98         41
    99          3
   100          2
   101         30
   102          9
   103         29
   104          6
   105         81
   106          7
   107         11
   108          2
   109         25
   110          2
   111          3
   112          1
   119          2
   120         13
   121         18
   122         22
   123         99
   125        999
   126         81
   127          5
   138          2
   139         16
   140        176
   141         15
   142          1