##TITLE=Library Entry 85936
##JCAMP-DX=Revision 4.10 
##DATA TYPE=MASS SPECTRUM
##SAMPLE DESCRIPTION=NIST Mass Spectrometry Data Center
##NAMES=HP
##CAS NAME=5-Fluoro-2-methylbenzenesulphonyl chloride
##MOLFORM=C7H6ClFO2S
##CAS REGISTRY NO=445-05-6
##MP= -300
##BP= -300
##MW= 208
##$RETENTION INDEX=0
##$CONDENSED SPECTRUM=NO
##NPOINTS= 117
##XYDATA=(XY..XY) 1 
    15          4
    16          3
    17          4
    18         11
    25          1
    26         15
    27         16
    28          2
    31         30
    32         10
    33         27
    35         32
    36         13
    37         28
    38         38
    39        122
    40          4
    43          7
    44         20
    45         33
    46          6
    48        126
    49         18
    50         89
    51         90
    52         13
    53          6
    54          7
    56         31
    57        276
    58         18
    59         40
    60          7
    61         41
    62         89
    63        188
    64         77
    65         56
    66          4
    67          4
    68         21
    69         51
    70         29
    71          8
    72          1
    73          8
    74         17
    75         42
    76         12
    77         29
    78          5
    79          4
    80         24
    81        127
    83        680
    84         43
    85         18
    86         27
    87         37
    88         17
    89         80
    90          7
    91          1
    92          5
    93         17
    94         14
    95         52
    96         54
    97         18
    99         10
   100          1
   101          3
   102          2
   103          2
   104          4
   105         15
   107        341
   108        585
   109        999
   110         89
   111          5
   112          1
   113          6
   115          2
   117          5
   119          3
   121          1
   122          1
   123          3
   124          7
   125         19
   127        173
   128         14
   129         10
   139         20
   140          2
   141          3
   142          6
   143         27
   144          5
   145         11
   146          2
   155        294
   156         26
   157         19
   158          2
   173        397
   174         36
   175         21
   176          1
   191          4
   193          1
   208        256
   209         25
   210        103
   211          8
   212          5