##TITLE=Library Entry 79649
##JCAMP-DX=Revision 4.10 
##DATA TYPE=MASS SPECTRUM
##SAMPLE DESCRIPTION=Frank Antolasic, RMIT Applied Chemistry Department, Vic
toria Australia 3001
##NAMES=HP
##CAS NAME=2-Propen-1-one, 1,2-diphenyl-
##MOLFORM=C15H12O
##CAS REGISTRY NO=4452-11-3
##MP= -300
##BP= -300
##MW= 208
##$RETENTION INDEX=0
##$CONDENSED SPECTRUM=NO
##NPOINTS= 87
##XYDATA=(XY..XY) 1 
    16          0
    17          0
    26          4
    27         27
    28          4
    29          1
    32          0
    37          3
    38          9
    39         32
    40          1
    41          1
    43          1
    50         90
    51        278
    52         31
    53          9
    54          0
    55          0
    61          3
    62         12
    63         31
    64          4
    65          3
    66          0
    69          0
    71          0
    74         28
    75         33
    77        717
    78         52
    79          2
    82          2
    85          1
    86          3
    87          5
    88          6
    89         21
    90          8
    91          5
    95          2
    98          3
    99          2
   102         54
   103        135
   105        999
   106         84
   107          5
   110          1
   111          1
   113          1
   114          1
   115          3
   122          1
   126          2
   127          1
   128          1
   130          6
   131          2
   132          0
   137          0
   139          2
   149          0
   150          2
   151          5
   152          7
   153          1
   154          0
   162          0
   163          1
   165         31
   166          4
   174          0
   176          6
   177          5
   178         18
   179         31
   180         20
   181          4
   189          1
   190          0
   191          1
   193          1
   205          1
   208        357
   209         60
   210          6