##TITLE=Library Entry 35415
##JCAMP-DX=Revision 4.10 
##DATA TYPE=MASS SPECTRUM
##SAMPLE DESCRIPTION=Exported from NIST MS Search
##NAMES=HP
##CAS NAME=1,14-Docosanediol
##MOLFORM=C22H46O2
##CAS REGISTRY NO=4452-45-3
##MP= -300
##BP= -300
##MW= 342
##$RETENTION INDEX=0
##$CONDENSED SPECTRUM=NO
##NPOINTS= 105
##XYDATA=(XY..XY) 1 
    61         11
    66        113
    67        852
    68        590
    69        999
    70        572
    71        602
    72         50
    79         56
    80         50
    81        999
    82        999
    83        999
    84        250
    85        284
    86         34
    91         22
    93         34
    94         34
    95        999
    96        579
    97        988
    98        238
    99         79
   100         22
   107         15
   108         22
   109        909
   110        204
   111        647
   112        125
   113         45
   114         22
   115         15
   121         22
   122         11
   123        511
   124        368
   125        250
   126         50
   127         22
   129         22
   136         22
   137        306
   138        109
   139         40
   140         27
   141         45
   142        204
   143        386
   144         45
   151         90
   152         45
   153         22
   154         34
   155         18
   156         45
   157         45
   166         15
   167         22
   168         15
   169         11
   170         15
   171          4
   172         11
   180         15
   181         22
   182         11
   183         22
   184         18
   193        250
   194         68
   195         18
   196         11
   197         15
   207         22
   208         18
   209         11
   210         15
   211        261
   212         45
   227         27
   228         45
   229        681
   230        113
   242         13
   243         63
   244         13
   250         13
   262         22
   263         56
   264         22
   265         40
   277         34
   278         90
   279         40
   294         45
   295         22
   305         22
   306        284
   307         68
   308         22
   340         22
   341         27
   342         22