##TITLE=Library Entry 68509
##JCAMP-DX=Revision 4.10 
##DATA TYPE=MASS SPECTRUM
##SAMPLE DESCRIPTION=Chuck Anderson, Aldrich Chemical Co.
##NAMES=HP
##CAS NAME=Dicyclohexylmethanol
##MOLFORM=C13H24O
##CAS REGISTRY NO=4453-82-1
##MP= -300
##BP= -300
##MW= 196
##$RETENTION INDEX=0
##$CONDENSED SPECTRUM=NO
##NPOINTS= 53
##XYDATA=(XY..XY) 1 
    18          0
    26          2
    27         31
    28          9
    29         49
    30          0
    31         12
    39         32
    40          4
    41        127
    42         10
    43         23
    44          4
    45          9
    51          3
    52          1
    53         19
    54         16
    55        145
    56         15
    57         27
    58          1
    65          7
    66          8
    67        116
    68         65
    69         65
    70         38
    71         13
    77         13
    78          3
    79         37
    80         11
    81         44
    82         72
    83         84
    84         11
    91          6
    93         24
    94         45
    95        999
    96         85
    97         60
    98          4
   109          1
   111          4
   112        151
   113        318
   114         25
   115         11
   135          0
   178          8
   179          0