##TITLE=Library Entry 77058
##JCAMP-DX=Revision 4.10 
##DATA TYPE=MASS SPECTRUM
##SAMPLE DESCRIPTION=Japan AIST/NIMC Database- Spectrum MS-NW-4542
##NAMES=HP
##CAS NAME=p-Toluenesulfonic acid phenethyl ester
##MOLFORM=C15H16O3S
##CAS REGISTRY NO=4455-09-8
##MP= -300
##BP= -300
##MW= 276
##$RETENTION INDEX=0
##$CONDENSED SPECTRUM=NO
##NPOINTS= 68
##XYDATA=(XY..XY) 1 
    14          4
    16          2
    17          1
    18          3
    26          1
    27         12
    28          3
    29          2
    32          2
    38          3
    39         39
    40          3
    41         13
    42          1
    43          1
    44          5
    45          1
    50          9
    51         29
    52          8
    53          5
    57          1
    62          5
    63         17
    64          6
    65         91
    66          6
    67          1
    69          1
    74          2
    75          3
    76          3
    77         42
    78         29
    79         21
    80          2
    89         18
    90          9
    91        469
    92         43
    93          2
   102          4
   103         31
   104        999
   105        130
   106          8
   107          4
   109          1
   115          1
   121          1
   124          2
   139          2
   141          1
   152          2
   155         67
   156          6
   157          3
   165          4
   166          3
   167          7
   168          1
   171          1
   178          1
   179          1
   181          3
   184          2
   186          2
   192          2