##TITLE=Library Entry 97955
##JCAMP-DX=Revision 4.10 
##DATA TYPE=MASS SPECTRUM
##SAMPLE DESCRIPTION=A.A.Kutin, Moscow, Russia
##NAMES=HP
##CAS NAME=Homophthalimide
##MOLFORM=C9H7NO2
##CAS REGISTRY NO=4456-77-3
##MP= -300
##BP= -300
##MW= 161
##$RETENTION INDEX=0
##$CONDENSED SPECTRUM=NO
##NPOINTS= 89
##XYDATA=(XY..XY) 1 
    34          0
    36          2
    37         23
    38         49
    39         86
    40         30
    41          5
    42         10
    43         61
    44         31
    45         42
    49          6
    50         79
    51         84
    52         18
    53          9
    54          2
    55          1
    56          2
    57          2
    59         51
    60          9
    61         27
    62         84
    63        210
    64         61
    65          9
    66          2
    68          0
    69          0
    70          6
    71          0
    73          7
    74         26
    75         22
    76         35
    77         55
    78         16
    79          2
    81          1
    82          1
    83          0
    84          3
    85         13
    86         22
    87         20
    88         15
    89        385
    90        900
    91         62
    92          3
    93          0
    95          0
    97          0
    99          1
   100          0
   101          0
   102          4
   103          9
   104         49
   105         10
   106          1
   111          0
   112          0
   114          3
   115          7
   116          7
   118        999
   119         87
   120          5
   122          0
   127          2
   128          2
   129          0
   130          0
   131          0
   132         17
   133          5
   134          3
   135          0
   136          2
   138          0
   146         21
   147          2
   148          0
   161        861
   162         89
   163          7
   164          0