##TITLE=Library Entry 20745
##JCAMP-DX=Revision 4.10 
##DATA TYPE=MASS SPECTRUM
##SAMPLE DESCRIPTION=NIST Mass Spectrometry Data Center, 1990.
##NAMES=HP
##CAS NAME=1,5-Dibromo-3-methylpentane
##MOLFORM=C6H12Br2
##CAS REGISTRY NO=4457-72-1
##MP= -300
##BP= -300
##MW= 242
##$RETENTION INDEX=0
##$CONDENSED SPECTRUM=NO
##NPOINTS= 43
##XYDATA=(XY..XY) 1 
    26         29
    27        179
    28         29
    29         95
    38         20
    39        182
    40         34
    41        286
    42         22
    43         63
    50         23
    51         34
    52         15
    53         91
    54         15
    55        999
    56         84
    57         24
    65         18
    67        105
    68         11
    69        119
    70          7
    79         17
    80         11
    81         25
    82          7
    83        730
    84         46
    93         24
    95         27
   107         63
   108          9
   109         56
   119          9
   121         23
   123         14
   135         39
   137         30
   162        115
   163         43
   164        109
   165         42