##TITLE=Library Entry 68505
##JCAMP-DX=Revision 4.10 
##DATA TYPE=MASS SPECTRUM
##SAMPLE DESCRIPTION=Exported from NIST MS Search
##NAMES=HP
##CAS NAME=Furan, tetrahydro-2,5-dipropyl-
##MOLFORM=C10H20O
##CAS REGISTRY NO=4457-62-9
##MP= -300
##BP= -300
##MW= 156
##$RETENTION INDEX=0
##$CONDENSED SPECTRUM=NO
##NPOINTS= 62
##XYDATA=(XY..XY) 1 
    26          4
    27         72
    29         74
    30          2
    31         11
    38          2
    39         44
    40          9
    41        232
    42         77
    43        285
    44         17
    45        102
    46          2
    50          1
    51          3
    52          2
    53         17
    54         12
    55        192
    56        171
    57        145
    58         10
    59          6
    65          3
    66          2
    67         61
    68         24
    69        373
    70         28
    71         62
    72          7
    73         26
    77          3
    79          4
    80         11
    81          9
    82          4
    83         18
    84         43
    85         10
    86          2
    91          3
    93         11
    94          2
    95        999
    96         76
    97          6
    99          3
   109         11
   110          1
   111          2
   112         10
   113        624
   114         48
   115          3
   123          2
   127          5
   139          2
   154          1
   155          5
   156          3