##TITLE=Library Entry 19203
##JCAMP-DX=Revision 4.10 
##DATA TYPE=MASS SPECTRUM
##SAMPLE DESCRIPTION=Japan AIST/NIMC Database- Spectrum MS-NW-1427
##NAMES=HP
##CAS NAME=1,5-Pentanediol, 3-methyl-
##MOLFORM=C6H14O2
##CAS REGISTRY NO=4457-71-0
##MP= -300
##BP= -300
##MW= 118
##$RETENTION INDEX=1060
##$CONDENSED SPECTRUM=NO
##NPOINTS= 72
##XYDATA=(XY..XY) 1 
    14          4
    15         38
    16          2
    17          6
    18         28
    19         36
    26         15
    27        289
    28        180
    29        350
    30         22
    31        730
    32         13
    33          7
    37          4
    38         10
    39        213
    40         42
    41        996
    42        664
    43        515
    44        175
    45        200
    46         36
    47          7
    49         29
    50          8
    51         14
    52          5
    53         76
    54        115
    55        999
    56        461
    57        372
    58         93
    59         17
    60          7
    61         26
    62          7
    63          2
    65          8
    66          8
    67        903
    68         73
    69        445
    70        670
    71        353
    72         60
    73         12
    74          1
    75          5
    76          1
    77          2
    79          6
    80          2
    81         75
    82        313
    83         33
    84          3
    85         23
    86          3
    87         32
    88         32
    89          2
    95          1
    97          1
    98          2
    99         25
   100          8
   101          3
   115          2
   117          2