##TITLE=Library Entry 56014
##JCAMP-DX=Revision 4.10 
##DATA TYPE=MASS SPECTRUM
##SAMPLE DESCRIPTION=Exported from NIST MS Search
##NAMES=HP
##CAS NAME=1-Propanamine, N,N-diethyl-
##MOLFORM=C7H17N
##CAS REGISTRY NO=4458-31-5
##MP= -300
##BP= -300
##MW= 115
##$RETENTION INDEX=751
##$CONDENSED SPECTRUM=NO
##NPOINTS= 62
##XYDATA=(XY..XY) 1 
    12          1
    13          2
    14          8
    15         69
    16          3
    17          1
    18          3
    25          1
    26         25
    27        207
    28        158
    29        165
    30        263
    31          4
    32          1
    37          1
    38          4
    39         42
    40          9
    41        108
    42        144
    43         94
    44         73
    45          2
    50          1
    51          1
    52          3
    53          1
    54         16
    55         10
    56         75
    57         20
    58        267
    59         10
    66          1
    67          1
    68          4
    69          2
    70         16
    71         11
    72         46
    73          2
    82          1
    83          1
    84         17
    85          5
    86        999
    87         59
    88          2
    96          1
    97          1
    98         19
    99          2
   100        211
   101         15
   102          1
   112          1
   113          3
   114         31
   115        112
   116          9
   117          1