##TITLE=Library Entry 39730
##JCAMP-DX=Revision 4.10 
##DATA TYPE=MASS SPECTRUM
##SAMPLE DESCRIPTION=Chemical Concepts
##NAMES=HP
##CAS NAME=1-Propanamine, N-ethyl-N-methyl-
##MOLFORM=C6H15N
##CAS REGISTRY NO=4458-32-6
##MP= -300
##BP= -300
##MW= 101
##$RETENTION INDEX=0
##$CONDENSED SPECTRUM=NO
##NPOINTS= 65
##XYDATA=(XY..XY) 1 
    24          0
    25          1
    26          0
    27        106
    28         46
    29         75
    30         52
    31          1
    35          0
    36          1
    37          1
    38          3
    39         37
    40          7
    41         81
    42        171
    43         80
    44        590
    45         17
    50          0
    51          1
    52          2
    53          1
    54          9
    55          7
    56         36
    57         35
    58         79
    59          3
    60          0
    62          0
    63          0
    64          0
    65          0
    66          0
    67          0
    68          3
    69          1
    70         20
    71          9
    72        999
    73         48
    74          1
    75          0
    76          1
    77          0
    79          0
    80          0
    82          0
    83          0
    84         13
    85          3
    86         73
    87          5
    88          0
    89          1
    91          1
    93          0
    95          0
    96          0
    99          2
   100         18
   101        107
   102          8
   103          0