##TITLE=Library Entry 19255
##JCAMP-DX=Revision 4.10 
##DATA TYPE=MASS SPECTRUM
##SAMPLE DESCRIPTION=HCACAV,61(7)2671(1978); R. KAISER AND D. LAMPARSKY
##NAMES=HP
##CAS NAME=Oxacyclohexadecan-2-one, 16-methyl-
##MOLFORM=C16H30O2
##CAS REGISTRY NO=4459-57-8
##MP= -300
##BP= -300
##MW= 254
##$RETENTION INDEX=1951
##$CONDENSED SPECTRUM=NO
##NPOINTS= 19
##XYDATA=(XY..XY) 1 
    41        710
    43        430
    55        999
    56        380
    69        660
    72        380
    83        440
    84        340
    97        360
    98        360
   111        170
   125        120
   137         50
   152        110
   192         50
   210         80
   218         30
   236        160
   254         30