##TITLE=Library Entry 68587
##JCAMP-DX=Revision 4.10 
##DATA TYPE=MASS SPECTRUM
##SAMPLE DESCRIPTION=Chemical Concepts
##NAMES=HP
##CAS NAME=Nitrobenzene,-2-fluoro,-4-methoxy
##MOLFORM=C7H6FNO3
##CAS REGISTRY NO=446-38-8
##MP= -300
##BP= -300
##MW= 171
##$RETENTION INDEX=0
##$CONDENSED SPECTRUM=NO
##NPOINTS= 77
##XYDATA=(XY..XY) 1 
    33          7
    36          2
    37         34
    38         44
    39         48
    40          4
    41         22
    42          9
    43         20
    44         27
    45         25
    46         49
    47          4
    48          4
    49         26
    50        140
    51         79
    52         15
    53         46
    54         14
    56        151
    57        125
    58          8
    59         41
    61         95
    62         95
    63        210
    64         22
    65         63
    66          5
    68         94
    69         83
    70        175
    71         35
    72         10
    73         30
    74        109
    75        408
    76        100
    77         77
    78          9
    79         34
    80         44
    81        342
    82        558
    83        198
    84         21
    85         13
    87          1
    90          2
    91          6
    92         23
    93         58
    94        194
    95        999
    96        213
    97        142
    98         74
    99          4
   108          2
   110        552
   111        192
   112         58
   113        173
   114         10
   123         21
   124        639
   125         56
   126         16
   127          2
   138          4
   139          6
   141        275
   142         21
   171        495
   172         33
   173          3