##TITLE=Library Entry 71582
##JCAMP-DX=Revision 4.10 
##DATA TYPE=MASS SPECTRUM
##SAMPLE DESCRIPTION=SAS 0024
##NAMES=HP
##CAS NAME=Genisteine
##MOLFORM=C15H26N2
##CAS REGISTRY NO=446-95-7
##MP= -300
##BP= -300
##MW= 234
##$RETENTION INDEX=1758
##$CONDENSED SPECTRUM=NO
##NPOINTS= 83
##XYDATA=(XY..XY) 1 
    51         10
    52         15
    53         42
    54         55
    55        122
    56         53
    57         10
    59         40
    65         10
    66         10
    67         80
    68         62
    69         47
    70         50
    77         35
    78         30
    79         42
    80         45
    81         30
    82         58
    83         92
    84        175
    85         10
    89         15
    91         15
    92         10
    93         33
    94         37
    95         35
    96        122
    97        260
    98        999
    99         80
   106         22
   107         20
   108         41
   109         60
   110        198
   111         40
   116         21
   117         53
   120         28
   121         20
   122         95
   123         55
   124         80
   126         20
   132         10
   134        140
   135         98
   136        280
   137        540
   138         99
   148         60
   149         98
   150        128
   151         81
   152         81
   153         15
   159         10
   162         20
   163         19
   164         20
   165         21
   166         20
   176         24
   177         24
   178         23
   190         24
   191         68
   192         26
   193        178
   194         25
   204         20
   205         30
   206         15
   215         10
   218         10
   219         10
   232         35
   233         94
   234        520
   235         89