##TITLE=Library Entry 31511
##JCAMP-DX=Revision 4.10 
##DATA TYPE=MASS SPECTRUM
##SAMPLE DESCRIPTION=NIST Mass Spectrometry Data Center
##NAMES=HP
##CAS NAME=2,4-Difluoronitrobenzene
##MOLFORM=C6H3F2NO2
##CAS REGISTRY NO=446-35-5
##MP= -300
##BP= -300
##MW= 159
##$RETENTION INDEX=0
##$CONDENSED SPECTRUM=NO
##NPOINTS= 79
##XYDATA=(XY..XY) 1 
    12          5
    13          1
    14          1
    16         23
    18          9
    19         32
    20          7
    24          3
    25          8
    26          3
    28          9
    30        780
    31        143
    32          8
    33          5
    36         20
    37         87
    38         43
    39         25
    40          2
    44         18
    46         55
    47          2
    48          9
    49         39
    50        152
    51        130
    52          9
    53          3
    55         17
    56         61
    57        125
    58          4
    60         19
    61        113
    62        212
    63        999
    64         63
    67          8
    68        145
    69         72
    70          8
    73         37
    74        100
    75        168
    76         21
    77          5
    79         11
    80         27
    81         99
    82         23
    83          7
    86         21
    87         45
    88          4
    92         53
    93        133
    94         50
    95         12
    99         20
   101        625
   102         42
   107          3
   109          4
   110          6
   111         17
   113        590
   114         39
   126          5
   127         11
   129        602
   130         41
   131          2
   141          7
   143         93
   144          5
   159        715
   160         51
   161          5