##TITLE=Library Entry 4466
##JCAMP-DX=Revision 4.10 
##DATA TYPE=MASS SPECTRUM
##SAMPLE DESCRIPTION=ORMSBG,10(12)1155(1975); O. THORSTAD
##NAMES=HP
##CAS NAME=Methanamine, N-butylidene-, N-oxide
##MOLFORM=C5H11NO
##CAS REGISTRY NO=44603-43-2
##MP= -300
##BP= -300
##MW= 101
##$RETENTION INDEX=0
##$CONDENSED SPECTRUM=NO
##NPOINTS= 9
##XYDATA=(XY..XY) 1 
    41        990
    42        999
    43        350
    57        270
    58         20
    59        370
    73        100
    86        100
   101         80