##TITLE=Library Entry 78576
##JCAMP-DX=Revision 4.10 
##DATA TYPE=MASS SPECTRUM
##SAMPLE DESCRIPTION=NIST Mass Spectrometry Data Center, 1994
##NAMES=HP
##CAS NAME=Benzoyl isocyanate
##MOLFORM=C8H5NO2
##CAS REGISTRY NO=4461-33-0
##MP= -300
##BP= -300
##MW= 147
##$RETENTION INDEX=0
##$CONDENSED SPECTRUM=NO
##NPOINTS= 60
##XYDATA=(XY..XY) 1 
    12         12
    13          3
    14          3
    16          7
    25          7
    26         42
    27         59
    28         60
    30          3
    32          0
    36          9
    37         86
    38        127
    39         97
    40         10
    41          7
    42         66
    43         11
    44         44
    46          6
    48          7
    49         51
    50        360
    51        527
    52         50
    53         20
    54          4
    60         13
    61         24
    62         30
    63         59
    64         67
    65         14
    66          2
    70         94
    71          2
    72          3
    73         30
    74        104
    75         75
    76        124
    77        989
    78         67
    79          2
    86          2
    87          1
    88          3
    89          1
    90         11
    91         16
    92          2
    99          3
   103         95
   105        999
   106         77
   107          4
   121          2
   147        380
   148         35
   149          3