##TITLE=Library Entry 13677
##JCAMP-DX=Revision 4.10 
##DATA TYPE=MASS SPECTRUM
##SAMPLE DESCRIPTION=NIST Mass Spectrometry Data Center
##NAMES=HP
##CAS NAME=3-(2,6-Dichlorophenyl)-5-methyl isoxazole-4-carbonyl chloride
##MOLFORM=C11H6Cl3NO2
##CAS REGISTRY NO=4462-55-9
##MP= -300
##BP= -300
##MW= 289
##$RETENTION INDEX=0
##$CONDENSED SPECTRUM=NO
##NPOINTS= 160
##XYDATA=(XY..XY) 1 
    12          1
    13          2
    14         15
    15        117
    16          1
    18          2
    25          3
    26         17
    27         21
    28          6
    29          2
    30         11
    35          5
    36          9
    37         16
    38         23
    39         17
    40          3
    43        999
    44         24
    45          1
    47          9
    49         21
    50         32
    51         17
    52          6
    53          5
    54          2
    55          2
    56          1
    60          5
    61         27
    62         27
    63         30
    64          6
    65          3
    66          3
    67          5
    68          6
    69          1
    71          1
    72          9
    73         47
    74         78
    75         83
    76         12
    77          4
    78          4
    79          1
    80          4
    81          2
    83          3
    84         27
    85         23
    86         26
    87         30
    88         14
    89          3
    94          1
    95          1
    96          5
    97         14
    98         25
    99         23
   100         33
   101          4
   102          1
   104          1
   106          1
   107          3
   108          8
   109         54
   110         20
   111         23
   112         13
   113          6
   114          7
   115          1
   119          1
   120          2
   121          8
   122         11
   123         10
   124         11
   125          7
   126         11
   127         22
   128         14
   129          3
   131          1
   132          1
   133          6
   134          2
   135          7
   136         17
   137          3
   138          6
   141          3
   144          1
   145         12
   146          2
   147         10
   148         70
   149         13
   150         22
   151          3
   157         13
   158          3
   159         12
   160          5
   161          5
   162          2
   163          1
   170          2
   171         14
   172          6
   173         11
   174          3
   175          2
   176          1
   177          1
   180          1
   182          2
   183          9
   184         30
   185          8
   186         20
   187          3
   188          3
   191          1
   194          1
   196          1
   197          1
   198          1
   199          1
   206          3
   208          2
   209          1
   211         44
   212        348
   213         58
   214        219
   215         27
   216         36
   217          3
   218          1
   220          1
   250          2
   252          1
   254        186
   255         25
   256        103
   257         14
   258         19
   259          2
   289          9
   290          1
   291          9
   292          1
   293          2