##TITLE=Library Entry 78722
##JCAMP-DX=Revision 4.10 
##DATA TYPE=MASS SPECTRUM
##SAMPLE DESCRIPTION=CARL DJERASSI DEPT OF CHEM STANFORD UNIV STANFORD CALIF
 94305
##NAMES=HP
##CAS NAME=1,3,2-Dioxathiolane, 4,5-diphenyl-, 2-oxide
##MOLFORM=C14H12O3S
##CAS REGISTRY NO=4464-79-3
##MP= -300
##BP= -300
##MW= 260
##$RETENTION INDEX=0
##$CONDENSED SPECTRUM=NO
##NPOINTS= 45
##XYDATA=(XY..XY) 1 
    41         40
    42         10
    43         50
    44         10
    45         10
    48         80
    50        150
    51        590
    52        150
    53         10
    55         10
    57         10
    62         10
    63        100
    64         30
    65         60
    66         10
    74         20
    75         30
    76         60
    77        870
    78        520
    79         50
    89        140
    90        110
    91         70
   104         10
   105        999
   106        170
   107         20
   126        300
   127         20
   128         20
   151         10
   152         40
   153         10
   154        420
   155         30
   156         20
   165         70
   166         10
   167         40
   178         30
   179         10
   180         10