##TITLE=Library Entry 23564
##JCAMP-DX=Revision 4.10 
##DATA TYPE=MASS SPECTRUM
##SAMPLE DESCRIPTION=Exported from NIST MS Search
##NAMES=HP
##CAS NAME=Propane, 2-methyl-2-[(1-methylethyl)thio]-
##MOLFORM=C7H16S
##CAS REGISTRY NO=44657-76-3
##MP= -300
##BP= -300
##MW= 132
##$RETENTION INDEX=835
##$CONDENSED SPECTRUM=NO
##NPOINTS= 31
##XYDATA=(XY..XY) 1 
    15         13
    26          8
    27        119
    29        199
    30          8
    35          5
    38         10
    39        146
    40         14
    41        589
    42         49
    43        230
    45         25
    46         37
    47         21
    53         11
    55         51
    56        244
    57        999
    58         46
    59         57
    60         26
    61         48
    74         85
    75        148
    76         99
    77         51
    88          6
    89         11
   117         27
   132        158