##TITLE=Library Entry 23933
##JCAMP-DX=Revision 4.10 
##DATA TYPE=MASS SPECTRUM
##SAMPLE DESCRIPTION=SHELL RESEARCH LIMITED THORNTON RESEARCH CENTRE
##NAMES=HP
##CAS NAME=Oxetane, 2-propyl-
##MOLFORM=C6H12O
##CAS REGISTRY NO=4468-64-8
##MP= -300
##BP= -300
##MW= 100
##$RETENTION INDEX=0
##$CONDENSED SPECTRUM=NO
##NPOINTS= 37
##XYDATA=(XY..XY) 1 
    26         29
    27        357
    28        146
    29        544
    30         12
    31         65
    37          7
    38         16
    39        243
    40         30
    41        439
    42        333
    43        674
    44        216
    45         18
    50          7
    51         10
    52          5
    53         21
    54         36
    55        227
    56         21
    57        999
    58         29
    67         43
    68          6
    69         13
    70         62
    71        439
    72        178
    73          9
    81          5
    82        121
    83          6
    85         19
   100        170
   101          8