##TITLE=Library Entry 61654
##JCAMP-DX=Revision 4.10 
##DATA TYPE=MASS SPECTRUM
##SAMPLE DESCRIPTION=CONTINENTAL OIL CO., PONCA CITY, OKLA, USA
##NAMES=HP
##CAS NAME=Benzene, (1-ethylbutyl)-
##MOLFORM=C12H18
##CAS REGISTRY NO=4468-42-2
##MP= -300
##BP= -300
##MW= 162
##$RETENTION INDEX=1352
##$CONDENSED SPECTRUM=NO
##NPOINTS= 90
##XYDATA=(XY..XY) 1 
    26          5
    27         61
    28         13
    29         33
    30          0
    37          0
    38          3
    39         42
    40          4
    41         55
    42          3
    43          6
    44          0
    49          0
    50         10
    51         32
    52          9
    53          9
    54          1
    55         15
    56          1
    57          1
    58          0
    61          0
    62          3
    63         14
    64          4
    65         31
    66          2
    67          1
    68          0
    69          1
    73          0
    74          3
    75          4
    76          5
    77         47
    78         29
    79         17
    80          1
    81          0
    83          0
    84          0
    85          0
    86          1
    87          2
    88          1
    89         15
    90          8
    91        999
    92         81
    93          3
    98          0
    99          0
   100          0
   101          2
   102         13
   103         41
   104         69
   105         26
   106          2
   107          0
   109          0
   113          1
   114          2
   115         40
   116         14
   117         34
   118         13
   119        254
   120         30
   121          1
   126          0
   127          2
   128          6
   129          3
   130          1
   131          3
   132          4
   133        167
   134         18
   135          6
   139          0
   141          0
   145          0
   147          0
   160          0
   162        149
   163         19
   164          1