##TITLE=Library Entry 96878
##JCAMP-DX=Revision 4.10 
##DATA TYPE=MASS SPECTRUM
##SAMPLE DESCRIPTION=Japan AIST/NIMC Database- Spectrum MS-IW-2754
##NAMES=HP
##CAS NAME=Benzeneacetonitrile, .alpha.-acetyl-
##MOLFORM=C10H9NO
##CAS REGISTRY NO=4468-48-8
##MP= -300
##BP= -300
##MW= 159
##$RETENTION INDEX=0
##$CONDENSED SPECTRUM=NO
##NPOINTS= 72
##XYDATA=(XY..XY) 1 
    14          4
    15         36
    26          3
    27         10
    28          5
    29          1
    37          9
    38         18
    39         68
    40          6
    41          4
    42          9
    43        926
    44         26
    45          4
    49          3
    50         40
    51         55
    52         13
    53          3
    57          1
    58          2
    60          2
    61         12
    62         36
    63         94
    64         32
    65         19
    66          4
    73          2
    74         13
    75         12
    76         13
    77         45
    78          7
    79          2
    85          3
    86          7
    87         13
    88         24
    89        175
    90        184
    91         20
    92          1
    98          1
    99          1
   100          1
   101          2
   102          3
   103          9
   104          3
   105         38
   106          3
   107          1
   111          1
   113          1
   114         11
   115         14
   116        160
   117        999
   118         94
   119          4
   122          9
   128          1
   130          2
   131          1
   140          2
   141          1
   143          1
   144          5
   159         63
   160          7