##TITLE=Library Entry 85837
##JCAMP-DX=Revision 4.10 
##DATA TYPE=MASS SPECTRUM
##SAMPLE DESCRIPTION=NIST Mass Spectrometry Data Center, 1994
##NAMES=HP
##CAS NAME=Benzenamine, 4-propoxy-
##MOLFORM=C9H13NO
##CAS REGISTRY NO=4469-80-1
##MP= -300
##BP= -300
##MW= 151
##$RETENTION INDEX=0
##$CONDENSED SPECTRUM=NO
##NPOINTS= 66
##XYDATA=(XY..XY) 1 
     4          3
     9          1
    12          1
    14          4
    15         27
    16          1
    17          2
    18          2
    26         30
    27        197
    28         94
    29         42
    30         14
    31          3
    37          8
    38         26
    39        124
    40         20
    41        100
    42         20
    43         31
    44          4
    47          2
    50         14
    51         33
    52        101
    53        173
    54         56
    55         14
    56          1
    61          4
    62         10
    63         33
    64         24
    65        103
    66         19
    67          5
    68          8
    69          1
    70          1
    74          2
    75          1
    76          3
    77         10
    78         10
    79          1
    80        378
    81         96
    82         20
    83          2
    89          1
    90          3
    91         10
    92         34
    93          7
    94         17
    95          1
   106          3
   108        370
   109        999
   110         76
   111          4
   120          2
   122          5
   151        269
   152         25