##TITLE=Library Entry 114405
##JCAMP-DX=Revision 4.10 
##DATA TYPE=MASS SPECTRUM
##SAMPLE DESCRIPTION=V. PRELOG, LAB ORG CHEM, SWISS FED INST TECHNOL, ZURICH
, SWITZ
##NAMES=HP
##CAS NAME=Diethyl 3-phenylbut-3-ene-1,1-dicarboxylate
##MOLFORM=C16H20O4
##CAS REGISTRY NO=4469-64-1
##MP= -300
##BP= -300
##MW= 276
##$RETENTION INDEX=0
##$CONDENSED SPECTRUM=NO
##NPOINTS= 57
##XYDATA=(XY..XY) 1 
    27         90
    28         60
    29        300
    31         15
    39         25
    41         15
    43         30
    51         45
    52         25
    53         30
    55         55
    63         20
    65         25
    73         15
    76         15
    77        120
    78         40
    79         20
    91        100
    92         10
   102         55
   103        110
   104         90
   105         55
   115        130
   116         35
   117         50
   118         60
   127         55
   128        190
   129        999
   130        210
   131         90
   133         15
   143         25
   147         40
   156         35
   157        265
   158        110
   159         30
   160         15
   173         25
   174         20
   175         65
   176         15
   184         55
   185        160
   186         20
   202         30
   203         75
   204         70
   230         30
   231         90
   232         25
   276        310
   277         80
   278         15