##TITLE=Library Entry 63067
##JCAMP-DX=Revision 4.10 
##DATA TYPE=MASS SPECTRUM
##SAMPLE DESCRIPTION=HOME OFFICE, CENTRAL RES. EST., ALDERMASTON, BERKS., U.
K.
##NAMES=HP
##CAS NAME=Nylidrin
##MOLFORM=C19H25NO2
##CAS REGISTRY NO=447-41-6
##MP= -300
##BP= -300
##MW= 299
##$RETENTION INDEX=2320
##$CONDENSED SPECTRUM=NO
##NPOINTS= 54
##XYDATA=(XY..XY) 1 
    39         20
    41         20
    42         50
    43         10
    44        170
    45         10
    51         10
    53         10
    55         30
    56         20
    57         30
    58         20
    63         10
    65        110
    68         10
    69         10
    70         20
    71         30
    72         30
    77         70
    78         20
    79         10
    87         10
    90         10
    91        999
    92         50
    93         10
    95         10
   103         40
   104         10
   105         20
   107         80
   108         20
   115         10
   117         20
   120         10
   121         40
   122         10
   131         10
   132         20
   133        200
   134         30
   148        250
   149         20
   160         20
   162         10
   174        110
   175         20
   176        290
   177         60
   188         10
   266         20
   279         10
   281         20