##TITLE=Library Entry 114991
##JCAMP-DX=Revision 4.10 
##DATA TYPE=MASS SPECTRUM
##SAMPLE DESCRIPTION=Chemical Concepts
##NAMES=HP
##CAS NAME=2H-Indeno[1,2-b]furan-2-one, 3,3a,4,8b-tetrahydro-
##MOLFORM=C11H10O2
##CAS REGISTRY NO=4471-33-4
##MP= -300
##BP= -300
##MW= 174
##$RETENTION INDEX=0
##$CONDENSED SPECTRUM=NO
##NPOINTS= 72
##XYDATA=(XY..XY) 1 
    26          4
    27         30
    28          7
    29          7
    37          4
    38         15
    39        102
    40         11
    41         19
    42          6
    43          6
    44          6
    45          7
    50         54
    51        129
    52         23
    53         10
    55         22
    57         10
    58         22
    59          6
    60          4
    61          8
    62         37
    63        114
    64         85
    65         84
    66          6
    72         20
    73         11
    74         30
    75         32
    76         33
    77         96
    78         39
    79          6
    86         10
    87         17
    88          8
    89         87
    90         57
    91        106
    92          9
    98          4
   101         13
   102         48
   103         55
   104         21
   105         10
   113          6
   114          9
   115        549
   116         95
   117        107
   118         51
   119         10
   126         14
   127        102
   128        229
   129        654
   130        999
   131        192
   132         23
   145         56
   146         79
   147         12
   149          7
   159          4
   173         11
   174        414
   175         54
   176          6