##TITLE=Library Entry 83585
##JCAMP-DX=Revision 4.10 
##DATA TYPE=MASS SPECTRUM
##SAMPLE DESCRIPTION=MUS227 A. Mujsce, AT&T Bell Labs., Murray Hill, N.J., U
SA
##NAMES=HP
##CAS NAME=Benzenemethanol, .alpha.-pentyl-
##MOLFORM=C12H18O
##CAS REGISTRY NO=4471-05-0
##MP= -300
##BP= -300
##MW= 178
##$RETENTION INDEX=0
##$CONDENSED SPECTRUM=NO
##NPOINTS= 64
##XYDATA=(XY..XY) 1 
    15          3
    26          4
    27         81
    28         13
    29         95
    30          2
    38          4
    39         66
    40          9
    41         79
    42         18
    43         52
    45          1
    50         21
    51         80
    52         23
    53         24
    54          3
    55         25
    56          2
    57          7
    61          1
    62          3
    63         15
    64          3
    65         17
    66          3
    69          1
    71          4
    74          7
    75          7
    77        367
    78         79
    79        580
    80         36
    81          2
    83          1
    87          1
    89          9
    90          3
    91         69
    92          7
    93          1
   101          1
   102          4
   103         24
   104         20
   105         72
   107        999
   108         76
   109          5
   115         17
   116          4
   117         13
   119          1
   120          2
   121          1
   122          0
   127          1
   147          2
   160          3
   161          4
   178         43
   179          7