##TITLE=Library Entry 61233
##JCAMP-DX=Revision 4.10 
##DATA TYPE=MASS SPECTRUM
##SAMPLE DESCRIPTION=Japan AIST/NIMC Database- Spectrum MS-NW-1952
##NAMES=HP
##CAS NAME=CBZ D-Asparagine
##MOLFORM=C12H14N2O5
##CAS REGISTRY NO=4474-86-6
##MP= -300
##BP= -300
##MW= 266
##$RETENTION INDEX=0
##$CONDENSED SPECTRUM=NO
##NPOINTS= 102
##XYDATA=(XY..XY) 1 
    12          1
    14          5
    15         26
    16         57
    17         86
    18         23
    25          2
    26         13
    27         32
    28         53
    29          9
    30          1
    31          3
    32          1
    37          3
    38          9
    39         57
    40         15
    41         45
    42         36
    43         57
    44         55
    45          5
    49          2
    50         20
    51         53
    52         17
    53          9
    54          6
    55         12
    56          2
    57          2
    58          3
    59          6
    60          7
    61          3
    62          8
    63         26
    64          9
    65        115
    66          6
    67          1
    68          4
    69         29
    70         36
    71          6
    72         10
    73          3
    74          4
    75          3
    76          3
    77         85
    78         19
    79        171
    80         16
    81          2
    82          1
    83          2
    85          1
    86         17
    87         11
    88          1
    89         38
    90         80
    91        999
    92        103
    93          5
    96          8
    97          3
    98          3
    99          8
   100         17
   101          3
   104          2
   105         16
   106          6
   107        502
   108        342
   109         25
   110          2
   112          9
   113         21
   114         12
   115          3
   116          3
   117          1
   118          2
   121          2
   132          8
   133          5
   134          1
   140          1
   144          5
   161          1
   177          5
   178          1
   221          8
   222          1
   248          5
   249        108
   250         14
   251          2