##TITLE=Library Entry 4615
##JCAMP-DX=Revision 4.10 
##DATA TYPE=MASS SPECTRUM
##SAMPLE DESCRIPTION=Japan AIST/NIMC Database- Spectrum MS-NW-6470
##NAMES=HP
##CAS NAME=1,4-Dioxane-2,6-dione
##MOLFORM=C4H4O4
##CAS REGISTRY NO=4480-83-5
##MP= -300
##BP= -300
##MW= 116
##$RETENTION INDEX=0
##$CONDENSED SPECTRUM=NO
##NPOINTS= 26
##XYDATA=(XY..XY) 1 
    12          6
    13         24
    14        115
    15         77
    16         37
    18          1
    24          1
    25          3
    26          3
    27          2
    28         94
    29        453
    30         37
    31         35
    32          1
    36          2
    40          3
    41         20
    42        999
    43         97
    44        905
    45         21
    46          2
    56          5
    59          2
    60          1