##TITLE=Library Entry 81258
##JCAMP-DX=Revision 4.10 
##DATA TYPE=MASS SPECTRUM
##SAMPLE DESCRIPTION=Japan AIST/NIMC Database- Spectrum MS-IW-2819
##NAMES=HP
##CAS NAME=Benzene, (1,2-dimethylpropyl)-
##MOLFORM=C11H16
##CAS REGISTRY NO=4481-30-5
##MP= -300
##BP= -300
##MW= 148
##$RETENTION INDEX=1059
##$CONDENSED SPECTRUM=NO
##NPOINTS= 67
##XYDATA=(XY..XY) 1 
    27         16
    28          2
    29          5
    38          1
    39         16
    40          1
    41         17
    42          2
    43         12
    50          6
    51         19
    52          5
    53          6
    54          1
    55         13
    56          1
    57          3
    58          1
    62          1
    63          7
    64          3
    65         10
    66          1
    67          2
    69         10
    70          4
    71          2
    74          2
    75          2
    76          2
    77         56
    78         18
    79         50
    80          3
    81          1
    82          2
    83          4
    89          4
    90          1
    91         90
    92          9
   101          1
   102          5
   103         38
   104         66
   105        999
   106        133
   107          7
   110          5
   111         10
   112          1
   115         12
   116          4
   117          9
   118          1
   119          2
   127          1
   128          2
   129          1
   131          3
   132          1
   133          5
   134          1
   147          1
   148        171
   149         20
   150          1