##TITLE=Library Entry 83985
##JCAMP-DX=Revision 4.10 
##DATA TYPE=MASS SPECTRUM
##SAMPLE DESCRIPTION=NIST Mass Spectrometry Data Center
##NAMES=HP
##CAS NAME=3-((4Z,7Z)-Heptadeca-4,7-dien-1-yl)phenol
##MOLFORM=C23H36O
##CAS REGISTRY NO=448252-12-8
##MP= -300
##BP= -300
##MW= 328
##$RETENTION INDEX=2675
##$CONDENSED SPECTRUM=NO
##NPOINTS= 104
##XYDATA=(XY..XY) 1 
    27         14
    29         45
    39         46
    40          7
    41        207
    42         13
    43         45
    51         13
    52          8
    53         61
    54        107
    55        265
    56         10
    63          8
    64          4
    65         65
    66         36
    67        582
    68        109
    69        106
    77        228
    78         55
    79        244
    80         85
    81        336
    82        100
    83         40
    89          6
    90          7
    91        112
    92         18
    93         64
    94         44
    95        257
    96         97
    97         44
   103         32
   104          4
   105         36
   106          5
   107        999
   108        904
   109        202
   110         61
   111         13
   115         17
   117         16
   119         15
   120        523
   121        173
   122         53
   123         76
   124         30
   125          6
   127          4
   131         12
   132          7
   133        219
   134         79
   135         30
   136         23
   137         37
   138         14
   143          4
   144          4
   145         60
   146         29
   147        312
   148         82
   149         23
   150         10
   151         16
   159         26
   160         43
   161         88
   162         36
   165          7
   173         29
   174         50
   175         35
   176         17
   187         28
   188         19
   189          6
   190         18
   201         32
   202         10
   204          6
   215         11
   216          7
   218          7
   230          6
   232          7
   243          3
   244          4
   246          3
   257          4
   258          3
   271          5
   273          3
   285          5
   299          5
   328        140
   329         37