##TITLE=Library Entry 107835
##JCAMP-DX=Revision 4.10 
##DATA TYPE=MASS SPECTRUM
##SAMPLE DESCRIPTION=H. Fales, LC, NHLBI, NIH, Bethesda, MD 20892
##NAMES=HP
##CAS NAME=Androstan-3,11,17-triol, (3.alpha., 5.beta., 11.alpha., 17.beta.)
-
##MOLFORM=C19H32O3
##CAS REGISTRY NO=4484-95-1
##MP= -300
##BP= -300
##MW= 308
##$RETENTION INDEX=0
##$CONDENSED SPECTRUM=NO
##NPOINTS= 186
##XYDATA=(XY..XY) 1 
    41        281
    43        284
    44        215
    45         59
    47         21
    49         50
    50          5
    51         17
    52         11
    53         97
    54         36
    55        327
    56         16
    57        578
    58         76
    59         10
    65         45
    66         28
    67        263
    68         84
    69        170
    70         91
    71         73
    72          4
    77        132
    78         16
    79        321
    80         77
    81        256
    82         49
    83        102
    84         68
    85         19
    86         26
    88          3
    89          7
    91        281
    92         76
    93        300
    94        169
    95        279
    96         87
    97        119
    98         23
    99          7
   100          4
   103         16
   104         20
   105        265
   106        310
   107        254
   108        188
   109        175
   110         95
   111         44
   112          7
   114          4
   115         19
   116         11
   117         74
   118         79
   119        159
   120        135
   121        135
   122         91
   123         69
   124        999
   125        121
   126         19
   127          3
   128         14
   129         34
   130         17
   131        175
   132         54
   133        129
   134         69
   135        116
   136         85
   137         45
   138         24
   139          9
   141         11
   142          3
   143         59
   144         31
   145        132
   146         56
   147        128
   148        103
   149        139
   150         53
   151         74
   152         29
   153         11
   154         14
   155         10
   156          3
   157         61
   158         46
   159         93
   160         61
   161         80
   162         50
   163         55
   164        209
   165         69
   166         27
   167         11
   168          4
   169         17
   171         48
   172         23
   173         50
   174         38
   175         37
   176         25
   177         48
   178        116
   179         46
   180         18
   181          3
   182          3
   183         15
   184          4
   185         33
   186         13
   187         30
   188         10
   189         14
   190         35
   191         13
   192          9
   193          6
   197         23
   198          5
   199         34
   200         17
   201         22
   202          8
   203          7
   204          6
   206          4
   211         13
   212          4
   213         86
   215         65
   216         18
   217         23
   218         46
   220          9
   225          5
   226          3
   227          5
   228         42
   229         30
   230         13
   231         44
   232          7
   233         25
   234          7
   239         75
   240         10
   241          3
   243          8
   244          6
   246         30
   247          6
   250          4
   251         44
   252          6
   254         76
   255         21
   257        136
   258         26
   261          4
   272        283
   273         60
   274          7
   275         68
   276          9
   290        277
   291         58
   292          6
   308         21
   309          3