##TITLE=Library Entry 26539
##JCAMP-DX=Revision 4.10 
##DATA TYPE=MASS SPECTRUM
##SAMPLE DESCRIPTION=V.Zaikin,Topchiev Inst.Petrochem.Synth.,Moscow
##NAMES=HP
##CAS NAME=Trichloroacetic acid, 2-butyl ester
##MOLFORM=C6H9Cl3O2
##CAS REGISTRY NO=4484-80-4
##MP= -300
##BP= -300
##MW= 218
##$RETENTION INDEX=1091
##$CONDENSED SPECTRUM=NO
##NPOINTS= 101
##XYDATA=(XY..XY) 1 
    22          2
    26         27
    27        152
    28         26
    29        390
    30         10
    31          1
    35         11
    36         50
    37          2
    38         14
    39        102
    40         12
    41        386
    42         20
    43         89
    44         53
    45         25
    47         48
    48          5
    49         16
    50          8
    51         12
    52         14
    53         13
    54          4
    55         66
    56        137
    57        999
    58         42
    59          1
    61          2
    63          9
    65          3
    67          3
    71          3
    73         88
    74          3
    75          3
    76          2
    77          4
    78          3
    79         26
    82        108
    83         20
    84         72
    85         14
    86         10
    91          2
    93          2
    99          2
   101          2
   110        103
   111          5
   112         66
   113          2
   114          9
   117        582
   118          4
   119        576
   120          5
   121        186
   123         18
   127         39
   128          1
   129         24
   131          3
   145         16
   147         15
   149          5
   155          7
   157          4
   161        110
   162          2
   163        102
   164          1
   165         34
   167          3
   169          2
   171          1
   175          4
   177          4
   179          1
   183         10
   185          5
   188          8
   189        318
   190         20
   191        317
   192         15
   193         97
   194          3
   195         10
   203         57
   204          2
   205         61
   206          3
   207         28
   208          3
   209          3
   217          1