##TITLE=Library Entry 20085
##JCAMP-DX=Revision 4.10 
##DATA TYPE=MASS SPECTRUM
##SAMPLE DESCRIPTION=NIST Mass Spectrometry Data Center, 1990.
##NAMES=HP
##CAS NAME=3-Heptene, 4-methyl-
##MOLFORM=C8H16
##CAS REGISTRY NO=4485-16-9
##MP= -300
##BP= -300
##MW= 112
##$RETENTION INDEX=778
##$CONDENSED SPECTRUM=NO
##NPOINTS= 39
##XYDATA=(XY..XY) 1 
    15         12
    26         13
    27        128
    28         50
    29         97
    32          7
    39        254
    40         57
    41        499
    42         76
    43         60
    44          9
    50         20
    51         44
    52         20
    53        114
    54          9
    55        999
    56        145
    57         14
    63         14
    65         37
    66         16
    67        120
    68         14
    69        856
    70        325
    71         18
    77         29
    78          7
    79         30
    81         27
    82         13
    83        107
    84         39
    95          7
    97         54
   112        291
   113         27