##TITLE=Library Entry 20302
##JCAMP-DX=Revision 4.10 
##DATA TYPE=MASS SPECTRUM
##SAMPLE DESCRIPTION=NIST Mass Spectrometry Data Center, 1990.
##NAMES=HP
##CAS NAME=3-Heptene, 4-propyl-
##MOLFORM=C10H20
##CAS REGISTRY NO=4485-13-6
##MP= -300
##BP= -300
##MW= 140
##$RETENTION INDEX=0
##$CONDENSED SPECTRUM=NO
##NPOINTS= 45
##XYDATA=(XY..XY) 1 
    15          8
    27        122
    28         17
    29        113
    39        161
    40         47
    41        410
    42         39
    43         66
    44          5
    50          9
    51         31
    52         17
    53         95
    54          5
    55        999
    56        171
    57         43
    63          8
    65         35
    66         16
    67        124
    68         53
    69        542
    70        142
    71         11
    77         38
    78          6
    79         39
    80          7
    81         51
    82         17
    83         67
    84         75
    85          7
    91         10
    93          4
    95         14
    97        469
    98        119
    99          8
   111          6
   112         16
   140        167
   141         18