##TITLE=Library Entry 96728
##JCAMP-DX=Revision 4.10 
##DATA TYPE=MASS SPECTRUM
##SAMPLE DESCRIPTION=TAT 0894
##NAMES=HP
##CAS NAME=1,4-Methanonaphthalene, 1,2,3,4-tetrahydro-
##MOLFORM=C11H12
##CAS REGISTRY NO=4486-29-7
##MP= -300
##BP= -300
##MW= 144
##$RETENTION INDEX=0
##$CONDENSED SPECTRUM=NO
##NPOINTS= 33
##XYDATA=(XY..XY) 1 
    27         40
    39         70
    41         40
    50         70
    51         90
    52         40
    62         40
    63         90
    64         50
    65         50
    66         10
    67         40
    68         40
    69         40
    75         90
    76         10
    77         40
    87         40
    89         50
    91         40
   102         40
   114         40
   115        320
   116        999
   117        110
   118         10
   127         50
   128        140
   129        300
   130         50
   143         40
   144        400
   145         70