##TITLE=Library Entry 38325
##JCAMP-DX=Revision 4.10 
##DATA TYPE=MASS SPECTRUM
##SAMPLE DESCRIPTION=Exported from NIST MS Search
##NAMES=HP
##CAS NAME=2,6-Octadiene-4,5-diol
##MOLFORM=C8H14O2
##CAS REGISTRY NO=4486-59-3
##MP= -300
##BP= -300
##MW= 142
##$RETENTION INDEX=0
##$CONDENSED SPECTRUM=NO
##NPOINTS= 21
##XYDATA=(XY..XY) 1 
    41        170
    42         20
    43        200
    44         10
    51         10
    53        100
    54         10
    55         40
    57         60
    67         10
    69         50
    70         30
    71        999
    72        100
    73         20
    81         10
    82         10
    95         10
   107         10
   125         40
   142         10