##TITLE=Library Entry 3308
##JCAMP-DX=Revision 4.10 
##DATA TYPE=MASS SPECTRUM
##SAMPLE DESCRIPTION=Scientific Instruments & Applications
##NAMES=HP
##CAS NAME=N-(3-Hydroxypropyl)methacrylamide
##MOLFORM=C7H13NO2
##CAS REGISTRY NO=44902-51-4
##MP= -300
##BP= -300
##MW= 143
##$RETENTION INDEX=0
##$CONDENSED SPECTRUM=NO
##NPOINTS= 63
##XYDATA=(XY..XY) 1 
    38         69
    39        452
    40        152
    41        999
    42         60
    43         30
    44         43
    45          9
    46          2
    49          3
    50          3
    51          3
    52          2
    53          9
    54          6
    55          3
    56        141
    57         13
    58          4
    59          3
    63          4
    65          2
    66          1
    67          5
    69        681
    70         36
    71          4
    72          1
    73          0
    76          8
    77          1
    78          3
    79          2
    80          2
    81          7
    82         62
    83          8
    84         14
    85          3
    86         16
    87          3
    91          1
    94          1
    95          3
    96         14
    97         39
    98         71
    99         16
   100          1
   106          1
   107          1
   108          1
   109          1
   110         18
   111          3
   112         13
   113          2
   124          7
   125         63
   126         27
   127          3
   142         24
   143          2