##TITLE=Library Entry 1306
##JCAMP-DX=Revision 4.10 
##DATA TYPE=MASS SPECTRUM
##SAMPLE DESCRIPTION=Chemical Concepts
##NAMES=HP
##CAS NAME=Imidodicarbonic diamide, N-propyl-
##MOLFORM=C5H11N3O2
##CAS REGISTRY NO=44918-10-7
##MP= -300
##BP= -300
##MW= 145
##$RETENTION INDEX=0
##$CONDENSED SPECTRUM=NO
##NPOINTS= 112
##XYDATA=(XY..XY) 1 
    25          0
    26         13
    27        110
    28        139
    29         79
    30        999
    31         33
    34          0
    35          0
    36          4
    37          1
    38          3
    39         38
    40          8
    41        138
    42         37
    43        148
    44        489
    45         12
    46          2
    47          0
    48          0
    50          0
    51          1
    52          2
    53          1
    54          7
    55         10
    56         51
    57         14
    58        385
    59         18
    60         66
    61         79
    62          1
    63          0
    65          0
    66          0
    67          4
    68          3
    69         23
    70         43
    71          2
    72          4
    73        111
    74          8
    75          0
    77          0
    78          0
    79          1
    80          1
    81         12
    82          3
    83          3
    84          8
    85          2
    86          4
    87         35
    88          2
    89          0
    91          1
    92          0
    93          2
    94          1
    95          5
    96          2
    97          2
    98          1
    99         14
   100          2
   101          2
   102          8
   103          2
   104        204
   105          7
   106          1
   107          1
   108          0
   109          2
   110          1
   111          1
   112          0
   113          2
   114          0
   115          0
   116        721
   117         45
   118          4
   119          2
   120          0
   121          2
   122          1
   123          2
   124          1
   125          1
   126          0
   127          0
   128          1
   129          0
   130         19
   131          1
   133          0
   134          0
   136          2
   137          3
   138          0
   139          0
   144          1
   145         87
   146         31
   147          3
   148          0