##TITLE=Library Entry 57798
##JCAMP-DX=Revision 4.10 
##DATA TYPE=MASS SPECTRUM
##SAMPLE DESCRIPTION=Japan AIST/NIMC Database- Spectrum MS-IW-5910
##NAMES=HP
##CAS NAME=Dibutyrylamine
##MOLFORM=C8H15NO2
##CAS REGISTRY NO=4494-12-6
##MP= -300
##BP= -300
##MW= 157
##$RETENTION INDEX=0
##$CONDENSED SPECTRUM=NO
##NPOINTS= 66
##XYDATA=(XY..XY) 1 
    14          2
    15         11
    16          1
    26          8
    27        175
    28         40
    29         27
    30         10
    31          5
    37          2
    38          7
    39         90
    40         18
    41        287
    42        103
    43        882
    44         95
    45          8
    46          5
    52          1
    53          2
    54          7
    55        149
    56          8
    57          4
    58          5
    59        557
    60         99
    61          4
    63          3
    67          1
    68         13
    69         47
    70        142
    71        981
    72        860
    73         49
    74          3
    84          3
    85          6
    86         80
    87        974
    88        999
    89         52
    90          3
    98          1
   100          9
   101         96
   102          6
   112          7
   113          1
   114        133
   115         10
   116          1
   128         24
   129        335
   130         24
   131          2
   140          6
   142        163
   143         13
   144          1
   156          1
   157        484
   158         82
   159          8