##TITLE=Library Entry 14213
##JCAMP-DX=Revision 4.10 
##DATA TYPE=MASS SPECTRUM
##SAMPLE DESCRIPTION=V.A.Korolev, Moscow, Russia
##NAMES=HP
##CAS NAME=N-(3-Amino-1,4-dioxo-1,4-dihydronaphthalen-2-yl)-N-phenylacetamid
e
##MOLFORM=C18H14N2O3
##CAS REGISTRY NO=4497-84-1
##MP= -300
##BP= -300
##MW= 306
##$RETENTION INDEX=0
##$CONDENSED SPECTRUM=NO
##NPOINTS= 210
##XYDATA=(XY..XY) 1 
    37          4
    38         13
    39        115
    40         27
    41        257
    42         98
    43        999
    44         50
    45         12
    50        127
    51        303
    52         49
    53         35
    54         23
    55        177
    56         82
    57        339
    58         18
    59          9
    61          5
    62         22
    63         55
    64         22
    65         62
    66         29
    67         45
    68         33
    69         94
    70         56
    71        220
    72         15
    73          9
    74         31
    75         69
    76        313
    77        474
    78         98
    79         24
    80          6
    81         36
    82         37
    83         70
    84         32
    85        119
    86         12
    87         16
    88         49
    89         74
    90         18
    91         82
    92         55
    93        118
    94         16
    95         25
    96         23
    97         60
    98         27
    99         45
   100         12
   101         27
   102         81
   103        127
   104        387
   105        299
   106         40
   107          8
   108          6
   109         17
   110         11
   111         32
   112         26
   113         31
   114         35
   115         69
   116         30
   117         22
   118         17
   119         26
   120         13
   121          7
   122          4
   123         11
   124          6
   125         16
   126         31
   127         36
   128         25
   129         34
   130         38
   131         34
   132        120
   133        204
   134         27
   135         13
   136          3
   137          7
   138          5
   139         13
   140         16
   141         25
   142         11
   143         18
   144         17
   145         17
   146          6
   147         10
   148          6
   149         31
   150         10
   151         30
   152         57
   153         25
   154         19
   155         20
   156          7
   157          6
   158         19
   159         35
   160        231
   161        205
   162         25
   163         15
   164         16
   165         30
   166         10
   167         14
   168          9
   169         12
   170          7
   171          5
   172          6
   173          7
   174          5
   175          4
   176          6
   177         13
   178         30
   179         35
   180         54
   181         16
   182          8
   183          9
   184          4
   185          4
   186          5
   187          5
   188          5
   189          8
   190         54
   191         20
   192          8
   193          6
   194          6
   195          7
   196          5
   197          6
   198          3
   199          4
   202          3
   203         15
   204         15
   205         28
   206         22
   207         26
   208         17
   209          7
   210          4
   211          7
   212          3
   213          4
   214         10
   215          3
   216          5
   217         16
   218         25
   219         71
   220         21
   221          6
   222          4
   223          4
   224          3
   225          2
   231          5
   232         12
   233         12
   234         12
   235         34
   236         30
   237         10
   245          3
   246         35
   247         63
   248         20
   249         23
   250          4
   259         36
   260         29
   261         29
   262         98
   263        456
   264        484
   265        141
   266         19
   287          3
   288         23
   289         10
   291          4
   306        310
   307         65
   308          8