##TITLE=Library Entry 55915
##JCAMP-DX=Revision 4.10 
##DATA TYPE=MASS SPECTRUM
##SAMPLE DESCRIPTION=Chemical Concepts
##NAMES=HP
##CAS NAME=2-Propenamide, N,N-bis(1-methylethyl)-
##MOLFORM=C9H17NO
##CAS REGISTRY NO=44975-46-4
##MP= -300
##BP= -300
##MW= 155
##$RETENTION INDEX=0
##$CONDENSED SPECTRUM=NO
##NPOINTS= 86
##XYDATA=(XY..XY) 1 
    25          1
    26         13
    27        225
    28         25
    29          9
    30         14
    31          2
    37          1
    38          2
    39         42
    40          8
    41        118
    42         85
    43        131
    44        477
    45         12
    46          0
    50          0
    51          1
    52          1
    53          5
    54         18
    55        598
    56         27
    57          4
    58        290
    59         10
    61          0
    62          0
    64          0
    65          0
    67          1
    68          5
    69          5
    70         24
    71          2
    72          6
    73          0
    78          0
    79          0
    80          1
    81          0
    82          1
    83          2
    84         20
    85          2
    86        999
    87         54
    88          0
    94          0
    95          0
    96          2
    97          1
    98        152
    99         16
   100         10
   101          0
   105          0
   106          0
   110          0
   111          0
   112        125
   113         12
   114          1
   115          0
   119          0
   121          0
   124          0
   125          0
   126          7
   127          0
   128          1
   129          0
   131          0
   134          0
   136          0
   138          1
   140        275
   141         25
   142          1
   143          2
   146          0
   154          4
   155        154
   156         20
   157          1