##TITLE=Library Entry 81149
##JCAMP-DX=Revision 4.10 
##DATA TYPE=MASS SPECTRUM
##SAMPLE DESCRIPTION=Japan AIST/NIMC Database- Spectrum MS-NW-4632
##NAMES=HP
##CAS NAME=Benzenemethanethiol, 4-methyl-
##MOLFORM=C8H10S
##CAS REGISTRY NO=4498-99-1
##MP= -300
##BP= -300
##MW= 138
##$RETENTION INDEX=0
##$CONDENSED SPECTRUM=NO
##NPOINTS= 84
##XYDATA=(XY..XY) 1 
    15          1
    26          2
    27         27
    28          6
    29          1
    32          2
    33          4
    34          4
    36          1
    37          3
    38          6
    39         40
    40          4
    41          6
    43          1
    44          1
    45         61
    46          2
    47          3
    49          2
    50         19
    51         41
    52         13
    53         14
    54          1
    55          1
    58          1
    59          3
    60          1
    61          3
    62          8
    63         22
    64          6
    65         30
    66          3
    67          6
    68         14
    69          4
    71          2
    73          1
    74          6
    75          5
    76          6
    77        110
    78         41
    79        107
    80          8
    81          1
    82          1
    85          1
    86          1
    87          1
    89         11
    90          5
    91         48
    92          7
    93         10
    94          1
    95          1
    97          3
    98          1
   101          2
   102          9
   103         78
   104         60
   105        999
   106         97
   107          8
   108          1
   109          1
   110          1
   119          2
   120          2
   121          6
   122          6
   123          3
   134          4
   135         14
   136          9
   137         17
   138        154
   139         16
   140          9
   141          1