##TITLE=Library Entry 48468
##JCAMP-DX=Revision 4.10 
##DATA TYPE=MASS SPECTRUM
##SAMPLE DESCRIPTION=NIST Mass Spectrometry Data Center, 1994
##NAMES=HP
##CAS NAME=2-Adamantanone oxime
##MOLFORM=C10H15NO
##CAS REGISTRY NO=4500-12-3
##MP= -300
##BP= -300
##MW= 165
##$RETENTION INDEX=0
##$CONDENSED SPECTRUM=NO
##NPOINTS= 78
##XYDATA=(XY..XY) 1 
    17         15
    27        378
    30         92
    38         58
    39        960
    40        149
    41        836
    42         99
    43         44
    44         78
    50         62
    51        257
    52        193
    53        408
    54        369
    55        236
    56        197
    57         40
    58          6
    62          7
    63         72
    64         52
    65        293
    66        191
    67        386
    68        220
    69        507
    70        239
    71         29
    72          6
    73         47
    76          8
    77        564
    78        231
    79        999
    80        718
    81        776
    82        129
    83         16
    84         24
    85         20
    87         21
    91        595
    92        266
    93        387
    94        185
    95         78
    96         33
   103         31
   104        104
   105        212
   106        336
   107        183
   108         84
   109         32
   110         59
   111          9
   115         32
   116         22
   117        109
   118         84
   119         98
   120        213
   121         83
   122         53
   129         51
   130         93
   131        102
   132        334
   133         71
   134         44
   146        211
   147        380
   148        258
   149        406
   150        100
   165        560
   166         62