##TITLE=Library Entry 27839
##JCAMP-DX=Revision 4.10 
##DATA TYPE=MASS SPECTRUM
##SAMPLE DESCRIPTION=A.A.Kutin, Moscow, Russia
##NAMES=HP
##CAS NAME=Propane, 1-ethylamino-2,2-dinitro-
##MOLFORM=C5H11N3O4
##CAS REGISTRY NO=45002-19-5
##MP= -300
##BP= -300
##MW= 177
##$RETENTION INDEX=0
##$CONDENSED SPECTRUM=NO
##NPOINTS= 83
##XYDATA=(XY..XY) 1 
    37          5
    38         26
    39        196
    40        100
    41        353
    42        463
    43        189
    44        176
    45         26
    46        122
    47          3
    48         25
    50          1
    51          4
    52         12
    53          7
    54         52
    55         48
    56        368
    57         92
    58        999
    59         45
    60         10
    61          0
    63          0
    64          0
    65          1
    66          1
    67         12
    68         63
    69         22
    70        378
    71         35
    72         20
    73          2
    74          7
    77          0
    79         92
    80        236
    81         93
    82        239
    83         31
    84        140
    85        167
    86         30
    87          9
    88         38
    89         52
    90          2
    91          0
    95          7
    96          1
    97         17
    98          3
    99          4
   100         11
   101          1
   103          1
   105          0
   108          0
   110          1
   111          0
   112          3
   113         11
   114          8
   115          7
   116        115
   117          6
   118          0
   127          0
   128          0
   129          0
   130        116
   131         18
   132          1
   133          0
   145          0
   162         71
   163          4
   164          0
   176          0
   177         16
   178          1