##TITLE=Library Entry 19059
##JCAMP-DX=Revision 4.10 
##DATA TYPE=MASS SPECTRUM
##SAMPLE DESCRIPTION=R.T.HOLMAN,UNIVERSITY OF MINNESOTA
##NAMES=HP
##CAS NAME=9-Octadecenoic acid (Z)-, 2-hydroxyethyl ester
##MOLFORM=C20H38O3
##CAS REGISTRY NO=4500-01-0
##MP= -300
##BP= -300
##MW= 326
##$RETENTION INDEX=2549
##$CONDENSED SPECTRUM=NO
##NPOINTS= 146
##XYDATA=(XY..XY) 1 
    26         10
    27        220
    28         60
    29        370
    30         10
    31         70
    39        160
    40         40
    41        880
    42        350
    43        760
    44        120
    45        340
    46         10
    51         10
    52         10
    53        100
    54        300
    55        999
    56        260
    57        380
    58         30
    59         20
    60         40
    61         60
    63         10
    65         20
    66         30
    67        420
    68        230
    69        570
    70        170
    71        130
    72         10
    73         60
    74         20
    77         30
    78         10
    79         90
    80         70
    81        340
    82        220
    83        400
    84        260
    85         70
    86         60
    87         40
    91         30
    92         10
    93         50
    94         50
    95        240
    96        260
    97        250
    98        360
    99        100
   100         20
   101         30
   104        140
   105         30
   106         10
   107         30
   108         40
   109        140
   110        140
   111        130
   112        110
   113         20
   114         10
   115         10
   117         80
   118         10
   119         20
   120         10
   121         40
   122         20
   123        130
   124         80
   125         50
   126         30
   127         10
   128         10
   129         10
   131         10
   133         20
   134         10
   135         30
   136         10
   137        110
   138         60
   139         30
   140         10
   141         10
   142         10
   147         20
   148         10
   149         20
   150         10
   151         70
   152         60
   153         20
   154         10
   155         10
   157         10
   161         10
   162         10
   163         10
   164         10
   165         40
   166         40
   167         10
   168         10
   169         20
   171         10
   175         10
   179         20
   180         60
   181         20
   182         10
   183         10
   193         20
   194         20
   207         30
   208         20
   209         10
   220         20
   221         50
   222         70
   223         20
   235         20
   236         30
   237         10
   246         10
   247         10
   249         10
   263         10
   264        470
   265        310
   266         50
   267         10
   283         10
   296         10
   308         10
   309         10
   326         50
   327         10