##TITLE=Library Entry 85019
##JCAMP-DX=Revision 4.10 
##DATA TYPE=MASS SPECTRUM
##SAMPLE DESCRIPTION=Chemical Concepts
##NAMES=HP
##CAS NAME=.alpha.-Campholenal
##MOLFORM=C10H16O
##CAS REGISTRY NO=4501-58-0
##MP= -300
##BP= -300
##MW= 152
##$RETENTION INDEX=1125
##$CONDENSED SPECTRUM=NO
##NPOINTS= 90
##XYDATA=(XY..XY) 1 
    26          2
    27         83
    29         46
    30          0
    31          1
    37          0
    38          2
    39         80
    40         11
    41        174
    42          8
    43         67
    44          3
    45          3
    50          4
    51         19
    52          9
    53         52
    54          7
    55         83
    56          4
    57         10
    58          0
    59          1
    60          0
    61          0
    62          1
    63          6
    64          1
    65         31
    66          7
    67        194
    68         19
    69         31
    70          4
    71          2
    72          0
    74          0
    75          0
    76          0
    77         70
    78         11
    79         68
    80         18
    81        102
    82         12
    83         12
    84          2
    85          0
    89          1
    90          0
    91        103
    92         14
    93        523
    94         51
    95        241
    96         21
    97          3
    98          0
   102          0
   103          3
   104          1
   105         12
   106          3
   107         42
   108        999
   109        154
   110         16
   111          1
   115          1
   116          0
   117          2
   118          0
   119         23
   120          2
   121          4
   122          1
   123          5
   124          1
   125          0
   134          0
   135          1
   137         19
   138          1
   139          0
   150          0
   151          0
   152         86
   153         10
   154          0