##TITLE=Library Entry 25633
##JCAMP-DX=Revision 4.10 
##DATA TYPE=MASS SPECTRUM
##SAMPLE DESCRIPTION=NIST Mass Spectrometry Data Center
##NAMES=HP
##CAS NAME=4-Methylnonanoic acid
##MOLFORM=C10H20O2
##CAS REGISTRY NO=45019-28-1
##MP= -300
##BP= -300
##MW= 172
##$RETENTION INDEX=0
##$CONDENSED SPECTRUM=NO
##NPOINTS= 103
##XYDATA=(XY..XY) 1 
    15          5
    16          1
    17          2
    18         11
    20          1
    26          9
    27        162
    29        263
    30         10
    31         17
    36          2
    37          1
    38          4
    39        144
    40         24
    41        490
    42        106
    43        477
    44         24
    45         96
    46          3
    47          2
    50          4
    51         11
    52          5
    53         52
    54         25
    55        535
    56        182
    57        999
    58         54
    59         97
    60        265
    61         27
    62          2
    63          2
    65          8
    66          3
    67         28
    68         16
    69        169
    70         41
    71        546
    72         33
    73        680
    74        145
    75          9
    76          1
    77          6
    78          1
    79          9
    80          2
    81         18
    82          9
    83        170
    84         19
    85          9
    86          1
    87         10
    88          1
    91          3
    92          1
    93          7
    94          2
    95         17
    96          5
    97         49
    98         14
    99          7
   100          8
   101        144
   102         10
   103          2
   105          2
   107          2
   108          1
   109          2
   110         23
   111         11
   112         15
   113        305
   114         30
   115        214
   116         15
   117          2
   121          4
   122          1
   125          4
   126          2
   129          3
   135          2
   136          4
   137          1
   139          7
   140          1
   143         40
   144          4
   153          3
   154          1
   155          4
   157          1
   172          2
   173          1