##TITLE=Library Entry 31369
##JCAMP-DX=Revision 4.10 
##DATA TYPE=MASS SPECTRUM
##SAMPLE DESCRIPTION=NIST Mass Spectrometry Data Center
##NAMES=HP
##CAS NAME=2,3,5,7-Tetrathiaoctane 3,3-dioxide
##MOLFORM=C4H10O2S4
##CAS REGISTRY NO=450365-65-8
##MP= -300
##BP= -300
##MW= 218
##$RETENTION INDEX=1784
##$CONDENSED SPECTRUM=NO
##NPOINTS= 58
##XYDATA=(XY..XY) 1 
    27         15
    32          3
    33          2
    34          1
    35         37
    37          2
    44          9
    45        214
    46         94
    47         60
    48         16
    49         13
    58          7
    59         15
    60          8
    61        999
    62         36
    63         49
    64         29
    65          4
    66          3
    73          1
    75          3
    76          8
    77         11
    78         36
    79         16
    80          7
    91         11
    92          9
    93        256
    94         27
    95         24
    96          4
   106         28
   107         34
   108         17
   109          5
   110          6
   111          5
   125          6
   126         10
   139        458
   140         28
   141         61
   142          4
   143          3
   153          6
   154        110
   155          8
   156         14
   157          3
   172          4
   174          1
   218         34
   219          3
   220          8
   222          1