##TITLE=Library Entry 18764
##JCAMP-DX=Revision 4.10 
##DATA TYPE=MASS SPECTRUM
##SAMPLE DESCRIPTION=P.A. Leclercq, Lab. Instrum. Anal., Tech. Univ. Eindhov
en, Netherlands
##NAMES=HP
##CAS NAME=1,4-Cyclohex-2-enedione
##MOLFORM=C6H6O2
##CAS REGISTRY NO=4505-38-8
##MP= -300
##BP= -300
##MW= 110
##$RETENTION INDEX=1032
##$CONDENSED SPECTRUM=NO
##NPOINTS= 41
##XYDATA=(XY..XY) 1 
    15         10
    16         24
    17          8
    18         26
    19          5
    25         49
    26        499
    27        263
    28        219
    29         45
    31          7
    36          9
    37         39
    38         38
    39         92
    40         31
    41         30
    42         82
    43          9
    44          5
    49         21
    50         53
    51         28
    52         33
    53        173
    54        999
    55        150
    56         46
    57          4
    60          6
    61         15
    62         13
    63         16
    68        226
    69         12
    80          5
    82        635
    83         29
   108         12
   110        522
   111         33