##TITLE=Library Entry 57253
##JCAMP-DX=Revision 4.10 
##DATA TYPE=MASS SPECTRUM
##SAMPLE DESCRIPTION=Chemical Concepts
##NAMES=HP
##CAS NAME=2-Butenoic acid, 4-hydroxy-, methyl ester
##MOLFORM=C5H8O3
##CAS REGISTRY NO=4508-99-0
##MP= -300
##BP= -300
##MW= 116
##$RETENTION INDEX=0
##$CONDENSED SPECTRUM=NO
##NPOINTS= 72
##XYDATA=(XY..XY) 1 
    24          0
    25          0
    26         85
    27        282
    28         25
    29        412
    30         29
    31        303
    33         56
    34          0
    35          1
    36          1
    37         17
    38         34
    39        119
    40         25
    41         35
    42         22
    43         22
    44         12
    45         24
    46          0
    47          1
    49          0
    50          1
    51          1
    52          2
    53         39
    54         35
    55        639
    56        131
    57        314
    58         13
    59        101
    60          4
    61        158
    62          3
    63          0
    65          0
    66          2
    67          3
    68         29
    69         10
    70          1
    71         16
    72          1
    73         22
    74          3
    75          0
    77          0
    78          0
    79          0
    81          0
    82          3
    83         64
    84        189
    85        419
    86         20
    87        999
    88         47
    89          5
    91          0
    98          5
    99          3
   100          1
   101         24
   102          1
   113          1
   114          1
   115          1
   116          1
   117          0