##TITLE=Library Entry 18877
##JCAMP-DX=Revision 4.10 
##DATA TYPE=MASS SPECTRUM
##SAMPLE DESCRIPTION=NIST Mass Spectrometry Data Center, 1994
##NAMES=HP
##CAS NAME=5-Bromopentanoyl chloride
##MOLFORM=C5H8BrClO
##CAS REGISTRY NO=4509-90-4
##MP= -300
##BP= -300
##MW= 198
##$RETENTION INDEX=0
##$CONDENSED SPECTRUM=NO
##NPOINTS= 76
##XYDATA=(XY..XY) 1 
    12          4
    13         12
    14         36
    15         48
    16          0
    18          0
    26        195
    27        565
    28        189
    29        366
    30          8
    31          2
    35         27
    36         23
    37         40
    38         73
    39        320
    40         64
    41        357
    42        238
    43         25
    45          1
    47          8
    49        119
    50         42
    51         74
    52         21
    53        103
    54        196
    55        999
    56         60
    57         10
    59          1
    60          6
    61         20
    62         46
    63        152
    64         15
    65         52
    66          2
    67          3
    68          1
    69          5
    70          5
    71          0
    72          1
    73          5
    75         23
    76         18
    77         23
    78         75
    79          9
    80         22
    83        375
    84         22
    85          1
    86          0
    87          1
    90        136
    91        439
    92         65
    93        135
    94          5
   100          2
   101          1
   105         13
   106          1
   107          4
   119        386
   120         37
   121        126
   122          7
   123          0
   125          1
   126          1
   128          1