##TITLE=Library Entry 89395
##JCAMP-DX=Revision 4.10 
##DATA TYPE=MASS SPECTRUM
##SAMPLE DESCRIPTION=Exported from NIST MS Search
##NAMES=HP
##CAS NAME=Benzene, 1-ethoxy-2-fluoro-
##MOLFORM=C8H9FO
##CAS REGISTRY NO=451-80-9
##MP= -300
##BP= -300
##MW= 140
##$RETENTION INDEX=0
##$CONDENSED SPECTRUM=NO
##NPOINTS= 92
##XYDATA=(XY..XY) 1 
    12          3
    13          3
    14          8
    15         10
    16          3
    17         19
    18         75
    20          6
    24          3
    25          8
    26         19
    27         85
    28         62
    29         95
    30          4
    31         75
    32         20
    33          9
    36          6
    37         34
    38         70
    39        103
    40         13
    41          8
    42          7
    43         12
    44          9
    45         18
    46          4
    47          3
    48          1
    49         10
    50         51
    51         64
    52          9
    53         34
    54          3
    55         20
    56         62
    57        175
    58         18
    59          6
    60          6
    61         23
    62         44
    63        193
    64        526
    65         60
    66         29
    67          3
    68         17
    69         20
    70         10
    71          3
    72          1
    73         20
    74         18
    75         51
    76         16
    77         56
    78          5
    79          4
    80          5
    81         32
    82         16
    83        142
    84         28
    85          3
    86          3
    88          2
    89          5
    90          3
    91         19
    92        198
    93         19
    94         97
    95         40
    96         13
    97         13
   111         18
   112        999
   113         68
   114          3
   122         23
   123          5
   124          1
   125        226
   126         23
   138          3
   139         10
   140        243
   141         23