##TITLE=Library Entry 98628
##JCAMP-DX=Revision 4.10 
##DATA TYPE=MASS SPECTRUM
##SAMPLE DESCRIPTION=A.A.Kutin, Moscow, Russia
##NAMES=HP
##CAS NAME=2-Propenoic acid, 3-(2-fluorophenyl)-
##MOLFORM=C9H7FO2
##CAS REGISTRY NO=451-69-4
##MP= -300
##BP= -300
##MW= 166
##$RETENTION INDEX=0
##$CONDENSED SPECTRUM=NO
##NPOINTS= 117
##XYDATA=(XY..XY) 1 
    33         11
    34          3
    36          6
    37         24
    38         42
    39         76
    40         58
    41         17
    42         12
    43         30
    44         49
    45        128
    46          5
    47          3
    48          2
    49         25
    50        180
    51        214
    52         26
    53         19
    54         13
    55         31
    56         17
    57         60
    59         21
    60        103
    61         65
    62         55
    63         92
    64         15
    65         13
    66          5
    68         57
    69         91
    70         65
    71         22
    73         42
    74        161
    75        421
    76         49
    77         29
    78          5
    79         10
    80          8
    81         42
    82          9
    83         70
    85         19
    86         13
    87         21
    88          6
    89         51
    90        101
    91         40
    92         24
    93         38
    94         90
    95         85
    96         57
    97         33
    98         26
    99         41
   101        742
   102         65
   103         31
   104          4
   105         14
   106          3
   107         17
   109        247
   110         26
   111          3
   112          9
   113          1
   114          0
   115          1
   116          5
   118        999
   119         99
   120        254
   121        382
   122         35
   123         31
   124          6
   125         28
   126          2
   127          0
   128          0
   129          1
   130          0
   131          0
   132          0
   133          1
   134          0
   135          2
   136          3
   137         20
   138         33
   139          3
   140          0
   141          0
   146        324
   147        211
   148         36
   149        255
   150         25
   151          3
   152          1
   154          0
   160          0
   161          0
   163          3
   165        237
   166        888
   167         82
   168          8
   169          0