##TITLE=Library Entry 78638
##JCAMP-DX=Revision 4.10 
##DATA TYPE=MASS SPECTRUM
##SAMPLE DESCRIPTION=NIST Mass Spectrometry Data Center, 1994
##NAMES=HP
##CAS NAME=Ethanone, 1,2-diphenyl-
##MOLFORM=C14H12O
##CAS REGISTRY NO=451-40-1
##MP= -300
##BP= -300
##MW= 196
##$RETENTION INDEX=1537
##$CONDENSED SPECTRUM=NO
##NPOINTS= 52
##XYDATA=(XY..XY) 1 
    26          1
    27          8
    28          4
    32          0
    37          1
    38          8
    39         45
    40          3
    41          9
    50         40
    51        127
    52         10
    53          2
    61          2
    62         10
    63         28
    64          9
    65         72
    66          4
    70          0
    74         11
    75         10
    77        409
    78         27
    82          1
    83          2
    86          2
    87          2
    89         24
    90         10
    91         73
    92          6
    98          1
   101          0
   102          1
   105        999
   106         73
   107          4
   113          0
   115          3
   128          1
   139          1
   151          1
   152          5
   153          0
   163          1
   164          2
   165         11
   166          2
   167          1
   196         29
   197          4