##TITLE=Library Entry 34093
##JCAMP-DX=Revision 4.10 
##DATA TYPE=MASS SPECTRUM
##SAMPLE DESCRIPTION=NIST Mass Spectrometry Data Center, 1998.
##NAMES=HP
##CAS NAME=2-Propenoic acid, 2-methyl-, 2,2,3,3-tetrafluoropropyl ester
##MOLFORM=C7H8F4O2
##CAS REGISTRY NO=45102-52-1
##MP= -300
##BP= -300
##MW= 200
##$RETENTION INDEX=0
##$CONDENSED SPECTRUM=NO
##NPOINTS= 105
##XYDATA=(XY..XY) 1 
    15          3
    25          1
    26          7
    27         11
    29         22
    30          4
    31         14
    32          3
    33         12
    36          1
    37         15
    38         43
    39        402
    40         94
    41        775
    42         42
    43         15
    44          7
    45         23
    46         11
    47          2
    49          1
    50          5
    51        273
    52          4
    53         18
    54          4
    55         30
    56          6
    57         12
    58          2
    59          4
    60          2
    61          1
    62          1
    63          5
    64         47
    65         15
    66          2
    67          5
    68         25
    69        999
    70         51
    71          9
    72          5
    73          4
    74          1
    75          4
    76          1
    77          7
    78          1
    80          1
    81          4
    82         18
    83          3
    84          1
    85          9
    86          2
    87          1
    89          1
    90          1
    91          2
    93          2
    95         22
    96          2
    97          1
    99         26
   100          4
   101         31
   102          1
   103          3
   104          1
   105          8
   106          1
   109          3
   112          1
   113          2
   115          8
   121          3
   123          1
   127          1
   129         15
   130          1
   131          1
   132          1
   135          1
   136          4
   137          1
   138          3
   145          1
   149          7
   150          1
   153          1
   155          5
   157          1
   159          1
   171          1
   172          1
   181          4
   185         13
   186          1
   199         31
   200        215
   201         17
   202          1