##TITLE=Library Entry 34080
##JCAMP-DX=Revision 4.10 
##DATA TYPE=MASS SPECTRUM
##SAMPLE DESCRIPTION=NIST Mass Spectrometry Data Center
##NAMES=HP
##CAS NAME=1H,1H-Pentafluoropropyl methacrylate
##MOLFORM=C7H7F5O2
##CAS REGISTRY NO=45115-53-5
##MP= -300
##BP= -300
##MW= 218
##$RETENTION INDEX=0
##$CONDENSED SPECTRUM=NO
##NPOINTS= 86
##XYDATA=(XY..XY) 1 
    12          1
    13          2
    14         10
    15         19
    16          2
    17          1
    18          3
    19          1
    20          1
    25          4
    26         20
    27         23
    28         48
    29         80
    30         12
    31         43
    32         16
    33         14
    37         26
    38         79
    39        537
    40        127
    41        822
    42         50
    43         20
    44         12
    45         38
    47          2
    49          2
    50         12
    51         90
    52          3
    53         18
    55         41
    56          9
    57          8
    58          1
    59          8
    60          1
    61          1
    64         59
    65          3
    66          1
    67          5
    69        999
    70         41
    71          7
    72          9
    73          3
    74          4
    75          2
    77          3
    81          3
    82          5
    83         15
    84          1
    85         11
    93          1
    95          2
    99         18
   100         17
   101          4
   103          2
   104          4
   105          2
   109          1
   113         10
   114          1
   119         23
   121          1
   127          3
   129          5
   133         12
   139          1
   145          1
   149          1
   150          1
   154          3
   156          2
   173          5
   189          1
   199          6
   203         14
   218        190
   219         14
   220          1