##TITLE=Library Entry 21923
##JCAMP-DX=Revision 4.10 
##DATA TYPE=MASS SPECTRUM
##SAMPLE DESCRIPTION=Japan AIST/NIMC Database- Spectrum MS-NW-3250
##NAMES=HP
##CAS NAME=1,4-Dioxane-2,5-dione, 3,6-dimethyl-, (3S-cis)-
##MOLFORM=C6H8O4
##CAS REGISTRY NO=4511-42-6
##MP= -300
##BP= -300
##MW= 144
##$RETENTION INDEX=0
##$CONDENSED SPECTRUM=NO
##NPOINTS= 44
##XYDATA=(XY..XY) 1 
    12          1
    13          4
    14         17
    15         66
    16          5
    17          1
    18          6
    19         13
    25          7
    26         82
    27        153
    28        667
    29        137
    30          2
    31          2
    32          1
    36          1
    37          1
    38          1
    39          3
    40          1
    41          6
    42         25
    43        301
    44         73
    45        456
    46          9
    47          1
    53          6
    54          2
    55         77
    56        999
    57         43
    58          4
    69          1
    71          1
    72          2
    73          3
    74          9
    89          3
    90          2
   100          3
   144          7
   145          1