##TITLE=Library Entry 22596
##JCAMP-DX=Revision 4.10 
##DATA TYPE=MASS SPECTRUM
##SAMPLE DESCRIPTION=Japan AIST/NIMC Database- Spectrum MS-IW-2279
##NAMES=HP
##CAS NAME=N,N'-Bis(cyanocarbonyl)tetramethylenediamine
##MOLFORM=C8H10N4O2
##CAS REGISTRY NO=45126-48-5
##MP= -300
##BP= -300
##MW= 194
##$RETENTION INDEX=0
##$CONDENSED SPECTRUM=NO
##NPOINTS= 94
##XYDATA=(XY..XY) 1 
    12          6
    13          4
    14          8
    15         48
    16          2
    17         10
    18          1
    25          1
    26        127
    27        651
    28        444
    29         92
    30        163
    31          5
    37          7
    38         16
    39        132
    40         60
    41        440
    42        303
    43        806
    44         54
    45          5
    46          9
    50          3
    51         11
    52         18
    53         46
    54        285
    55        262
    56        999
    57         74
    58        167
    59         59
    60          2
    63          1
    64          2
    65          1
    66          7
    67         23
    68        113
    69        645
    70        128
    71         39
    72          7
    73          1
    76          1
    78          9
    79          2
    80          3
    81         16
    82         88
    83        810
    84        367
    85         71
    86         15
    87         37
    88         14
    89          1
    93          2
    94          4
    95         96
    96        113
    97        183
    98         53
    99          9
   105          2
   106          1
   107          1
   109         11
   110          7
   111         75
   112         35
   113         27
   114         34
   115          3
   121          1
   122         19
   123         37
   124        178
   125         16
   126          1
   127          1
   128          1
   129          1
   138          5
   139        126
   140         18
   141         12
   142          1
   149          2
   167         57
   168          8
   169          1