##TITLE=Library Entry 58091
##JCAMP-DX=Revision 4.10 
##DATA TYPE=MASS SPECTRUM
##SAMPLE DESCRIPTION=I.HIRAO KYUSHU INST. OF TECHNOLOGY, TOBATA, JAPAN
##NAMES=HP
##CAS NAME=Hexanedioic acid, 2-methyl-5-methylene-, dimethyl ester
##MOLFORM=C10H16O4
##CAS REGISTRY NO=4513-62-6
##MP= -300
##BP= -300
##MW= 200
##$RETENTION INDEX=0
##$CONDENSED SPECTRUM=NO
##NPOINTS= 81
##XYDATA=(XY..XY) 1 
    15        576
    16          8
    26         33
    27        271
    28        114
    29        178
    30         16
    31         52
    33         12
    37          8
    38         22
    39        386
    40        261
    41        573
    42        126
    43         77
    44         11
    45        125
    50         16
    51         44
    52         28
    53        325
    54         75
    55        239
    56        332
    57        369
    58         27
    59        524
    60         23
    61          8
    63          8
    65         42
    66         29
    67         89
    68         71
    69        259
    70         17
    71         42
    72         13
    73         39
    75          8
    77         53
    78         11
    79        185
    80        121
    82         83
    83         28
    84         45
    85         80
    87         67
    88        999
    89         44
    93         43
    95         22
    97         30
    98         34
    99         32
   100         35
   101        118
   102          9
   107         14
   108        131
   109        447
   110         43
   111         28
   112         29
   113        260
   114         18
   125        376
   126        630
   127         43
   136         28
   137         14
   139         17
   140        553
   141        339
   142         33
   168        189
   169        190
   170         20
   200         10