##TITLE=Library Entry 76139
##JCAMP-DX=Revision 4.10 
##DATA TYPE=MASS SPECTRUM
##SAMPLE DESCRIPTION=CARL DJERASSI DEPT OF CHEM STANFORD UNIV STANFORD CALIF
 94305
##NAMES=HP
##CAS NAME=4-Germaspiro[3.4]octane
##MOLFORM=C7H14Ge
##CAS REGISTRY NO=4514-07-2
##MP= -300
##BP= -300
##MW= 172
##$RETENTION INDEX=0
##$CONDENSED SPECTRUM=NO
##NPOINTS= 79
##XYDATA=(XY..XY) 1 
    40         39
    41        287
    42         79
    43        108
    44          9
    45          9
    51         19
    53         39
    54          9
    55        108
    56         29
    57          9
    67         29
    69         89
    70        346
    71        138
    72        465
    73        326
    74        693
    75        267
    76        128
    77         59
    78          9
    83         29
    84        277
    85        198
    86        376
    87        376
    88        594
    89        346
    90        118
    91         79
    92         19
    93         19
    95         29
    97        178
    98        584
    99        346
   100        821
   101        613
   102        999
   103        227
   104        198
   105         39
   108          9
   109         29
   110         19
   111        168
   112        544
   113        257
   114        722
   115        435
   116        891
   117         69
   118        188
   125         29
   126        425
   127         89
   128        613
   129        287
   130        782
   131         89
   132        148
   133          9
   140        554
   141         19
   142        703
   143        227
   144        980
   145         39
   146        207
   147          9
   168        227
   169          9
   170        297
   171         99
   172        425
   173         19
   174         69