##TITLE=Library Entry 19837
##JCAMP-DX=Revision 4.10 
##DATA TYPE=MASS SPECTRUM
##SAMPLE DESCRIPTION=Exported from NIST MS Search
##NAMES=HP
##CAS NAME=Cyclopentane, 1,1,3-trimethyl-
##MOLFORM=C8H16
##CAS REGISTRY NO=4516-69-2
##MP= -300
##BP= -300
##MW= 112
##$RETENTION INDEX=725
##$CONDENSED SPECTRUM=NO
##NPOINTS= 72
##XYDATA=(XY..XY) 1 
    12          1
    13          1
    14          3
    15         74
    16          3
    26         15
    27        325
    28         90
    29        291
    30          7
    31          1
    32          1
    33          1
    37          3
    38         10
    39        308
    40         64
    41        782
    42        142
    43        128
    44          4
    45          2
    46          4
    47          1
    48          1
    49          1
    50          6
    51         25
    52         13
    53        102
    54         33
    55        999
    56        907
    57        635
    58         26
    59          1
    62          1
    63          4
    64          1
    65         14
    66          9
    67         42
    68         95
    69        620
    70        224
    71         15
    72          1
    74          1
    76          1
    77         15
    78          3
    79         15
    80          3
    81         24
    82         12
    83        604
    84         77
    85          3
    89          1
    91          4
    92          1
    93          2
    94          1
    95          6
    96         12
    97        535
    98         39
    99          1
   111          3
   112         60
   113          5
   114          1