##TITLE=Library Entry 48124
##JCAMP-DX=Revision 4.10 
##DATA TYPE=MASS SPECTRUM
##SAMPLE DESCRIPTION=Chemical Concepts
##NAMES=HP
##CAS NAME=Disilane, 1,1,2,2-tetrachloro-1,2-dimethyl-
##MOLFORM=C2H6Cl4Si2
##CAS REGISTRY NO=4518-98-3
##MP= -300
##BP= -300
##MW= 226
##$RETENTION INDEX=0
##$CONDENSED SPECTRUM=NO
##NPOINTS= 157
##XYDATA=(XY..XY) 1 
    27          5
    28         16
    29          9
    30          1
    31          0
    33          0
    35         10
    36         26
    37          3
    38          7
    39          0
    40         10
    41         23
    42         50
    43        127
    44         13
    45          5
    47          8
    48          1
    49          2
    50          1
    51          1
    52          0
    53          7
    54          1
    55          6
    56          1
    57          4
    58         10
    59          1
    60          0
    61          1
    62          4
    63        765
    64         44
    65        284
    66         15
    67         13
    68          4
    69          6
    70          1
    71          0
    72          0
    73          4
    74          0
    75          3
    76         11
    77         35
    78        999
    79         79
    80        352
    81         24
    82         11
    83          0
    85          3
    86          0
    89          0
    90          1
    91          5
    92         23
    93        165
    94         20
    95         59
    96          4
    97          4
    98         39
    99         11
   100         26
   101          6
   102          5
   103          5
   104          2
   105          2
   106          1
   107          0
   109          0
   110          0
   111          3
   112         23
   113        700
   114         59
   115        477
   116         30
   117         82
   118          5
   119          3
   122          0
   125          1
   126          3
   127          1
   128          2
   129          0
   130          0
   133         16
   134          0
   135         16
   136          0
   137          6
   138          1
   139          7
   140          1
   141          5
   142          1
   143          1
   148          1
   149          0
   150          0
   152          0
   155          0
   156          1
   157          0
   158          1
   159          0
   161          1
   163          1
   165          0
   170          0
   171          0
   173          1
   174          1
   175          1
   176          2
   177          1
   178          1
   179          0
   180          0
   187          0
   189          1
   190          1
   191         13
   192          3
   193         13
   194          2
   195          4
   196          0
   197          1
   206          0
   207          0
   208          0
   209          1
   210          0
   211         17
   212          2
   213         25
   214          2
   215         12
   216          1
   217          3
   226         35
   227          5
   228         47
   229          6
   230         25
   231          3
   232          6
   233          0
   234          0