##TITLE=Library Entry 80754
##JCAMP-DX=Revision 4.10 
##DATA TYPE=MASS SPECTRUM
##SAMPLE DESCRIPTION=PYTCAS, 18(4)617(1979); F. X. WOOLARD ET AL.
##NAMES=HP
##CAS NAME=2-Propenoic acid, 2-bromo-, methyl ester
##MOLFORM=C4H5BrO2
##CAS REGISTRY NO=4519-46-4
##MP= -300
##BP= -300
##MW= 164
##$RETENTION INDEX=0
##$CONDENSED SPECTRUM=NO
##NPOINTS= 10
##XYDATA=(XY..XY) 1 
    59        470
    85        800
   105        999
   107        940
   119         20
   121         20
   133        880
   135        920
   164        590
   166        580