##TITLE=Library Entry 86455
##JCAMP-DX=Revision 4.10 
##DATA TYPE=MASS SPECTRUM
##SAMPLE DESCRIPTION=NIST Mass Spectrometry Data Center
##NAMES=HP
##CAS NAME=Benzene, 4-chloro-2-fluoro-1-methyl-
##MOLFORM=C7H6ClF
##CAS REGISTRY NO=452-75-5
##MP= -300
##BP= -300
##MW= 144
##$RETENTION INDEX=0
##$CONDENSED SPECTRUM=NO
##NPOINTS= 81
##XYDATA=(XY..XY) 1 
    26          3
    27          5
    31         13
    33          3
    35          1
    36          1
    37         11
    38         13
    39         29
    43         11
    44         33
    47          1
    48          1
    49         10
    50         39
    51         28
    52          3
    54         26
    56          9
    57         70
    58          3
    59          9
    60          6
    61         27
    62         45
    63         61
    64          5
    65          1
    67          7
    68         11
    69         10
    70          4
    72         13
    73         22
    74         22
    75         19
    76          3
    77          2
    79          2
    80         10
    81         57
    82         12
    83        121
    84         12
    85         14
    86         15
    87         13
    88          4
    89         31
    90          4
    91         12
    92          4
    93         14
    94          6
    95          3
    96          1
    97          5
    99          4
   103          1
   104          3
   105         10
   106          4
   107        156
   108         52
   109        999
   110         87
   111          3
   115          2
   117         34
   118          2
   119         11
   123          3
   125          4
   127          1
   141          2
   142          5
   143        208
   144        387
   145         95
   146        122
   147          8