##TITLE=Library Entry 86453
##JCAMP-DX=Revision 4.10 
##DATA TYPE=MASS SPECTRUM
##SAMPLE DESCRIPTION=NIST Mass Spectrometry Data Center
##NAMES=HP
##CAS NAME=2-Chloro-4-fluorotoluene
##MOLFORM=C7H6ClF
##CAS REGISTRY NO=452-73-3
##MP= -300
##BP= -300
##MW= 144
##$RETENTION INDEX=0
##$CONDENSED SPECTRUM=NO
##NPOINTS= 81
##XYDATA=(XY..XY) 1 
    15          1
    26          4
    27          6
    31         19
    33          3
    35          2
    36          2
    37         13
    38         14
    39         32
    43         14
    44         37
    47          1
    48          1
    49         12
    50         44
    51         32
    52          4
    54         25
    56         13
    57         89
    58          4
    59          9
    60          6
    61         33
    62         52
    63         66
    64          6
    65          1
    67          6
    68          8
    69          9
    70          4
    72         12
    73         19
    74         22
    75         19
    76          3
    77          2
    79          2
    80         13
    81         72
    82         16
    83        130
    84         13
    85         16
    86         17
    87         14
    88          6
    89         27
    90          4
    91         13
    92          4
    93         14
    94          6
    95          3
    96          2
    97          5
    99          3
   103          1
   104          4
   105         12
   106          5
   107        242
   108        134
   109        999
   110         84
   111          3
   115          3
   117         33
   118          2
   119         10
   123          3
   125          3
   141          2
   142          3
   143        209
   144        394
   145         91
   146        130
   147          9