##TITLE=Library Entry 85961
##JCAMP-DX=Revision 4.10 
##DATA TYPE=MASS SPECTRUM
##SAMPLE DESCRIPTION=NIST Mass Spectrometry Data Center, 1994
##NAMES=HP
##CAS NAME=2-Bromo-5-fluorotoluene
##MOLFORM=C7H6BrF
##CAS REGISTRY NO=452-63-1
##MP= -300
##BP= -300
##MW= 188
##$RETENTION INDEX=0
##$CONDENSED SPECTRUM=NO
##NPOINTS= 79
##XYDATA=(XY..XY) 1 
    14          3
    15         11
    25          4
    26         27
    27         37
    31         74
    33         13
    36          4
    37         36
    38         47
    39        101
    40          5
    43         21
    44         73
    48          3
    49         28
    50        109
    51         63
    52         10
    53          8
    54         13
    55          5
    56         47
    57        166
    58          8
    59         24
    60          9
    61         65
    62         86
    63        129
    64         15
    65          4
    68         29
    69         15
    70         11
    73         15
    74         46
    75         29
    76          9
    77          2
    78          2
    79         35
    80         36
    81        155
    82         47
    83        308
    84         40
    85         43
    86         28
    87         30
    88         10
    89         50
    90          7
    92          7
    93         14
    94         24
    95          9
   104          6
   105         21
   107        179
   108        143
   109        999
   110         76
   111          4
   117          3
   118          1
   119          3
   135          4
   136          1
   137          4
   141          4
   143          3
   161          6
   163          4
   187         40
   188        228
   189         57
   190        220
   191         16