##TITLE=Library Entry 86452
##JCAMP-DX=Revision 4.10 
##DATA TYPE=MASS SPECTRUM
##SAMPLE DESCRIPTION=NIST Mass Spectrometry Data Center
##NAMES=HP
##CAS NAME=5-Chloro-2-fluorotoluene
##MOLFORM=C7H6ClF
##CAS REGISTRY NO=452-66-4
##MP= -300
##BP= -300
##MW= 144
##$RETENTION INDEX=0
##$CONDENSED SPECTRUM=NO
##NPOINTS= 81
##XYDATA=(XY..XY) 1 
    26          3
    27          5
    31         14
    33          3
    35          1
    36          1
    37         12
    38         15
    39         32
    43         13
    44         38
    47          2
    48          1
    49         11
    50         42
    51         32
    52          3
    54         35
    56         10
    57         78
    58          4
    59         10
    60          7
    61         29
    62         47
    63         66
    64          6
    65          1
    67          6
    68         10
    69         10
    70          4
    72         12
    73         23
    74         23
    75         20
    76          3
    77          2
    79          2
    80         10
    81         57
    82         12
    83        135
    84         14
    85         15
    86         16
    87         13
    88          4
    89         34
    90          3
    91         10
    92          3
    93         13
    94          6
    95          3
    96          1
    97          5
    99          4
   103          1
   104          3
   105         10
   106          4
   107        150
   108         47
   109        999
   110         83
   111          3
   115          2
   117         31
   118          1
   119         10
   123          3
   125          4
   127          1
   141          1
   142          3
   143        148
   144        447
   145         81
   146        143
   147         10