##TITLE=Library Entry 109490
##JCAMP-DX=Revision 4.10 
##DATA TYPE=MASS SPECTRUM
##SAMPLE DESCRIPTION=Japan AIST/NIMC Database- Spectrum MS-NW-9728
##NAMES=HP
##CAS NAME=2-Fluoro-5-methylaniline
##MOLFORM=C7H8FN
##CAS REGISTRY NO=452-84-6
##MP= -300
##BP= -300
##MW= 125
##$RETENTION INDEX=0
##$CONDENSED SPECTRUM=NO
##NPOINTS= 76
##XYDATA=(XY..XY) 1 
    27          4
    28         14
    29          1
    30          4
    31          3
    32          1
    33          1
    37          2
    38          5
    39         13
    40          2
    41          5
    42          5
    45          1
    46          1
    48          1
    49          5
    50          9
    51         30
    52         14
    53          6
    54          3
    56          3
    57         16
    58          2
    59          2
    60          1
    61          8
    62         32
    63         11
    64          3
    65          5
    66          3
    68          2
    69          4
    70         10
    71          6
    72          4
    73          1
    74          4
    75         10
    76          7
    77         69
    78         33
    79          8
    80          3
    81          7
    82          4
    83         13
    84          5
    85          3
    86          1
    89          2
    90          1
    93          1
    94          2
    95         28
    96         24
    97         87
    98         19
    99          2
   102          7
   103          1
   104         42
   105          8
   106         32
   107         23
   108         10
   109         35
   110          3
   122         16
   123          6
   124        977
   125        999
   126         78
   127          3