##TITLE=Library Entry 69185
##JCAMP-DX=Revision 4.10 
##DATA TYPE=MASS SPECTRUM
##SAMPLE DESCRIPTION=Dmitri Zagorevskii, Scientific Instruments & Applicatio
ns
##NAMES=HP
##CAS NAME=2H-3,9a-Ethanocyclopent[b]oxocin-2-one, octahydro-5,5,7,11-tetram
ethyl-, (3S,6as,7R,9as,11R)-
##MOLFORM=C16H26O2
##CAS REGISTRY NO=452049-69-3
##MP= -300
##BP= -300
##MW= 250
##$RETENTION INDEX=0
##$CONDENSED SPECTRUM=NO
##NPOINTS= 113
##XYDATA=(XY..XY) 1 
    51         13
    52         11
    53        149
    54         48
    55        789
    56         94
    57        112
    58         12
    59         33
    65         39
    66         18
    67        242
    68         81
    69        700
    70         75
    71         43
    73         10
    77         88
    78         19
    79        157
    80         48
    81        427
    82         99
    83        137
    84         27
    85         26
    87          6
    91         89
    92         21
    93        248
    94        125
    95        692
    96        999
    97        343
    98         56
    99         23
   105         47
   106         20
   107        231
   108        313
   109        286
   110        183
   111        153
   112         42
   113         14
   114         56
   115         10
   117          6
   119         33
   120         13
   121        198
   122         64
   123        196
   124         73
   125         69
   126         15
   133         35
   134         21
   135        286
   136         92
   137        131
   138         82
   139         97
   140         27
   141         40
   148         18
   149        318
   150        125
   151        155
   152         98
   153        193
   154         43
   155          8
   159         11
   161         32
   162         22
   163        248
   164        291
   165        103
   166         41
   167         14
   175         18
   176         13
   177         70
   178         15
   179         73
   180        113
   181         97
   182         14
   189         48
   190         20
   191        133
   192         38
   193        192
   194         90
   195         32
   205          8
   206         60
   207         50
   208         51
   209          7
   217         23
   218          4
   221        185
   222         72
   223         10
   232         16
   233          5
   235        113
   236         19
   250        134
   251         33
   252          5