##TITLE=Library Entry 98139
##JCAMP-DX=Revision 4.10 
##DATA TYPE=MASS SPECTRUM
##SAMPLE DESCRIPTION=NIST Mass Spectrometry Data Center, 1994
##NAMES=HP
##CAS NAME=4-(para-Tolyl)-butyric acid
##MOLFORM=C11H14O2
##CAS REGISTRY NO=4521-22-6
##MP= -300
##BP= -300
##MW= 178
##$RETENTION INDEX=0
##$CONDENSED SPECTRUM=NO
##NPOINTS= 58
##XYDATA=(XY..XY) 1 
    26          2
    27         90
    38         18
    39        123
    40          9
    41         40
    42         24
    43          9
    44          9
    45        141
    46          8
    50         52
    51        128
    52         40
    53         45
    55         29
    57          5
    60         20
    62         19
    63         71
    64         26
    65         89
    73         11
    75         19
    76         23
    77        300
    78        111
    79        159
    80         12
    87          9
    89         47
    90         10
    91        164
    92         30
   102         29
   103        133
   104         79
   105        796
   106         76
   115         94
   116         41
   117        288
   118        999
   119        158
   120         64
   121          8
   127          8
   128         15
   129         11
   130          8
   131         37
   132          8
   133         13
   148         18
   160         11
   161         14
   178        270
   179         32