##TITLE=Library Entry 19147
##JCAMP-DX=Revision 4.10 
##DATA TYPE=MASS SPECTRUM
##SAMPLE DESCRIPTION=NIST Mass Spectrometry Data Center, 1994
##NAMES=HP
##CAS NAME=1,16-Dibromohexadecane
##MOLFORM=C16H32Br2
##CAS REGISTRY NO=45223-18-5
##MP= -300
##BP= -300
##MW= 382
##$RETENTION INDEX=0
##$CONDENSED SPECTRUM=NO
##NPOINTS= 101
##XYDATA=(XY..XY) 1 
    27        139
    28         54
    29        265
    30          4
    32          2
    39        136
    41        849
    42        173
    43        619
    44         27
    51          6
    52          5
    53         66
    54          5
    55        999
    56        152
    57        829
    58         39
    65          9
    67         99
    69        684
    70         89
    71        594
    72         29
    77          6
    79         17
    80          9
    81         45
    82         39
    83        367
    84         40
    85        376
    86         28
    91          4
    93          8
    95         26
    97        237
    98         28
    99        165
   100         13
   107         54
   109         56
   111         97
   112         12
   113        109
   114         11
   121         18
   122          3
   123         21
   124          3
   125         32
   126          3
   127         92
   128          9
   135        247
   137        238
   138         11
   139         13
   140          3
   141         61
   142          7
   148         18
   149         65
   150         23
   151         57
   153          7
   155         36
   162          7
   163         49
   164          9
   165         44
   166          4
   169          4
   177         52
   178          7
   179         51
   191         57
   192          7
   193         51
   194          4
   205         54
   206          5
   207         54
   208          5
   219         56
   221         54
   222          5
   233         50
   234          6
   235         48
   236          6
   247         33
   248          5
   249         37
   250          5
   261         13
   263         15
   303         39
   304          9
   305         38
   306          7