##TITLE=Library Entry 34075
##JCAMP-DX=Revision 4.10 
##DATA TYPE=MASS SPECTRUM
##SAMPLE DESCRIPTION=NIST Mass Spectrometry Data Center, 1994
##NAMES=HP
##CAS NAME=Cyclopentanecarbonyl chloride
##MOLFORM=C6H9ClO
##CAS REGISTRY NO=4524-93-0
##MP= -300
##BP= -300
##MW= 132
##$RETENTION INDEX=0
##$CONDENSED SPECTRUM=NO
##NPOINTS= 72
##XYDATA=(XY..XY) 1 
    12          1
    13          3
    14          7
    15         40
    16          0
    17          0
    26         78
    27        252
    28         15
    29         33
    31          9
    35         12
    36         10
    37         36
    38         93
    39        421
    40        129
    41        719
    42         90
    43         13
    47          3
    48          3
    49         11
    50         24
    51         31
    52         15
    53         61
    54         36
    55        162
    56          7
    57          1
    60          2
    61          9
    62         15
    63         48
    64          1
    65         43
    66          1
    67        128
    68          1
    69        999
    70         53
    71          1
    72          0
    73          2
    74          1
    75          4
    76          4
    77          4
    78          2
    79          9
    80          0
    81          2
    83          1
    89          2
    91        122
    93         37
    94          1
    95          5
    96          0
    97        237
    98         14
    99          0
   103          1
   104          6
   106          2
   114          1
   117          1
   132         37
   133          4
   134         13
   135          1