##TITLE=Library Entry 59417
##JCAMP-DX=Revision 4.10 
##DATA TYPE=MASS SPECTRUM
##SAMPLE DESCRIPTION=Japan AIST/NIMC Database- Spectrum MS-NW-9014
##NAMES=HP
##CAS NAME=Benzyltrimethylammonium iodide
##MOLFORM=C10H16IN
##CAS REGISTRY NO=4525-46-6
##MP= -300
##BP= -300
##MW= 277
##$RETENTION INDEX=0
##$CONDENSED SPECTRUM=NO
##NPOINTS= 60
##XYDATA=(XY..XY) 1 
    14          2
    15         41
    26          3
    27          9
    28         13
    29         12
    30         76
    31          1
    32          1
    37          3
    38         10
    39         52
    40          9
    41         19
    42         60
    43         19
    44         20
    45          2
    49          1
    50         15
    51         27
    52         12
    53          2
    56          6
    57         19
    58        367
    59        116
    60          4
    61          4
    62         13
    63         39
    64         12
    65        131
    66          7
    67          1
    74          2
    75          2
    76          1
    77          2
    85          1
    86          2
    87          2
    89         36
    90         19
    91        999
    92         82
    93          3
   118          2
   127         19
   128          7
   132          1
   134         25
   135         40
   136          4
   139          1
   140          1
   141          4
   142         31
   218         23
   219          2