##TITLE=Library Entry 71771
##JCAMP-DX=Revision 4.10 
##DATA TYPE=MASS SPECTRUM
##SAMPLE DESCRIPTION=J.VOTH UNIV. OF CALIFORNIA, DAVIS, CALIFORNIA, 95616, U
SA
##NAMES=HP
##CAS NAME=1,3-Dioxolane, 2-(1-propenyl)-
##MOLFORM=C6H10O2
##CAS REGISTRY NO=4528-26-1
##MP= -300
##BP= -300
##MW= 114
##$RETENTION INDEX=0
##$CONDENSED SPECTRUM=NO
##NPOINTS= 64
##XYDATA=(XY..XY) 1 
    12         10
    13         22
    14         84
    15        265
    16         13
    17          7
    18         23
    19         38
    24          2
    25         12
    26        125
    27        431
    28        252
    29        366
    30         46
    31         47
    32          1
    33          4
    36          4
    37         41
    38         89
    39        616
    40         64
    41        445
    42        223
    43        140
    44         26
    45        411
    46          9
    47          2
    49          7
    50         41
    51         53
    52         30
    53        133
    54         37
    55        368
    56         40
    57         19
    58          6
    66          2
    67          5
    68         14
    69        604
    70         55
    71         18
    72          2
    73        611
    74         21
    75          3
    78          7
    83          8
    84         20
    85          4
    86         13
    87          5
    97          2
    99        999
   100         56
   101          5
   112          3
   113        139
   114         23
   115          2