##TITLE=Library Entry 17860
##JCAMP-DX=Revision 4.10 
##DATA TYPE=MASS SPECTRUM
##SAMPLE DESCRIPTION=MINISTRY OF TECH., E.R.D.E., WALTHAM ABBEY, UK
##NAMES=HP
##CAS NAME=Ethanol, 2-nitro-, nitrate (ester)
##MOLFORM=C2H4N2O5
##CAS REGISTRY NO=4528-34-1
##MP= -300
##BP= -300
##MW= 136
##$RETENTION INDEX=0
##$CONDENSED SPECTRUM=NO
##NPOINTS= 19
##XYDATA=(XY..XY) 1 
    15         79
    27         96
    28         68
    29        169
    30        292
    31         11
    42         38
    43         92
    44         83
    45         21
    46        999
    58          6
    60          2
    62         10
    73          6
    76         18
    90          4
   106         25
   135          1