##TITLE=Library Entry 51903
##JCAMP-DX=Revision 4.10 
##DATA TYPE=MASS SPECTRUM
##SAMPLE DESCRIPTION=NIST Mass Spectrometry Data Center, 1994
##NAMES=HP
##CAS NAME=4-Fluoro-3-nitrobenzoic acid
##MOLFORM=C7H4FNO4
##CAS REGISTRY NO=453-71-4
##MP= -300
##BP= -300
##MW= 185
##$RETENTION INDEX=0
##$CONDENSED SPECTRUM=NO
##NPOINTS= 97
##XYDATA=(XY..XY) 1 
    12          7
    16         22
    17         15
    18         19
    20          8
    25          6
    26         14
    27         11
    28         26
    29          6
    30        956
    31         89
    32          6
    33         13
    36          7
    37         70
    38         59
    39         41
    40          4
    43          0
    44         15
    45        153
    46         76
    47          2
    49         29
    50        249
    51        164
    52         26
    53         43
    54          4
    55         15
    56         14
    57        421
    58         13
    60         10
    61         82
    62         82
    63        137
    64         21
    65          9
    66          9
    67         14
    68        201
    69         87
    70         12
    71         59
    72         11
    73         60
    74        175
    75        213
    76         33
    77         20
    78          8
    79         46
    80         21
    81         87
    82        100
    83        999
    84         59
    87          6
    88          0
    89          6
    90         23
    91         21
    92         64
    93        199
    94        442
    95         47
    96          7
    97          9
    98          0
    99        380
   100         16
   101         13
   103          7
   105          6
   107         27
   108         15
   109         29
   110        127
   111         31
   120          6
   121         38
   122        198
   123         21
   127         47
   137         10
   138         73
   139         60
   140          7
   155        459
   156         44
   168         96
   169         62
   185        854
   186         69
   187          2