##TITLE=Library Entry 31123
##JCAMP-DX=Revision 4.10 
##DATA TYPE=MASS SPECTRUM
##SAMPLE DESCRIPTION=J.T. CLERC, ORGANIC CHEM. LAB., ETH, ZURICH, SWITZ.
##NAMES=HP
##CAS NAME=2-Propanone, 1,3-difluoro-
##MOLFORM=C3H4F2O
##CAS REGISTRY NO=453-14-5
##MP= -300
##BP= -300
##MW= 94
##$RETENTION INDEX=0
##$CONDENSED SPECTRUM=NO
##NPOINTS= 30
##XYDATA=(XY..XY) 1 
    26         38
    27        105
    28         29
    29         50
    31         76
    32         80
    33        957
    34          4
    37          8
    38          8
    39          8
    41         16
    42        156
    43         16
    44         16
    45        127
    46         59
    47         29
    49         16
    51         16
    57          8
    60         16
    61        999
    62         25
    64         16
    65         38
    73         12
    75         29
    94        644
    95         21