##TITLE=Library Entry 31514
##JCAMP-DX=Revision 4.10 
##DATA TYPE=MASS SPECTRUM
##SAMPLE DESCRIPTION=Chuck Anderson, Aldrich Chemical Co.
##NAMES=HP
##CAS NAME=1,3-Difluoro-2-propanol
##MOLFORM=C3H6F2O
##CAS REGISTRY NO=453-13-4
##MP= -300
##BP= -300
##MW= 96
##$RETENTION INDEX=0
##$CONDENSED SPECTRUM=NO
##NPOINTS= 61
##XYDATA=(XY..XY) 1 
    13          2
    14         15
    15        281
    16          3
    17          0
    18          0
    19          3
    20          0
    24          0
    25          2
    26         14
    27         66
    28          9
    29         98
    30          5
    31         72
    32         13
    33        121
    34          3
    35          0
    36          0
    37          4
    38          5
    39          9
    40          0
    41          2
    42         37
    43        328
    44         17
    45         24
    46         10
    47         14
    48          0
    49         25
    50          0
    51         21
    53          0
    55          2
    56          2
    57         10
    58          1
    59         15
    60          5
    61          8
    62         23
    63        999
    64         26
    65          3
    67          0
    73          3
    74          0
    75          7
    76          1
    77         39
    78          8
    79          1
    93          0
    94          0
    95          1
    96          0
    97          2