##TITLE=Library Entry 24962
##JCAMP-DX=Revision 4.10 
##DATA TYPE=MASS SPECTRUM
##SAMPLE DESCRIPTION=Japan AIST/NIMC Database- Spectrum MS-NW-8554
##NAMES=HP
##CAS NAME=3-Furanol, tetrahydro-
##MOLFORM=C4H8O2
##CAS REGISTRY NO=453-20-3
##MP= -300
##BP= -300
##MW= 88
##$RETENTION INDEX=1619
##$CONDENSED SPECTRUM=NO
##NPOINTS= 51
##XYDATA=(XY..XY) 1 
    13          2
    14         11
    15         44
    16          5
    17          3
    18         10
    25          2
    26         25
    27        108
    28        160
    29        283
    30        187
    31        405
    32         80
    33         11
    37          7
    38         13
    39        104
    40         84
    41        109
    42         90
    43        195
    44        153
    45         50
    46          1
    47          4
    50          1
    51          1
    53          3
    54          1
    55         19
    56         21
    57        999
    58        821
    59         45
    60         76
    61          9
    67          1
    68          3
    69         13
    70        154
    71         26
    72          3
    73          2
    83          2
    84          1
    85          1
    86          1
    87         13
    88        105
    89          7