##TITLE=Library Entry 31211
##JCAMP-DX=Revision 4.10 
##DATA TYPE=MASS SPECTRUM
##SAMPLE DESCRIPTION=Japan AIST/NIMC Database- Spectrum MS-NW-9309
##NAMES=HP
##CAS NAME=2,3-Butanedithiol
##MOLFORM=C4H10S2
##CAS REGISTRY NO=4532-64-3
##MP= -300
##BP= -300
##MW= 122
##$RETENTION INDEX=0
##$CONDENSED SPECTRUM=NO
##NPOINTS= 71
##XYDATA=(XY..XY) 1 
    15          3
    26         10
    27        134
    28         26
    29        116
    30          2
    32         10
    33         15
    34         32
    35         94
    36          3
    37          7
    38          7
    39         97
    40          7
    41         83
    42          3
    43         11
    44         11
    45        145
    46         16
    47        110
    48          3
    49          7
    50         11
    51         14
    52          5
    53         59
    54         22
    55        639
    56         66
    57         11
    58         40
    59        188
    60        385
    61        999
    62         73
    63         67
    64          4
    65          2
    66          2
    68          1
    69          8
    70          1
    71         19
    72          5
    73         52
    74          6
    75          3
    76         10
    77          1
    78          2
    79          3
    80          1
    81          1
    82          1
    83          1
    85          3
    87         10
    88        218
    89        426
    90         30
    91         18
    92          1
    93          3
   120          2
   122        377
   123         22
   124         33
   125          2
   126          1