##TITLE=Library Entry 10854
##JCAMP-DX=Revision 4.10 
##DATA TYPE=MASS SPECTRUM
##SAMPLE DESCRIPTION=Japan AIST/NIMC Database- Spectrum MS-IW-5601
##NAMES=HP
##CAS NAME=1,2,3,4-Tetra-O-acetyl-beta-d-glucopyranuronamide
##MOLFORM=C14H19NO10
##CAS REGISTRY NO=4533-47-5
##MP= -300
##BP= -300
##MW= 361
##$RETENTION INDEX=0
##$CONDENSED SPECTRUM=NO
##NPOINTS= 180
##XYDATA=(XY..XY) 1 
    12          2
    13          4
    14         43
    15         39
    16          4
    17         20
    18          1
    24          1
    25          3
    26         10
    27         33
    28         88
    29         22
    30          3
    31          4
    32          1
    37          2
    38          6
    39         14
    40         10
    41         45
    42        190
    43        999
    44         80
    45         71
    46          2
    47          1
    49          1
    50          5
    51          4
    52          4
    53          3
    54          5
    55         12
    56          4
    57         11
    58          4
    59         17
    60         92
    61         22
    62          1
    63          1
    64          3
    65          3
    66          4
    67          4
    68         13
    69         28
    70          6
    71         29
    72          5
    73         59
    74          9
    75        247
    76          8
    77          4
    78          1
    79          2
    80          3
    81          2
    82          3
    83         17
    84         22
    85        221
    86         45
    87         56
    88         39
    89          5
    93          5
    94          4
    95         14
    96         86
    97         67
    98         17
    99          4
   100         18
   101         28
   102         45
   103        316
   104         18
   105          3
   107          1
   109          1
   110          3
   111         21
   112         73
   113         88
   114         46
   115        138
   116         39
   117        152
   118          8
   119          1
   120          4
   121          6
   122          1
   123          4
   124          1
   125          2
   126          7
   127         26
   128         41
   129        251
   130         38
   131          9
   132          3
   134          2
   137          1
   138         50
   139         88
   140         96
   141         13
   142          4
   143         79
   144         17
   145        138
   146         13
   147          2
   152          1
   153          9
   154        144
   155        197
   156         37
   157         83
   158         75
   159         21
   160          2
   161          3
   169          2
   170          7
   171         49
   172         11
   173         22
   174         27
   175          4
   176          5
   181          2
   182         14
   183          2
   185          3
   186          1
   188          2
   189          1
   192          4
   197        177
   198         53
   199         50
   200         23
   201          3
   203         25
   204          2
   212          1
   213         38
   214          8
   215        255
   216         39
   217         52
   218         10
   219          1
   231          1
   234          2
   241         19
   242          5
   243          1
   245         60
   246          6
   247          1
   257          5
   258          4
   259         30
   260          6
   261          1
   275          2
   276          1
   301          2
   302          9
   303          1
   317         68
   318          9
   319          4