##TITLE=Library Entry 61702
##JCAMP-DX=Revision 4.10 
##DATA TYPE=MASS SPECTRUM
##SAMPLE DESCRIPTION=CONTINENTAL OIL CO., PONCA CITY, OKLA, USA
##NAMES=HP
##CAS NAME=Pentadecane, 3-phenyl-
##MOLFORM=C21H36
##CAS REGISTRY NO=4534-65-0
##MP= -300
##BP= -300
##MW= 288
##$RETENTION INDEX=0
##$CONDENSED SPECTRUM=NO
##NPOINTS= 112
##XYDATA=(XY..XY) 1 
    27         39
    28         13
    29         84
    30          2
    38          0
    39         23
    40          4
    41        136
    42         19
    43        116
    44          5
    50          1
    51          6
    52          2
    53          8
    54          4
    55         58
    56         12
    57         62
    58          3
    63          2
    64          0
    65         10
    66          1
    67          6
    68          2
    69         22
    70          6
    71         38
    72          2
    74          1
    75          2
    76          3
    77         33
    78         27
    79         21
    80          2
    81          5
    82          2
    83         15
    84          3
    85         24
    86          2
    87          1
    89          6
    90          6
    91        999
    92         89
    93          4
    94          1
    95          2
    96          1
    97          8
    98          1
    99          5
   100          1
   101          1
   102          6
   103         26
   104         82
   105        109
   106         10
   107          1
   109          1
   111          3
   112          1
   113          3
   114          1
   115         26
   116         11
   117         66
   118         39
   119        658
   120         92
   121          6
   125          1
   127          3
   128          5
   129          5
   130          3
   131         13
   132         11
   133         28
   134          4
   141          1
   143          1
   145          5
   146          1
   147         23
   148          3
   155          3
   159          1
   161         19
   162          2
   169          1
   175         14
   176          2
   189          9
   190          1
   217          3
   231          3
   232          1
   233          1
   257          1
   258          5
   259        151
   260         34
   261          4
   274          1
   288         96
   289         22
   290          2