##TITLE=Library Entry 63314
##JCAMP-DX=Revision 4.10 
##DATA TYPE=MASS SPECTRUM
##SAMPLE DESCRIPTION=CONTINENTAL OIL CO., PONCA CITY, OKLA, USA
##NAMES=HP
##CAS NAME=Benzene, (1-heptyloctyl)-
##MOLFORM=C21H36
##CAS REGISTRY NO=4534-60-5
##MP= -300
##BP= -300
##MW= 288
##$RETENTION INDEX=0
##$CONDENSED SPECTRUM=NO
##NPOINTS= 110
##XYDATA=(XY..XY) 1 
    27         36
    28         25
    29         71
    30          1
    38          0
    39         14
    40          3
    41         75
    42          8
    43         78
    44          3
    50          0
    51          3
    52          1
    53          5
    54          2
    55         36
    56          4
    57         22
    58          1
    63          1
    64          0
    65          7
    66          0
    67          4
    68          1
    69         18
    70          2
    71          9
    72          0
    74          0
    75          1
    76          2
    77         22
    78         22
    79         12
    80          1
    81          3
    82          1
    83          5
    84          0
    85         19
    86          1
    87          0
    89          4
    90          4
    91        999
    92         88
    93          4
    94          1
    95          1
    96          0
    97          7
    98          1
    99          0
   100          0
   101          2
   102          5
   103         23
   104         99
   105        145
   106         13
   107          0
   109          0
   111          2
   113          1
   114          1
   115         24
   116         10
   117         69
   118         30
   119         62
   120          6
   127          2
   128          6
   129          7
   130          3
   131         10
   132          3
   133         34
   134          4
   141          1
   142          0
   143          1
   144          0
   145          3
   146          3
   147         17
   148          2
   159          0
   160          1
   161         13
   162          2
   167          0
   169          0
   175          1
   187          2
   188         15
   189        315
   190         62
   191          6
   192          0
   215          0
   217          1
   231          0
   234          0
   286          1
   288         69
   289         16
   290          1