##TITLE=Library Entry 61551
##JCAMP-DX=Revision 4.10 
##DATA TYPE=MASS SPECTRUM
##SAMPLE DESCRIPTION=D.HENNEBERG, MAX-PLANCK INSTITUTE, MULHEIM, WEST GERMAN
Y
##NAMES=HP
##CAS NAME=Benzene, (1-ethylundecyl)-
##MOLFORM=C19H32
##CAS REGISTRY NO=4534-52-5
##MP= -300
##BP= -300
##MW= 260
##$RETENTION INDEX=1865
##$CONDENSED SPECTRUM=NO
##NPOINTS= 97
##XYDATA=(XY..XY) 1 
    26          3
    27         23
    28         39
    29         67
    30          3
    36          3
    37          3
    38          2
    39         29
    41        132
    42          8
    43         99
    46          3
    50          0
    52          5
    53          5
    54          6
    55         49
    56          7
    57         54
    58          5
    59          1
    63          4
    64          1
    65         13
    66          3
    67          1
    68          5
    69         19
    70         11
    71         36
    72          1
    73          0
    75          2
    76          3
    77         25
    78         16
    79         14
    80          3
    83         14
    84          3
    85         27
    86          2
    87          1
    89          6
    90          3
    91        999
    92         75
    93          2
    96          1
    97          7
   101          2
   102          3
   103         17
   104         45
   105        132
   106         13
   110          3
   112          1
   113          5
   114          3
   115         20
   117         38
   118         36
   119        600
   120         80
   121          3
   127          2
   128          7
   129          1
   131         11
   132          3
   133         50
   134          5
   138          3
   143          1
   147         41
   148          5
   157          0
   159          7
   161         32
   162          2
   171          1
   175         11
   179          1
   189          6
   197          1
   205          2
   207          7
   208          1
   224          0
   227          1
   231         69
   232         11
   254          1
   260         32
   261          6