##TITLE=Library Entry 63040
##JCAMP-DX=Revision 4.10 
##DATA TYPE=MASS SPECTRUM
##SAMPLE DESCRIPTION=CONTINENTAL OIL CO., PONCA CITY, OKLA, USA
##NAMES=HP
##CAS NAME=Benzene, (1-hexyloctyl)-
##MOLFORM=C20H34
##CAS REGISTRY NO=4534-54-7
##MP= -300
##BP= -300
##MW= 274
##$RETENTION INDEX=1921
##$CONDENSED SPECTRUM=NO
##NPOINTS= 106
##XYDATA=(XY..XY) 1 
    27         39
    28         10
    29         69
    30          1
    37          0
    38          0
    39         15
    40          2
    41         69
    42          7
    43         73
    44          3
    49          0
    50          0
    51          4
    52          1
    53          5
    54          2
    55         36
    56          4
    57         15
    58          0
    62          0
    63          1
    64          0
    65          8
    66          0
    67          3
    68          1
    69         12
    70          1
    71         12
    72          0
    74          0
    75          1
    76          2
    77         23
    78         23
    79         13
    80          1
    81          2
    82          0
    83          6
    84          0
    85         10
    86          0
    87          0
    89          4
    90          4
    91        999
    92         88
    93          4
    95          0
    97          7
    98          0
    99          0
   101          1
   102          6
   103         24
   104        100
   105        145
   106         13
   107          0
   111          1
   114          1
   115         23
   116         10
   117         59
   118         19
   119         56
   120          5
   127          2
   128          5
   129          5
   130          2
   131          8
   132          3
   133         27
   134          3
   141          1
   142          0
   143          0
   145          2
   146          2
   147          9
   148          1
   159          0
   160          0
   161          1
   162          0
   173          0
   174          8
   175        184
   176         33
   177          2
   187          0
   188          6
   189        153
   190         29
   191          2
   203          0
   217          0
   272          0
   274         74
   275         16
   276          1