##TITLE=Library Entry 80687
##JCAMP-DX=Revision 4.10 
##DATA TYPE=MASS SPECTRUM
##SAMPLE DESCRIPTION=Exported from NIST MS Search
##NAMES=HP
##CAS NAME=Pentadecane, 2-phenyl-
##MOLFORM=C21H36
##CAS REGISTRY NO=4534-66-1
##MP= -300
##BP= -300
##MW= 288
##$RETENTION INDEX=0
##$CONDENSED SPECTRUM=NO
##NPOINTS= 109
##XYDATA=(XY..XY) 1 
    61          1
    62          1
    63          3
    64          1
    65          8
    66          1
    67          6
    68          3
    69         17
    70          7
    71         11
    72          1
    73          1
    74          1
    75          1
    76          2
    77         37
    78         17
    79         38
    80          3
    81          2
    82          1
    83          6
    84          2
    85          5
    86          1
    87          1
    88          1
    89          2
    90          1
    91        130
    92         12
    93          1
    94          1
    95          1
    96          1
    97          3
    98          1
    99          1
   100          1
   101          1
   102          3
   103         24
   104         56
   105        999
   106        161
   107          9
   108          1
   109          1
   110          1
   111          1
   112          1
   113          1
   114          1
   115          7
   116          3
   117         14
   118         11
   119         12
   120          4
   121          1
   122          1
   123          1
   124          1
   125          1
   126          1
   127          1
   128          1
   129          2
   130          1
   131          6
   132          1
   133          3
   134          1
   141          1
   142          1
   143          1
   144          1
   145          1
   146          1
   147          4
   148          1
   154          1
   155          1
   159          1
   160          1
   161          2
   162          1
   169          1
   175          1
   182          1
   189          1
   190          1
   203          1
   217          1
   218          1
   231          1
   232         10
   244          1
   245          1
   246          1
   259          1
   260          1
   272          1
   273          3
   274          1
   286          1
   287          1
   288         60