##TITLE=Library Entry 62063
##JCAMP-DX=Revision 4.10 
##DATA TYPE=MASS SPECTRUM
##SAMPLE DESCRIPTION=D.HENNEBERG, MAX-PLANCK INSTITUTE, MULHEIM, WEST GERMAN
Y
##NAMES=HP
##CAS NAME=Benzene, (1-propyldecyl)-
##MOLFORM=C19H32
##CAS REGISTRY NO=4534-51-4
##MP= -300
##BP= -300
##MW= 260
##$RETENTION INDEX=1840
##$CONDENSED SPECTRUM=NO
##NPOINTS= 114
##XYDATA=(XY..XY) 1 
    22          0
    25          1
    26          1
    27         21
    28         24
    29         38
    30          2
    32          2
    33          0
    34          0
    37          1
    38          1
    39         11
    40          2
    41         67
    42          5
    43         65
    44          3
    45          1
    47          1
    48          0
    49          1
    50          0
    51          4
    52          1
    53          5
    54          2
    55         36
    56          4
    57         44
    58          2
    61          1
    64          1
    65          9
    66          2
    67          5
    68          1
    69         14
    70          1
    71         21
    72          1
    73          1
    75          0
    77         11
    78         15
    79          6
    80          1
    83          5
    84          0
    85          6
    86          1
    87          3
    88          2
    89          2
    91        999
    92         87
    93          4
    97          2
    98          1
   102          1
   103         10
   104         29
   105         75
   106          5
   111          1
   112          1
   113          2
   114          1
   115         10
   116          3
   117         24
   118          8
   119         53
   120          3
   121          1
   125          2
   126          1
   128          4
   129          1
   131          5
   132          9
   133        241
   134         32
   135          1
   138          0
   145          1
   147         31
   148          3
   152          0
   159          1
   160          1
   161         11
   162          3
   167          0
   173          1
   175          2
   177          1
   181          1
   182          1
   193          1
   203          3
   207          1
   208          2
   214          0
   215          0
   216          1
   217         46
   218         10
   219          2
   231          0
   244          1
   246          0
   260         20
   261          5