##TITLE=Library Entry 62356
##JCAMP-DX=Revision 4.10 
##DATA TYPE=MASS SPECTRUM
##SAMPLE DESCRIPTION=D.HENNEBERG, MAX-PLANCK INSTITUTE, MULHEIM, WEST GERMAN
Y
##NAMES=HP
##CAS NAME=Benzene, (1-butylnonyl)-
##MOLFORM=C19H32
##CAS REGISTRY NO=4534-50-3
##MP= -300
##BP= -300
##MW= 260
##$RETENTION INDEX=1826
##$CONDENSED SPECTRUM=NO
##NPOINTS= 96
##XYDATA=(XY..XY) 1 
    25          0
    26          1
    27         23
    28         18
    29         41
    30          1
    33          0
    34          0
    35          0
    39         13
    40          2
    41         68
    42          7
    43         48
    49          0
    51          2
    52          2
    53          4
    54          1
    55         19
    56          5
    57         33
    58          0
    60          0
    62          2
    63          0
    64          1
    65         10
    66          1
    67          1
    68          2
    69         20
    71          5
    72          1
    75          5
    76          1
    77         14
    78         12
    79          8
    80          1
    83          4
    85          3
    86          1
    87          2
    88          1
    89          4
    90          4
    91        999
    92         79
    93          2
    99          1
   100          0
   101          0
   102          4
   103         12
   104         33
   105        131
   106         11
   111          1
   112          0
   115         10
   116          2
   117         21
   118          8
   119         49
   120          3
   124          0
   126          0
   127          0
   128          3
   130          1
   131          1
   133         40
   134          4
   142          1
   146          7
   147        189
   148         28
   149          1
   151          0
   159          1
   161          7
   175          1
   185          1
   189          0
   202          4
   203         48
   204         11
   205          0
   206          0
   207          2
   208          0
   215          0
   259          1
   260         24
   261          5