##TITLE=Library Entry 62032
##JCAMP-DX=Revision 4.10 
##DATA TYPE=MASS SPECTRUM
##SAMPLE DESCRIPTION=D. LUKE UNILEVER RESEARCH LAB., PORT SUNLIGHT
##NAMES=HP
##CAS NAME=Benzene, (1-ethyldodecyl)-
##MOLFORM=C20H34
##CAS REGISTRY NO=4534-58-1
##MP= -300
##BP= -300
##MW= 274
##$RETENTION INDEX=1967
##$CONDENSED SPECTRUM=NO
##NPOINTS= 111
##XYDATA=(XY..XY) 1 
    17          7
    18         31
    26          4
    27         44
    28         62
    29         91
    30          5
    32         10
    36          8
    38          4
    39         37
    40          6
    41        174
    42         20
    43        144
    44         10
    50          3
    51         14
    52          4
    53         20
    54         13
    55         83
    56         14
    57         82
    58          4
    63          6
    65         25
    66          3
    67         23
    68          6
    69         38
    70          8
    71         38
    76          3
    77         36
    78         30
    79         25
    80          3
    81         14
    82          5
    83         28
    84          4
    85         27
    89          6
    90          4
    91        999
    92        165
    93         13
    94          4
    95         12
    96          4
    97         19
    98          3
    99          6
   102          9
   103         37
   104        219
   105        208
   106         22
   107          4
   109          4
   111          6
   113          4
   115         76
   116         35
   117        359
   118         76
   119        492
   120         87
   121          8
   125          3
   127          9
   128         25
   129         48
   130         30
   131         68
   132        494
   133        110
   134         12
   139          4
   141          7
   142          3
   143         13
   144          6
   145        152
   146         24
   147         52
   148          7
   151          3
   153          3
   159         10
   160          2
   161         44
   162          6
   168          3
   173          3
   175         21
   176          3
   189         11
   203          4
   217          3
   243         27
   244         30
   245         83
   246         29
   247          4
   260          2
   272         33
   273          8
   274         41
   275          9