##TITLE=Library Entry 80683
##JCAMP-DX=Revision 4.10 
##DATA TYPE=MASS SPECTRUM
##SAMPLE DESCRIPTION=CONTINENTAL OIL CO., PONCA CITY, OKLA, USA
##NAMES=HP
##CAS NAME=Benzene, (1-methyltridecyl)-
##MOLFORM=C20H34
##CAS REGISTRY NO=4534-59-2
##MP= -300
##BP= -300
##MW= 274
##$RETENTION INDEX=2007
##$CONDENSED SPECTRUM=NO
##NPOINTS= 105
##XYDATA=(XY..XY) 1 
    26          1
    27         24
    28          6
    29         40
    30          0
    38          0
    39         12
    40          2
    41         55
    42         10
    43         49
    44          2
    45          1
    50          1
    51          4
    52          1
    53          4
    54          2
    55         24
    56          6
    57         17
    58          1
    63          1
    64          0
    65          3
    66          0
    67          2
    68          1
    69          7
    70          2
    71          8
    72          0
    73          1
    74          1
    75          1
    76         38
    77         16
    78         33
    79          2
    80          1
    81          1
    82          1
    83          4
    84          1
    85          3
    86          0
    87          0
    89          2
    90          1
    91        119
    92         11
    93          1
    94          0
    95          0
    96          0
    97          2
    98          0
    99          1
   100          1
   101          2
   102          3
   103         23
   104         46
   105        999
   106        133
   107          7
   108          0
   111          0
   113          0
   115          7
   116          3
   117         12
   118         14
   119          9
   120          2
   127          0
   128          1
   129          2
   130          1
   131          8
   132          1
   133          2
   134          0
   141          0
   143          0
   145          0
   146          0
   147          3
   148          0
   161          1
   168          0
   169          0
   175          1
   189          1
   203          0
   217          1
   231          0
   232          0
   259          4
   260          0
   272          1
   274         73
   275         16
   276          1
   277          0