##TITLE=Library Entry 80681
##JCAMP-DX=Revision 4.10 
##DATA TYPE=MASS SPECTRUM
##SAMPLE DESCRIPTION=D.HENNEBERG, MAX-PLANCK INSTITUTE, MULHEIM, WEST GERMAN
Y
##NAMES=HP
##CAS NAME=Benzene, (1-methyldodecyl)-
##MOLFORM=C19H32
##CAS REGISTRY NO=4534-53-6
##MP= -300
##BP= -300
##MW= 260
##$RETENTION INDEX=1914
##$CONDENSED SPECTRUM=NO
##NPOINTS= 104
##XYDATA=(XY..XY) 1 
    27         14
    29         25
    30          0
    35          0
    39         10
    40          2
    41         39
    42          5
    43         44
    44          3
    46          0
    49          0
    51          3
    52          1
    53          3
    54          1
    55         21
    56          6
    57         16
    58          2
    59          1
    60          1
    62          0
    63          0
    65          4
    66          0
    67          1
    68          1
    69          6
    70          1
    71          5
    72          0
    74          1
    75          2
    76          0
    77         22
    78         11
    79         30
    80          2
    81          1
    82          1
    83          2
    84          0
    85          3
    86          0
    88          0
    89          0
    90          0
    91         93
    92          7
    93          0
    94          1
    95          1
    97          1
    99          1
   100          0
   101          3
   102          3
   103         15
   104         43
   105        999
   106        122
   107          7
   108          0
   111          2
   115         23
   116          1
   117          7
   118          7
   119          9
   120          5
   121          0
   123          0
   128          0
   129          0
   131          1
   132          0
   133          4
   134          0
   145          0
   147          3
   148          1
   152          0
   153          0
   161          1
   162          0
   166          5
   168          0
   169          0
   175          1
   176          0
   189          1
   203          0
   205          0
   209          0
   221          1
   222          0
   223          0
   229          0
   232          0
   245          1
   259          0
   260         27
   261          7