##TITLE=Library Entry 50058
##JCAMP-DX=Revision 4.10 
##DATA TYPE=MASS SPECTRUM
##SAMPLE DESCRIPTION=Japan AIST/NIMC Database- Spectrum MS-NW-8805
##NAMES=HP
##CAS NAME=4-Ethylcyclohexanol
##MOLFORM=C8H16O
##CAS REGISTRY NO=4534-74-1
##MP= -300
##BP= -300
##MW= 128
##$RETENTION INDEX=1003
##$CONDENSED SPECTRUM=NO
##NPOINTS= 72
##XYDATA=(XY..XY) 1 
    15          8
    17          1
    18          3
    26          7
    27        133
    28         39
    29        192
    30         13
    31         51
    32          1
    37          1
    38          4
    39        135
    40         23
    41        358
    42         90
    43        637
    44        115
    45         25
    48          1
    49          1
    50          5
    51         15
    52          8
    53         74
    54         91
    55        378
    56        114
    57        651
    58        493
    59         35
    60          2
    62          1
    63          3
    65         16
    66         20
    67        191
    68        101
    69        186
    70        123
    71        191
    72         14
    73          1
    75          1
    77         15
    78          4
    79         75
    80         56
    81        999
    82        253
    83         31
    84        214
    85         57
    86          7
    87          5
    91          4
    93          4
    94          2
    95        157
    96         14
    97         13
    98          3
    99         18
   100          7
   107          2
   109         29
   110        255
   111         46
   112          4
   126          1
   127         10
   128          5