##TITLE=Library Entry 62062
##JCAMP-DX=Revision 4.10 
##DATA TYPE=MASS SPECTRUM
##SAMPLE DESCRIPTION=CONTINENTAL OIL CO., PONCA CITY, OKLA, USA
##NAMES=HP
##CAS NAME=Pentadecane, 4-phenyl-
##MOLFORM=C21H36
##CAS REGISTRY NO=4534-64-9
##MP= -300
##BP= -300
##MW= 288
##$RETENTION INDEX=0
##$CONDENSED SPECTRUM=NO
##NPOINTS= 118
##XYDATA=(XY..XY) 1 
    27         36
    28         16
    29         66
    30          1
    38          1
    39          1
    40          3
    41         83
    42         13
    43         82
    44          3
    50          1
    51          5
    52          2
    53          6
    54          3
    55         45
    56          8
    57         39
    58          2
    62          0
    63          2
    64          0
    65         10
    66          1
    67          5
    68          2
    69         16
    70          3
    71         19
    72          1
    74          1
    75          2
    76          2
    77         26
    78         22
    79         13
    80          1
    81          4
    82          2
    83         11
    84          2
    85         14
    86          1
    87          1
    88          0
    89          5
    90          5
    91        999
    92        133
    93          4
    94          1
    95          2
    96          1
    97          7
    98          1
    99          2
   100          1
   101          1
   102          6
   103         21
   104        126
   105         83
   106          8
   107          0
   108          0
   109          0
   111          2
   113          1
   114          1
   115         21
   116         10
   117         99
   118         21
   119         26
   120          5
   121          0
   125          0
   127          3
   128          6
   129          8
   130          6
   131         15
   132         17
   133        309
   134         47
   135          3
   141          2
   142          0
   143          1
   144          0
   145          3
   146          1
   147         16
   148          2
   159          1
   160          1
   161         12
   162          1
   169          0
   173          0
   175          8
   176          1
   189          4
   190          0
   207          0
   217          1
   243          1
   244         16
   245         94
   246         34
   247          5
   259          0
   260          0
   273          0
   288         78
   289         15
   290          1