##TITLE=Library Entry 61009
##JCAMP-DX=Revision 4.10 
##DATA TYPE=MASS SPECTRUM
##SAMPLE DESCRIPTION=D.HENNEBERG, MAX-PLANCK INSTITUTE, MULHEIM, WEST GERMAN
Y
##NAMES=HP
##CAS NAME=Benzene, (1-pentyloctyl)-
##MOLFORM=C19H32
##CAS REGISTRY NO=4534-49-0
##MP= -300
##BP= -300
##MW= 260
##$RETENTION INDEX=1819
##$CONDENSED SPECTRUM=NO
##NPOINTS= 121
##XYDATA=(XY..XY) 1 
    22          0
    23          0
    25          0
    26          0
    27         16
    28         19
    29         42
    30          2
    32          2
    37          1
    39         15
    41         62
    42          5
    43         46
    44          0
    48          0
    49          0
    50          1
    51          4
    52          3
    53          9
    54          2
    55         33
    56          3
    57         16
    58          2
    63          1
    64          1
    65         10
    66          2
    67          4
    68          3
    69         13
    70          3
    71          5
    73          0
    74          1
    75          1
    76          1
    77         13
    78         11
    79         10
    83          7
    84          0
    85          6
    86          2
    87          1
    88          2
    89          3
    90          8
    91        999
    92         76
    93          6
    94          1
    95          1
    96          0
    97          5
    98          2
    99          1
   100          1
   101          1
   103         11
   104         43
   105        193
   106         13
   107          0
   108          0
   110          1
   111          2
   115         12
   116          4
   117         24
   118         10
   119         88
   120          9
   121          0
   124          0
   125          1
   127          1
   128          1
   129          1
   130          1
   131          0
   132          1
   133         39
   134          3
   138          0
   141          0
   142          0
   143          0
   145          0
   146          1
   147         10
   148          1
   149          1
   152          0
   157          0
   159          0
   160          4
   161        125
   162         17
   167          1
   168          1
   174          1
   187          1
   188          3
   189         67
   190         11
   191          2
   193          0
   197          0
   203          0
   205          0
   221          0
   231          0
   238          0
   246          0
   257          0
   259          0
   260         26
   261          5