##TITLE=Library Entry 80682
##JCAMP-DX=Revision 4.10 
##DATA TYPE=MASS SPECTRUM
##SAMPLE DESCRIPTION=D.HENNEBERG, MAX-PLANCK INSTITUTE, MULHEIM, WEST GERMAN
Y
##NAMES=HP
##CAS NAME=Benzene, (1-methyldecyl)-
##MOLFORM=C17H28
##CAS REGISTRY NO=4536-88-3
##MP= -300
##BP= -300
##MW= 232
##$RETENTION INDEX=1708
##$CONDENSED SPECTRUM=NO
##NPOINTS= 100
##XYDATA=(XY..XY) 1 
    22          0
    26          0
    27         23
    28          5
    29         30
    30          0
    34          0
    35          0
    38          0
    39         13
    40          1
    41         49
    42          5
    43         34
    44          0
    47          0
    49          0
    50          1
    51          7
    52          1
    53          3
    54          1
    55         18
    56          5
    57         12
    58          1
    60          0
    61          0
    62          0
    63          2
    64          0
    65          6
    66          0
    67          2
    68          0
    69          4
    70          1
    71          4
    72          0
    73          0
    74          0
    75          1
    76          1
    77         33
    78         13
    79         38
    80          2
    82          3
    83          1
    84          1
    85          1
    88          0
    89          1
    90          1
    91         96
    92          9
    93          0
    94          0
    96          0
    97          0
   100          0
   101          2
   102          2
   103         23
   104         39
   105        999
   106        114
   107          6
   108          0
   113          0
   115          5
   116          2
   117          7
   118          7
   119          8
   120          5
   121          0
   126          0
   127          0
   128          1
   129          1
   130          0
   131          2
   132          0
   133          3
   134          0
   145          0
   146          0
   147          3
   148          0
   161          1
   175          1
   203          0
   217          2
   218          0
   230          0
   231          0
   232         34
   233          5
   234          0