##TITLE=Library Entry 61547
##JCAMP-DX=Revision 4.10 
##DATA TYPE=MASS SPECTRUM
##SAMPLE DESCRIPTION=D.HENNEBERG, MAX-PLANCK INSTITUTE, MULHEIM, WEST GERMAN
Y
##NAMES=HP
##CAS NAME=Benzene, (1-ethylnonyl)-
##MOLFORM=C17H28
##CAS REGISTRY NO=4536-87-2
##MP= -300
##BP= -300
##MW= 232
##$RETENTION INDEX=1667
##$CONDENSED SPECTRUM=NO
##NPOINTS= 110
##XYDATA=(XY..XY) 1 
    23          0
    25          0
    26          2
    27         28
    28          4
    29         50
    30          0
    32          1
    33          0
    36          0
    37          0
    38          0
    39         23
    41        110
    42          7
    43         50
    44          0
    45          0
    47          1
    48          0
    50          1
    51          7
    52          2
    53          6
    54          3
    55         31
    56          3
    57         45
    58          2
    60          0
    61          0
    62          0
    63          2
    64          1
    65         18
    66          2
    67          3
    68          1
    69         20
    70          7
    71          7
    73          0
    74          0
    75          1
    76          2
    77         21
    78         17
    79         16
    80          1
    81          0
    82          0
    83          3
    85          4
    86          1
    87          2
    88          2
    89          5
    90          4
    91        999
    92         73
    93          2
    94          0
    95          0
    97          0
    98          0
    99          4
   101          1
   102          3
   103         15
   104         37
   105        101
   106          9
   107          0
   108          0
   109          0
   110          0
   111          1
   114          0
   115         18
   116          6
   117         29
   118         27
   119        512
   120         61
   121          3
   127          0
   128          2
   129          2
   130          1
   131          2
   132          2
   133         46
   134          5
   146          0
   147         27
   148          3
   161         46
   162          0
   175          0
   178          1
   179          0
   187          0
   201          0
   202          1
   203         66
   204         11
   205          1
   230          0
   232         39
   233          6