##TITLE=Library Entry 62065
##JCAMP-DX=Revision 4.10 
##DATA TYPE=MASS SPECTRUM
##SAMPLE DESCRIPTION=D.HENNEBERG, MAX-PLANCK INSTITUTE, MULHEIM, WEST GERMAN
Y
##NAMES=HP
##CAS NAME=Benzene, (1-propyloctyl)-
##MOLFORM=C17H28
##CAS REGISTRY NO=4536-86-1
##MP= -300
##BP= -300
##MW= 232
##$RETENTION INDEX=1643
##$CONDENSED SPECTRUM=NO
##NPOINTS= 108
##XYDATA=(XY..XY) 1 
    25          0
    27         24
    28          3
    29         33
    30          0
    32          0
    33          0
    36          0
    38          0
    39         17
    40          1
    41         51
    42          4
    43         40
    44          1
    46          1
    47          0
    49          0
    50          1
    51          5
    52          1
    53          6
    54          1
    55         29
    56          2
    57          9
    58          1
    59          0
    60          0
    61          0
    62          5
    63          3
    64          1
    65         15
    66          1
    67          3
    68          0
    69         12
    70          2
    71          3
    72          0
    73          0
    74          1
    75          1
    76          1
    77         16
    78         13
    79          9
    80          0
    81          0
    83          1
    84          0
    85         10
    86          1
    87          2
    88          1
    89          4
    90          4
    91        999
    92         81
    93          3
    94          0
    95          0
    96          0
    97          3
    98          0
   101          1
   102          3
   103         13
   104         32
   105         97
   106          8
   107          0
   111          1
   112          0
   113          0
   114          0
   115         12
   116          4
   117         21
   118          6
   119         49
   120          4
   121          0
   127          1
   128          2
   129          2
   130          0
   131          5
   132          9
   133        224
   134         30
   135          1
   145          0
   147         11
   148          1
   154          1
   155          0
   161          0
   188          1
   189         62
   190         10
   191          1
   203          0
   230          0
   232         33
   233          5
   234          0