##TITLE=Library Entry 24386
##JCAMP-DX=Revision 4.10 
##DATA TYPE=MASS SPECTRUM
##SAMPLE DESCRIPTION=Japan AIST/NIMC Database- Spectrum MS-NW-4898
##NAMES=HP
##CAS NAME=Ethanol, 2-(dodecyloxy)-
##MOLFORM=C14H30O2
##CAS REGISTRY NO=4536-30-5
##MP= -300
##BP= -300
##MW= 230
##$RETENTION INDEX=0
##$CONDENSED SPECTRUM=NO
##NPOINTS= 113
##XYDATA=(XY..XY) 1 
    14          2
    15          9
    16          1
    17          3
    18         10
    26          6
    27         80
    28         16
    29        150
    30          4
    31         40
    32          4
    33          2
    38          1
    39         43
    40          9
    41        298
    42         84
    43        676
    44         26
    45        364
    46         10
    47          1
    50          1
    51          2
    52          1
    53         17
    54         28
    55        301
    56        170
    57        999
    58         47
    59          6
    60          6
    61          6
    62          5
    63        212
    64          6
    65          3
    66          4
    67         36
    68         82
    69        234
    70        150
    71        594
    72         34
    73         15
    74          2
    75        128
    76          5
    77          5
    78          1
    79          3
    80          2
    81         20
    82         91
    83        223
    84        103
    85        398
    86         27
    87          2
    88          1
    89          1
    90          2
    91          3
    93          1
    94          1
    95         12
    96         31
    97        199
    98         73
    99        118
   100          9
   101          1
   104          2
   105          1
   109          7
   110         13
   111        126
   112         43
   113         79
   114          8
   115          1
   117          6
   123          3
   124          5
   125         40
   126         16
   127         37
   128          4
   129          1
   131          1
   137          1
   138          4
   139          9
   140         76
   141          9
   155          1
   156          1
   166          2
   167          3
   168         46
   169         38
   170          5
   183          8
   184          1
   185          4
   187          3
   196          1
   197          2
   199         48
   200          7
   201          1