##TITLE=Library Entry 27443
##JCAMP-DX=Revision 4.10 
##DATA TYPE=MASS SPECTRUM
##SAMPLE DESCRIPTION=R.T.HOLMAN,UNIVERSITY OF MINNESOTA
##NAMES=HP
##CAS NAME=Hexadecanoic acid, tetradecyl ester
##MOLFORM=C30H60O2
##CAS REGISTRY NO=4536-26-9
##MP= -300
##BP= -300
##MW= 452
##$RETENTION INDEX=3148
##$CONDENSED SPECTRUM=NO
##NPOINTS= 236
##XYDATA=(XY..XY) 1 
    26          6
    27         37
    28         36
    29        140
    30          5
    31          4
    32          7
    36          2
    37          2
    38          3
    39         31
    40         10
    41        360
    42        120
    43        870
    44         34
    45         10
    46          1
    51          3
    52          2
    53         17
    54         67
    55        590
    56        290
    57        999
    58         54
    59         13
    60        130
    61        210
    62          9
    63          5
    64          8
    65          6
    66          9
    67         90
    68        150
    69        520
    70        290
    71        590
    72         34
    73        220
    74         22
    75          5
    76          2
    77          4
    78          3
    79         14
    80         12
    81         80
    82        240
    83        540
    84        280
    85        370
    86         26
    87         52
    88          7
    89          7
    90          1
    91          4
    92          2
    93          9
    94          6
    95         62
    96        120
    97        460
    98        230
    99         85
   100         12
   101         43
   102         13
   103          8
   104          1
   105          2
   106          1
   107          6
   108          3
   109         31
   110         53
   111        260
   112        130
   113         46
   114         10
   115         51
   116         46
   117          9
   118          2
   119          4
   120          3
   121         10
   122          3
   123         16
   124         29
   125        140
   126         80
   127         32
   128          5
   129        100
   130         14
   131          4
   132          1
   133          2
   134          2
   135          9
   136          3
   137          9
   138         19
   139         60
   140         49
   141         21
   142          5
   143         18
   144          9
   145          6
   147          3
   148          2
   149          8
   150          4
   151          7
   152         13
   153         33
   154         32
   155         13
   156          3
   157         26
   158          6
   159          2
   160          1
   161          1
   162          1
   163          4
   164          1
   165          3
   166          8
   167         20
   168        130
   169         19
   170          2
   171         26
   172          5
   173          2
   174          1
   175          1
   177          3
   178          2
   179          2
   180          2
   181          5
   182          2
   183          2
   184          1
   185         24
   186          4
   187          2
   188          1
   189          1
   191          2
   192          3
   193          2
   194         15
   195          9
   196        320
   197         65
   198          7
   199         11
   200          3
   201          2
   202          1
   205          1
   207          1
   208          1
   209          2
   210          2
   211          3
   212          1
   213         53
   214          9
   215          2
   216          1
   217          1
   218          1
   219          6
   220          4
   221          2
   222          1
   223          2
   224          1
   225          1
   226          1
   227         14
   228          4
   229          5
   230          1
   235          1
   236          9
   237         11
   238          6
   239        150
   240         27
   241         43
   242          7
   243          1
   251          1
   253          1
   254          3
   255         12
   256        200
   257        970
   258        190
   259         19
   260          2
   267          2
   269         10
   270          3
   271          1
   283          3
   284          1
   294          2
   295          1
   297          5
   298          2
   299          1
   307          1
   311          2
   312          7
   313          2
   325          4
   326          2
   327          1
   409          2
   410          1
   423          1
   424          1
   452         77
   453         27
   454          6
   455          1