##TITLE=Library Entry 31320
##JCAMP-DX=Revision 4.10 
##DATA TYPE=MASS SPECTRUM
##SAMPLE DESCRIPTION=F. TURECEK,HEYROVSKY INST PHYS CHEM & ELECTROCHEM,PRAGU
E,CZECH
##NAMES=HP
##CAS NAME=Oxirane, [(methylthio)methyl]-
##MOLFORM=C4H8OS
##CAS REGISTRY NO=45378-62-9
##MP= -300
##BP= -300
##MW= 104
##$RETENTION INDEX=0
##$CONDENSED SPECTRUM=NO
##NPOINTS= 41
##XYDATA=(XY..XY) 1 
    25          5
    26         48
    27        360
    28         90
    29        285
    30         18
    31        280
    35        135
    37         11
    38         12
    39         53
    40         10
    41        180
    42         23
    43         26
    44         11
    45        215
    46        152
    47        190
    48        250
    49         60
    50         13
    55         23
    56         16
    57        280
    58         64
    59        170
    60         27
    61        999
    62         34
    63         45
    73         22
    74         22
    76         67
    84          5
    85          9
    86          4
   103         12
   104        667
   105         35
   106         37