##TITLE=Library Entry 62061
##JCAMP-DX=Revision 4.10 
##DATA TYPE=MASS SPECTRUM
##SAMPLE DESCRIPTION=D.HENNEBERG, MAX-PLANCK INSTITUTE, MULHEIM, WEST GERMAN
Y
##NAMES=HP
##CAS NAME=Benzene, (1-propylheptyl)-
##MOLFORM=C16H26
##CAS REGISTRY NO=4537-12-6
##MP= -300
##BP= -300
##MW= 218
##$RETENTION INDEX=1546
##$CONDENSED SPECTRUM=NO
##NPOINTS= 106
##XYDATA=(XY..XY) 1 
    22          0
    27         22
    28          8
    29         40
    30          1
    32          3
    33          0
    36          1
    38          0
    39         17
    41         48
    42          4
    43         37
    45          0
    47          2
    49          1
    50          2
    51          8
    52          2
    53          2
    54          1
    55         29
    56          3
    57          2
    59          0
    60          0
    62          3
    63          2
    65         15
    66          2
    67          0
    69          4
    70          0
    71          7
    72          1
    75          1
    76          2
    77         21
    78         16
    79          8
    80          2
    81          3
    83          4
    84          0
    85          1
    87          2
    88          1
    89          6
    90          2
    91        999
    92         90
    93          1
    95          0
    96          0
    97          2
    98          0
   101          3
   102          4
   103         11
   104         34
   105         84
   106          9
   107          1
   109          1
   110          0
   113          1
   114          0
   115         12
   116          3
   117         18
   118          5
   119         42
   120          4
   121          1
   125          0
   128          4
   129          2
   131          4
   132          6
   133        162
   134         28
   135          2
   139          0
   141          0
   142          0
   144          0
   145          1
   146          2
   148          1
   150          0
   162          0
   164          0
   171          1
   173          1
   174          2
   175         65
   176         11
   179          0
   189          0
   193          0
   201          0
   205          0
   208          1
   216          0
   218         34
   219          7