##TITLE=Library Entry 80373
##JCAMP-DX=Revision 4.10 
##DATA TYPE=MASS SPECTRUM
##SAMPLE DESCRIPTION=CONTINENTAL OIL CO., PONCA CITY, OKLA, USA
##NAMES=HP
##CAS NAME=Benzene, (1-methylnonyl)-
##MOLFORM=C16H26
##CAS REGISTRY NO=4537-13-7
##MP= -300
##BP= -300
##MW= 218
##$RETENTION INDEX=1607
##$CONDENSED SPECTRUM=NO
##NPOINTS= 99
##XYDATA=(XY..XY) 1 
    27         36
    28         13
    29         41
    30          1
    32          3
    37          0
    38          0
    39         18
    40          3
    41         49
    42          6
    43         28
    44          1
    50          2
    51         10
    52          3
    53          5
    54          1
    55         14
    56          3
    57         11
    58          0
    62          0
    63          2
    64          0
    65          6
    66          0
    67          1
    68          0
    69          3
    70          1
    71          4
    72          0
    73          0
    74          2
    75          3
    76          3
    77         57
    78         24
    79         44
    80          3
    81          0
    82          0
    83          1
    84          0
    85          1
    86          0
    87          0
    88          0
    89          3
    90          1
    91        129
    92         11
    93          0
    97          0
    98          0
    99          0
   100          1
   101          3
   102          5
   103         34
   104         49
   105        999
   106        127
   107          7
   112          0
   113          0
   114          0
   115         10
   116          4
   117         13
   118          9
   119          8
   120          2
   127          1
   128          2
   129          1
   130          0
   131          3
   132          1
   133          2
   134          0
   141          0
   145          0
   147          3
   148          0
   160          0
   161          2
   162          0
   169          0
   175          0
   176          0
   189          0
   202          0
   203          5
   204          2
   218         85
   219         15
   220          1