##TITLE=Library Entry 62365
##JCAMP-DX=Revision 4.10 
##DATA TYPE=MASS SPECTRUM
##SAMPLE DESCRIPTION=CONTINENTAL OIL CO., PONCA CITY, OKLA, USA
##NAMES=HP
##CAS NAME=Benzene, (1-butylhexyl)-
##MOLFORM=C16H26
##CAS REGISTRY NO=4537-11-5
##MP= -300
##BP= -300
##MW= 218
##$RETENTION INDEX=1535
##$CONDENSED SPECTRUM=NO
##NPOINTS= 98
##XYDATA=(XY..XY) 1 
    27         46
    28         13
    29         61
    30          1
    38          0
    39         21
    40          3
    41         60
    42          4
    43         23
    44          1
    50          2
    51          9
    52          3
    53          6
    54          1
    55         18
    56          2
    57          7
    58          0
    62          0
    63          3
    64          1
    65         14
    66          1
    67          2
    68          0
    69         10
    70          1
    74          1
    75          3
    76          4
    77         38
    78         29
    79         15
    80          1
    81          1
    83          4
    84          0
    85          0
    86          0
    87          0
    88          1
    89          8
    90          5
    91        999
    92         83
    93          3
    99          1
   101          3
   102          8
   103         31
   104         93
   105        111
   106         10
   107          0
   113          1
   114          1
   115         30
   116         11
   117         45
   118         17
   119         16
   120          2
   126          0
   127          3
   128          7
   129          6
   130          2
   131          4
   132          2
   133          1
   134          0
   139          0
   141          1
   142          0
   143          0
   145          3
   146          6
   147        188
   148         27
   149          2
   159          1
   160          4
   161        147
   162         22
   163          1
   169          0
   175          0
   189          0
   200          0
   201          0
   202          1
   204          0
   216          1
   218         87
   219         15
   220          1