##TITLE=Library Entry 59013
##JCAMP-DX=Revision 4.10 
##DATA TYPE=MASS SPECTRUM
##SAMPLE DESCRIPTION=D.HENNEBERG, MAX-PLANCK INSTITUTE, MULHEIM, WEST GERMAN
Y
##NAMES=HP
##CAS NAME=Benzene, (1-pentylhexyl)-
##MOLFORM=C17H28
##CAS REGISTRY NO=4537-14-8
##MP= -300
##BP= -300
##MW= 232
##$RETENTION INDEX=1628
##$CONDENSED SPECTRUM=NO
##NPOINTS= 117
##XYDATA=(XY..XY) 1 
    24          0
    26          1
    27         24
    28         16
    29         60
    30          1
    32          7
    35          0
    36          0
    38          0
    39         16
    41        192
    42          5
    43         28
    44          2
    45          0
    46          1
    50          3
    51          7
    52          3
    53          5
    54          1
    55         29
    56          1
    57         14
    58          1
    60          0
    61          0
    63          2
    64          1
    65         14
    66          2
    67          2
    68          2
    69         12
    71          1
    73          0
    75          2
    76          1
    77         17
    78         14
    79         11
    80          1
    81          0
    82          0
    83          8
    84          1
    85          1
    86          1
    87          2
    88          3
    89          4
    91        999
    92         88
    93          3
    94          0
    95          0
    96          0
    97          0
    98          0
   100          0
   101          1
   102          5
   103         14
   104         48
   105        186
   106         15
   107          1
   108          0
   113          0
   115         13
   116          4
   117         22
   118          7
   119         56
   120          7
   121          0
   126          0
   127          2
   128          2
   129          2
   130          0
   131          3
   132          0
   133          3
   134          0
   137          0
   139          0
   141          0
   143          0
   144          0
   145          0
   146          0
   147          7
   148          0
   153          0
   154          0
   156          0
   157          0
   160          5
   161        192
   162         36
   163          3
   167          0
   169          0
   174          0
   175          1
   176          0
   183          0
   189          2
   190          0
   202          0
   207          0
   216          0
   231          0
   232         32
   233          6