##TITLE=Library Entry 60996
##JCAMP-DX=Revision 4.10 
##DATA TYPE=MASS SPECTRUM
##SAMPLE DESCRIPTION=D.HENNEBERG, MAX-PLANCK INSTITUTE, MULHEIM, WEST GERMAN
Y
##NAMES=HP
##CAS NAME=Benzene, (1-butylheptyl)-
##MOLFORM=C17H28
##CAS REGISTRY NO=4537-15-9
##MP= -300
##BP= -300
##MW= 232
##$RETENTION INDEX=1632
##$CONDENSED SPECTRUM=NO
##NPOINTS= 115
##XYDATA=(XY..XY) 1 
    25          0
    26          1
    27         24
    28          0
    29         36
    30          0
    33          0
    36          0
    38          0
    39         15
    40          0
    41         58
    42          4
    43         40
    44          0
    46          1
    49          0
    50          0
    51          6
    52          1
    53          4
    54          0
    55         26
    56          3
    57          7
    58          0
    61          0
    62          0
    63          2
    64          1
    65         14
    66          1
    67          2
    68          0
    69         10
    70          1
    71          8
    72          0
    73          0
    74          0
    75          2
    76          1
    77         16
    78         14
    79         11
    80          1
    81          1
    82          0
    83          5
    84          0
    85          0
    86          0
    87          1
    88          0
    89          4
    90          4
    91        999
    92         82
    93          4
    94          0
    95          0
    97          3
    98          0
    99          0
   100          0
   101          1
   102          3
   103         13
   104         39
   105        155
   106         13
   107          0
   111          0
   112          0
   113          0
   114          0
   115         14
   116          4
   117         21
   118          5
   119         48
   120          4
   127          1
   128          2
   129          2
   130          0
   131          2
   132          1
   133         16
   134          2
   141          0
   143          0
   144          0
   145          1
   146          6
   147        150
   148         22
   149          1
   160          0
   161          3
   162          0
   165          0
   167          0
   169          0
   173          0
   174          2
   175         72
   176         11
   177          0
   178          0
   189          0
   190          0
   203          0
   232         31
   233          5