##TITLE=Library Entry 77856
##JCAMP-DX=Revision 4.10 
##DATA TYPE=MASS SPECTRUM
##SAMPLE DESCRIPTION=Japan AIST/NIMC Database- Spectrum MS-IW-3100
##NAMES=HP
##CAS NAME=cis-2,3-Dimethyl-2,3-diphenyloxirane
##MOLFORM=C16H16O
##CAS REGISTRY NO=4539-31-5
##MP= -300
##BP= -300
##MW= 224
##$RETENTION INDEX=0
##$CONDENSED SPECTRUM=NO
##NPOINTS= 112
##XYDATA=(XY..XY) 1 
    15          4
    26          1
    27         11
    28          3
    38          3
    39         32
    40          2
    41          5
    42          1
    43        194
    44          4
    45          1
    50         26
    51         94
    52         28
    53          8
    54          1
    61          1
    62          5
    63         27
    64          5
    65         15
    66          1
    74          9
    75         11
    76         24
    77        265
    78        279
    79         23
    82          2
    83          2
    86          1
    87          2
    88          2
    89         17
    90          1
    91         20
    92          2
    94          1
    95          1
    96          1
    97          6
    98          1
   101          6
   102         47
   103        371
   104        999
   105        234
   106         15
   107          1
   115          9
   116          1
   117          2
   118          2
   119          7
   120         19
   121        169
   122         14
   123          1
   126          1
   127          2
   128          4
   129          3
   130          1
   131          5
   132          1
   133         24
   134          2
   139          1
   141          1
   145          3
   146          6
   147          3
   150          1
   151          2
   152          4
   153          3
   163          1
   164          2
   165         27
   166         27
   167         42
   168          5
   176          2
   177          2
   178         11
   179         12
   180          7
   181        257
   182         39
   183          3
   189          3
   190          1
   191         10
   192          3
   193          4
   194         15
   195          4
   202          1
   203          1
   204          1
   205          9
   206         27
   207          7
   208          8
   209        144
   210         23
   211          2
   223        159
   224        386
   225         65
   226          6