##TITLE=Library Entry 525
##JCAMP-DX=Revision 4.10 
##DATA TYPE=MASS SPECTRUM
##SAMPLE DESCRIPTION=Exported from NIST MS Search
##NAMES=HP
##CAS NAME=Acetic acid, difluoro-, ethyl ester
##MOLFORM=C4H6F2O2
##CAS REGISTRY NO=454-31-9
##MP= -300
##BP= -300
##MW= 124
##$RETENTION INDEX=0
##$CONDENSED SPECTRUM=NO
##NPOINTS= 80
##XYDATA=(XY..XY) 1 
    13          3
    14          7
    15         22
    16          1
    17          5
    18         23
    19          5
    25          1
    26         22
    27        221
    28        140
    29        999
    30         26
    31         54
    32         33
    33          9
    36          2
    37          1
    38          2
    39          5
    40          2
    41         13
    42          7
    43         50
    44         14
    45        169
    46          8
    47          7
    48          2
    49         12
    50         15
    51        435
    52         10
    53          1
    55          2
    56          4
    57         10
    58          2
    59         13
    60         20
    61          7
    62          1
    63          4
    64          1
    65          3
    67         13
    69          2
    70          2
    71          2
    73         22
    74          3
    75          6
    76         14
    77         33
    78          9
    79         18
    80          2
    81        214
    82          6
    83          3
    89          5
    90          3
    91          4
    92          1
    95         31
    96         15
    97          8
   103          3
   104          1
   105          7
   106          4
   107          1
   109         13
   110          2
   118          4
   119          1
   120          8
   121          5
   122          1
   123          4