##TITLE=Library Entry 21973
##JCAMP-DX=Revision 4.10 
##DATA TYPE=MASS SPECTRUM
##SAMPLE DESCRIPTION=NIST Mass Spectrometry Data Center, 1990.
##NAMES=HP
##CAS NAME=Cyclopentanone, 2,2-dimethyl-
##MOLFORM=C7H12O
##CAS REGISTRY NO=4541-32-6
##MP= -300
##BP= -300
##MW= 112
##$RETENTION INDEX=0
##$CONDENSED SPECTRUM=NO
##NPOINTS= 38
##XYDATA=(XY..XY) 1 
    14          4
    15         20
    16          1
    26         27
    27        146
    28         86
    29         61
    32          6
    37          9
    38         33
    39        250
    40         78
    41        437
    42         86
    43         41
    50         15
    51         22
    52          9
    53         38
    54          9
    55        194
    56        999
    57         56
    63          6
    65          9
    66          4
    67         27
    68         51
    69        115
    70         27
    79         72
    80          5
    83         16
    84         22
    94         37
    97         63
   112        181
   113         16