##TITLE=Library Entry 61208
##JCAMP-DX=Revision 4.10 
##DATA TYPE=MASS SPECTRUM
##SAMPLE DESCRIPTION=Exported from NIST MS Search
##NAMES=HP
##CAS NAME=1-Butanol, 4-(phenylmethoxy)-
##MOLFORM=C11H16O2
##CAS REGISTRY NO=4541-14-4
##MP= -300
##BP= -300
##MW= 180
##$RETENTION INDEX=0
##$CONDENSED SPECTRUM=NO
##NPOINTS= 78
##XYDATA=(XY..XY) 1 
    14         17
    15          4
    16          8
    17          7
    18         33
    19          4
    26          3
    27         25
    29         39
    30          8
    31         83
    36          4
    37          2
    38          6
    39         52
    40         21
    41         48
    42         19
    43         79
    44         15
    45         11
    50         11
    51         40
    52         20
    53          7
    54          3
    55         83
    56         16
    57          8
    60          4
    61          2
    62          5
    63         23
    64          8
    65        123
    66          7
    69          2
    71         20
    72          8
    73         22
    74          5
    75          4
    76          4
    77         94
    78         29
    79        134
    80         11
    85          3
    89         45
    90         22
    91        999
    92        395
    93         29
   103          2
   104         36
   105         84
   106         32
   107        512
   108        141
   109         11
   117         13
   118          3
   119          5
   120         17
   121          3
   122          9
   123         12
   131          3
   132          3
   133          8
   137         29
   138          4
   148          6
   161         14
   162         15
   163          3
   180         36
   181          5