##TITLE=Library Entry 22382
##JCAMP-DX=Revision 4.10 
##DATA TYPE=MASS SPECTRUM
##SAMPLE DESCRIPTION=Exported from NIST MS Search
##NAMES=HP
##CAS NAME=Cyclopentanone, 2,2,5,5-tetramethyl-
##MOLFORM=C9H16O
##CAS REGISTRY NO=4541-35-9
##MP= -300
##BP= -300
##MW= 140
##$RETENTION INDEX=0
##$CONDENSED SPECTRUM=NO
##NPOINTS= 71
##XYDATA=(XY..XY) 1 
    26          3
    27         48
    29         54
    30          2
    31          1
    37          1
    38          3
    39         67
    40         25
    41        294
    42         26
    43         33
    44         13
    45          2
    46          2
    50          3
    51          7
    52          3
    53         21
    54          7
    55         94
    56        999
    57        433
    58         17
    59          5
    62          1
    63          1
    65          3
    66          1
    67         11
    68         15
    69        187
    70         40
    71          7
    72        142
    73          6
    74          1
    77          4
    78          1
    79          5
    80          2
    81          6
    82          4
    83         10
    84         11
    85         22
    86          2
    91          2
    93          1
    94          1
    95          1
    96          6
    97         35
    98          3
   105          1
   107         12
   108          1
   109          3
   110          1
   111          5
   112         16
   113          2
   122         11
   123          2
   124          1
   125         20
   126          2
   127          1
   140        202
   141         21
   142          2