##TITLE=Library Entry 40575
##JCAMP-DX=Revision 4.10 
##DATA TYPE=MASS SPECTRUM
##SAMPLE DESCRIPTION=CCC 0008
##NAMES=HP
##CAS NAME=Borane, dimethoxy-
##MOLFORM=C2H7BO2
##CAS REGISTRY NO=4542-61-4
##MP= -300
##BP= -300
##MW= 74
##$RETENTION INDEX=0
##$CONDENSED SPECTRUM=NO
##NPOINTS= 46
##XYDATA=(XY..XY) 1 
    10          6
    11         25
    12         25
    13         33
    14         62
    15        513
    16          7
    17          2
    21          2
    22          1
    23          2
    24          3
    25          3
    26          5
    27         19
    28         65
    29        197
    30         18
    31         25
    36          6
    38          1
    39          4
    40         16
    41         25
    42        188
    43        647
    44         11
    45         21
    46          1
    47          1
    54          1
    55          3
    56         17
    57         52
    58          8
    59         15
    60          1
    61          1
    69          1
    70          2
    71          4
    72        267
    73        999
    74         27
    75          3
    76          1