##TITLE=Library Entry 25363
##JCAMP-DX=Revision 4.10 
##DATA TYPE=MASS SPECTRUM
##SAMPLE DESCRIPTION=Japan AIST/NIMC Database- Spectrum MS-NW-2086
##NAMES=HP
##CAS NAME=Dodecane, 1,1'-oxybis-
##MOLFORM=C24H50O
##CAS REGISTRY NO=4542-57-8
##MP= -300
##BP= -300
##MW= 354
##$RETENTION INDEX=0
##$CONDENSED SPECTRUM=NO
##NPOINTS= 92
##XYDATA=(XY..XY) 1 
    15          1
    17          1
    18          3
    26          2
    27         42
    28         13
    29        138
    30          3
    31          6
    39         23
    40          6
    41        251
    42         77
    43        542
    44         17
    45         11
    51          1
    53         10
    54         30
    55        300
    56        211
    57        999
    58         41
    59          1
    65          1
    66          7
    67         41
    68        180
    69        305
    70        208
    71        637
    72         35
    73          6
    79          2
    80          2
    81         24
    82        304
    83        367
    84        200
    85        502
    86         32
    87          5
    94          1
    95         12
    96         88
    97        312
    98        143
    99        286
   100         21
   101          1
   109          6
   110         36
   111        210
   112         93
   113        206
   114         17
   115          1
   123          3
   124         15
   125         91
   126         44
   127         76
   128          8
   137          2
   138          8
   139         30
   140        130
   141         16
   143          2
   153          1
   166         14
   167         13
   168        321
   169        492
   170         62
   171          4
   185          8
   186          1
   187         28
   188          4
   196          1
   197          2
   199         10
   200          2
   201          1
   213          1
   241          4
   255          1
   311          2
   353          2
   354          2
   355          1