##TITLE=Library Entry 90793
##JCAMP-DX=Revision 4.10 
##DATA TYPE=MASS SPECTRUM
##SAMPLE DESCRIPTION=D.HENNEBERG, MAX-PLANCK INSTITUTE, MULHEIM, WEST GERMAN
Y
##NAMES=HP
##CAS NAME=Bicyclo[3.3.0]octane, 5-azonia-1-borata-2,8-dioxa-1-ethyl-
##MOLFORM=C6H14BNO2
##CAS REGISTRY NO=4542-54-5
##MP= -300
##BP= -300
##MW= 143
##$RETENTION INDEX=0
##$CONDENSED SPECTRUM=NO
##NPOINTS= 65
##XYDATA=(XY..XY) 1 
    26         40
    27        185
    28        356
    29        257
    30        177
    31         17
    36          0
    37          4
    38          3
    39         16
    40         22
    41         73
    42        221
    43         87
    44        439
    45         61
    51          1
    52          5
    53         11
    54         31
    55        103
    56        290
    57         95
    58         41
    59         46
    60          0
    65          1
    66          2
    67          3
    68         15
    69         58
    70        281
    71         72
    72         11
    73          7
    74          6
    81          2
    82          6
    83         15
    84         50
    85         41
    86         30
    87          7
    88          2
    91          1
    95          2
    96          8
    97          5
    98         23
    99         31
   100         45
   101          2
   109          2
   110         11
   111         34
   112        109
   113        275
   114        999
   115         48
   116          5
   127          1
   128          2
   142          4
   143          8
   144          1