##TITLE=Library Entry 72824
##JCAMP-DX=Revision 4.10 
##DATA TYPE=MASS SPECTRUM
##SAMPLE DESCRIPTION=RADIAN CORP
##NAMES=HP
##CAS NAME=4-Morpholineethanethiol
##MOLFORM=C6H13NOS
##CAS REGISTRY NO=4542-46-5
##MP= -300
##BP= -300
##MW= 147
##$RETENTION INDEX=0
##$CONDENSED SPECTRUM=NO
##NPOINTS= 52
##XYDATA=(XY..XY) 1 
    15         12
    26         25
    27        117
    28         82
    29         87
    30         60
    31          3
    33         14
    34          9
    35         27
    37          2
    39          7
    40          8
    41         68
    42        275
    43         90
    44         22
    45         14
    46         15
    47         49
    52          5
    53          2
    54         55
    55         45
    56        229
    58         32
    59         23
    60         19
    61         64
    62          2
    67          1
    68          8
    70        107
    71         18
    72         41
    82          2
    85          4
    88         11
    90          1
    98         13
   100        999
   101         63
   102         13
   105         12
   112          4
   113          4
   114          7
   122          3
   146          2
   147         10
   148          3
   149          1