##TITLE=Library Entry 3709
##JCAMP-DX=Revision 4.10 
##DATA TYPE=MASS SPECTRUM
##SAMPLE DESCRIPTION=NIST Mass Spectrometry Data Center, 1994
##NAMES=HP
##CAS NAME=1,10-Dicyanodecane
##MOLFORM=C12H20N2
##CAS REGISTRY NO=4543-66-2
##MP= -300
##BP= -300
##MW= 192
##$RETENTION INDEX=0
##$CONDENSED SPECTRUM=NO
##NPOINTS= 90
##XYDATA=(XY..XY) 1 
    13          4
    14          3
    15         28
    27        321
    28        141
    29        323
    30         42
    37          6
    39        324
    41        999
    42        176
    43        181
    44         19
    48          0
    50          8
    51         25
    52         39
    53        126
    54        408
    55        580
    56         87
    57         68
    58          7
    62          1
    63          4
    64          9
    65         24
    66         29
    67         97
    68        110
    69        446
    70         41
    71          5
    72          4
    77         15
    79         65
    80         35
    82        800
    83        823
    84         55
    85          2
    86          1
    91         19
    93         40
    94         25
    96        595
    97        640
    98         43
   105          7
   107         23
   108         20
   110        262
   111         34
   112          2
   117          1
   118          1
   119          2
   120          5
   121          4
   122         12
   123          1
   124         59
   125          4
   129          1
   131          1
   132          2
   133          1
   134          2
   135          9
   136          6
   138         14
   139          1
   145          0
   146          4
   147          2
   148          3
   149         15
   150          3
   151          0
   152        101
   153         12
   161          0
   163         29
   164          4
   174          6
   175          1
   177          1
   191         13
   192          2
   193          2