##TITLE=Library Entry 59535
##JCAMP-DX=Revision 4.10 
##DATA TYPE=MASS SPECTRUM
##SAMPLE DESCRIPTION=D.HENNEBERG, MAX-PLANCK INSTITUTE, MULHEIM, WEST GERMAN
Y
##NAMES=HP
##CAS NAME=Phosphonous dichloride, (phenylmethyl)-
##MOLFORM=C7H7Cl2P
##CAS REGISTRY NO=4545-85-1
##MP= -300
##BP= -300
##MW= 192
##$RETENTION INDEX=0
##$CONDENSED SPECTRUM=NO
##NPOINTS= 104
##XYDATA=(XY..XY) 1 
    26          6
    27         10
    28         11
    32          2
    35          5
    36         14
    37          7
    38         14
    39         78
    40          3
    41         18
    42          0
    43          1
    44          1
    45          3
    47          0
    48          0
    49          3
    50         28
    51         44
    52         10
    53          1
    54          0
    55          1
    56          4
    57          3
    58          0
    59          0
    60          2
    61          6
    62         15
    63         42
    64         11
    65        126
    66          8
    68          9
    69         10
    70          2
    71          0
    73          2
    74          4
    75          4
    76          3
    77         28
    78         21
    79          1
    80          3
    81          4
    82          0
    83          0
    84          0
    85          1
    86          2
    87          2
    88          1
    89         30
    90         11
    91        999
    92         72
    93          5
    94          1
    95          5
    96          1
    97          0
    99          0
   101         12
   103          8
   104          1
   105          1
   107          1
   108          0
   112          1
   116          0
   117          0
   119          2
   120         10
   121         27
   122          3
   125          2
   126          4
   128          2
   136          0
   138          0
   140          0
   145          0
   147          0
   153          0
   155          0
   156          0
   157         31
   158          3
   159          8
   160          0
   165          0
   167          0
   178          0
   182          4
   183          1
   192         28
   193          2
   194         18
   195          1
   196          3
   197          0