##TITLE=Library Entry 84325
##JCAMP-DX=Revision 4.10 
##DATA TYPE=MASS SPECTRUM
##SAMPLE DESCRIPTION=NIST Mass Spectrometry Data Center, 1994
##NAMES=HP
##CAS NAME=4-(n-Butoxyphenyl)acetic acid
##MOLFORM=C12H16O3
##CAS REGISTRY NO=4547-57-3
##MP= -300
##BP= -300
##MW= 208
##$RETENTION INDEX=0
##$CONDENSED SPECTRUM=NO
##NPOINTS= 84
##XYDATA=(XY..XY) 1 
    12          1
    15          0
    17          1
    18          6
    25          1
    26          7
    27         85
    28          0
    29        190
    30          3
    36          2
    37          1
    38          7
    39         84
    40         10
    41        143
    42          6
    43          6
    44          6
    45         25
    50         19
    51         60
    52         37
    53         32
    54          2
    55         26
    56          6
    57         38
    58          2
    61          1
    62          6
    63         25
    64          9
    65         12
    66          4
    67          3
    68          1
    69          1
    75          2
    77        141
    78         62
    79         47
    80          5
    81          6
    86          0
    89         37
    90         24
    91         15
    92          2
    93          1
    94          1
    95          5
    96          1
   103          1
   104          1
   105         10
   106          1
   107        999
   108         83
   109         26
   110          2
   117          2
   119          3
   120          2
   121          4
   122          1
   123          4
   124          2
   133          7
   134          5
   135          7
   137          1
   147          1
   150          1
   152        239
   153         21
   154          2
   161          1
   163         16
   164          1
   165          5
   208        107
   209         13
   210          1