##TITLE=Library Entry 89737
##JCAMP-DX=Revision 4.10 
##DATA TYPE=MASS SPECTRUM
##SAMPLE DESCRIPTION=Japan AIST/NIMC Database- Spectrum MS-NW-4641
##NAMES=HP
##CAS NAME=2-Chloro-5-nitropyridine
##MOLFORM=C5H3ClN2O2
##CAS REGISTRY NO=4548-45-2
##MP= -300
##BP= -300
##MW= 158
##$RETENTION INDEX=0
##$CONDENSED SPECTRUM=NO
##NPOINTS= 84
##XYDATA=(XY..XY) 1 
    12          3
    13          1
    14          1
    16          2
    24          3
    25          9
    26         45
    27          9
    28         31
    29          4
    30        134
    35          6
    36         14
    37         53
    38         59
    39         22
    40          6
    41          1
    44          4
    46         20
    47         18
    48         10
    49         60
    50        368
    51        170
    52         46
    53          4
    54          1
    55          3
    59          1
    60         22
    61         25
    62         49
    63         21
    64         29
    65          5
    66          2
    67          1
    68          1
    71          2
    72          7
    73         57
    74         11
    75         74
    76        472
    77         72
    78          6
    79          1
    80          2
    81          1
    83          4
    84         16
    85        468
    86         40
    87        151
    88         10
    92          3
    93          1
    95          3
    98          1
    99          3
   100        179
   101         10
   102         57
   103          3
   110          2
   111          7
   112        999
   113         61
   114        315
   115         18
   123          1
   128         11
   129          1
   130          4
   141         10
   142         10
   143          4
   144          4
   158        593
   159         38
   160        196
   161         12
   162          1