##TITLE=Library Entry 20116
##JCAMP-DX=Revision 4.10 
##DATA TYPE=MASS SPECTRUM
##SAMPLE DESCRIPTION=Japan AIST/NIMC Database- Spectrum MS-NW-5659
##NAMES=HP
##CAS NAME=Nonane, 1,9-dibromo-
##MOLFORM=C9H18Br2
##CAS REGISTRY NO=4549-33-1
##MP= -300
##BP= -300
##MW= 284
##$RETENTION INDEX=1607
##$CONDENSED SPECTRUM=NO
##NPOINTS= 98
##XYDATA=(XY..XY) 1 
    14          2
    15          9
    26         14
    27        275
    28         27
    29        238
    30          5
    36          1
    37          2
    38          9
    39        202
    40         34
    41        747
    42        120
    43        388
    44         12
    46          1
    47          2
    50          5
    51         12
    52          5
    53         65
    54         49
    55        999
    56         83
    57        610
    58         29
    62          1
    63          4
    65          9
    66          5
    67         64
    68         35
    69        847
    70         73
    71        240
    72         14
    77          5
    78          1
    79          7
    80          8
    81         35
    82         25
    83        407
    84         32
    85         42
    86          2
    91          1
    93         14
    94          2
    95         15
    96          6
    97         45
    98          5
   105          2
   106          3
   107         52
   108          4
   109         50
   110          1
   111          2
   119          4
   120          3
   121         21
   122          3
   123         19
   124          2
   125        114
   126         12
   127          2
   133          2
   134          8
   135        268
   136         19
   137        249
   138         11
   147          1
   148         14
   149        101
   150         19
   151         87
   152          6
   161          2
   162          9
   163         65
   164         12
   165         63
   166          5
   176          2
   177          1
   178          2
   179          1
   204          1
   205         23
   206          4
   207         23
   208          3
   286          1