##TITLE=Library Entry 34927
##JCAMP-DX=Revision 4.10 
##DATA TYPE=MASS SPECTRUM
##SAMPLE DESCRIPTION=Japan AIST/NIMC Database- Spectrum MS-NW-2109
##NAMES=HP
##CAS NAME=Octane, 1,8-dibromo-
##MOLFORM=C8H16Br2
##CAS REGISTRY NO=4549-32-0
##MP= -300
##BP= -300
##MW= 270
##$RETENTION INDEX=1519
##$CONDENSED SPECTRUM=NO
##NPOINTS= 86
##XYDATA=(XY..XY) 1 
    15          7
    26         12
    27        203
    28         17
    29        158
    30          3
    36          1
    37          1
    38          6
    39        136
    40         22
    41        580
    42         86
    43        330
    44         11
    46          1
    50          4
    51          9
    52          4
    53         45
    54         44
    55        814
    56         98
    57        482
    58         20
    63          2
    64          1
    65          5
    66          4
    67         65
    68         50
    69        999
    70         58
    71        111
    72          5
    77          3
    79          5
    80          5
    81         38
    82         27
    83         83
    84          8
    85          9
    91          2
    93         11
    95         10
    97          4
   105          1
   106          4
   107         54
   108          5
   109         53
   110          6
   111        533
   112         47
   113          2
   119          3
   120          4
   121         20
   122          5
   123         17
   133          2
   134          5
   135        292
   136         16
   137        277
   138         11
   147          1
   148         37
   149         81
   150         40
   151         78
   152          4
   161          1
   162          7
   163          2
   164          7
   165          1
   190          4
   191         71
   192         10
   193         72
   194          6
   270          1
   272          3
   274          1