##TITLE=Library Entry 69832
##JCAMP-DX=Revision 4.10 
##DATA TYPE=MASS SPECTRUM
##SAMPLE DESCRIPTION=Japan AIST/NIMC Database- Spectrum MS-IW-3484
##NAMES=HP
##CAS NAME=Heptane, 1,7-dibromo-
##MOLFORM=C7H14Br2
##CAS REGISTRY NO=4549-31-9
##MP= -300
##BP= -300
##MW= 256
##$RETENTION INDEX=1397
##$CONDENSED SPECTRUM=NO
##NPOINTS= 82
##XYDATA=(XY..XY) 1 
    15          4
    26          9
    27        141
    28         26
    29         95
    30          2
    37          1
    38          6
    39        116
    40         20
    41        354
    42         70
    43        197
    44          6
    45          1
    46          4
    47          8
    48          9
    49         14
    50          4
    51          8
    52          4
    53         38
    54         22
    55        834
    56         52
    57        191
    58          8
    62          1
    63          2
    65          5
    66          2
    67         38
    68         31
    69        207
    70         20
    71         16
    77          3
    79          5
    80          8
    81         18
    82          9
    83          9
    91          2
    93         14
    95         14
    96          6
    97        999
    98         81
    99          2
   105          2
   106          5
   107         60
   108          6
   109         57
   110          1
   119          3
   120          3
   121         32
   122          4
   123         29
   133          3
   134         10
   135        158
   136         16
   137        151
   138          7
   148         11
   149          3
   150         11
   151          2
   173          3
   175          7
   176          4
   177         81
   178          9
   179         76
   180          6
   256          2
   257          1
   258          5
   260          2