##TITLE=Library Entry 28200
##JCAMP-DX=Revision 4.10 
##DATA TYPE=MASS SPECTRUM
##SAMPLE DESCRIPTION=T. BRYCE UNILEVER RESEARCH COLWORTH/WELWYN, BEDFORD U.K
.
##NAMES=HP
##CAS NAME=1-Butanamine, N-ethyl-N-nitroso-
##MOLFORM=C6H14N2O
##CAS REGISTRY NO=4549-44-4
##MP= -300
##BP= -300
##MW= 130
##$RETENTION INDEX=1560
##$CONDENSED SPECTRUM=NO
##NPOINTS= 44
##XYDATA=(XY..XY) 1 
    30        581
    31         33
    37         11
    38         20
    39        165
    40         51
    41        550
    42        803
    43        477
    44        330
    45         29
    50         14
    51         14
    52         12
    53         22
    54         49
    55        150
    56        836
    57        994
    58        999
    59         40
    67         12
    68         11
    69         23
    70         69
    71         93
    72         33
    73         18
    74         16
    75         95
    84        247
    85         27
    87        486
    88        587
    89         23
    98         12
    99         11
   100         11
   101         58
   113        115
   114         12
   115         11
   130        346
   131         27