##TITLE=Library Entry 86521
##JCAMP-DX=Revision 4.10 
##DATA TYPE=MASS SPECTRUM
##SAMPLE DESCRIPTION=Japan AIST/NIMC Database- Spectrum MS-NW-6616
##NAMES=HP
##CAS NAME=Benzene, 1-fluoro-2-methyl-4-nitro-
##MOLFORM=C7H6FNO2
##CAS REGISTRY NO=455-88-9
##MP= -300
##BP= -300
##MW= 155
##$RETENTION INDEX=0
##$CONDENSED SPECTRUM=NO
##NPOINTS= 105
##XYDATA=(XY..XY) 1 
    14          2
    15          2
    16          2
    20          1
    25          1
    26          6
    27         15
    28         31
    29          1
    30         86
    31         37
    32          4
    33          9
    36          2
    37         18
    38         28
    39        110
    40          7
    41          3
    43          5
    44          7
    45          4
    46          9
    47          2
    48          2
    49          9
    50         56
    51         78
    52         10
    53          5
    55          2
    56         17
    57        190
    58         10
    59         67
    60          4
    61         29
    62         61
    63        149
    64         16
    65         12
    66          1
    67          1
    68         14
    69         13
    70         17
    71         11
    72          2
    73          7
    74         23
    75         26
    76          7
    77         79
    78          9
    79          3
    80         13
    81         77
    82         29
    83        635
    84         39
    85         13
    86         16
    87         16
    88          9
    89         79
    90          9
    91         12
    92          4
    93          6
    94          9
    95         57
    96         30
    97        155
    98          9
    99          2
   100          1
   101          1
   102          1
   103          1
   104          3
   105         14
   106          6
   107        159
   108         84
   109        999
   110         79
   111          3
   113          1
   121          2
   122          4
   123          3
   124          7
   125        307
   126         25
   127          2
   135          1
   137          7
   138          6
   139         32
   140          3
   153          7
   154         13
   155        960
   156         80
   157          9