##TITLE=Library Entry 63012
##JCAMP-DX=Revision 4.10 
##DATA TYPE=MASS SPECTRUM
##SAMPLE DESCRIPTION=Japan AIST/NIMC Database- Spectrum MS-NW-6714
##NAMES=HP
##CAS NAME=Benzenesulfonyl fluoride, 4-methyl-
##MOLFORM=C7H7FO2S
##CAS REGISTRY NO=455-16-3
##MP= -300
##BP= -300
##MW= 174
##$RETENTION INDEX=0
##$CONDENSED SPECTRUM=NO
##NPOINTS= 75
##XYDATA=(XY..XY) 1 
    15          1
    20          1
    26          4
    27         19
    28         12
    32          1
    34          1
    37          9
    38         24
    39        145
    40         11
    41         32
    42          1
    43          8
    44          6
    45          6
    48          6
    49          4
    50         52
    51         69
    52         21
    53         14
    54          1
    55          1
    57          3
    58          1
    59          1
    60          1
    61         15
    62         42
    63        111
    64         30
    65        250
    66         14
    67          9
    68          1
    69          7
    70          2
    71          1
    73          3
    74         13
    75         12
    76          6
    77         91
    78         34
    79         75
    80          5
    81          1
    82          1
    83          7
    84          2
    85          6
    86         10
    87          9
    88          3
    89        102
    90         80
    91        999
    92         78
    93          3
    95          1
    96          1
   105          2
   106         16
   107         79
   108          6
   109         25
   110          7
   111          1
   172          1
   173         10
   174        570
   175         49
   176         31
   177          2