##TITLE=Library Entry 68787
##JCAMP-DX=Revision 4.10 
##DATA TYPE=MASS SPECTRUM
##SAMPLE DESCRIPTION=Chemical Concepts
##NAMES=HP
##CAS NAME=Benzene, 1-fluoro-4-(methylsulfonyl)-
##MOLFORM=C7H7FO2S
##CAS REGISTRY NO=455-15-2
##MP= -300
##BP= -300
##MW= 174
##$RETENTION INDEX=0
##$CONDENSED SPECTRUM=NO
##NPOINTS= 94
##XYDATA=(XY..XY) 1 
    27          5
    28         11
    29          2
    31         12
    33          1
    34          0
    37          6
    38         10
    39         17
    40          0
    41          0
    43          0
    44          0
    45         19
    46          2
    47          3
    48          3
    49          6
    50         64
    51         42
    52          2
    53          1
    55          0
    56          4
    57         39
    58          2
    59          3
    60          0
    61          6
    62         10
    63         25
    64          3
    65          4
    67          0
    68         28
    69         55
    70          7
    71          8
    72          2
    73          7
    74         37
    75        206
    76         18
    77          1
    78          0
    79          7
    80          1
    81          8
    82          6
    83         91
    84          8
    85          1
    86          1
    87          1
    88          1
    89          1
    91          0
    92          5
    93         10
    94         26
    95        999
    96         62
    97          2
    98          0
    99          3
   100          1
   102          0
   107          1
   108          0
   109         11
   110          1
   111        213
   112         99
   113          8
   114          0
   115         15
   116          1
   117          0
   126          3
   127          5
   128          0
   142          1
   143         26
   144          1
   145          1
   155          0
   159        374
   160         27
   161         19
   162          1
   174        232
   175         21
   176         11
   177          1