##TITLE=Library Entry 69494
##JCAMP-DX=Revision 4.10 
##DATA TYPE=MASS SPECTRUM
##SAMPLE DESCRIPTION=Chemical Concepts
##NAMES=HP
##CAS NAME=Benzoyl fluoride
##MOLFORM=C7H5FO
##CAS REGISTRY NO=455-32-3
##MP= -300
##BP= -300
##MW= 124
##$RETENTION INDEX=0
##$CONDENSED SPECTRUM=NO
##NPOINTS= 77
##XYDATA=(XY..XY) 1 
    24          0
    25          3
    26         18
    27         37
    28          6
    29          0
    31         11
    33          1
    36          3
    37         42
    38         64
    39         61
    40          2
    41          0
    42          0
    43          0
    44          3
    45          4
    46          3
    47         22
    48         21
    49         37
    50        319
    51        370
    52         24
    53          8
    56          4
    57         26
    58          1
    59          0
    60          2
    61         14
    62         25
    63         23
    64          1
    66          0
    67          2
    68         16
    69         35
    70        124
    71          5
    72          0
    73         28
    74        122
    75        130
    76        113
    77        373
    78         24
    79          1
    80          0
    81          8
    82          2
    83          0
    84          1
    85          1
    86          1
    87          0
    91          0
    92          1
    93          1
    94         13
    95         78
    96        999
    97         61
    98          1
    99          3
   100          0
   103          0
   104         17
   105        309
   106         21
   107          5
   108          0
   123        152
   124        974
   125         71
   126          4