##TITLE=Library Entry 42477
##JCAMP-DX=Revision 4.10 
##DATA TYPE=MASS SPECTRUM
##SAMPLE DESCRIPTION=J.E. DRAKE, DEP. CHEM., WINDSOR UNIV., ONTARIO, CANA
##NAMES=HP
##CAS NAME=Disilatellurane, hexamethyl-
##MOLFORM=C6H18Si2Te
##CAS REGISTRY NO=4551-16-0
##MP= -300
##BP= -300
##MW= 276
##$RETENTION INDEX=0
##$CONDENSED SPECTRUM=NO
##NPOINTS= 73
##XYDATA=(XY..XY) 1 
    43         41
    44         15
    45        118
    46          7
    47          4
    58          9
    59         32
    60          2
    61          0
    73        999
    74         88
    75         41
    76          1
   146        201
   147         34
   148         15
   149          1
   150          0
   165          0
   166          1
   167          2
   168          4
   169          9
   170          3
   171         12
   172          3
   173         12
   174          2
   175          0
   180          3
   181          1
   182          6
   183         11
   184         28
   185          6
   186         42
   187          8
   188         41
   189          6
   190          1
   196          0
   197          0
   198          2
   199          5
   200          9
   201          3
   202         12
   203          3
   204         12
   205          0
   253          1
   254          0
   255          3
   256          5
   257         15
   258          2
   259         23
   260          3
   261         25
   262          4
   263          1
   268         10
   269          5
   270         18
   271         33
   272         74
   273         16
   274        122
   275         24
   276        135
   277         24
   278          9
   279          0