##TITLE=Library Entry 50536
##JCAMP-DX=Revision 4.10 
##DATA TYPE=MASS SPECTRUM
##SAMPLE DESCRIPTION=Japan AIST/NIMC Database- Spectrum MS-NW-3544
##NAMES=HP
##CAS NAME=1H-Indene, octahydro-, cis-
##MOLFORM=C9H16
##CAS REGISTRY NO=4551-51-3
##MP= -300
##BP= -300
##MW= 124
##$RETENTION INDEX=990
##$CONDENSED SPECTRUM=NO
##NPOINTS= 76
##XYDATA=(XY..XY) 1 
    15          7
    26          8
    27        118
    28          7
    29         81
    30          2
    37          2
    38          8
    39        167
    40         32
    41        289
    42         31
    43         16
    44          3
    45          2
    46          2
    50         10
    51         27
    52         15
    53        104
    54        258
    55        263
    56         20
    57          9
    58          4
    59          1
    60          1
    61          1
    62          4
    63          9
    64          2
    65         31
    66         81
    67        843
    68        321
    69         53
    70          8
    71          4
    73          1
    74          2
    75          1
    76          1
    77         37
    78          9
    79         81
    80         47
    81        999
    82        755
    83         86
    84          8
    85          2
    86          1
    87          1
    89          1
    91         16
    92          3
    93         18
    94         16
    95        236
    96        869
    97         73
    98         13
    99          2
   103          1
   105          1
   107          2
   108          1
   109         20
   110          6
   120          3
   121          1
   122          3
   123          7
   124        287
   125         28
   126          2