##TITLE=Library Entry 42927
##JCAMP-DX=Revision 4.10 
##DATA TYPE=MASS SPECTRUM
##SAMPLE DESCRIPTION=NIST Mass Spectrometry Data Center
##NAMES=HP
##CAS NAME=Thiophenol, TMS derivative
##MOLFORM=C9H14SSi
##CAS REGISTRY NO=4551-15-9
##MP= -300
##BP= -300
##MW= 182
##$RETENTION INDEX=0
##$CONDENSED SPECTRUM=NO
##NPOINTS= 98
##XYDATA=(XY..XY) 1 
    15         16
    17          1
    18          2
    25          1
    26          3
    27         23
    28         19
    29         47
    30          3
    31         14
    32          3
    33          2
    37          2
    38          9
    39         73
    40          6
    41          8
    42         23
    43        138
    44         44
    45        214
    46         17
    47          9
    50         46
    51        138
    52         13
    53         26
    54          7
    55         20
    56          4
    57         18
    58         25
    59         21
    60          7
    61         21
    62         11
    63         17
    65         83
    66         14
    67          3
    69         31
    70          6
    71          8
    73        999
    74         96
    75        162
    76         24
    77        148
    78         16
    79         13
    80          3
    81          6
    82         10
    83          8
    84          5
    85          6
    86          1
    87          2
    89         17
    90         17
    91        131
    92         16
    97          2
   101          1
   103          8
   104          3
   105         27
   106          3
   107          6
   108          7
   109         30
   110          6
   111          2
   117          1
   119          3
   121          4
   131          7
   133         17
   134          3
   135         11
   136         12
   137         29
   138          6
   139          1
   149          6
   151        316
   152         47
   153         29
   163          1
   164          2
   165         17
   167        439
   168         67
   169         40
   170          5
   182        432
   183         67
   184         35