##TITLE=Library Entry 5116
##JCAMP-DX=Revision 4.10 
##DATA TYPE=MASS SPECTRUM
##SAMPLE DESCRIPTION=ASES Database, Dalian Institute, P.R. China
##NAMES=HP
##CAS NAME=2-Oxazolamine, 4,5-dimethyl-
##MOLFORM=C5H8N2O
##CAS REGISTRY NO=45529-92-8
##MP= -300
##BP= -300
##MW= 112
##$RETENTION INDEX=0
##$CONDENSED SPECTRUM=NO
##NPOINTS= 36
##XYDATA=(XY..XY) 1 
    27        232
    28        401
    29         70
    30         19
    32         20
    37         10
    38         20
    39         99
    40        120
    41        334
    42        999
    43        575
    44        102
    45          9
    50         20
    51         48
    52         50
    53         70
    54        292
    55        209
    56         69
    67         69
    68        181
    69        452
    70        101
    71         50
    81         30
    82          9
    83         50
    84         20
    95          9
    97         19
   111        419
   112        863
   113        139
   114         10