##TITLE=Library Entry 37806
##JCAMP-DX=Revision 4.10 
##DATA TYPE=MASS SPECTRUM
##SAMPLE DESCRIPTION=Exported from NIST MS Search
##NAMES=HP
##CAS NAME=Pyrrolidine, 1-(1-oxopropyl)-
##MOLFORM=C7H13NO
##CAS REGISTRY NO=4553-05-3
##MP= -300
##BP= -300
##MW= 127
##$RETENTION INDEX=1193
##$CONDENSED SPECTRUM=NO
##NPOINTS= 36
##XYDATA=(XY..XY) 1 
    26         20
    27        110
    28        105
    29        510
    30        160
    39         30
    40         10
    41        110
    42        110
    43        900
    44        110
    53         20
    54         20
    55        700
    56        250
    57        550
    58         40
    67         20
    68         70
    69         60
    70        999
    71        430
    72         70
    84        120
    85         20
    86         30
    97         10
    98        770
    99        300
   100         30
   112        160
   113         10
   126        100
   127        920
   128        140
   129         20