##TITLE=Library Entry 26396
##JCAMP-DX=Revision 4.10 
##DATA TYPE=MASS SPECTRUM
##SAMPLE DESCRIPTION=Exported from NIST MS Search
##NAMES=HP
##CAS NAME=Germacyclopentane, 1-chloro-
##MOLFORM=C4H9ClGe
##CAS REGISTRY NO=4554-75-0
##MP= -300
##BP= -300
##MW= 166
##$RETENTION INDEX=0
##$CONDENSED SPECTRUM=NO
##NPOINTS= 58
##XYDATA=(XY..XY) 1 
    41        199
    42         15
    51         15
    53         22
    54          8
    55         57
    56         28
    57        999
    58         35
    85         13
    86         13
    88         17
    89         26
    91         22
    93         17
    95         13
    97         15
    98         26
    99         57
   100         39
   101         70
   102         48
   103         44
   105        327
   106         15
   107        530
   108        128
   109        721
   110         92
   111        318
   112         15
   113         53
   120         13
   122         35
   124         15
   126         17
   127         37
   128         13
   129         48
   130         26
   131         57
   133         37
   134         75
   135         44
   136        106
   137         81
   138        128
   139         39
   140         61
   142         11
   162         55
   164         88
   165         24
   166        110
   167         19
   168         61
   170         13
   172          8