##TITLE=Library Entry 72340
##JCAMP-DX=Revision 4.10 
##DATA TYPE=MASS SPECTRUM
##SAMPLE DESCRIPTION=CARL DJERASSI DEPT OF CHEM STANFORD UNIV STANFORD CALIF
 94305
##NAMES=HP
##CAS NAME=Germacyclopentane, 1-butyl-1-ethynyl-
##MOLFORM=C10H18Ge
##CAS REGISTRY NO=4554-80-7
##MP= -300
##BP= -300
##MW= 212
##$RETENTION INDEX=0
##$CONDENSED SPECTRUM=NO
##NPOINTS= 84
##XYDATA=(XY..XY) 1 
    41        220
    42         30
    43         60
    44         10
    45         10
    50         20
    51         20
    53         40
    55         70
    56         20
    57         60
    70         70
    71         30
    72         90
    73         70
    74        130
    75         60
    76         20
    77         10
    79         20
    81        100
    85         40
    86         10
    87         60
    88         20
    89         70
    91         10
    95        520
    96         30
    97        730
    98        260
    99        999
   100        110
   101        320
   102         60
   103         40
   104         10
   109         20
   110         40
   111         60
   112         80
   113         90
   114         70
   115         40
   116         20
   117         10
   123        280
   124         60
   125        380
   126        200
   127        490
   128        130
   129        140
   130         80
   131         10
   132         10
   137         30
   139         30
   140         20
   141         40
   142         10
   143         10
   149         20
   151        360
   152        190
   153        480
   154        370
   155        670
   156        330
   157        150
   158         80
   180         60
   181         10
   182        100
   183         40
   184        130
   185         30
   186         70
   187         10
   188         10
   208         20
   210         10
   211         10
   212         30