##TITLE=Library Entry 18325
##JCAMP-DX=Revision 4.10 
##DATA TYPE=MASS SPECTRUM
##SAMPLE DESCRIPTION=Japan AIST/NIMC Database- Spectrum MS-NW-9738
##NAMES=HP
##CAS NAME=Propanenitrile, 2,3-dibromo-
##MOLFORM=C3H3Br2N
##CAS REGISTRY NO=4554-16-9
##MP= -300
##BP= -300
##MW= 211
##$RETENTION INDEX=0
##$CONDENSED SPECTRUM=NO
##NPOINTS= 78
##XYDATA=(XY..XY) 1 
    12          2
    14          2
    24          6
    25         19
    26        103
    27         25
    28         25
    29          1
    36          7
    37         13
    38         16
    39          7
    40          2
    41          1
    43          4
    44         15
    45          1
    50         22
    51        165
    52        999
    53        130
    54          9
    55          1
    66          6
    70          6
    71          1
    77          1
    78          3
    79         46
    80         32
    81         47
    82         32
    83          1
    87          1
    88          2
    91          6
    92          2
    93         66
    94          4
    95         58
    96          1
   103          2
   104          6
   105         51
   106         44
   107         50
   108         37
   109          1
   117          1
   118          3
   119          2
   120          3
   121          1
   129          2
   130          9
   131        468
   132        909
   133        491
   134        875
   135         35
   149          3
   150          5
   151          3
   152          5
   158          7
   160         12
   162          7
   184          1
   185          1
   186          1
   187          1
   199          1
   211         16
   212          2
   213         31
   214          3
   215         15
   216          1