##TITLE=Library Entry 44842
##JCAMP-DX=Revision 4.10 
##DATA TYPE=MASS SPECTRUM
##SAMPLE DESCRIPTION=CARL DJERASSI DEPT OF CHEM STANFORD UNIV STANFORD CALIF
 94305
##NAMES=HP
##CAS NAME=Germacyclopentane, 1-propyl-
##MOLFORM=C7H16Ge
##CAS REGISTRY NO=4554-78-3
##MP= -300
##BP= -300
##MW= 174
##$RETENTION INDEX=0
##$CONDENSED SPECTRUM=NO
##NPOINTS= 81
##XYDATA=(XY..XY) 1 
    41        280
    42         40
    43        100
    51         20
    53         30
    54         20
    55         70
    56         10
    57         30
    70        500
    71        290
    72        720
    73        600
    74        999
    75        520
    76        200
    77        170
    79         10
    84         60
    85        280
    86         80
    87        400
    88        230
    89        560
    90         60
    91        160
    92         10
    93         20
    95         30
    96         10
    97         90
    98        130
    99        480
   100        250
   101        710
   102        430
   103        790
   104        160
   105        150
   106         30
   108         10
   109         20
   110         10
   111         40
   112         60
   113         90
   114        160
   115        120
   116        220
   117        130
   118        170
   119         40
   120         40
   121         10
   125         20
   126        120
   127        160
   128        300
   129        270
   130        450
   131        330
   132        310
   133         70
   134         60
   135         10
   142         70
   143         10
   144         90
   145         30
   146        120
   147         10
   148         30
   169         20
   170        160
   171         40
   172        220
   173        110
   174        290
   175         40
   176         70
   177         10