##TITLE=Library Entry 27856
##JCAMP-DX=Revision 4.10 
##DATA TYPE=MASS SPECTRUM
##SAMPLE DESCRIPTION=NIST Mass Spectrometry Data Center
##NAMES=HP
##CAS NAME=N,N,N',N',-Tetramethyl-2-butene-1,4-diamine
##MOLFORM=C8H18N2
##CAS REGISTRY NO=4559-79-9
##MP= -300
##BP= -300
##MW= 142
##$RETENTION INDEX=0
##$CONDENSED SPECTRUM=NO
##NPOINTS= 55
##XYDATA=(XY..XY) 1 
    14          1
    15        109
    18         28
    26          7
    27         61
    28         60
    29         55
    30         87
    37          1
    38          5
    39         71
    40         12
    41         84
    42        452
    43        101
    44        210
    45        216
    46         13
    50          3
    51         10
    52          7
    53         39
    54         69
    55        108
    56         49
    58        999
    59         35
    62          1
    64          1
    65          3
    66          7
    67         21
    68         60
    69         10
    70         33
    71         20
    72          7
    78          1
    79          3
    80         16
    81         21
    82        376
    83         50
    84        125
    85          7
    93          1
    94         10
    96        156
    97        351
    98        149
    99        166
   100         10
   111          1
   126         14
   127          1