##TITLE=Library Entry 69506
##JCAMP-DX=Revision 4.10 
##DATA TYPE=MASS SPECTRUM
##SAMPLE DESCRIPTION=NIST Mass Spectrometry Data Center, 1990.
##NAMES=HP
##CAS NAME=m-Fluoroanisole
##MOLFORM=C7H7FO
##CAS REGISTRY NO=456-49-5
##MP= -300
##BP= -300
##MW= 126
##$RETENTION INDEX=917
##$CONDENSED SPECTRUM=NO
##NPOINTS= 81
##XYDATA=(XY..XY) 1 
    13          2
    14          9
    15         44
    16          2
    25          3
    26          9
    27          9
    28         11
    29         23
    30          2
    31         49
    32          5
    33          8
    36          3
    37         31
    38         46
    39         54
    40          3
    41          4
    42          2
    43          2
    44          8
    45          8
    46          2
    47          1
    49         15
    50         85
    51         42
    52         10
    53          9
    55          8
    56         34
    57        307
    58         11
    59          3
    60          6
    61         31
    62         45
    63         87
    64         20
    65          5
    66          5
    68         29
    69         43
    70         62
    71          9
    72          4
    73         12
    74         50
    75        150
    76         26
    77         51
    78         13
    79          7
    80         10
    81         60
    82         70
    83        640
    84         38
    85          1
    86          1
    92         11
    93         10
    94         25
    95        183
    96        999
    97        253
    98         18
    99          2
   105         12
   106          1
   107          2
   108          3
   109          4
   110         22
   111         67
   112          6
   123          2
   126        807
   127         65
   128          5