##TITLE=Library Entry 86451
##JCAMP-DX=Revision 4.10 
##DATA TYPE=MASS SPECTRUM
##SAMPLE DESCRIPTION=Chuck Anderson, Aldrich Chemical Co.
##NAMES=HP
##CAS NAME=Benzene, 1-(chloromethyl)-3-fluoro-
##MOLFORM=C7H6ClF
##CAS REGISTRY NO=456-42-8
##MP= -300
##BP= -300
##MW= 144
##$RETENTION INDEX=987
##$CONDENSED SPECTRUM=NO
##NPOINTS= 97
##XYDATA=(XY..XY) 1 
    14          0
    20          0
    25          0
    26          3
    27          4
    28          0
    31         13
    32          0
    33          3
    35          3
    36          1
    37          7
    38         10
    39         21
    40          1
    41          0
    43          3
    44         11
    45          1
    46          0
    47          0
    48          0
    49          4
    50         15
    51         12
    52          2
    53          0
    54         17
    56          4
    57         39
    58          2
    59          8
    60          1
    61         11
    62         24
    63         32
    64          3
    65          1
    67          1
    68          5
    69          6
    70          5
    71          1
    72          3
    73          6
    74          8
    75         10
    76          3
    77          1
    78          0
    79          1
    80          4
    81         28
    82          9
    83        130
    84          8
    85          6
    86          7
    87          6
    88          2
    89         20
    90          2
    91          2
    92          1
    93          2
    94          2
    95          2
    96          1
    97          1
    98          0
    99          1
   101          0
   103          0
   104          1
   105          4
   106          1
   107         85
   108         23
   109        999
   110         75
   111          2
   115          0
   117          7
   118          0
   119          2
   120          0
   123          0
   124          0
   125          1
   127          0
   141          0
   143         18
   144        169
   145         18
   146         53
   147          4
   148          0