##TITLE=Library Entry 85947
##JCAMP-DX=Revision 4.10 
##DATA TYPE=MASS SPECTRUM
##SAMPLE DESCRIPTION=Japan AIST/NIMC Database- Spectrum MS-IW-1155
##NAMES=HP
##CAS NAME=Benzene, 1-(bromomethyl)-3-fluoro-
##MOLFORM=C7H6BrF
##CAS REGISTRY NO=456-41-7
##MP= -300
##BP= -300
##MW= 188
##$RETENTION INDEX=0
##$CONDENSED SPECTRUM=NO
##NPOINTS= 57
##XYDATA=(XY..XY) 1 
    26          1
    27          1
    28          2
    31          5
    33          1
    37          3
    38          6
    39         15
    40          1
    43          2
    44          9
    49          1
    50         10
    51          9
    52          1
    54          4
    56          3
    57         29
    58          1
    59          9
    61          5
    62         12
    63         24
    64          3
    65          1
    68          3
    69          3
    70          4
    74          3
    75          3
    76          1
    79          2
    80          3
    81         17
    82          7
    83        127
    84         11
    85          8
    86          3
    87          3
    88          2
    89         14
    90          2
    94          5
    95          5
   105          2
   106          1
   107         49
   108         24
   109        999
   110         77
   111          2
   187          4
   188         74
   189          9
   190         72
   191          5