##TITLE=Library Entry 83477
##JCAMP-DX=Revision 4.10 
##DATA TYPE=MASS SPECTRUM
##SAMPLE DESCRIPTION=Patti Price, Georgia Bureau of Investigation, Decatur,
 Georgia
##NAMES=HP
##CAS NAME=Cyclandelate
##MOLFORM=C17H24O3
##CAS REGISTRY NO=456-59-7
##MP= -300
##BP= -300
##MW= 276
##$RETENTION INDEX=1897
##$CONDENSED SPECTRUM=NO
##NPOINTS= 64
##XYDATA=(XY..XY) 1 
    41        399
    42         36
    43        110
    44          6
    45          3
    50         26
    51        114
    52         36
    53         77
    54         14
    55        323
    56         49
    57        177
    58          8
    62          3
    63         13
    64          3
    65         16
    66          5
    67        125
    68         42
    69        912
    70         52
    71         19
    72          1
    74          1
    75          1
    76          5
    77        275
    78         49
    79        423
    80         30
    81         52
    82         17
    83        363
    84         22
    85          4
    89          9
    90          8
    91         11
    92          1
    93          8
    94          1
    95         26
    96          3
    97          3
   105         45
   107        999
   108         90
   109        127
   110          9
   111          6
   118          4
   122          1
   123         11
   124         40
   125        256
   126         25
   127          1
   133          1
   135          1
   141          1
   153          1
   232          1