##TITLE=Library Entry 86595
##JCAMP-DX=Revision 4.10 
##DATA TYPE=MASS SPECTRUM
##SAMPLE DESCRIPTION=NIST Mass Spectrometry Data Center, 1994
##NAMES=HP
##CAS NAME=Phenyl trifluoromethyl sulfide
##MOLFORM=C7H5F3S
##CAS REGISTRY NO=456-56-4
##MP= -300
##BP= -300
##MW= 178
##$RETENTION INDEX=0
##$CONDENSED SPECTRUM=NO
##NPOINTS= 68
##XYDATA=(XY..XY) 1 
    17          1
    25          2
    26         14
    27         19
    32          8
    36          3
    37         37
    38         63
    39        241
    40          9
    44          4
    45         66
    46          2
    47          3
    49         22
    50        154
    51        177
    52         11
    53          4
    54          4
    55          2
    56          2
    57         41
    58         31
    59          4
    60          3
    61         21
    62         32
    63         63
    64          2
    65        292
    66         19
    69        328
    70         14
    71         12
    72          2
    73         14
    74         35
    75         24
    76         13
    77         87
    78          5
    80          5
    81         32
    82         60
    83         24
    84          5
    93          6
    94          2
    95          7
    96          5
   105          3
   106          3
   109        999
   110         79
   111         52
   112          4
   114          4
   127          4
   139          3
   157          3
   159         59
   160          5
   161          3
   178        612
   179         54
   180         27
   181          2