##TITLE=Library Entry 40403
##JCAMP-DX=Revision 4.10 
##DATA TYPE=MASS SPECTRUM
##SAMPLE DESCRIPTION=Exported from NIST MS Search
##NAMES=HP
##CAS NAME=Leucine, N-[N-[N-(N-decanoyl-L-alanyl)-L-valyl]glycyl]-, methyl e
ster, L-
##MOLFORM=C27H50N4O6
##CAS REGISTRY NO=4560-72-9
##MP= -300
##BP= -300
##MW= 526
##$RETENTION INDEX=0
##$CONDENSED SPECTRUM=NO
##NPOINTS= 86
##XYDATA=(XY..XY) 1 
    28        153
    29        153
    30        202
    31         15
    41        204
    42         71
    43        254
    44        659
    55        148
    56         60
    57        127
    69        109
    70         47
    71        109
    72        999
    73         47
    84         43
    85         56
    86         56
    87        191
    88         66
    98         51
    99         25
   100         60
   112         15
   113         45
   114         47
   115          4
   126         36
   127         62
   128         17
   143         38
   144         21
   146        101
   147         17
   155         32
   156          8
   157         15
   169         25
   170         84
   171         12
   198         30
   199         36
   203         45
   204          4
   226        711
   227         43
   245         10
   246          1
   271         12
   272          2
   286         53
   287          9
   298         19
   299          4
   300          3
   301          4
   302          8
   303          1
   324          3
   325         19
   326          4
   328         23
   329          6
   355          3
   356          0
   382         47
   383         11
   448          0
   449          0
   451          0
   452          0
   467          2
   468          0
   470          2
   471          0
   484          0
   485          0
   495          0
   496          0
   508          0
   509          0
   511          0
   512          0
   526          3
   527          1