##TITLE=Library Entry 34679
##JCAMP-DX=Revision 4.10 
##DATA TYPE=MASS SPECTRUM
##SAMPLE DESCRIPTION=Chemical Concepts
##NAMES=HP
##CAS NAME=1,3,5-Tris(cyanomethyl)-S-hexahydrotriazine
##MOLFORM=C9H12N6
##CAS REGISTRY NO=4560-87-6
##MP= -300
##BP= -300
##MW= 204
##$RETENTION INDEX=0
##$CONDENSED SPECTRUM=NO
##NPOINTS= 48
##XYDATA=(XY..XY) 1 
    26          3
    27         11
    28         38
    29         10
    30         25
    38         13
    39         21
    40        153
    41        215
    42        451
    43         30
    45          6
    52          3
    53          5
    54          3
    55          8
    56          4
    57         10
    61          6
    66         16
    67        277
    68        114
    69        999
    70         42
    71          4
    81          2
    82         15
    83          4
    85          2
    88          7
    94          2
    95          2
    96          9
    97          3
   108         10
   109         18
   110         48
   111          4
   135         27
   136        309
   137         26
   149         10
   163          9
   164          7
   177         34
   178         11
   203          7
   204          9