##TITLE=Library Entry 69109
##JCAMP-DX=Revision 4.10 
##DATA TYPE=MASS SPECTRUM
##SAMPLE DESCRIPTION=Japan AIST/NIMC Database- Spectrum MS-IW-2297
##NAMES=HP
##CAS NAME=4(1H)-Pyrimidinone
##MOLFORM=C4H4N2O
##CAS REGISTRY NO=4562-27-0
##MP= -300
##BP= -300
##MW= 96
##$RETENTION INDEX=0
##$CONDENSED SPECTRUM=NO
##NPOINTS= 38
##XYDATA=(XY..XY) 1 
    12          4
    13         10
    14         17
    15          2
    24          3
    25         13
    26         91
    27         24
    28        532
    29         20
    34          1
    37          3
    38         25
    39         37
    40        136
    41        142
    42        300
    43         18
    44          5
    45          2
    50          4
    51         24
    52         50
    53         41
    54          7
    55          2
    65          1
    66          1
    67         24
    68        381
    69        192
    70          8
    77          1
    79         10
    95         20
    96        999
    97         73
    98          4