##TITLE=Library Entry 39708
##JCAMP-DX=Revision 4.10 
##DATA TYPE=MASS SPECTRUM
##SAMPLE DESCRIPTION=Dr. Jiri Zamecnik, DCIEM, North York, Canada, GP Librar
y
##NAMES=HP
##CAS NAME=1-(Propylamino)-3-(1-naphthyloxy)-2-propanol
##MOLFORM=C16H21NO2
##CAS REGISTRY NO=4563-04-6
##MP= -300
##BP= -300
##MW= 259
##$RETENTION INDEX=0
##$CONDENSED SPECTRUM=NO
##NPOINTS= 34
##XYDATA=(XY..XY) 1 
    41         65
    42         53
    43        123
    44         91
    56         27
    70         17
    72        999
    73         41
    86         20
    89         10
    98          7
   101          5
   102         19
   114         18
   115        108
   116         63
   126          8
   127         30
   128         17
   143         16
   144         90
   145          9
   155          4
   157          7
   158          2
   169          2
   183          4
   184          3
   186          4
   215         32
   216          4
   230          3
   259         17
   260          2