##TITLE=Library Entry 59731
##JCAMP-DX=Revision 4.10 
##DATA TYPE=MASS SPECTRUM
##SAMPLE DESCRIPTION=RADIAN CORP
##NAMES=HP
##CAS NAME=Benzenemethanesulfonamide
##MOLFORM=C7H9NO2S
##CAS REGISTRY NO=4563-33-1
##MP= -300
##BP= -300
##MW= 171
##$RETENTION INDEX=0
##$CONDENSED SPECTRUM=NO
##NPOINTS= 22
##XYDATA=(XY..XY) 1 
    38          8
    39         62
    41         11
    46          5
    48          9
    50         16
    51         30
    52          9
    62         19
    63         64
    64         32
    65        216
    66         11
    77          7
    80         25
    89         51
    90         16
    91        999
    92         77
   106          8
   107         43
   171         11