##TITLE=Library Entry 84820
##JCAMP-DX=Revision 4.10 
##DATA TYPE=MASS SPECTRUM
##SAMPLE DESCRIPTION=NIST Mass Spectrometry Data Center, 2010
##NAMES=HP
##CAS NAME=(3S,3aR)-3-Butyl-3a,4,5,6-tetrahydroisobenzofuran-1(3H)-one
##MOLFORM=C12H18O2
##CAS REGISTRY NO=4567-33-3
##MP= -300
##BP= -300
##MW= 194
##$RETENTION INDEX=1752
##$CONDENSED SPECTRUM=NO
##NPOINTS= 42
##XYDATA=(XY..XY) 1 
    15          1
    26          2
    27         28
    28          6
    29         32
    30          1
    31          3
    38          2
    39         37
    40          6
    41         57
    42          4
    43          7
    44          3
    45          1
    52         27
    53         40
    54          5
    55         13
    65         16
    66          8
    67         11
    68          2
    79        284
    80        185
    81         77
    82          5
    91         18
    92          3
    93          9
    94          2
    95          2
    96          1
   108        999
   109        126
   110          9
   123          1
   137         38
   138          5
   151          1
   194         10
   195          2