##TITLE=Library Entry 71171
##JCAMP-DX=Revision 4.10 
##DATA TYPE=MASS SPECTRUM
##SAMPLE DESCRIPTION=NIST Mass Spectrometry Data Center
##NAMES=HP
##CAS NAME=Undecanedioic acid, dimethyl ester
##MOLFORM=C13H24O4
##CAS REGISTRY NO=4567-98-0
##MP= -300
##BP= -300
##MW= 244
##$RETENTION INDEX=1749
##$CONDENSED SPECTRUM=NO
##NPOINTS= 163
##XYDATA=(XY..XY) 1 
    14          1
    15         44
    16          1
    26          4
    27         51
    28         31
    29         99
    30          5
    31         17
    32          1
    33          4
    37          1
    38          2
    39         86
    40         20
    41        373
    42        112
    43        370
    44         20
    45         54
    46          2
    47          1
    48          1
    49          1
    50          2
    51          5
    52          4
    53         49
    54         48
    55        759
    56         81
    57        102
    58         14
    59        449
    60         14
    61          5
    62          1
    63          8
    64          1
    65         11
    66          7
    67        120
    68         54
    69        524
    70         61
    71         43
    72          8
    73         88
    74        831
    75         52
    76          5
    77         14
    78          4
    79         59
    80         28
    81        128
    82         47
    83        256
    84        538
    85         63
    87        356
    88         43
    89          3
    91         25
    92         10
    93         71
    94         49
    95        106
    96        100
    97        378
    98        999
    99         80
   100         14
   101         75
   102          8
   103          2
   104          1
   105         10
   106          6
   107         28
   108         23
   109         55
   110         72
   111        167
   112        237
   113         35
   114         14
   115         63
   116         10
   117          4
   118          4
   119         13
   120         32
   121        133
   122         15
   123         41
   124         60
   125         39
   126         13
   127         12
   128         36
   129         66
   130         13
   131          2
   132          1
   133         18
   134         31
   135        100
   136         27
   137         29
   138        125
   139        578
   140         60
   141         14
   142          4
   143         10
   144         10
   145          6
   146          1
   147          1
   148          2
   149          1
   150          2
   151         22
   152        267
   153         83
   154          9
   155          3
   156         14
   157          6
   158         27
   159          3
   160          1
   161          5
   162         23
   163         14
   164          2
   165          2
   166          1
   167          1
   168          4
   169          7
   170         22
   171        307
   172         34
   173          3
   179          8
   180         65
   181         18
   182          2
   183          3
   184         11
   185          3
   186          3
   194          4
   195          1
   197          1
   211          1
   212         20
   213        308
   214         42
   215          4
   245          1