##TITLE=Library Entry 39762
##JCAMP-DX=Revision 4.10 
##DATA TYPE=MASS SPECTRUM
##SAMPLE DESCRIPTION=Patti Price, Georgia Bureau of Investigation, Decatur,
 Georgia
##NAMES=HP
##CAS NAME=N-Ethylamphetamine
##MOLFORM=C11H17N
##CAS REGISTRY NO=457-87-4
##MP= -300
##BP= -300
##MW= 163
##$RETENTION INDEX=1236
##$CONDENSED SPECTRUM=NO
##NPOINTS= 65
##XYDATA=(XY..XY) 1 
    41         22
    42         44
    43          9
    44        279
    45          7
    50         10
    51         29
    52          8
    53          3
    54          2
    56         33
    57          9
    58          1
    62          4
    63         20
    64          5
    65         76
    66          4
    68          1
    70         11
    71          4
    72        999
    73         49
    74          4
    75          3
    76          3
    77         28
    78         11
    79          6
    83          3
    85          2
    86          1
    87          1
    89         23
    90          8
    91        242
    92         23
    93          3
   102          5
   103         21
   104          9
   105          9
   106          1
   115         42
   116          9
   117         33
   118         18
   119         29
   120         15
   128          1
   129          1
   130          7
   131          3
   132          8
   133          3
   134          2
   144          1
   146          6
   147          3
   148         47
   149          5
   160          1
   162         17
   163          3
   164          2