##TITLE=Library Entry 53804
##JCAMP-DX=Revision 4.10 
##DATA TYPE=MASS SPECTRUM
##SAMPLE DESCRIPTION=ASES Database, Dalian Institute, P.R. China
##NAMES=HP
##CAS NAME=2-Amino-oxazole
##MOLFORM=C3H4N2O
##CAS REGISTRY NO=4570-45-0
##MP= -300
##BP= -300
##MW= 84
##$RETENTION INDEX=0
##$CONDENSED SPECTRUM=NO
##NPOINTS= 19
##XYDATA=(XY..XY) 1 
    30         22
    31         22
    32         21
    38         44
    39         42
    40         68
    41         66
    42        243
    43        155
    44        109
    51         21
    52         22
    53         65
    54         67
    55        244
    56        619
    57         21
    84        999
    85         90