##TITLE=Library Entry 20603
##JCAMP-DX=Revision 4.10 
##DATA TYPE=MASS SPECTRUM
##SAMPLE DESCRIPTION=Japan AIST/NIMC Database- Spectrum MS-IW-7706
##NAMES=HP
##CAS NAME=3-(1,6-Dihydro-3-hydroxy-6-oxopyridazin-1-yl)propanoic acid
##MOLFORM=C7H8N2O4
##CAS REGISTRY NO=4572-79-6
##MP= -300
##BP= -300
##MW= 184
##$RETENTION INDEX=0
##$CONDENSED SPECTRUM=NO
##NPOINTS= 125
##XYDATA=(XY..XY) 1 
    12          2
    13          3
    14          9
    15         15
    16          3
    17         31
    18        159
    19          2
    20          1
    24          5
    25         17
    26        173
    27        150
    28        182
    29         46
    30         10
    31         23
    32          7
    36          4
    37          8
    38         16
    39         21
    40         27
    41         45
    42         73
    43         49
    44         55
    45         50
    46          8
    47          1
    49          1
    50         11
    51         49
    52         41
    53         59
    54        459
    55        999
    56         73
    57         11
    58          4
    59          4
    60         22
    61          1
    62          2
    63          1
    64          2
    65          3
    66         13
    67         24
    68         15
    69         22
    70         40
    71         13
    72         64
    73         32
    74         12
    75          1
    76          5
    77         19
    78         67
    79          7
    80        287
    81         18
    82        965
    83         47
    84         25
    85         19
    86          3
    87         33
    88         37
    89          2
    91          1
    92          2
    93          2
    94         12
    95          9
    96         10
    97         47
    98        454
    99         33
   100          4
   101          6
   102          4
   103         10
   104          1
   108          1
   109          1
   110          7
   111         12
   112        519
   113         62
   114          5
   115          1
   116          1
   117          1
   120          3
   121          1
   122          6
   123          4
   124          4
   125        303
   126         19
   127          2
   129          1
   135          1
   136          2
   137         37
   138        129
   139        171
   140         37
   141          4
   148          8
   149          4
   150          3
   155          1
   157          2
   164          6
   165          3
   166        488
   167         88
   168          9
   169          1
   184        488
   185         49
   186          7