##TITLE=Library Entry 7760
##JCAMP-DX=Revision 4.10 
##DATA TYPE=MASS SPECTRUM
##SAMPLE DESCRIPTION=CARL DJERASSI DEPT OF CHEM STANFORD UNIV STANFORD CALIF
 94305
##NAMES=HP
##CAS NAME=9,19-Cyclolanostan-3-ol, acetate, (3.beta.)-
##MOLFORM=C32H54O2
##CAS REGISTRY NO=4575-74-0
##MP= -300
##BP= -300
##MW= 470
##$RETENTION INDEX=3356
##$CONDENSED SPECTRUM=NO
##NPOINTS= 179
##XYDATA=(XY..XY) 1 
    41        390
    42         70
    43        999
    44         50
    45         30
    46         10
    50         10
    52         10
    53         40
    54         20
    55        460
    56        100
    57        480
    58         20
    59         30
    60        150
    61         40
    65         20
    67        160
    68         50
    69        430
    70        110
    71        260
    72         20
    73        150
    74         20
    77         40
    79        120
    80         20
    81        260
    82         80
    83        210
    84         40
    85        100
    87         30
    91        110
    92         30
    93        170
    94        100
    95        460
    96         70
    97        140
    98         40
    99         20
   101         20
   104         20
   105        150
   106         40
   107        220
   108         60
   109        250
   110         40
   111         80
   112         40
   113         40
   115         30
   116         20
   117         30
   118         20
   119        150
   120         80
   121        190
   122        130
   123        150
   124         30
   125         40
   126         20
   127         20
   129         40
   131         40
   132         30
   133        120
   134        120
   135        160
   136         50
   137         70
   138         10
   139         20
   143         20
   145         60
   146         20
   147        110
   148         60
   149        290
   150         70
   151         30
   157         20
   159         60
   160         30
   161         90
   162         40
   163        110
   164         20
   165         20
   167         70
   171         20
   173         50
   174         20
   175        190
   176         40
   177         70
   178         20
   179         20
   185         30
   187         60
   188         20
   189         50
   190         20
   191         30
   193         20
   199         20
   201         30
   202         50
   203        120
   204         40
   205         30
   206         30
   207         30
   213         30
   215         30
   217         30
   218         30
   219         20
   220         20
   221         20
   227         20
   228         20
   229         10
   231         10
   232         10
   233         20
   241         10
   245         20
   246         20
   247         10
   255         20
   256         60
   257         20
   259         20
   260         20
   261         20
   270         20
   273         40
   274         20
   275         10
   276         10
   279         50
   284         40
   285         20
   288        250
   289         60
   297        110
   298         30
   302         10
   315         10
   325         20
   326         10
   340         20
   342         50
   343         20
   354         20
   357         50
   358         10
   367         50
   368         20
   385         10
   386         10
   395        140
   396         40
   400         20
   410        380
   411        130
   412         30
   424         20
   430         10
   455         50
   456         10
   470        130
   471         40