##TITLE=Library Entry 55494
##JCAMP-DX=Revision 4.10 
##DATA TYPE=MASS SPECTRUM
##SAMPLE DESCRIPTION=Exported from NIST MS Search
##NAMES=HP
##CAS NAME=3-Isothiazolecarboxylic acid
##MOLFORM=C4H3NO2S
##CAS REGISTRY NO=4576-90-3
##MP= -300
##BP= -300
##MW= 129
##$RETENTION INDEX=0
##$CONDENSED SPECTRUM=NO
##NPOINTS= 19
##XYDATA=(XY..XY) 1 
    33         40
    45        190
    52         75
    57        460
    58        410
    59         97
    60         40
    76        150
    83         75
    84        420
    85        999
    86         37
    87         60
   111         18
   112        360
   113         26
   129        829
   130         54
   131         40