##TITLE=Library Entry 35466
##JCAMP-DX=Revision 4.10 
##DATA TYPE=MASS SPECTRUM
##SAMPLE DESCRIPTION=Exported from NIST MS Search
##NAMES=HP
##CAS NAME=Cyclobutanone, 2-(1,1-dimethylethyl)-
##MOLFORM=C8H14O
##CAS REGISTRY NO=4579-31-1
##MP= -300
##BP= -300
##MW= 126
##$RETENTION INDEX=0
##$CONDENSED SPECTRUM=NO
##NPOINTS= 18
##XYDATA=(XY..XY) 1 
    41        575
    42         52
    43         43
    55        474
    56        172
    57        374
    58         86
    69        999
    70        339
    71         52
    83        790
    84         57
    85        172
    86         29
    98        431
    99         63
   126         52
   127         23