##TITLE=Library Entry 39779
##JCAMP-DX=Revision 4.10 
##DATA TYPE=MASS SPECTRUM
##SAMPLE DESCRIPTION=Virginia Division of Forensic Science
##NAMES=HP
##CAS NAME=Fenfluramine
##MOLFORM=C12H16F3N
##CAS REGISTRY NO=458-24-2
##MP= -300
##BP= -300
##MW= 231
##$RETENTION INDEX=1226
##$CONDENSED SPECTRUM=NO
##NPOINTS= 169
##XYDATA=(XY..XY) 1 
    15          6
    17          1
    18         14
    26          2
    27         28
    28          4
    29         31
    30         13
    31          1
    33          1
    37          1
    38          2
    39         20
    40          4
    41         18
    42         52
    44        246
    45          7
    46          1
    47          1
    49          1
    50          7
    51         12
    52          3
    53          1
    54          2
    56         36
    57         13
    58          2
    59          1
    62          5
    63         19
    64          5
    65          7
    66          1
    67          1
    68          2
    69          9
    70         18
    72        999
    73         50
    74          4
    75         13
    76          4
    77          8
    78          2
    79          1
    80          1
    81          2
    82          1
    83         11
    84          1
    85          1
    86          1
    87          3
    88          5
    89         24
    90         11
    91         20
    92          2
    93          1
    94          1
    95          7
    96          3
    97          1
    99          7
   100          1
   101          7
   102          4
   103          4
   104          1
   105          1
   106          1
   107          6
   109         81
   110          7
   111          1
   112          1
   113          7
   114          9
   115         23
   116          9
   117         15
   119         31
   120          6
   121          3
   122          1
   123          1
   125          5
   126          2
   127         12
   128          2
   129          1
   130          3
   131          2
   132          3
   133         11
   134          2
   135          1
   136          1
   137          1
   138          6
   139         11
   140         14
   141         14
   142          1
   143          1
   144          1
   145         11
   146          6
   147          2
   148          6
   149          2
   151         15
   152          2
   153          3
   154          1
   155          1
   156          1
   157          1
   159        163
   160         17
   161          1
   162          2
   163          1
   164          6
   165          8
   166          5
   167          3
   168          7
   169         15
   170          2
   171          2
   172          4
   173          1
   174          1
   176          1
   177          1
   178          1
   179          1
   180          1
   181          1
   182          2
   183          1
   184          1
   185          1
   186          3
   187          7
   188          1
   189          1
   192          4
   193          1
   196          1
   197          1
   198          2
   200          3
   201          1
   202          1
   210          1
   212         16
   213          2
   214          2
   216         25
   217          3
   218          1
   228          1
   230          8
   231          1
   232          1