##TITLE=Library Entry 77049
##JCAMP-DX=Revision 4.10 
##DATA TYPE=MASS SPECTRUM
##SAMPLE DESCRIPTION=A.C.MOFFAT BAYLOR UNIVERSITY, HOUSTON, TEXAS, USA
##NAMES=HP
##CAS NAME=Acetamide, 2,2,2-trifluoro-N-(2-phenylethyl)-
##MOLFORM=C10H10F3NO
##CAS REGISTRY NO=458-85-5
##MP= -300
##BP= -300
##MW= 217
##$RETENTION INDEX=1259
##$CONDENSED SPECTRUM=NO
##NPOINTS= 49
##XYDATA=(XY..XY) 1 
    29          5
    38          6
    39         38
    40         11
    41         25
    44         13
    45         10
    50         16
    51         39
    52         11
    53          4
    62          6
    63         21
    64          8
    65         88
    66          7
    69         71
    70          2
    74         18
    75          4
    76          4
    77         39
    78         45
    79         16
    80          1
    89         17
    90          8
    91        880
    92         55
    93          2
    97         10
   102          9
   103         34
   104        999
   105        125
   106          9
   116          1
   117          3
   118          5
   119          5
   120          1
   126         76
   127          3
   148         12
   149          1
   150          3
   217         31
   218          4
   219          0