##TITLE=Library Entry 62494
##JCAMP-DX=Revision 4.10 
##DATA TYPE=MASS SPECTRUM
##SAMPLE DESCRIPTION=ORMSBG,9(9)878(1974); NIBBERING
##NAMES=HP
##CAS NAME=Benzenepropanoyl fluoride
##MOLFORM=C9H9FO
##CAS REGISTRY NO=458-69-5
##MP= -300
##BP= -300
##MW= 152
##$RETENTION INDEX=0
##$CONDENSED SPECTRUM=NO
##NPOINTS= 51
##XYDATA=(XY..XY) 1 
    27          3
    28         11
    29         57
    40          4
    41         10
    42          4
    45          2
    47          9
    49          3
    50         41
    51         95
    52         23
    53          7
    55          5
    61          4
    62         13
    63         38
    64          8
    65         79
    66          5
    73          2
    74         15
    75         15
    76         13
    77         72
    78         66
    79         19
    80          1
    89         18
    90          7
    91        999
    92         78
    93          3
   101          5
   102         12
   103         49
   104         97
   105         37
   106          3
   107          1
   109         43
   110          7
   130          1
   131         16
   132         31
   133          4
   134          1
   151          1
   152        307
   153         32
   154          2