##TITLE=Library Entry 53991
##JCAMP-DX=Revision 4.10 
##DATA TYPE=MASS SPECTRUM
##SAMPLE DESCRIPTION=R.E.Ardrey ET AL.Pharmaceutical Mass Spectra,L.,1985
##NAMES=HP
##CAS NAME=Piperidine, 2-propyl-, (S)-
##MOLFORM=C8H17N
##CAS REGISTRY NO=458-88-8
##MP= -300
##BP= -300
##MW= 127
##$RETENTION INDEX=992
##$CONDENSED SPECTRUM=NO
##NPOINTS= 32
##XYDATA=(XY..XY) 1 
    27         50
    28        100
    29         40
    30         90
    39         40
    41         80
    42         40
    43        100
    44         20
    53         20
    54         40
    55         70
    56        130
    57         20
    67         20
    68         20
    69         10
    70         50
    71         10
    79         50
    80        160
    81         50
    82        190
    83         20
    84        999
    85         50
    96         10
    97         20
    98         20
   110         10
   126         20
   127         10