##TITLE=Library Entry 89690
##JCAMP-DX=Revision 4.10 
##DATA TYPE=MASS SPECTRUM
##SAMPLE DESCRIPTION=Exported from NIST MS Search
##NAMES=HP
##CAS NAME=Benzene, 1-ethoxy-3-fluoro-
##MOLFORM=C8H9FO
##CAS REGISTRY NO=458-03-7
##MP= -300
##BP= -300
##MW= 140
##$RETENTION INDEX=0
##$CONDENSED SPECTRUM=NO
##NPOINTS= 70
##XYDATA=(XY..XY) 1 
    15         15
    26         29
    27        151
    29        159
    30          5
    31         25
    37         11
    38         30
    39         48
    40          7
    41          6
    42          5
    43         17
    44          6
    45          8
    49          5
    50         31
    51         24
    52          4
    53         13
    54          3
    55          8
    56         10
    57        141
    58         14
    59          2
    61         11
    62         19
    63         62
    64         76
    65         14
    66          5
    67          3
    68         13
    69         23
    70          8
    71          5
    73         21
    74         15
    75         73
    76          6
    77          5
    79          2
    80          3
    81         31
    82         23
    83        162
    84        186
    85         12
    86          5
    91          8
    92          8
    93          5
    94         14
    95         76
    96         15
    97         14
   109         12
   110         29
   111         20
   112        999
   113         66
   114          4
   123          2
   125          9
   138         10
   139          5
   140        295
   141         26
   142          2