##TITLE=Library Entry 86693
##JCAMP-DX=Revision 4.10 
##DATA TYPE=MASS SPECTRUM
##SAMPLE DESCRIPTION=A.A.Kutin, Moscow, Russia
##NAMES=HP
##CAS NAME=1-Fluoro-4-(4-fluorophenethyl)benzene
##MOLFORM=C14H12F2
##CAS REGISTRY NO=458-76-4
##MP= -300
##BP= -300
##MW= 218
##$RETENTION INDEX=0
##$CONDENSED SPECTRUM=NO
##NPOINTS= 136
##XYDATA=(XY..XY) 1 
    37          1
    38          3
    39         16
    40          0
    50         14
    51         15
    52          2
    53          0
    54          1
    57         41
    58          2
    59         14
    60          1
    62         11
    63         17
    64          2
    68          3
    69          6
    70          9
    71          1
    72          0
    74         11
    75         31
    76          4
    77          3
    81         18
    83        196
    84         13
    85          4
    86          3
    87          5
    88          3
    89         27
    90          4
    93          2
    94          8
    95         13
    96         16
    97          3
    98          4
    99          3
   101         30
   102          4
   103          2
   104          0
   105          3
   107         49
   109        999
   110        126
   111          5
   112          0
   113          0
   115          0
   116          0
   117          0
   118          1
   120         11
   121         15
   122         11
   123          8
   124          1
   125          1
   126          0
   127          0
   129          0
   131          2
   132          1
   133          7
   134          1
   135          0
   137          0
   138          0
   139          0
   143          0
   144          2
   146          1
   147          0
   149          1
   150          1
   151          3
   152          1
   155          1
   156          0
   157          4
   158          0
   159          1
   161          0
   162          0
   163          1
   164          1
   165          1
   167          0
   168          4
   169          4
   170          7
   171          2
   172          0
   175          5
   176          4
   177          4
   178          0
   179          1
   180          0
   181          2
   182          1
   183          9
   184          2
   185          0
   186          0
   187          1
   188          7
   189          2
   190          0
   191          0
   192          1
   193          3
   194          9
   195          8
   196         15
   197          7
   198          1
   199          1
   201         16
   202          5
   203          0
   205          0
   211          0
   212          3
   213          2
   214         16
   215         10
   216          5
   218        474
   219         82
   220          6
   221          0