##TITLE=Library Entry 109933
##JCAMP-DX=Revision 4.10 
##DATA TYPE=MASS SPECTRUM
##SAMPLE DESCRIPTION=Japan AIST/NIMC Database- Spectrum MS-NW-6849
##NAMES=HP
##CAS NAME=3-Fluoro-4-hydroxyphenylacetic acid
##MOLFORM=C8H7FO3
##CAS REGISTRY NO=458-09-3
##MP= -300
##BP= -300
##MW= 170
##$RETENTION INDEX=0
##$CONDENSED SPECTRUM=NO
##NPOINTS= 105
##XYDATA=(XY..XY) 1 
    14          3
    16          1
    18          1
    20          1
    26          5
    27         12
    28          9
    29          8
    31          8
    32          1
    33          1
    37          5
    38         12
    39         20
    40          2
    41          1
    42          3
    43          5
    44         15
    45         23
    46          2
    47          2
    48          4
    49          4
    50         29
    51        130
    52         15
    53         14
    54          2
    55          6
    56          4
    57         17
    58          3
    59          2
    60          2
    61          7
    62         15
    63         13
    64          3
    65          8
    66          2
    67          1
    68          6
    69         13
    70         24
    71          6
    72          1
    73          8
    74          9
    75         21
    76          9
    77        235
    78         22
    79          5
    80          3
    81          8
    82          2
    83          5
    84          2
    85          3
    86          2
    87          1
    88          1
    89          1
    90          1
    91          1
    92          2
    93          3
    94          3
    95         22
    96         37
    97         12
    98          2
    99          3
   104          2
   105         40
   106          7
   107          7
   108          3
   109          5
   110          1
   111          1
   112          1
   113          3
   120          1
   121          4
   122          1
   123         12
   124         21
   125        999
   126         85
   127         15
   128          3
   133          2
   139          1
   140          1
   141          3
   151          2
   152          8
   153          1
   168          1
   169          1
   170        366
   171         34
   172          4