##TITLE=Library Entry 37415
##JCAMP-DX=Revision 4.10 
##DATA TYPE=MASS SPECTRUM
##SAMPLE DESCRIPTION=H. Fales, LC, NHLBI, NIH, Bethesda, MD 20892
##NAMES=HP
##CAS NAME=Cyclohexylamine, N-methyl-4,4-dimethyl-
##MOLFORM=C9H19N
##CAS REGISTRY NO=45815-91-6
##MP= -300
##BP= -300
##MW= 141
##$RETENTION INDEX=0
##$CONDENSED SPECTRUM=NO
##NPOINTS= 74
##XYDATA=(XY..XY) 1 
    41        425
    43        325
    44        181
    46         24
    47         16
    50          0
    51         47
    52          2
    53         46
    54         35
    55        198
    56        189
    57        548
    58         54
    59         10
    60         24
    61          1
    63          3
    65          9
    67         50
    68         41
    70        999
    71        186
    72         20
    73          4
    74          1
    75          0
    77         10
    79         18
    80          6
    81         21
    82         39
    83         28
    84        151
    85        114
    86         27
    88          6
    89          0
    91          3
    93          4
    94          5
    95          4
    96         14
    97         22
    98         42
    99         39
   100          4
   102          0
   105          2
   106          2
   107          2
   108          2
   109          0
   110          8
   111          6
   112         38
   113        194
   114         18
   115          1
   117          0
   118          0
   119          1
   120          1
   121          1
   122          2
   124          8
   126        110
   127         22
   128          2
   138          2
   139          3
   140          7
   141         18
   142          2