##TITLE=Library Entry 32188
##JCAMP-DX=Revision 4.10 
##DATA TYPE=MASS SPECTRUM
##SAMPLE DESCRIPTION=NIST Mass Spectrometry Data Center, 2010
##NAMES=HP
##CAS NAME=trans-3,6-Endomethylene-1,2,3,6-tetrahydrophthaloyl chloride
##MOLFORM=C9H8Cl2O2
##CAS REGISTRY NO=4582-21-2
##MP= -300
##BP= -300
##MW= 218
##$RETENTION INDEX=1385
##$CONDENSED SPECTRUM=NO
##NPOINTS= 117
##XYDATA=(XY..XY) 1 
    15          1
    25          1
    26         15
    27         21
    28          6
    29          2
    31          1
    32          1
    35          3
    36          7
    37         10
    38         28
    39        125
    40         39
    41         16
    42          2
    43          3
    44          2
    45         23
    46         19
    47          2
    48          1
    49          7
    50         33
    51         58
    52         19
    53         24
    54         10
    55         17
    56          1
    59          6
    60         38
    61         23
    62         23
    63         94
    64         18
    65        205
    66        999
    67         54
    68          5
    69          1
    72          1
    73          8
    74          7
    75         13
    76          4
    77         34
    78         16
    79         11
    80          1
    81          1
    82          8
    83          1
    84          1
    85          2
    86          3
    87          4
    89        168
    90         17
    91        413
    92         51
    93          7
    94          1
    97          1
    98          1
    99          7
   100         14
   101         19
   102          8
   103          7
   104          1
   105          3
   106          1
   107          1
   111          2
   112          8
   113         15
   114          4
   115          6
   117        100
   118         23
   119        142
   120         20
   121          2
   125         10
   126         19
   127         88
   128         15
   129         28
   130          3
   137          2
   139          1
   141          1
   146          2
   147         88
   148         14
   149          1
   150          3
   153          2
   154         30
   155        321
   156         38
   157        102
   158          9
   159          1
   182         16
   183         38
   184          9
   185         13
   186          1
   190          9
   191          1
   192          6
   193          1
   194          1
   218          2
   220          2