##TITLE=Library Entry 31946
##JCAMP-DX=Revision 4.10 
##DATA TYPE=MASS SPECTRUM
##SAMPLE DESCRIPTION=DC-18-8
##NAMES=HP
##CAS NAME=2,4,6-Cycloheptatrien-1-one, 3-bromo-2-hydroxy-
##MOLFORM=C7H5BrO2
##CAS REGISTRY NO=4584-68-3
##MP= -300
##BP= -300
##MW= 200
##$RETENTION INDEX=0
##$CONDENSED SPECTRUM=NO
##NPOINTS= 30
##XYDATA=(XY..XY) 1 
    42         20
    46        140
    49         40
    50        220
    51        120
    53        310
    54         10
    61        120
    62        240
    63        600
    64        520
    65        999
    66        130
    67         30
    74         50
    75         30
    92        170
    93        200
   102         20
   104         20
   142         20
   144         20
   172        680
   173         30
   174        660
   175         30
   200        500
   201         50
   202        480
   203         50