##TITLE=Library Entry 86385
##JCAMP-DX=Revision 4.10 
##DATA TYPE=MASS SPECTRUM
##SAMPLE DESCRIPTION=Exported from NIST MS Search
##NAMES=HP
##CAS NAME=4,8-Methanoazulen-9-ol, decahydro-2,2,4,8-tetramethyl-, stereoiso
mer
##MOLFORM=C15H26O
##CAS REGISTRY NO=4586-22-5
##MP= -300
##BP= -300
##MW= 222
##$RETENTION INDEX=1566
##$CONDENSED SPECTRUM=NO
##NPOINTS= 173
##XYDATA=(XY..XY) 1 
    25          5
    26         41
    27        324
    28         65
    29        443
    30         13
    31         35
    32          3
    35          3
    36          4
    37         13
    38         35
    39        313
    40         66
    41        112
    42        344
    43        774
    44         28
    45         62
    46          4
    47         14
    48          7
    49         84
    50         44
    51         88
    52         55
    53        235
    54         44
    55        692
    56        240
    57        407
    58         26
    59         11
    60          2
    61          3
    62          5
    63         16
    64         11
    65         93
    66         37
    67        332
    68         72
    69        458
    70         62
    71        166
    72         36
    73          5
    74          8
    75          7
    76          9
    77        227
    78        116
    79        304
    80        204
    81        221
    82        179
    83        288
    84         63
    85         70
    86         35
    87          4
    88          4
    89          6
    90          3
    91        248
    92         59
    93        310
    94        191
    95        718
    96        176
    97        256
    98        171
    99         28
   100          2
   101          1
   102          3
   103         17
   104         10
   105        144
   106         92
   107        420
   108        373
   109        999
   110        113
   111        213
   112         22
   113         14
   114          1
   115         17
   116          8
   117         21
   118          6
   119        119
   120         45
   121        265
   122        313
   123        573
   124        111
   125         99
   126        110
   127         13
   128          1
   129          9
   130          4
   131         14
   132          6
   133         99
   134         34
   135        934
   136        206
   137        152
   138         79
   139         56
   140          7
   141          6
   142          3
   143          3
   144          2
   145         13
   146          5
   147         69
   148        325
   149        137
   150         52
   151         78
   152         26
   153         10
   154          9
   155          2
   156          1
   157          1
   158          1
   159          6
   160          4
   161         79
   162         59
   163        138
   164         41
   165         27
   166          7
   167          2
   168          1
   173          3
   174          2
   175         90
   176         42
   177         62
   178         11
   179         80
   180         46
   181          7
   182          1
   187          3
   188          3
   189        862
   190        141
   191        262
   192         61
   193         16
   194          4
   202          2
   203          3
   204        264
   205         54
   206          5
   207        123
   208         21
   209          2
   220         49
   221         13
   222        329
   223         55
   224          5