##TITLE=Library Entry 60335
##JCAMP-DX=Revision 4.10 
##DATA TYPE=MASS SPECTRUM
##SAMPLE DESCRIPTION=NIST Mass Spectrometry Data Center
##NAMES=HP
##CAS NAME=2-((2R,4aR,8aR)-4a,8-Dimethyl-1,2,3,4,4a,5,6,8a-octahydronaphthal
en-2-yl)acrylaldehyde
##MOLFORM=C15H22O
##CAS REGISTRY NO=4586-01-0
##MP= -300
##BP= -300
##MW= 218
##$RETENTION INDEX=1695
##$CONDENSED SPECTRUM=NO
##NPOINTS= 121
##XYDATA=(XY..XY) 1 
    27         40
    29         61
    39        171
    40         51
    41        531
    42         38
    43         64
    45         68
    50         16
    51        100
    52         47
    53        404
    54         69
    55        428
    63         36
    64         18
    65        303
    66        100
    67        675
    68        305
    69        250
    70         25
    74         12
    77        579
    78        161
    79        888
    80        207
    81        961
    82        121
    87         17
    88         13
    91        999
    92        157
    93        479
    94        186
    95        459
    96        126
    97        109
   102         21
   103        110
   104         62
   105        867
   106        155
   107        794
   108        144
   109        531
   110         76
   111         25
   115        121
   116         71
   117        280
   118         93
   119        425
   120        139
   121        451
   122        314
   123        232
   124         61
   125         37
   127         23
   128        102
   129        272
   130        102
   131        216
   133        367
   134        104
   135        232
   136         69
   139         19
   141         35
   142         43
   143        262
   144         61
   145        356
   146         87
   147        379
   148        113
   149         62
   150         36
   151         25
   152         78
   153         19
   155         14
   156         39
   157        110
   159        177
   160         72
   161        222
   162        114
   163        178
   170         29
   171        106
   172         21
   173         88
   174         22
   175         87
   176         41
   177         68
   179         17
   180         20
   185        612
   186        113
   187         44
   188         63
   189        393
   190         72
   191         80
   192         28
   199          9
   200        323
   201         96
   202         12
   203        843
   204        129
   205         39
   206         11
   207         24
   216         25
   217          7
   218        722
   219        114