##TITLE=Library Entry 22027
##JCAMP-DX=Revision 4.10 
##DATA TYPE=MASS SPECTRUM
##SAMPLE DESCRIPTION=Japan AIST/NIMC Database- Spectrum MS-NW-3492
##NAMES=HP
##CAS NAME=1-Octene, 2-methyl-
##MOLFORM=C9H18
##CAS REGISTRY NO=4588-18-5
##MP= -300
##BP= -300
##MW= 126
##$RETENTION INDEX=874
##$CONDENSED SPECTRUM=NO
##NPOINTS= 64
##XYDATA=(XY..XY) 1 
    15          5
    26          6
    27        100
    28         15
    29        130
    30          3
    31          1
    37          2
    38          6
    39        113
    40         27
    41        309
    42        110
    43        204
    44          9
    45          1
    50          5
    51         10
    52          6
    53         45
    54         19
    55        273
    56        999
    57        213
    58         18
    59          4
    62          1
    63          3
    65          6
    66          3
    67         32
    68         30
    69        247
    70         98
    71         20
    72          5
    73          1
    75          1
    77          4
    78          1
    79          5
    80          1
    81          8
    82          8
    83         33
    84         30
    85         10
    86          3
    91          2
    95          4
    96          1
    97          7
    98         23
    99          4
   100          1
   109          1
   110          1
   111         27
   112          3
   113          1
   124          2
   126         82
   127          8
   128          1