##TITLE=Library Entry 47193
##JCAMP-DX=Revision 4.10 
##DATA TYPE=MASS SPECTRUM
##SAMPLE DESCRIPTION=A.A.Kutin, Moscow, Russia
##NAMES=HP
##CAS NAME=Benzeneacetaldehyde, .alpha.-(hydroxyimino)-, oxime
##MOLFORM=C8H8N2O2
##CAS REGISTRY NO=4589-97-3
##MP= -300
##BP= -300
##MW= 164
##$RETENTION INDEX=0
##$CONDENSED SPECTRUM=NO
##NPOINTS= 105
##XYDATA=(XY..XY) 1 
    33          7
    37         88
    38        125
    39        349
    40         59
    41         41
    42         13
    43         68
    44        157
    45         12
    46          4
    47          1
    48          6
    49         50
    50        467
    51        664
    52        168
    53         41
    54          8
    55         12
    56         10
    57          6
    58         14
    59          8
    61         72
    62        152
    63        364
    64        188
    65        122
    66         33
    67         12
    68          6
    69          4
    70          2
    71          5
    72          3
    73         32
    74        120
    75        204
    76        537
    77        999
    78        133
    79        254
    80         30
    81          9
    82          6
    83          4
    84          5
    85         15
    86         27
    87         40
    88         69
    89        431
    90        376
    91        161
    92         47
    93         17
    94         24
    95          4
    97          2
    98          6
    99         10
   100          7
   101         19
   102        190
   103        431
   104        295
   105        163
   106        112
   107         20
   108          4
   109          2
   110          1
   111          3
   112          1
   113          0
   114         18
   116        510
   117        897
   118        122
   119        261
   120         55
   121          7
   122          8
   123          0
   124          0
   129         85
   130         30
   131         14
   132         13
   133         22
   134         12
   135          4
   136          2
   137          2
   145         13
   146        155
   147        450
   148         53
   149          8
   161          1
   163         64
   164        577
   165         50
   166          4