##TITLE=Library Entry 2894
##JCAMP-DX=Revision 4.10 
##DATA TYPE=MASS SPECTRUM
##SAMPLE DESCRIPTION=G.S. KING, CHEM. PATHOL. DEP., QUEEN CHARLOTTE'S HOSP.,
 LONDON
##NAMES=HP
##CAS NAME=Androstan-17-one, 3-(formyloxy)-11-hydroxy-, (3.alpha.,5.beta.,11
.beta.)-
##MOLFORM=C20H30O4
##CAS REGISTRY NO=4589-70-2
##MP= -300
##BP= -300
##MW= 334
##$RETENTION INDEX=0
##$CONDENSED SPECTRUM=NO
##NPOINTS= 245
##XYDATA=(XY..XY) 1 
    40         44
    41        999
    42         72
    43        472
    44        124
    45         52
    46         24
    50         12
    51         24
    52         12
    53        264
    54         64
    55        912
    56         64
    57        152
    58         12
    59         12
    63         12
    65        144
    66         64
    67        852
    68        124
    69        404
    70        124
    71        112
    72         24
    73        124
    74         12
    75         32
    77        344
    78        104
    79        772
    80        144
    81        672
    82        124
    83        244
    84        324
    85         84
    86         12
    87         24
    89         32
    91        772
    92        212
    93        904
    94        424
    95        644
    96        264
    97        852
    98        104
    99         32
   100         24
   101         12
   102         12
   103         44
   104         44
   105        704
   106        804
   107        852
   108        464
   109        544
   110        204
   111        124
   112         72
   113         24
   114         24
   115         64
   116         32
   117        184
   118        404
   119        532
   120        252
   121        412
   122        232
   123        184
   124        104
   125         44
   126         32
   127         64
   128         64
   129        132
   130         64
   131        312
   132        244
   133        412
   134        284
   135        244
   136        144
   137        104
   138         44
   139         32
   140         24
   141         44
   142         32
   143        212
   144        252
   145        384
   146        164
   147        492
   148        212
   149        552
   150        164
   151         72
   152         44
   153         12
   154         12
   155         44
   156         64
   157        212
   158        164
   159        324
   160        192
   161        224
   162        164
   163        124
   164         52
   165         84
   166         32
   167         24
   168         12
   169         72
   170         52
   171        184
   172        152
   173        264
   174        452
   175        432
   176        144
   177        112
   178        132
   179         52
   180         32
   181         32
   182         24
   183         64
   184         44
   185        144
   186         84
   187        172
   188        212
   189        112
   190         84
   191         92
   192         32
   193         32
   194         12
   195         72
   196         32
   197        104
   198         64
   199        364
   200        104
   201        124
   202         84
   203         52
   204         24
   205         32
   206         32
   207        264
   208         84
   209         64
   210         24
   211        244
   212         84
   213        512
   214        264
   215        252
   216        224
   217        104
   218         32
   219         24
   220         12
   221         24
   223         24
   224         12
   225         24
   226        424
   227        292
   228        304
   229        244
   230         64
   231         44
   232         84
   233         32
   234         72
   235         24
   237        304
   238         72
   239         24
   241         64
   242        264
   243         92
   244        304
   245        352
   246        104
   247         32
   248         12
   249         12
   252        212
   253         72
   254         12
   255        532
   256        104
   257         52
   258         24
   259        212
   260        192
   261         44
   262         12
   265         12
   267         12
   268         12
   269         24
   270        644
   271        204
   272        132
   273        264
   274        144
   275         64
   276         12
   281        104
   282         24
   283         24
   286         24
   287         12
   288        304
   289         84
   290        324
   291         72
   292         24
   298         12
   299         12
   300         12
   301        524
   302        112
   303         12
   304         12
   305         24
   306         24
   316        384
   317         72
   318         12
   327         12
   334        732
   335        172
   336         24