##TITLE=Library Entry 3904
##JCAMP-DX=Revision 4.10 
##DATA TYPE=MASS SPECTRUM
##SAMPLE DESCRIPTION=G.S. KING, CHEM. PATHOL. DEP., QUEEN CHARLOTTE'S HOSP.,
 LONDON
##NAMES=HP
##CAS NAME=Androstan-17-one, 3-(formyloxy)-11-hydroxy-, (3.alpha.,5.alpha.,1
1.beta.)-
##MOLFORM=C20H30O4
##CAS REGISTRY NO=4589-77-9
##MP= -300
##BP= -300
##MW= 334
##$RETENTION INDEX=0
##$CONDENSED SPECTRUM=NO
##NPOINTS= 183
##XYDATA=(XY..XY) 1 
    40         32
    41        999
    42         84
    43        484
    44        284
    45         84
    46         44
    51         44
    53        284
    54         44
    55        944
    56         44
    57        132
    65        164
    66         52
    67        792
    68        112
    69        464
    70         84
    71        112
    73        264
    75         44
    77        424
    78        152
    79        804
    80        144
    81        772
    82        144
    83        184
    84        204
    85         72
    89         44
    91        832
    92        264
    93        852
    94        364
    95        644
    96        192
    97        584
    98        104
   103         64
   104         84
   105        792
   106        772
   107        999
   108        464
   109        552
   110        192
   111        104
   112         32
   113         32
   115        104
   116         44
   117        192
   118        204
   119        604
   120        332
   121        452
   122        244
   123        224
   124        144
   125         44
   127         84
   128         72
   129        152
   130         72
   131        344
   132        152
   133        424
   134        304
   135        264
   136        124
   137         64
   141         64
   142         44
   143        164
   144        284
   145        444
   146        204
   147        624
   148        224
   149        332
   150        112
   151         44
   152         32
   155         44
   156         44
   157        192
   158        184
   159        364
   160        164
   161        244
   162        132
   163        164
   164         64
   165         92
   166         44
   167         32
   169         64
   170         32
   171        104
   172        164
   173        204
   174        252
   175        284
   176         72
   177         92
   178         84
   179         44
   180         44
   183         72
   185        164
   186         52
   187        112
   188        124
   189         72
   190         44
   191        104
   193         64
   195         32
   197        112
   198         64
   199        384
   200         84
   201        112
   202         44
   203         44
   207        912
   208        152
   209        112
   211        184
   212         64
   213        572
   214        224
   215        152
   216        224
   217        104
   221         32
   226        144
   227        204
   228        164
   229        204
   230         32
   231         44
   232         52
   234        112
   237        212
   238         52
   241         44
   242        164
   243         64
   244         84
   245        292
   246         44
   247         32
   252         92
   253         72
   255        932
   256        164
   257         64
   259        164
   260        184
   261         24
   270        804
   271        264
   272        124
   273        172
   274        184
   275         64
   281        232
   282         52
   283         52
   286         64
   287         44
   288        332
   289         64
   290        152
   301        652
   302        152
   316        644
   317        132
   334        564
   335        124