##TITLE=Library Entry 904
##JCAMP-DX=Revision 4.10 
##DATA TYPE=MASS SPECTRUM
##SAMPLE DESCRIPTION=Chemical Concepts
##NAMES=HP
##CAS NAME=Glycine, ethyl ester
##MOLFORM=C4H9NO2
##CAS REGISTRY NO=459-73-4
##MP= -300
##BP= -300
##MW= 103
##$RETENTION INDEX=0
##$CONDENSED SPECTRUM=NO
##NPOINTS= 16
##XYDATA=(XY..XY) 1 
    26         11
    27         42
    28         36
    29         76
    30        999
    31         33
    42         12
    43         10
    44          7
    45          7
    46          4
    57          4
    60         21
    74          8
   103         38
   104          4