##TITLE=Library Entry 86571
##JCAMP-DX=Revision 4.10 
##DATA TYPE=MASS SPECTRUM
##SAMPLE DESCRIPTION=NIST Mass Spectrometry Data Center, 1994
##NAMES=HP
##CAS NAME=3-(4-Fluorophenyl)propionic acid
##MOLFORM=C9H9FO2
##CAS REGISTRY NO=459-31-4
##MP= -300
##BP= -300
##MW= 168
##$RETENTION INDEX=0
##$CONDENSED SPECTRUM=NO
##NPOINTS= 94
##XYDATA=(XY..XY) 1 
     4          1
    14          3
    15          2
    17          1
    18          2
    26          6
    27         41
    28          9
    29          7
    31         11
    32          0
    33          2
    37          3
    38          8
    39         32
    40          2
    41          1
    42          8
    43          3
    44          5
    45         41
    46          2
    47          2
    50         33
    51         44
    52          6
    53          4
    55          6
    56          5
    57         38
    58          2
    59         10
    60          9
    61          9
    62         15
    63         28
    64          4
    65          3
    68          7
    69         15
    70         16
    71          3
    72          0
    73          4
    74         22
    75         66
    76          9
    77         53
    78          6
    79          1
    80          2
    81         16
    82          0
    83         99
    84          7
    85          1
    86          2
    87          3
    88          1
    89         13
    90          2
    91          2
    92          3
    93          4
    94         11
    95         32
    96         94
    97         29
    98          4
    99          3
   100          1
   101         47
   102         12
   103         51
   104          5
   105          2
   107         24
   109        999
   110         79
   111          3
   119          1
   120         13
   121         45
   122        229
   123         45
   124          3
   125         10
   126          1
   149          7
   150          1
   151          4
   168        249
   169         24
   170          2