##TITLE=Library Entry 86295
##JCAMP-DX=Revision 4.10 
##DATA TYPE=MASS SPECTRUM
##SAMPLE DESCRIPTION=V.A.Korolev, Moscow, Russia
##NAMES=HP
##CAS NAME=1-[(4-Fluorophenyl)methyl]guanidine
##MOLFORM=C8H10FN3
##CAS REGISTRY NO=459-33-6
##MP= -300
##BP= -300
##MW= 167
##$RETENTION INDEX=0
##$CONDENSED SPECTRUM=NO
##NPOINTS= 95
##XYDATA=(XY..XY) 1 
    31         29
    35          2
    36         11
    37         73
    38         93
    39        141
    40         28
    41        131
    42        479
    43        686
    44        303
    45         35
    46         11
    48        164
    49         47
    50        253
    51        167
    52         52
    53         44
    54         21
    55         40
    56         54
    57        186
    58         33
    59         58
    60         10
    61         52
    62         80
    63        128
    64        108
    65         27
    66         10
    68         63
    69         93
    70         92
    71         94
    72         64
    73         31
    74        122
    75        299
    76         58
    77         98
    78         29
    80         66
    81         84
    82         23
    83        261
    84         20
    85         11
    86         12
    87         10
    88          5
    89         48
    90          7
    91          8
    92         13
    93         19
    94         62
    95        432
    96        154
    97        214
    98         20
    99          3
   100          5
   101          1
   102          8
   103          3
   104         24
   105         88
   106         19
   107         94
   109        999
   110         64
   111          4
   112          1
   119          1
   120          3
   121         25
   122        197
   123         65
   124        755
   125        105
   126          9
   138          2
   139          3
   148          1
   149         25
   150         34
   151          9
   152          1
   165          2
   166         86
   167        148
   168         22
   169          2