##TITLE=Library Entry 9257
##JCAMP-DX=Revision 4.10 
##DATA TYPE=MASS SPECTRUM
##SAMPLE DESCRIPTION=Japan AIST/NIMC Database- Spectrum MS-NW-7867
##NAMES=HP
##CAS NAME=Mitoguazone
##MOLFORM=C5H12N8
##CAS REGISTRY NO=459-86-9
##MP= -300
##BP= -300
##MW= 184
##$RETENTION INDEX=0
##$CONDENSED SPECTRUM=NO
##NPOINTS= 89
##XYDATA=(XY..XY) 1 
    13          5
    14          5
    15         14
    16         28
    17         74
    18        132
    25          1
    26         15
    27         52
    28        237
    29         39
    30         28
    31        131
    32        408
    33          3
    39        129
    40         60
    41         47
    42        146
    43        999
    44        134
    45         16
    46          1
    51          7
    52         17
    53         18
    54         39
    55         28
    56          7
    57        125
    58        119
    59         32
    60         90
    61          2
    64          1
    66          4
    67          6
    68          7
    69          8
    70          4
    71          2
    72          7
    73          9
    74        421
    75         16
    79          2
    80          2
    81          4
    82         70
    83          9
    84         50
    85         24
    86          3
    89          2
    91          1
    92          3
    94          1
    95          1
    96          4
    97          4
    98          8
    99         75
   100          6
   109          3
   110        307
   111         34
   112          6
   113          2
   114          2
   124          2
   125         16
   126        184
   127         11
   135          2
   136          1
   140          1
   141          3
   148          1
   150          5
   151          1
   152          1
   161          1
   163          1
   165          5
   167          2
   169          1
   182          2
   184         73
   185          8