##TITLE=Library Entry 86311
##JCAMP-DX=Revision 4.10 
##DATA TYPE=MASS SPECTRUM
##SAMPLE DESCRIPTION=NIST Mass Spectrometry Data Center, 1990.
##NAMES=HP
##CAS NAME=p-Fluoroethylbenzene
##MOLFORM=C8H9F
##CAS REGISTRY NO=459-47-2
##MP= -300
##BP= -300
##MW= 124
##$RETENTION INDEX=879
##$CONDENSED SPECTRUM=NO
##NPOINTS= 81
##XYDATA=(XY..XY) 1 
    14          5
    15         31
    16          0
    20          4
    26         21
    27         74
    28         16
    29          8
    31         24
    32          8
    33          8
    37         12
    38         27
    39         65
    40          5
    43          2
    44          2
    45          5
    48          2
    49         11
    50         80
    51         84
    52         10
    53          6
    54          3
    56         13
    57         81
    58          4
    59         15
    60         18
    61         24
    62         32
    63         56
    64          7
    65          5
    68         17
    69         21
    70         25
    71          4
    73          8
    74         38
    75         82
    76         15
    77         53
    78          7
    79          6
    80          7
    81         23
    82          4
    83        148
    84         11
    85          6
    86          6
    87         10
    89         22
    90          4
    92          3
    93          5
    94         14
    95         29
    96         64
    97         18
    98          4
   100          4
   101         37
   102         14
   103         50
   104          6
   105          4
   106          3
   107         40
   108          3
   109        999
   110         75
   111          3
   120          7
   121         14
   122         12
   123         35
   124        232
   125         25