##TITLE=Library Entry 11056
##JCAMP-DX=Revision 4.10 
##DATA TYPE=MASS SPECTRUM
##SAMPLE DESCRIPTION=NIST Mass Spectrometry Data Center, 1994
##NAMES=HP
##CAS NAME=(4-Fluorophenyl)acetone
##MOLFORM=C9H9FO
##CAS REGISTRY NO=459-03-0
##MP= -300
##BP= -300
##MW= 152
##$RETENTION INDEX=0
##$CONDENSED SPECTRUM=NO
##NPOINTS= 78
##XYDATA=(XY..XY) 1 
    15         73
    16          0
    18          1
    25          0
    26          3
    27          5
    33          5
    37          5
    38         12
    39         44
    40          1
    43        999
    44         25
    46          0
    49          2
    50         26
    51         25
    52          3
    53          1
    55         13
    56          7
    57         75
    58          3
    59          5
    60          1
    61          9
    62         23
    63         46
    64          5
    65          2
    67          0
    68          5
    69          6
    70          6
    71          0
    73          0
    74          1
    75         13
    76          2
    77          5
    78          1
    79          0
    80          4
    81         23
    82          9
    83        137
    84          7
    85          3
    86          4
    87          4
    88          2
    89         17
    90          1
    92          0
    93          1
    94          3
    95          4
    96          3
    97          1
    98          0
    99          0
   101          4
   102          0
   103          3
   104          0
   105          2
   107         38
   109        361
   110         83
   111          4
   120          1
   121          1
   122          0
   123          1
   133          2
   136          1
   152         75
   153          7