##TITLE=Library Entry 89689
##JCAMP-DX=Revision 4.10 
##DATA TYPE=MASS SPECTRUM
##SAMPLE DESCRIPTION=Exported from NIST MS Search
##NAMES=HP
##CAS NAME=Benzene, 1-ethoxy-4-fluoro-
##MOLFORM=C8H9FO
##CAS REGISTRY NO=459-26-7
##MP= -300
##BP= -300
##MW= 140
##$RETENTION INDEX=0
##$CONDENSED SPECTRUM=NO
##NPOINTS= 80
##XYDATA=(XY..XY) 1 
    14          1
    15          2
    18          1
    26          6
    27         33
    28         10
    29         48
    30          1
    31         12
    32          2
    33          2
    37          3
    38          7
    39         12
    40          1
    41          1
    42          1
    43          4
    44          1
    45          2
    49          2
    50         13
    51         10
    52          1
    53          5
    55          3
    56          8
    57         46
    58          7
    59          1
    60          1
    61          5
    62          7
    63         21
    64         32
    65          7
    66          1
    68          5
    69         10
    70          4
    71          1
    73          8
    74          9
    75         41
    76          4
    77          3
    79          1
    80          1
    81         12
    82          9
    83        101
    84        117
    85          7
    86          3
    91          3
    92          3
    93          2
    94          8
    95         53
    96          8
    97          8
    98          1
   101          1
   105          1
   109          7
   110          3
   111         21
   112        999
   113         67
   114          4
   119          1
   121          1
   122          1
   123          1
   125          6
   126          1
   139          4
   140        359
   141         33
   142          2