##TITLE=Library Entry 70472
##JCAMP-DX=Revision 4.10 
##DATA TYPE=MASS SPECTRUM
##SAMPLE DESCRIPTION=NIST Mass Spectrometry Data Center
##NAMES=HP
##CAS NAME=4-Fluorobenzyl alcohol
##MOLFORM=C7H7FO
##CAS REGISTRY NO=459-56-3
##MP= -300
##BP= -300
##MW= 126
##$RETENTION INDEX=0
##$CONDENSED SPECTRUM=NO
##NPOINTS= 83
##XYDATA=(XY..XY) 1 
    12          2
    13          2
    15          4
    17          5
    18          2
    19          2
    25          3
    26         16
    27         38
    29        122
    30         12
    31        128
    33          6
    36          3
    37         34
    38         46
    39         91
    40          8
    43          7
    44         10
    45         15
    46          7
    47          3
    48          8
    49         24
    50        153
    51        193
    52         26
    53         29
    55          9
    56         19
    57        100
    58          5
    59         10
    60          3
    61         35
    62         52
    63         70
    64          6
    65          5
    66          4
    68         38
    69         56
    70         78
    71         19
    72          4
    73         17
    74         73
    75        185
    76         30
    77        451
    78         58
    79         46
    80         12
    81         46
    82         11
    83        127
    84          1
    85          7
    86          4
    87          8
    88          5
    89         22
    90          2
    92          4
    93         10
    94         29
    95        301
    96        143
    97        999
    98         78
    99          3
   105        344
   106         87
   107        117
   108         57
   109        251
   110         21
   123         64
   125        567
   126        812
   127         65
   128          4