##TITLE=Library Entry 32956
##JCAMP-DX=Revision 4.10 
##DATA TYPE=MASS SPECTRUM
##SAMPLE DESCRIPTION=NIST Mass Spectrometry Data Center
##NAMES=HP
##CAS NAME=11-(2-Cyclopenten-1-yl)undecanoic acid, (+)-
##MOLFORM=C16H28O2
##CAS REGISTRY NO=459-67-6
##MP= -300
##BP= -300
##MW= 252
##$RETENTION INDEX=2026
##$CONDENSED SPECTRUM=NO
##NPOINTS= 135
##XYDATA=(XY..XY) 1 
    27          6
    28          2
    29         11
    31          1
    38          1
    39         22
    40          5
    41         90
    42         14
    43         29
    44          1
    45         14
    50          1
    51          3
    52          3
    53         20
    54         16
    55         84
    56         11
    57         12
    58          1
    59          5
    60         35
    61          3
    63          1
    65         34
    66        115
    67        999
    68         85
    69         50
    70          6
    71          8
    72          1
    73         30
    74          3
    77         21
    78          4
    79         50
    80         45
    81         74
    82        444
    83         86
    84         11
    85          4
    86          1
    87          5
    88          1
    91          9
    92          2
    93         14
    94         13
    95         89
    96         49
    97         19
    98          6
    99          2
   100          2
   101          4
   102          1
   105          2
   106          1
   107          4
   108          5
   109         25
   110         22
   111         11
   112          2
   113          1
   114          3
   115          4
   116          1
   119          2
   120          1
   121          7
   122          7
   123         28
   124         20
   125          5
   126          1
   127          2
   128          1
   129          6
   130          1
   131          1
   133          2
   134          2
   135          9
   136          4
   137         15
   138          8
   139          2
   141          1
   143          3
   147          2
   148          1
   149          5
   150          2
   151          2
   152          3
   153          7
   154          1
   157          1
   159          1
   163          1
   164          1
   165          2
   166          1
   167          2
   168          1
   171          1
   173          1
   175          1
   177          2
   178          2
   181          1
   182          1
   185          1
   187          1
   191          1
   192          1
   195          6
   196          4
   197          1
   206          1
   209          2
   210          2
   213          1
   223          1
   224          3
   234         10
   235          3
   236          1
   252         44
   253          8
   254          1