##TITLE=Library Entry 580
##JCAMP-DX=Revision 4.10 
##DATA TYPE=MASS SPECTRUM
##SAMPLE DESCRIPTION=Japan AIST/NIMC Database- Spectrum MS-NW-2638
##NAMES=HP
##CAS NAME=Acetic acid, fluoro-, ethyl ester
##MOLFORM=C4H7FO2
##CAS REGISTRY NO=459-72-3
##MP= -300
##BP= -300
##MW= 106
##$RETENTION INDEX=0
##$CONDENSED SPECTRUM=NO
##NPOINTS= 42
##XYDATA=(XY..XY) 1 
    12          1
    13          4
    14         16
    15         25
    16          1
    17          1
    18          3
    19          2
    25          1
    26         29
    27        230
    28        188
    29        999
    30         21
    31         20
    32         16
    33        238
    34          4
    35          1
    36          1
    41          3
    42         27
    43         49
    44          5
    45         61
    46          3
    47          5
    49          2
    59          8
    60         14
    61        527
    62         11
    63         13
    73         19
    77         12
    78         62
    79         46
    80          1
    91         56
    92          2
   105          8
   106          8