##TITLE=Library Entry 53156
##JCAMP-DX=Revision 4.10 
##DATA TYPE=MASS SPECTRUM
##SAMPLE DESCRIPTION=NIST Mass Spectrometry Data Center, 1990.
##NAMES=HP
##CAS NAME=Benzene, 1-fluoro-4-methoxy-
##MOLFORM=C7H7FO
##CAS REGISTRY NO=459-60-9
##MP= -300
##BP= -300
##MW= 126
##$RETENTION INDEX=916
##$CONDENSED SPECTRUM=NO
##NPOINTS= 63
##XYDATA=(XY..XY) 1 
    15         56
    17          1
    18          2
    25          2
    26         14
    27         14
    28         15
    29         30
    30          1
    31         70
    32          2
    33          8
    36          5
    37         22
    38         38
    39         44
    40          4
    44          5
    45          6
    49         18
    50         82
    51         44
    52          8
    53         12
    55          9
    56         54
    57        323
    58         11
    60          7
    61         32
    62         48
    63         95
    64         19
    68         35
    69         47
    70         24
    72          3
    73         14
    74         53
    75        148
    76         11
    77         25
    78          4
    79          4
    80          9
    81         71
    82         90
    83        999
    84         66
    92          9
    93          7
    94         18
    95        110
    96        156
    97         65
    98         10
   108          2
   111        708
   112         43
   113          2
   126        939
   127         75
   128          4