##TITLE=Library Entry 23299
##JCAMP-DX=Revision 4.10 
##DATA TYPE=MASS SPECTRUM
##SAMPLE DESCRIPTION=RADIAN CORP
##NAMES=HP
##CAS NAME=Germane, dibutyldichloro-
##MOLFORM=C8H18Cl2Ge
##CAS REGISTRY NO=4593-81-1
##MP= -300
##BP= -300
##MW= 258
##$RETENTION INDEX=0
##$CONDENSED SPECTRUM=NO
##NPOINTS= 149
##XYDATA=(XY..XY) 1 
    26          6
    27        133
    29        421
    30          8
    37          3
    38          4
    39        174
    40         15
    41        444
    50          2
    51          9
    52          6
    53         30
    54          7
    56        112
    57        999
    58         41
    70          4
    72          9
    74          3
    75         19
    76          6
    77          4
    79          2
    84          6
    85          9
    88          1
    89         27
    90          2
    91          2
    95          1
    97          4
    98          1
    99         13
   100          6
   101         19
   102          4
   105          4
   107         41
   108         21
   109        116
   110         17
   111        120
   112          6
   113         19
   115          4
   120          3
   122          6
   123          3
   124          7
   125          7
   126          2
   128          3
   129         15
   130         12
   131          9
   132          7
   133          9
   134          4
   136          4
   138          5
   139         11
   140         25
   141          7
   142         36
   143         12
   144         45
   145         13
   146         31
   147          5
   149          4
   153          4
   155          4
   157          4
   158          4
   159          4
   160          2
   161         59
   162        176
   163        112
   164        305
   165        216
   166        411
   167        115
   168        193
   169         27
   170         40
   171         12
   172         32
   173          5
   174         19
   175          7
   176          9
   177          6
   179          1
   181          2
   182          3
   190          9
   191          5
   192         10
   193         18
   194          9
   195          9
   196          4
   197        128
   198          4
   199        251
   200         61
   201        368
   202         43
   203        212
   204          1
   205         48
   211          1
   212          3
   216          2
   218         56
   219         26
   220        101
   221         69
   222        139
   223         68
   224         61
   225         30
   226         13
   227         12
   228          2
   229         11
   230          2
   232          1
   234          2
   236          3
   237          2
   238          1
   239          2
   241          6
   243         10
   245         19
   246          2
   247         17
   249          9
   254          3
   256         13
   257          4
   258         17
   259          3
   260         10
   262          5
   264          5