##TITLE=Library Entry 81434
##JCAMP-DX=Revision 4.10 
##DATA TYPE=MASS SPECTRUM
##SAMPLE DESCRIPTION=NIST Mass Spectrometry Data Center
##NAMES=HP
##CAS NAME=3-Phenylbutyric acid
##MOLFORM=C10H12O2
##CAS REGISTRY NO=4593-90-2
##MP= -300
##BP= -300
##MW= 164
##$RETENTION INDEX=0
##$CONDENSED SPECTRUM=NO
##NPOINTS= 72
##XYDATA=(XY..XY) 1 
    15          2
    26          2
    27         26
    29          4
    31          4
    37          1
    38          5
    39         53
    40          4
    41         35
    42          9
    43         14
    44          2
    45         28
    49          1
    50         28
    51         81
    52         20
    53         10
    55          1
    57          4
    59          2
    60          4
    61          1
    62          7
    63         25
    64          4
    65         26
    66          3
    69          1
    73          1
    74         10
    75         10
    76         12
    77        161
    78         75
    79        133
    80          9
    86          1
    87          2
    89         12
    90          3
    91         85
    92          8
    93          1
    98          1
   101          2
   102         19
   103        123
   104         79
   105        999
   106         89
   107         98
   108          7
   115         31
   116          6
   117         40
   118        153
   119         21
   120          2
   121          4
   130          1
   131         14
   132          1
   144          1
   145          2
   146          1
   147          3
   149          6
   164        204
   165         22
   166          2