##TITLE=Library Entry 21178
##JCAMP-DX=Revision 4.10 
##DATA TYPE=MASS SPECTRUM
##SAMPLE DESCRIPTION=Japan AIST/NIMC Database- Spectrum MS-NW-7605
##NAMES=HP
##CAS NAME=Cyclohexanepropanenitrile, 2-oxo-
##MOLFORM=C9H13NO
##CAS REGISTRY NO=4594-78-9
##MP= -300
##BP= -300
##MW= 151
##$RETENTION INDEX=0
##$CONDENSED SPECTRUM=NO
##NPOINTS= 125
##XYDATA=(XY..XY) 1 
    12          1
    13          1
    14          5
    15         16
    18          2
    24          1
    25          4
    26         56
    27        234
    28         62
    29         98
    30          5
    31          4
    32          1
    34          1
    36          1
    37         10
    38         29
    39        276
    40         85
    41        605
    42        189
    43         44
    44          8
    45          2
    46          1
    47          3
    48          1
    49          2
    50         23
    51         54
    52         59
    53        160
    54        128
    55        999
    56         68
    57         17
    58          2
    59          2
    60          1
    61          3
    62          7
    63         12
    64         10
    65         31
    66         27
    67        360
    68         82
    69         94
    70        135
    71         10
    72          2
    73          2
    74          3
    75          4
    76          4
    77         27
    78         13
    79         49
    80        134
    81         83
    82        145
    83        185
    84        347
    85         25
    86          2
    87          1
    88          2
    89          4
    90          5
    91         25
    92         14
    93         33
    94        128
    95        116
    96         44
    97         59
    98        780
    99         53
   100          4
   101          1
   102          4
   103          5
   104          4
   105          7
   106         24
   107        115
   108        176
   109         28
   110         31
   111         77
   112          7
   113          1
   114          1
   115          4
   116          4
   117          2
   118          5
   119          4
   120          6
   121          3
   122        132
   123         40
   124          6
   127          2
   128          3
   129          8
   130          5
   131          2
   132          7
   133          5
   134          8
   135          2
   136          6
   137          1
   143          9
   144          1
   145          1
   146          1
   147          2
   148          2
   149          3
   150         12
   151         82
   152         10