##TITLE=Library Entry 87316
##JCAMP-DX=Revision 4.10 
##DATA TYPE=MASS SPECTRUM
##SAMPLE DESCRIPTION=W.V. BROWN, CSIRO, BLACK MOUNTAIN, CANBERRA, AUSTRALIA
##NAMES=HP
##CAS NAME=9-Aza-1-methylbicyclo[3.3.1]nonan-3-one
##MOLFORM=C9H15NO
##CAS REGISTRY NO=45977-26-2
##MP= -300
##BP= -300
##MW= 153
##$RETENTION INDEX=0
##$CONDENSED SPECTRUM=NO
##NPOINTS= 60
##XYDATA=(XY..XY) 1 
    38         10
    39        165
    40         43
    41        260
    42        445
    43        260
    44         32
    49          4
    50          8
    51         17
    52         13
    53         54
    54         56
    55        139
    56         76
    57         80
    58         37
    59          2
    63          4
    65         17
    66         10
    67         56
    68        130
    69         63
    70         82
    71         15
    77         17
    78          6
    79         19
    80         37
    81         39
    82        369
    83        282
    84         52
    85          4
    91         10
    92         13
    93         23
    94        123
    95        156
    96        782
    97        117
    98         10
   106          2
   107          2
   108         15
   109         13
   110        999
   111        326
   112         28
   124        102
   125         30
   126          2
   136          4
   138         32
   139          2
   152         15
   153        452
   154         47
   155          4