##TITLE=Library Entry 5312
##JCAMP-DX=Revision 4.10 
##DATA TYPE=MASS SPECTRUM
##SAMPLE DESCRIPTION=A.A.Kutin, Moscow, Russia
##NAMES=HP
##CAS NAME=1H-Pyrazole-3-carboxylic acid, 1-methyl-4-nitro-
##MOLFORM=C5H5N3O4
##CAS REGISTRY NO=4598-86-1
##MP= -300
##BP= -300
##MW= 171
##$RETENTION INDEX=0
##$CONDENSED SPECTRUM=NO
##NPOINTS= 134
##XYDATA=(XY..XY) 1 
    33          0
    34          0
    36          7
    37         31
    38         42
    39         30
    40         47
    41        113
    42        999
    43        170
    44         63
    45        128
    46         43
    48          7
    50         10
    51         79
    52        182
    53         98
    54         85
    55         27
    56          9
    57          6
    58          6
    59          0
    60          0
    61          0
    62          0
    63          2
    64          7
    65         29
    66         46
    67         37
    68         46
    69         17
    70         10
    71         61
    72          2
    73          2
    74          1
    75          1
    76          2
    77         19
    78         13
    79         79
    80        223
    81         91
    82         18
    83         12
    84          6
    85          2
    86          0
    87          0
    88          0
    89          0
    90          0
    91          5
    92          1
    93          5
    94          6
    95          2
    96          4
    97         24
    98         43
    99          3
   100          0
   101          0
   102          0
   103          0
   104          0
   105          1
   106          1
   107          2
   108         13
   109         43
   110        172
   111         10
   112          2
   113          2
   114          0
   115          6
   116          1
   117          0
   118          0
   119          0
   120          0
   121          0
   122          0
   123          5
   124          3
   125          2
   126          5
   127        145
   128          8
   129          2
   130          0
   131          0
   132          0
   133          0
   134          0
   135          0
   137          0
   138          2
   139          1
   140          1
   141          7
   142          1
   143          1
   144          1
   145          0
   146          0
   147          0
   148          0
   149          0
   150          0
   151          0
   152          0
   153          1
   154         15
   155         25
   156          2
   157          2
   158          0
   159          0
   160          0
   161          0
   162          0
   164          0
   165          0
   167          0
   171        370
   172         25
   173          4
   174          0
   175          0