##TITLE=Library Entry 18260
##JCAMP-DX=Revision 4.10 
##DATA TYPE=MASS SPECTRUM
##SAMPLE DESCRIPTION=A.A.Kutin, Moscow, Russia
##NAMES=HP
##CAS NAME=Cyanogen
##MOLFORM=C2N2
##CAS REGISTRY NO=460-19-5
##MP= -300
##BP= -300
##MW= 52
##$RETENTION INDEX=255
##$CONDENSED SPECTRUM=NO
##NPOINTS= 3
##XYDATA=(XY..XY) 1 
    26         47
    52        999
    53         31