##TITLE=Library Entry 18057
##JCAMP-DX=Revision 4.10 
##DATA TYPE=MASS SPECTRUM
##SAMPLE DESCRIPTION=Exported from NIST MS Search
##NAMES=HP
##CAS NAME=1,3-Butadiyne
##MOLFORM=C4H2
##CAS REGISTRY NO=460-12-8
##MP= -300
##BP= -300
##MW= 50
##$RETENTION INDEX=431
##$CONDENSED SPECTRUM=NO
##NPOINTS= 13
##XYDATA=(XY..XY) 1 
    12         38
    13         24
    24         26
    25         95
    26          6
    36         29
    37         54
    38         10
    48         84
    49        360
    50        999
    51         42
    52          2