##TITLE=Library Entry 16721
##JCAMP-DX=Revision 4.10 
##DATA TYPE=MASS SPECTRUM
##SAMPLE DESCRIPTION=Thomas J.Bruno
##NAMES=HP
##CAS NAME=2,2,2-Trifluoroethyl methyl ether
##MOLFORM=C3H5F3O
##CAS REGISTRY NO=460-43-5
##MP= -300
##BP= -300
##MW= 114
##$RETENTION INDEX=0
##$CONDENSED SPECTRUM=NO
##NPOINTS= 18
##XYDATA=(XY..XY) 1 
    31        291
    33        432
    35         24
    43         37
    45        999
    46         55
    47         15
    50         50
    51        136
    61        237
    63        130
    64        171
    65         54
    69        227
    83        245
    95         48
   113         44
   114        174