##TITLE=Library Entry 61656
##JCAMP-DX=Revision 4.10 
##DATA TYPE=MASS SPECTRUM
##SAMPLE DESCRIPTION=Mark Whitten, Florida Museum of Natural History, U. of
 Florida
##NAMES=HP
##CAS NAME=2,6-Dimethyl-1,3,5,7-octatetraene, E,E-
##MOLFORM=C10H14
##CAS REGISTRY NO=460-01-5
##MP= -300
##BP= -300
##MW= 134
##$RETENTION INDEX=1131
##$CONDENSED SPECTRUM=NO
##NPOINTS= 53
##XYDATA=(XY..XY) 1 
    41        420
    42         20
    43         11
    44          5
    50         75
    51        207
    52         82
    53        172
    54         17
    55        183
    56         16
    58         20
    61         10
    62         28
    63         86
    64         24
    65        190
    66         38
    67         47
    68          6
    69          7
    74         18
    75         18
    77        381
    78        136
    79        276
    80         63
    81         11
    86          4
    87          7
    89         29
    91        999
    92        221
    93        145
    94         20
   102         18
   103        104
   104         73
   105        209
   106         86
   107         44
   108          5
   115         90
   116         27
   117        165
   119        811
   120         82
   128          4
   129          4
   131          7
   133         35
   134        446
   135         50