##TITLE=Library Entry 49407
##JCAMP-DX=Revision 4.10 
##DATA TYPE=MASS SPECTRUM
##SAMPLE DESCRIPTION=Exported from NIST MS Search
##NAMES=HP
##CAS NAME=Ethene, 1-chloro-2-fluoro-
##MOLFORM=C2H2ClF
##CAS REGISTRY NO=460-16-2
##MP= -300
##BP= -300
##MW= 80
##$RETENTION INDEX=0
##$CONDENSED SPECTRUM=NO
##NPOINTS= 34
##XYDATA=(XY..XY) 1 
    24          7
    25         24
    26         68
    27          3
    31         40
    32          4
    33          4
    35         24
    36          8
    37          9
    38          3
    40         12
    41          3
    43          8
    44        259
    45        757
    46         18
    47         29
    48         23
    49         28
    50         10
    51          9
    59          9
    60         45
    61         99
    62         17
    63         32
    64          2
    78         14
    79         40
    80        999
    81         36
    82        305
    83          9