##TITLE=Library Entry 36527
##JCAMP-DX=Revision 4.10 
##DATA TYPE=MASS SPECTRUM
##SAMPLE DESCRIPTION=A.Pleshkova, Nesmeyanov Inst.Org.Elem.Cpds, Moscow
##NAMES=HP
##CAS NAME=Phosphine, bis(trifluoromethyl)-
##MOLFORM=C2HF6P
##CAS REGISTRY NO=460-96-8
##MP= -300
##BP= -300
##MW= 170
##$RETENTION INDEX=0
##$CONDENSED SPECTRUM=NO
##NPOINTS= 19
##XYDATA=(XY..XY) 1 
    31         74
    32         17
    50         36
    51        137
    52          2
    62         17
    63         34
    69        999
    70         12
    81         32
    82        182
    83          2
   100         32
   101         78
   102          1
   151         84
   152          2
   170        192
   171          4