##TITLE=Library Entry 47630
##JCAMP-DX=Revision 4.10 
##DATA TYPE=MASS SPECTRUM
##SAMPLE DESCRIPTION=Exported from NIST MS Search
##NAMES=HP
##CAS NAME=Propane, 3-bromo-1-chloro-1,1-difluoro-
##MOLFORM=C3H4BrClF2
##CAS REGISTRY NO=460-29-7
##MP= -300
##BP= -300
##MW= 192
##$RETENTION INDEX=0
##$CONDENSED SPECTRUM=NO
##NPOINTS= 79
##XYDATA=(XY..XY) 1 
    25          9
    26         71
    27        287
    28         40
    31         62
    32          5
    33         26
    35          6
    36          7
    37         16
    38         13
    39         11
    44          9
    45         15
    47         10
    49        131
    50         12
    51        309
    55          6
    56         18
    57         33
    58          4
    59         23
    61         11
    62          6
    63         32
    64         23
    65         11
    66          7
    67        114
    68          4
    69         40
    75         59
    76         20
    77        999
    78         39
    79         29
    80         14
    81         23
    82         10
    84          7
    85        198
    86          7
    87         66
    91         11
    92         11
    93        363
    94         17
    95        315
    96          5
    99          7
   104          5
   105         13
   106         16
   107        126
   108         14
   109        114
   111         38
   113        230
   114          8
   115         66
   127         20
   129         44
   131         25
   137          5
   139          5
   156        408
   157        498
   158        414
   159        482
   160         16
   176          8
   178          8
   192        609
   193         23
   194        786
   195         28
   196        194
   197          7