##TITLE=Library Entry 34362
##JCAMP-DX=Revision 4.10 
##DATA TYPE=MASS SPECTRUM
##SAMPLE DESCRIPTION=NIST Mass Spectrometry Data Center
##NAMES=HP
##CAS NAME=2,6,10-Dodecatrien-1-ol, 3,7,11-trimethyl-
##MOLFORM=C15H26O
##CAS REGISTRY NO=4602-84-0
##MP= -300
##BP= -300
##MW= 222
##$RETENTION INDEX=1713
##$CONDENSED SPECTRUM=NO
##NPOINTS= 123
##XYDATA=(XY..XY) 1 
    15          1
    26          1
    27         31
    28          4
    29         71
    30          2
    31         11
    37          1
    38          2
    39         78
    40         21
    41        476
    42         27
    43         80
    44          5
    45          5
    50          3
    51         13
    52          8
    53         98
    54         11
    55        116
    56         13
    57         67
    58          3
    59          4
    62          1
    63          3
    64          1
    65         24
    66         10
    67        149
    68        123
    69        999
    70         70
    71         34
    72          3
    73          1
    77         43
    78          8
    79         66
    80         46
    81        291
    82         50
    83         37
    84         45
    85         11
    86          1
    89          1
    91         57
    92         23
    93        184
    94         33
    95        102
    96         15
    97         19
    98          4
    99          1
   102          1
   103          4
   104          1
   105         29
   106          8
   107         99
   108         22
   109         86
   110         13
   111         20
   112          3
   115          3
   116          1
   117          3
   118          1
   119         31
   120         12
   121         85
   122         44
   123         76
   124         15
   125          3
   126          2
   127         24
   128          3
   129          1
   131          1
   133         16
   134          9
   135         32
   136        102
   137         39
   138         24
   139         10
   140          6
   141          1
   145          1
   147          9
   148          9
   149          8
   150          1
   151          6
   152          3
   153          2
   159          1
   161         26
   162          5
   163          2
   165          2
   166          3
   175          2
   176          2
   177          2
   178          1
   179         13
   180          4
   189         11
   190          1
   191         16
   192          3
   193          1
   204          3
   205          1
   207          3
   222          2