##TITLE=Library Entry 15631
##JCAMP-DX=Revision 4.10 
##DATA TYPE=MASS SPECTRUM
##SAMPLE DESCRIPTION=RADIAN CORP
##NAMES=HP
##CAS NAME=1,3-Propanediamine, N,N'-bis(3-aminopropyl)-
##MOLFORM=C9H24N4
##CAS REGISTRY NO=4605-14-5
##MP= -300
##BP= -300
##MW= 188
##$RETENTION INDEX=0
##$CONDENSED SPECTRUM=NO
##NPOINTS= 93
##XYDATA=(XY..XY) 1 
    18         10
    27         30
    28        111
    29         64
    30        370
    31          8
    32          3
    38          1
    39         33
    40         19
    41        170
    42        249
    43        206
    44        999
    45         91
    46         10
    50          6
    51          1
    52          8
    53         11
    54         50
    55         61
    56        471
    57        554
    58        960
    59         87
    60         34
    65          2
    66          2
    67         29
    68        125
    69         77
    70        573
    71        556
    72        210
    73         35
    74         20
    75         83
    76          4
    77          3
    79          6
    80         14
    81          8
    82        189
    83         65
    84        884
    85        316
    86         54
    87        184
    88         15
    89         13
    94          7
    95          6
    96         50
    97         39
    98         82
    99        186
   100         22
   101         49
   102         14
   103          5
   109          3
   110          4
   111         16
   112         15
   113         71
   114        171
   115         44
   116         55
   117          5
   125         10
   126         27
   127         46
   128         12
   129          2
   130         11
   131          3
   132         22
   137          1
   138          2
   139          6
   140          7
   141         15
   142         98
   143         11
   144         54
   145         16
   151          1
   152         11
   156          3
   158         14
   170          3
   188         20