##TITLE=Library Entry 28406
##JCAMP-DX=Revision 4.10 
##DATA TYPE=MASS SPECTRUM
##SAMPLE DESCRIPTION=LMC, NIDDK, NIH, Bethesda, MD 20892
##NAMES=HP
##CAS NAME=Azacyclohexane, 3-methylamino-1-methyl-
##MOLFORM=C7H16N2
##CAS REGISTRY NO=4606-66-0
##MP= -300
##BP= -300
##MW= 128
##$RETENTION INDEX=0
##$CONDENSED SPECTRUM=NO
##NPOINTS= 49
##XYDATA=(XY..XY) 1 
    41        125
    42        359
    43        264
    44        198
    45        251
    46         57
    50         19
    51         14
    52         21
    53        125
    54         86
    55         95
    56        186
    57        381
    58        999
    59         49
    61         13
    64         16
    67         19
    68         46
    69         53
    70        257
    71        971
    72        411
    73         25
    75         10
    77         17
    78         19
    80         19
    81         61
    82         77
    83         35
    84        141
    85         29
    88         91
    90          8
    91          6
    93          6
    94         16
    96         58
    97         33
    98        300
    99        130
   100         18
   101          9
   113          7
   127         26
   128        245
   129         26