##TITLE=Library Entry 15149
##JCAMP-DX=Revision 4.10 
##DATA TYPE=MASS SPECTRUM
##SAMPLE DESCRIPTION=Japan AIST/NIMC Database- Spectrum MS-NW-6367
##NAMES=HP
##CAS NAME=3-Piperidinemethanol
##MOLFORM=C6H13NO
##CAS REGISTRY NO=4606-65-9
##MP= -300
##BP= -300
##MW= 115
##$RETENTION INDEX=0
##$CONDENSED SPECTRUM=NO
##NPOINTS= 88
##XYDATA=(XY..XY) 1 
    12          1
    14          5
    15         50
    16          4
    17          2
    18          7
    25          1
    26         28
    27        193
    28        325
    29        259
    30        899
    31        129
    32         26
    33          1
    37          8
    38         19
    39        191
    40         51
    41        504
    42        520
    43        616
    44        999
    45         43
    46         17
    47          3
    49          3
    50         15
    51         31
    52         25
    53         70
    54         84
    55        202
    56        673
    57        609
    58         73
    59         30
    60         33
    61          3
    62          3
    63          7
    64          5
    65         25
    66         16
    67         98
    68        176
    69        268
    70        322
    71         54
    72        199
    73         29
    74          8
    75          2
    76          2
    77          9
    78         10
    79         19
    80         54
    81         30
    82        175
    83         47
    84        798
    85        181
    86        136
    87         34
    88          2
    91          3
    92         15
    93         22
    94         34
    95         33
    96        204
    97         68
    98        222
    99         23
   100         35
   101          3
   107          6
   108         12
   109         11
   110         10
   111          7
   112        101
   113         14
   114        339
   115        613
   116         49
   117          3