##TITLE=Library Entry 59127
##JCAMP-DX=Revision 4.10 
##DATA TYPE=MASS SPECTRUM
##SAMPLE DESCRIPTION=Philip Morris R&D
##NAMES=HP
##CAS NAME=Phenylacetic acid propyl ester
##MOLFORM=C11H14O2
##CAS REGISTRY NO=4606-15-9
##MP= -300
##BP= -300
##MW= 178
##$RETENTION INDEX=1331
##$CONDENSED SPECTRUM=NO
##NPOINTS= 56
##XYDATA=(XY..XY) 1 
    36          2
    37          0
    38          7
    39         72
    40          6
    41        106
    42          7
    43        379
    44         10
    45          0
    46          5
    49          0
    50         12
    51         25
    52         11
    53          2
    55          0
    57          4
    58          0
    59          2
    61          2
    62         10
    63         33
    64         11
    65        132
    66          7
    74          1
    75          1
    76          1
    77         10
    78          3
    79          4
    84          0
    86          0
    87          0
    89         39
    90         28
    91        999
    92        226
    93         14
    94          1
   105         12
   106          1
   107          1
   108          0
   118          7
   119         61
   120          3
   132          0
   136        148
   137         18
   138          0
   149          5
   178        160
   179         19
   180          1