##TITLE=Library Entry 8795
##JCAMP-DX=Revision 4.10 
##DATA TYPE=MASS SPECTRUM
##SAMPLE DESCRIPTION=Chemical Concepts
##NAMES=HP
##CAS NAME=Pentane, 2-nitro-
##MOLFORM=C5H11NO2
##CAS REGISTRY NO=4609-89-6
##MP= -300
##BP= -300
##MW= 117
##$RETENTION INDEX=0
##$CONDENSED SPECTRUM=NO
##NPOINTS= 61
##XYDATA=(XY..XY) 1 
    25          1
    26         20
    27        206
    28         26
    29        285
    30         42
    31          5
    33          0
    34          0
    37          5
    38         13
    39        167
    40         25
    41        323
    42        108
    43        999
    44         37
    45         33
    46          9
    48          1
    49          0
    50          6
    51         10
    52          4
    53         26
    54          6
    55        202
    56         15
    57          6
    58          5
    59          1
    60          4
    61          0
    62          2
    63          2
    65          2
    66          0
    67          4
    68          1
    69         23
    70         60
    71        453
    72         27
    73          1
    74          3
    75         16
    76          4
    77          0
    81          0
    83          0
    85          1
    87          3
    90          1
    91          0
    97          0
   100          1
   101          1
   102          0
   105          0
   106          0
   118          0