##TITLE=Library Entry 90671
##JCAMP-DX=Revision 4.10 
##DATA TYPE=MASS SPECTRUM
##SAMPLE DESCRIPTION=NIST Mass Spectrometry Data Center
##NAMES=HP
##CAS NAME=1-Bromo-3,5-difluorobenzene
##MOLFORM=C6H3BrF2
##CAS REGISTRY NO=461-96-1
##MP= -300
##BP= -300
##MW= 192
##$RETENTION INDEX=0
##$CONDENSED SPECTRUM=NO
##NPOINTS= 83
##XYDATA=(XY..XY) 1 
    25          2
    26          1
    31         47
    32          1
    33          1
    36          7
    37         38
    38         25
    39          5
    44          6
    45          3
    47          3
    48          4
    49         23
    50         73
    51          8
    55          7
    56         32
    57         31
    58          1
    60         10
    61         74
    62        123
    63        463
    64         25
    67          2
    68         91
    69         35
    70          1
    72          4
    73         22
    74         73
    75         30
    76          1
    79         24
    80         18
    81         69
    82          6
    86          9
    87         19
    88          3
    91          4
    92         42
    93         84
    94         42
    95          2
    96         38
    97         37
   101          1
   104          2
   106          2
   110          3
   111         11
   112         89
   113        999
   114         69
   115          2
   116          1
   117          2
   118          1
   119          1
   128          2
   130          2
   134          1
   135          3
   136          1
   137          3
   140          1
   141          4
   142          1
   143          3
   146          1
   148          1
   159          2
   161          5
   163          3
   173          2
   175          2
   192        618
   193         47
   194        595
   195         41
   196          1