##TITLE=Library Entry 86318
##JCAMP-DX=Revision 4.10 
##DATA TYPE=MASS SPECTRUM
##SAMPLE DESCRIPTION=NIST Mass Spectrometry Data Center, 1994
##NAMES=HP
##CAS NAME=5-Fluoro-m-xylene
##MOLFORM=C8H9F
##CAS REGISTRY NO=461-97-2
##MP= -300
##BP= -300
##MW= 124
##$RETENTION INDEX=0
##$CONDENSED SPECTRUM=NO
##NPOINTS= 81
##XYDATA=(XY..XY) 1 
     4          1
    14          0
    15         14
    26          9
    27         43
    28          3
    31         10
    32          0
    33          7
    37          7
    38         23
    39         73
    40          5
    41          3
    44          3
    45          3
    46          3
    47          2
    49          6
    50         53
    51        105
    52         16
    53         11
    55          1
    56          6
    57         61
    58          3
    59         11
    60         18
    61         31
    62         27
    63         52
    64          9
    65         11
    68          9
    69         13
    70         22
    71          8
    73          4
    74         24
    75         44
    76         14
    77        107
    78         16
    79          5
    80          3
    81         27
    82          3
    83         87
    84         11
    85          4
    86          6
    87          7
    88          1
    89         11
    90          2
    91         10
    92          3
    93          3
    94          9
    95         27
    96         53
    97         33
    98          4
    99          2
   100          1
   101         39
   102         19
   103         54
   104          6
   105          6
   107         21
   109        999
   110         79
   111          3
   120          8
   121         23
   122         19
   123        210
   124        431
   125         36