##TITLE=Library Entry 30045
##JCAMP-DX=Revision 4.10 
##DATA TYPE=MASS SPECTRUM
##SAMPLE DESCRIPTION=ASES Database, Dalian Institute, P.R. China
##NAMES=HP
##CAS NAME=3,5-Dithioxo-2,3,4,5-tetrahydro-1,2,4-triazine
##MOLFORM=C3H3N3S2
##CAS REGISTRY NO=461-90-5
##MP= -300
##BP= -300
##MW= 145
##$RETENTION INDEX=0
##$CONDENSED SPECTRUM=NO
##NPOINTS= 16
##XYDATA=(XY..XY) 1 
    41        201
    42        501
    43        120
    45        206
    46        249
    47        150
    57        520
    58        863
    59        999
    60        804
    70        181
    84         50
    85        266
    86         49
   118         48
   145        824