##TITLE=Library Entry 143
##JCAMP-DX=Revision 4.10 
##DATA TYPE=MASS SPECTRUM
##SAMPLE DESCRIPTION=Japan AIST/NIMC Database- Spectrum MS-NW- 234
##NAMES=HP
##CAS NAME=Hydantoin
##MOLFORM=C3H4N2O2
##CAS REGISTRY NO=461-72-3
##MP= -300
##BP= -300
##MW= 100
##$RETENTION INDEX=0
##$CONDENSED SPECTRUM=NO
##NPOINTS= 38
##XYDATA=(XY..XY) 1 
    12          6
    13          8
    14         22
    15          9
    16         15
    17          4
    18         13
    26         11
    27        133
    28        999
    29        906
    30         18
    32          4
    38         11
    39          8
    40         14
    41          9
    42         72
    43        181
    44        166
    45          6
    53          9
    54         15
    55         18
    56         40
    57        125
    58          4
    64          2
    67          2
    69          3
    70         67
    71          3
    72        346
    73         10
    82          3
   100        775
   101         47
   102          5