##TITLE=Library Entry 1543
##JCAMP-DX=Revision 4.10 
##DATA TYPE=MASS SPECTRUM
##SAMPLE DESCRIPTION=NIST Mass Spectrometry Data Center, 1994
##NAMES=HP
##CAS NAME=4,4,4-Trifluorobutanol
##MOLFORM=C4H7F3O
##CAS REGISTRY NO=461-18-7
##MP= -300
##BP= -300
##MW= 128
##$RETENTION INDEX=0
##$CONDENSED SPECTRUM=NO
##NPOINTS= 44
##XYDATA=(XY..XY) 1 
    14         17
    15         21
    16         10
    17          6
    18         13
    19         14
    26         24
    27         94
    28        182
    29        126
    30          6
    31        999
    32         70
    33         31
    37          8
    38         11
    39         53
    40         10
    41         51
    42         24
    43         44
    44         60
    45         34
    46          7
    47         42
    51         96
    57         18
    59         52
    61         38
    64         62
    65         10
    67         10
    69         59
    71         28
    75         12
    77        198
    78        213
    79         38
    88          8
    89         10
    90          5
    91         74
   107         29
   108         37