##TITLE=Library Entry 411
##JCAMP-DX=Revision 4.10 
##DATA TYPE=MASS SPECTRUM
##SAMPLE DESCRIPTION=F. TURECEK,HEYROVSKY INST PHYS CHEM & ELECTROCHEM,PRAGU
E,CZECH
##NAMES=HP
##CAS NAME=Ethyl fluoroformate
##MOLFORM=C3H5FO2
##CAS REGISTRY NO=461-64-3
##MP= -300
##BP= -300
##MW= 92
##$RETENTION INDEX=0
##$CONDENSED SPECTRUM=NO
##NPOINTS= 33
##XYDATA=(XY..XY) 1 
    13         11
    14         40
    15         90
    16          5
    17          3
    18          6
    25         16
    26        138
    27        493
    28        730
    29        999
    30         24
    31         12
    32          7
    33         74
    39          5
    41          8
    42         21
    43         58
    44         37
    45         41
    46          5
    47        349
    48          8
    49          7
    63          5
    64         27
    65        135
    66         11
    77        321
    78          8
    91         30
    92          3