##TITLE=Library Entry 27879
##JCAMP-DX=Revision 4.10 
##DATA TYPE=MASS SPECTRUM
##SAMPLE DESCRIPTION=Tox21 Consortium/NIST Mass Spectrometry Data Center, 20
12
##NAMES=HP
##CAS NAME=Chlorphentermine
##MOLFORM=C10H14ClN
##CAS REGISTRY NO=461-78-9
##MP= -300
##BP= -300
##MW= 183
##$RETENTION INDEX=1380
##$CONDENSED SPECTRUM=NO
##NPOINTS= 90
##XYDATA=(XY..XY) 1 
    15          2
    18          7
    27          3
    28          5
    29          2
    30         18
    37          1
    38          2
    39         19
    40          3
    41         46
    42         62
    43         13
    44          1
    49          1
    50          7
    51         11
    52          3
    53          2
    54          2
    55          2
    56          9
    58        999
    59         37
    60          1
    61          2
    62          6
    63         24
    64          6
    65         12
    66          8
    70          1
    73          7
    74          3
    75          9
    76          2
    77          7
    78          1
    79          1
    84          4
    85          3
    86          2
    87          3
    88          1
    89         43
    90         15
    91         15
    92          2
    97          1
    99         14
   100          1
   101          6
   102          2
   103          3
   104          1
   105          1
   106          1
   111          1
   112          1
   113          1
   114          1
   115         17
   116         12
   117          6
   118          2
   123          1
   125         56
   126          7
   127         20
   128          4
   129          2
   130          4
   131          4
   132          3
   133          4
   138          1
   139          1
   140          1
   149          1
   151          4
   152          1
   153          4
   154          1
   155          1
   166          1
   167          1
   168         31
   169          3
   170         10
   171          1