##TITLE=Library Entry 34036
##JCAMP-DX=Revision 4.10 
##DATA TYPE=MASS SPECTRUM
##SAMPLE DESCRIPTION=DR. C. C. VAN DE SANDE, STATE UNIVERSITY OF GENT, BELGI
UM
##NAMES=HP
##CAS NAME=2-Butenoic acid, phenyl ester
##MOLFORM=C10H10O2
##CAS REGISTRY NO=46117-37-7
##MP= -300
##BP= -300
##MW= 162
##$RETENTION INDEX=0
##$CONDENSED SPECTRUM=NO
##NPOINTS= 24
##XYDATA=(XY..XY) 1 
    37         12
    38         30
    39        210
    40         40
    41        312
    42         17
    50         20
    52         30
    53         10
    55         15
    62         10
    63         24
    64         10
    65         75
    66         40
    68        110
    69        999
    70         55
    77         30
    93          9
    94        200
    95         15
   162        148
   163         16