##TITLE=Library Entry 34475
##JCAMP-DX=Revision 4.10 
##DATA TYPE=MASS SPECTRUM
##SAMPLE DESCRIPTION=Philip Morris R&D
##NAMES=HP
##CAS NAME=Neric acid
##MOLFORM=C10H16O2
##CAS REGISTRY NO=4613-38-1
##MP= -300
##BP= -300
##MW= 168
##$RETENTION INDEX=1344
##$CONDENSED SPECTRUM=NO
##NPOINTS= 68
##XYDATA=(XY..XY) 1 
    38          6
    39        138
    40         25
    41        696
    42         36
    43         75
    44          6
    45         19
    50          6
    51         17
    52          9
    53         66
    54         17
    55         36
    56         22
    57         11
    58          3
    59          7
    60          4
    63          4
    65         13
    66          4
    67         59
    68         27
    69        999
    70         57
    71         10
    77         17
    78          4
    79         19
    80          5
    81         20
    82         77
    83         15
    84          4
    85         27
    91         17
    92          2
    93         11
    94          2
    95         12
    96          4
    97         11
    98          3
   100        186
   101         11
   105          5
   107         14
   108         15
   109         13
   110          2
   111         30
   112         10
   113         11
   121          4
   122         15
   123         66
   124         15
   125         42
   126          6
   135          5
   149          4
   150          6
   151          2
   153          5
   163          3
   168         29
   169          2