##TITLE=Library Entry 80537
##JCAMP-DX=Revision 4.10 
##DATA TYPE=MASS SPECTRUM
##SAMPLE DESCRIPTION=J. M. PECHINE
##NAMES=HP
##CAS NAME=Benzene, 1,1'-(1,2-dimethyl-1,2-ethanediyl)bis-, (R*,S*)-
##MOLFORM=C16H18
##CAS REGISTRY NO=4613-11-0
##MP= -300
##BP= -300
##MW= 210
##$RETENTION INDEX=0
##$CONDENSED SPECTRUM=NO
##NPOINTS= 15
##XYDATA=(XY..XY) 1 
    27         28
    39         19
    51         32
    65         13
    77        103
    78         28
    79         95
    89         10
    91         36
   103         56
   104        259
   105        999
   106         88
   115         11
   210         28