##TITLE=Library Entry 6080
##JCAMP-DX=Revision 4.10 
##DATA TYPE=MASS SPECTRUM
##SAMPLE DESCRIPTION=Exported from NIST MS Search
##NAMES=HP
##CAS NAME=Eicosanenitrile
##MOLFORM=C20H39N
##CAS REGISTRY NO=4616-73-3
##MP= -300
##BP= -300
##MW= 293
##$RETENTION INDEX=0
##$CONDENSED SPECTRUM=NO
##NPOINTS= 205
##XYDATA=(XY..XY) 1 
    12          1
    13          2
    14          6
    15         45
    16          1
    24          1
    25          2
    26         11
    27        220
    28         97
    29        527
    30         32
    33          2
    36          2
    37          3
    38          5
    39        112
    40         29
    41        785
    42        190
    43        999
    44         51
    45          6
    46          1
    47          2
    48          2
    49          1
    50          3
    51          5
    52          6
    53         44
    54        128
    55        538
    56        189
    57        753
    58         40
    59          7
    60          2
    61          2
    63          2
    65          7
    66          8
    67         60
    68         49
    69        233
    70        255
    71        231
    72         16
    73          6
    74         19
    75          5
    76          4
    77          7
    78          4
    79         21
    80         15
    81         47
    82        121
    83        173
    84         86
    85        115
    86         11
    87         11
    88         23
    89          3
    91          6
    92          3
    93         11
    94         13
    95         26
    96        157
    97        316
    98         76
    99         37
   100          5
   101          9
   102          3
   103          1
   104          1
   105          3
   106          2
   107          7
   108         10
   109         13
   110        188
   111        154
   112         47
   113         27
   114          4
   115          4
   116          2
   117          1
   118          1
   119          2
   120          2
   121          6
   122         17
   123          8
   124        150
   125         63
   126         33
   127         21
   128          4
   129          5
   130          2
   131          1
   133          2
   134          2
   135          4
   136         11
   137          5
   138         91
   139         28
   140         25
   141         15
   142          3
   143          9
   144          2
   145          1
   146          1
   147          1
   148          1
   149          3
   150          5
   151          3
   152         66
   153         17
   154         21
   155         10
   156          3
   157          2
   158          1
   159          1
   161          1
   162          1
   163          2
   164          4
   165          2
   166         54
   167         15
   168         17
   169          7
   170          3
   171          2
   172          1
   177          1
   178          3
   179          2
   180         50
   181         17
   182         13
   183          4
   184          1
   185          2
   186          1
   191          1
   192          2
   193          2
   194         51
   195         23
   196         12
   197          4
   198          2
   199          2
   200          1
   205          1
   206          2
   207          3
   208         55
   209         30
   210         10
   211          3
   212          2
   213          2
   214          1
   220          2
   222         61
   223         32
   224         10
   225          3
   227          1
   228          2
   234          2
   236         69
   237         31
   238         10
   239          2
   241          1
   247          1
   248          2
   250         74
   251         26
   252         10
   253          2
   255          1
   256          2
   262          2
   264         50
   265         15
   266          3
   278          8
   279          1
   292          5
   293          2
   294          6