##TITLE=Library Entry 77420
##JCAMP-DX=Revision 4.10 
##DATA TYPE=MASS SPECTRUM
##SAMPLE DESCRIPTION=Japan AIST/NIMC Database- Spectrum MS-IW-6304
##NAMES=HP
##CAS NAME=1H-Isoindole-1,3(2H)-dione, 2-(2-propynyloxy)-
##MOLFORM=C11H7NO3
##CAS REGISTRY NO=4616-63-1
##MP= -300
##BP= -300
##MW= 201
##$RETENTION INDEX=0
##$CONDENSED SPECTRUM=NO
##NPOINTS= 81
##XYDATA=(XY..XY) 1 
    25          2
    26         11
    27          7
    28         11
    29          9
    30          3
    37         12
    38         24
    39         86
    40          4
    42          5
    43          2
    49          4
    50        124
    51         12
    52          9
    53         20
    54         39
    55          6
    61          2
    62          6
    63         17
    64         15
    65          5
    66          4
    70         10
    71          1
    73          5
    74         37
    75         59
    76        407
    77         56
    78          3
    86          1
    87          1
    88          5
    89         12
    90         66
    91          6
    92          3
    93          4
   101          4
   102        118
   103         85
   104        999
   105        617
   106         46
   107          2
   114          3
   115         11
   116         30
   117        108
   118         18
   119          4
   121          4
   128          7
   129         17
   130        418
   131         40
   132        163
   133         24
   134          2
   143          5
   144          9
   145         36
   146         27
   147        554
   148         87
   149         15
   150          1
   156          2
   160          1
   162          3
   163          4
   172         41
   173          9
   174          1
   186          1
   200          9
   201         17
   202          3