##TITLE=Library Entry 21179
##JCAMP-DX=Revision 4.10 
##DATA TYPE=MASS SPECTRUM
##SAMPLE DESCRIPTION=Leung Pu, NIH, Bethesda, Maryland, U.S.
##NAMES=HP
##CAS NAME=15-Hydroxypentadecanoic acid
##MOLFORM=C15H30O3
##CAS REGISTRY NO=4617-33-8
##MP= -300
##BP= -300
##MW= 258
##$RETENTION INDEX=0
##$CONDENSED SPECTRUM=NO
##NPOINTS= 166
##XYDATA=(XY..XY) 1 
    41        675
    42        205
    43        503
    44          5
    45        157
    46         13
    47          2
    50          1
    51          5
    53         62
    54        114
    55        999
    56        215
    57        255
    58          6
    59         44
    60        325
    61         40
    62          2
    63          0
    65         11
    66          4
    67        189
    68        169
    69        565
    70        154
    71        116
    73        310
    74         27
    75          2
    77          8
    78          6
    79         32
    80         31
    81        154
    82        203
    83        373
    84        423
    85         82
    86          1
    87         73
    88          6
    89          1
    91          8
    92          2
    93         21
    94         30
    95        118
    96        167
    97        295
    98        764
    99         74
   100         27
   101         50
   102         11
   103          1
   105          5
   106          2
   107         17
   108         30
   109         64
   110         90
   111        147
   112        257
   113         40
   114         36
   115         46
   116        128
   117          9
   119         12
   120          3
   121         24
   122         30
   123         57
   124         50
   125         69
   126         93
   127         31
   129        135
   130         19
   131          1
   133         12
   134         11
   135         18
   136         12
   137         37
   138         49
   139         33
   140         51
   141         22
   142          1
   143         27
   144         10
   145          1
   147         10
   148          7
   149         10
   150         12
   151         26
   152         32
   153         14
   154         56
   155         14
   156          4
   157         12
   158         14
   159          5
   161          7
   162          2
   163          4
   164          1
   165         19
   166         15
   167         16
   168         33
   169         11
   171         34
   172         18
   173         10
   175          5
   176          6
   177          1
   178         21
   179         14
   180         26
   181         10
   182         10
   183         14
   184          5
   185         51
   186          9
   189          0
   191          0
   192          2
   193          7
   194         19
   195          4
   196         15
   197         20
   198          3
   199         11
   200          1
   203          1
   204         11
   205          3
   207          1
   209          1
   210          2
   211          4
   212         10
   213          1
   214          2
   215          1
   222         69
   223         15
   224          1
   225          0
   238          0
   239          3
   240        179
   241         56
   242          8
   256          0
   257          1
   258         14
   259          2