##TITLE=Library Entry 76882
##JCAMP-DX=Revision 4.10 
##DATA TYPE=MASS SPECTRUM
##SAMPLE DESCRIPTION=Exported from NIST MS Search
##NAMES=HP
##CAS NAME=Phthalic acid, mono(o-methylbenzyl) ester
##MOLFORM=C16H14O4
##CAS REGISTRY NO=4619-49-2
##MP= -300
##BP= -300
##MW= 270
##$RETENTION INDEX=0
##$CONDENSED SPECTRUM=NO
##NPOINTS= 76
##XYDATA=(XY..XY) 1 
    18          7
    26          5
    27         20
    28         37
    29         10
    31         10
    32          8
    36          5
    37         49
    38         88
    39         75
    40          7
    41         18
    43          9
    44          4
    45          7
    46          4
    48          4
    49         25
    50        216
    51         94
    52         65
    53         24
    54          2
    55          5
    57          2
    59          4
    60         33
    61         16
    62         22
    63         49
    64         12
    65         85
    66         11
    67          3
    72          2
    73         23
    74         85
    75         54
    76        403
    77        236
    78         93
    79        210
    80         14
    81          2
    85          3
    86          5
    87          4
    89         23
    90          8
    91        210
    92         30
    93        112
    94         10
   101          2
   102          9
   103         79
   104        999
   105        146
   106         14
   107        181
   108         14
   119         19
   120          5
   121         39
   122        165
   123         15
   133          2
   134          2
   148        137
   149         20
   150          2
   193          2
   195          2
   208          4
   226          3