##TITLE=Library Entry 1158
##JCAMP-DX=Revision 4.10 
##DATA TYPE=MASS SPECTRUM
##SAMPLE DESCRIPTION=Japan AIST/NIMC Database- Spectrum MS-NW- 414
##NAMES=HP
##CAS NAME=Hydantoic acid
##MOLFORM=C3H6N2O3
##CAS REGISTRY NO=462-60-2
##MP= -300
##BP= -300
##MW= 118
##$RETENTION INDEX=0
##$CONDENSED SPECTRUM=NO
##NPOINTS= 49
##XYDATA=(XY..XY) 1 
    12          2
    13          3
    14          7
    15          9
    16         58
    17         83
    18         21
    26          6
    27         44
    28        291
    29        217
    30        999
    31         32
    32          4
    36          2
    38          2
    39          2
    40          2
    41          4
    42         46
    43        182
    44        187
    45         46
    46          5
    53          1
    54          4
    55          6
    56         69
    57         71
    58          3
    59          2
    60          3
    69          2
    70          1
    71          2
    72         15
    73        410
    74        115
    75         58
    76          2
    77          1
    80          1
    82          1
    83          1
    85          1
   100         45
   101         54
   102          2
   118         16