##TITLE=Library Entry 11240
##JCAMP-DX=Revision 4.10 
##DATA TYPE=MASS SPECTRUM
##SAMPLE DESCRIPTION=Japan AIST/NIMC Database- Spectrum MS-NW-4567
##NAMES=HP
##CAS NAME=7-Tridecanone
##MOLFORM=C13H26O
##CAS REGISTRY NO=462-18-0
##MP= -300
##BP= -300
##MW= 198
##$RETENTION INDEX=1453
##$CONDENSED SPECTRUM=NO
##NPOINTS= 93
##XYDATA=(XY..XY) 1 
    14          1
    15          3
    17          2
    18          7
    26          4
    27         99
    28         10
    29        150
    30          4
    31          3
    38          2
    39         52
    40          9
    41        238
    42         39
    43        999
    44         36
    45          8
    50          1
    51          4
    52          2
    53         17
    54          8
    55         82
    56         21
    57        152
    58        568
    59        163
    60          7
    61          1
    64          2
    65          4
    66          2
    67         22
    68        105
    69         55
    70         35
    71        369
    72         59
    73          5
    77          2
    78          1
    79          5
    80          2
    81         27
    82          8
    83         11
    84         13
    85        354
    86         83
    87          6
    91          2
    93          2
    94          2
    95         48
    96          7
    97         10
    98          2
    99         39
   100         12
   101          1
   107          1
   109          3
   110         40
   111          6
   112          8
   113        760
   114         64
   115          7
   123          3
   124          2
   125          1
   126          1
   127          2
   128        183
   129         64
   130          5
   135          1
   137          1
   139          1
   141        106
   142         13
   143          1
   151          1
   155         18
   156          7
   169          6
   170          1
   180          1
   183          1
   197          1
   198         27
   199          5