##TITLE=Library Entry 49839
##JCAMP-DX=Revision 4.10 
##DATA TYPE=MASS SPECTRUM
##SAMPLE DESCRIPTION=NIST Mass Spectrometry Data Center, 1994
##NAMES=HP
##CAS NAME=Cyclohexanol, 4-(1-methylethyl)-
##MOLFORM=C9H18O
##CAS REGISTRY NO=4621-04-9
##MP= -300
##BP= -300
##MW= 142
##$RETENTION INDEX=1667
##$CONDENSED SPECTRUM=NO
##NPOINTS= 58
##XYDATA=(XY..XY) 1 
    15         50
    16          4
    17          3
    18          4
    19          6
    27        323
    28         89
    29        304
    30         15
    31         79
    37          3
    39        280
    41        498
    42         78
    43        600
    44        142
    45         23
    50          9
    51         33
    52         18
    53        109
    54         96
    55        376
    56         84
    57        302
    58         35
    59         10
    63          5
    65         27
    66         80
    67        207
    68         69
    69        123
    70         53
    71         17
    72          4
    73          2
    77         26
    79        135
    80        178
    81        999
    82        300
    83         63
    84         27
    85         80
    86          8
    91          6
    93          6
    95         60
    96         47
    97         11
    98         24
    99         14
   107          4
   109        143
   110         14
   124        117
   125         11