##TITLE=Library Entry 61625
##JCAMP-DX=Revision 4.10 
##DATA TYPE=MASS SPECTRUM
##SAMPLE DESCRIPTION=D.HENNEBERG, MAX-PLANCK INSTITUTE, MULHEIM, WEST GERMAN
Y
##NAMES=HP
##CAS NAME=Benzene, (1-ethyloctyl)-
##MOLFORM=C16H26
##CAS REGISTRY NO=4621-36-7
##MP= -300
##BP= -300
##MW= 218
##$RETENTION INDEX=1568
##$CONDENSED SPECTRUM=NO
##NPOINTS= 92
##XYDATA=(XY..XY) 1 
    22          1
    26          1
    27         29
    29         47
    35          2
    37          1
    39         21
    41        118
    42          7
    43         48
    45          1
    46          1
    48          0
    49          2
    50          2
    51         11
    52          5
    53          5
    54          3
    55         35
    56          2
    57         18
    58          3
    62          2
    63          4
    65         17
    66          0
    67          4
    68          1
    69         14
    70          8
    71          7
    74          2
    75          0
    76          2
    77         34
    78         21
    79         19
    80          2
    83          0
    85         12
    86          3
    87          0
    88          2
    89          5
    90          4
    91        999
    92         74
    93          7
    94          2
    97          7
    98          1
    99          0
   102          3
   103         14
   104         36
   105        120
   106         11
   107          2
   113          2
   115         29
   116          3
   117         35
   118         23
   119        455
   120         44
   121          5
   125          0
   128          4
   129          3
   131          5
   132          4
   133         31
   134          4
   135          3
   142          0
   146          1
   147         14
   148          2
   161          3
   162          1
   163          2
   164          2
   175          1
   177          1
   188          4
   189         60
   190         11
   197          0
   207          1
   218         41
   219          5