##TITLE=Library Entry 38555
##JCAMP-DX=Revision 4.10 
##DATA TYPE=MASS SPECTRUM
##SAMPLE DESCRIPTION=V.G. Zaikin, TIPS RAS, Moscow, Russia
##NAMES=HP
##CAS NAME=2-Furancarboxylic acid, 2-tetrahydrofurylmethyl ester
##MOLFORM=C10H12O4
##CAS REGISTRY NO=4623-04-5
##MP= -300
##BP= -300
##MW= 196
##$RETENTION INDEX=0
##$CONDENSED SPECTRUM=NO
##NPOINTS= 44
##XYDATA=(XY..XY) 1 
    26         19
    27        125
    28         23
    29        133
    30          9
    31         17
    36          7
    37         47
    38        105
    39        388
    40         41
    41        178
    42         95
    43        499
    44         24
    45          8
    50          9
    51         15
    52          3
    53         27
    54         17
    55         41
    56         17
    57          7
    65          3
    66         15
    67         21
    68         17
    69          6
    70         28
    71        999
    72         47
    81          6
    83          6
    84        259
    85         19
    95        411
    96         31
    97          3
   112         36
   113         15
   126          6
   127          3
   196          1