##TITLE=Library Entry 97681
##JCAMP-DX=Revision 4.10 
##DATA TYPE=MASS SPECTRUM
##SAMPLE DESCRIPTION=Chemical Concepts
##NAMES=HP
##CAS NAME=Benzene, 1-pentyl-4-vinyl-
##MOLFORM=C13H18
##CAS REGISTRY NO=46234-63-3
##MP= -300
##BP= -300
##MW= 174
##$RETENTION INDEX=0
##$CONDENSED SPECTRUM=NO
##NPOINTS= 87
##XYDATA=(XY..XY) 1 
    26          1
    27         20
    29         21
    30          0
    38          1
    39         28
    41         22
    42          1
    43          3
    50          2
    51         14
    52          4
    53          6
    54          0
    55          1
    56          0
    57          1
    62          2
    63         10
    64          3
    65         18
    66          1
    67          1
    69          0
    70          0
    71          0
    74          1
    75          2
    76          3
    77         21
    78         10
    79          3
    86          0
    87          0
    88          0
    89         10
    90          2
    91         82
    92          7
    93          0
    94          0
    95          0
   100          0
   101          2
   102         13
   103         12
   104         27
   105          7
   106          1
   113          0
   114          0
   115        110
   116         32
   117        999
   118        149
   119         13
   120          1
   121          0
   126          0
   127          6
   128         17
   129          9
   130         11
   131         16
   132          2
   133          0
   137          0
   139          0
   140          0
   141          2
   142          0
   143          1
   144          0
   145          7
   146          1
   147          0
   152          0
   153          0
   159          2
   161          0
   169          0
   172          0
   173          0
   174        470
   175         69
   176          5
   177          0