##TITLE=Library Entry 46676
##JCAMP-DX=Revision 4.10 
##DATA TYPE=MASS SPECTRUM
##SAMPLE DESCRIPTION=LAC, NIDDK, NIH, Bethesda, MD 20892
##NAMES=HP
##CAS NAME=1H-Imidazole, 1-(phenylsulfonyl)-
##MOLFORM=C9H8N2O2S
##CAS REGISTRY NO=46248-01-5
##MP= -300
##BP= -300
##MW= 208
##$RETENTION INDEX=0
##$CONDENSED SPECTRUM=NO
##NPOINTS= 36
##XYDATA=(XY..XY) 1 
    41         30
    42          0
    45         30
    47          1
    48         13
    49         26
    50         81
    51        262
    52         16
    53          4
    63         11
    64          9
    65         11
    66          8
    67         14
    68         17
    69          7
    73          0
    74         21
    75         16
    76          2
    77        999
    78         67
    81          0
    82          9
    89         17
    90         17
    97          8
   125          6
   141        205
   142         15
   143         11
   207          0
   208        210
   209         25
   210         11