##TITLE=Library Entry 1973
##JCAMP-DX=Revision 4.10 
##DATA TYPE=MASS SPECTRUM
##SAMPLE DESCRIPTION=Exported from NIST MS Search
##NAMES=HP
##CAS NAME=Allene
##MOLFORM=C3H4
##CAS REGISTRY NO=463-49-0
##MP= -300
##BP= -300
##MW= 40
##$RETENTION INDEX=318
##$CONDENSED SPECTRUM=NO
##NPOINTS= 17
##XYDATA=(XY..XY) 1 
    12         41
    13         34
    14         40
    15          3
    19         31
    20         38
    24         27
    25         46
    26         48
    27          7
    36         94
    37        326
    38        405
    39        962
    40        999
    41         33
    42          1