##TITLE=Library Entry 5741
##JCAMP-DX=Revision 4.10 
##DATA TYPE=MASS SPECTRUM
##SAMPLE DESCRIPTION=NIST Mass Spectrometry Data Center, 1994
##NAMES=HP
##CAS NAME=Amyl nitrite
##MOLFORM=C5H11NO2
##CAS REGISTRY NO=463-04-7
##MP= -300
##BP= -300
##MW= 117
##$RETENTION INDEX=695
##$CONDENSED SPECTRUM=NO
##NPOINTS= 44
##XYDATA=(XY..XY) 1 
    12          1
    13          3
    14         13
    15         82
    16          7
    26         87
    27        518
    28        103
    29        434
    30        197
    31         34
    37         12
    39        331
    41        673
    42        230
    43        999
    44         48
    45         75
    46         87
    47          1
    48          1
    49          1
    50         12
    51         15
    52          8
    53         34
    54          1
    55        168
    56         18
    57         11
    59         25
    60         20
    62         64
    63          3
    65          2
    67          9
    69         68
    70         33
    71        122
    72          8
    74          1
    75          2
    88         18
   118          1