##TITLE=Library Entry 48688
##JCAMP-DX=Revision 4.10 
##DATA TYPE=MASS SPECTRUM
##SAMPLE DESCRIPTION=NIST Mass Spectrometry Data Center
##NAMES=HP
##CAS NAME=9,12,15-Octadecatrienoic acid, (Z,Z,Z)-
##MOLFORM=C18H30O2
##CAS REGISTRY NO=463-40-1
##MP= -300
##BP= -300
##MW= 278
##$RETENTION INDEX=2139
##$CONDENSED SPECTRUM=NO
##NPOINTS= 191
##XYDATA=(XY..XY) 1 
    15          1
    26          2
    27         44
    28         10
    29         70
    30          3
    31          6
    36          1
    37          1
    38          3
    39        100
    40         18
    41        408
    42         41
    43        129
    44          5
    45         60
    46          2
    47          1
    50          5
    51         22
    52         16
    53        118
    54        115
    55        463
    56         40
    57         59
    58         13
    59         19
    60         76
    61          6
    62          1
    63          7
    64          3
    65         92
    66         99
    67        624
    68        137
    69        178
    70         22
    71         30
    72          3
    73         74
    74          8
    75          3
    77        228
    78        138
    79        999
    80        460
    81        373
    82        135
    83         86
    84         23
    85         22
    86          3
    87         24
    88          2
    89          3
    91        299
    92         62
    93        503
    94        208
    95        478
    96         94
    97         56
    98         18
    99         10
   100          4
   101         20
   102          4
   103         14
   104          9
   105         89
   106         30
   107        196
   108        391
   109        112
   110         27
   111         21
   112          6
   113          9
   114          6
   115         24
   116          5
   117         30
   118          6
   119         38
   120         18
   121        147
   122         81
   123         37
   124         10
   125          9
   126          8
   127         11
   128          5
   129         17
   130          4
   131         25
   132          5
   133         20
   134         10
   135         99
   136         61
   137         16
   138          5
   139          6
   140          6
   141          4
   142          1
   143          6
   144          2
   145          8
   146          2
   147         16
   148          5
   149         64
   150         27
   151          7
   152          5
   153          6
   154          6
   155          2
   156          1
   157          5
   158          2
   159          3
   160          1
   161          6
   162          4
   163         14
   164          7
   165          4
   166          2
   167          5
   168          5
   169          1
   171          4
   172          1
   173         12
   174          2
   175          6
   176          1
   177          4
   178          3
   179          3
   180          2
   181          3
   182          4
   183          1
   185          3
   186          1
   187          1
   189          3
   190          1
   191          4
   192          3
   193          4
   194          3
   195          2
   196          4
   197          1
   199          2
   203          2
   204          1
   207          2
   208          2
   209         16
   210          5
   211          1
   213          2
   217          4
   218          1
   221          3
   222         50
   223          9
   224          7
   225          1
   231          2
   232          1
   235          6
   236          6
   237          3
   249         11
   250          3
   254          1
   261          1
   263          1
   278         21
   279          4
   280          1