##TITLE=Library Entry 30818
##JCAMP-DX=Revision 4.10 
##DATA TYPE=MASS SPECTRUM
##SAMPLE DESCRIPTION=Exported from NIST MS Search
##NAMES=HP
##CAS NAME=Carbonyl sulfide
##MOLFORM=COS
##CAS REGISTRY NO=463-58-1
##MP= -300
##BP= -300
##MW= 60
##$RETENTION INDEX=304
##$CONDENSED SPECTRUM=NO
##NPOINTS= 9
##XYDATA=(XY..XY) 1 
    16         12
    28        137
    32        576
    33          8
    34         24
    44         75
    60        999
    61         17
    62         43