##TITLE=Library Entry 15142
##JCAMP-DX=Revision 4.10 
##DATA TYPE=MASS SPECTRUM
##SAMPLE DESCRIPTION=G.SCHILL, CHEM. LAB., ALBERT LUDWIGS UNIV., FREIBURG, W
. GER
##NAMES=HP
##CAS NAME=Azacyclohexacosane
##MOLFORM=C25H51N
##CAS REGISTRY NO=463-43-4
##MP= -300
##BP= -300
##MW= 365
##$RETENTION INDEX=0
##$CONDENSED SPECTRUM=NO
##NPOINTS= 160
##XYDATA=(XY..XY) 1 
    26         20
    27         50
    28         31
    29        110
    30        710
    31         30
    39         30
    40         10
    41        320
    42         90
    43        450
    44        999
    45        100
    46         30
    53         20
    54         30
    55        450
    56        490
    57        280
    58        140
    59         50
    60         20
    67         80
    68         50
    69        230
    70        290
    71         90
    72        230
    73         40
    74         10
    79         10
    80         10
    81         80
    82        120
    83        130
    84        190
    85         80
    86        240
    87         40
    91         10
    95         60
    96        170
    97         80
    98        280
    99         50
   100        180
   101         20
   109         30
   110         30
   111         20
   112        310
   113         50
   114        110
   115         10
   123         20
   124         30
   125         10
   126        170
   127         30
   128        110
   129         20
   130         10
   137         10
   138         20
   139         10
   140        140
   141         30
   142        130
   143         20
   152         10
   154        140
   155         20
   156        110
   157         20
   166         10
   168        130
   169         30
   170        100
   171         20
   180         10
   182        120
   183         30
   184         90
   185         20
   194         10
   196        110
   197         30
   198        100
   199         20
   205         10
   206         10
   207         10
   208         10
   209         10
   210        120
   211         30
   212        100
   213         30
   222         10
   224        110
   225         30
   226        100
   227         20
   236         10
   238        130
   239         30
   240        100
   241         30
   242         10
   250         10
   252        130
   253         40
   254        100
   255         30
   264         20
   266        170
   267         40
   268        100
   269         30
   278         20
   279         10
   280        140
   281         40
   282        100
   283         30
   292         10
   293         10
   294        160
   295         40
   296        100
   297         30
   300         10
   306         10
   308        220
   309         60
   310         90
   311         30
   320         50
   321         20
   322        490
   323        130
   324        350
   325        100
   326         20
   334         20
   335         20
   336        200
   337         70
   338         20
   348         40
   349         20
   350        190
   351         60
   352         10
   362         30
   363         40
   364        370
   365        480
   366        140
   367         30