##TITLE=Library Entry 48935
##JCAMP-DX=Revision 4.10 
##DATA TYPE=MASS SPECTRUM
##SAMPLE DESCRIPTION=RADIAN CORP
##NAMES=HP
##CAS NAME=Thiophosgene
##MOLFORM=CCl2S
##CAS REGISTRY NO=463-71-8
##MP= -300
##BP= -300
##MW= 114
##$RETENTION INDEX=0
##$CONDENSED SPECTRUM=NO
##NPOINTS= 29
##XYDATA=(XY..XY) 1 
    12          1
    35         87
    37         27
    44        162
    45          1
    46          9
    47         81
    49         27
    56         13
    64          4
    67         13
    69          4
    70          1
    76         30
    77          2
    78          6
    79        999
    80         25
    81        378
    82         45
    83         17
    84         25
   113          1
   114        215
   115          5
   116        145
   117          6
   118         27
   119          3