##TITLE=Library Entry 7217
##JCAMP-DX=Revision 4.10 
##DATA TYPE=MASS SPECTRUM
##SAMPLE DESCRIPTION=Japan AIST/NIMC Database- Spectrum MS-NW-9944
##NAMES=HP
##CAS NAME=1-Fluorononane
##MOLFORM=C9H19F
##CAS REGISTRY NO=463-18-3
##MP= -300
##BP= -300
##MW= 146
##$RETENTION INDEX=957
##$CONDENSED SPECTRUM=NO
##NPOINTS= 73
##XYDATA=(XY..XY) 1 
    15          3
    26          5
    27        129
    28         36
    29        266
    30          6
    32          2
    33         16
    38          2
    39        100
    40         18
    41        524
    42        220
    43        999
    44         41
    45          3
    46          6
    47         79
    48          2
    50          2
    51          7
    52          3
    53         28
    54         25
    55        611
    56        434
    57        535
    58         24
    59         34
    60          9
    61        148
    62          5
    63          1
    65          3
    66          3
    67         31
    68         29
    69        283
    70        357
    71        307
    72         16
    73         12
    74         24
    75         72
    76          3
    77          2
    79          2
    81          9
    82         56
    83        237
    84        300
    85        173
    86         10
    87          2
    88         25
    89         20
    90          1
    91          3
    95          1
    96         19
    97        267
    98        113
    99          8
   102         17
   103         14
   104          1
   111          9
   112          1
   116          9
   117         11
   126         18
   127          2
   146          4