##TITLE=Library Entry 36220
##JCAMP-DX=Revision 4.10 
##DATA TYPE=MASS SPECTRUM
##SAMPLE DESCRIPTION=D.HENNEBERG, MAX-PLANCK INSTITUTE, MULHEIM, WEST GERMAN
Y
##NAMES=HP
##CAS NAME=Cyclohexanecarboxylic acid, 1-propyl-, methyl ester
##MOLFORM=C11H20O2
##CAS REGISTRY NO=4630-86-8
##MP= -300
##BP= -300
##MW= 184
##$RETENTION INDEX=1200
##$CONDENSED SPECTRUM=NO
##NPOINTS= 95
##XYDATA=(XY..XY) 1 
    26         28
    27        432
    28        176
    29        352
    30         20
    31         32
    32          6
    38         20
    39        391
    40         83
    41        762
    42         79
    43        177
    44         11
    45         55
    50         20
    51         56
    52         34
    53        204
    54        108
    55        566
    56         53
    57        161
    58         11
    59        159
    60          6
    61         11
    62          5
    63         15
    64          5
    65         46
    66         25
    67        245
    68         70
    69        999
    70         68
    71         32
    72          5
    73         23
    74         38
    75          8
    77         57
    78         13
    79         83
    80         25
    81        390
    82        100
    83        618
    84         55
    85         16
    87        123
    88         16
    89          5
    91         34
    92         15
    93         16
    94          6
    95        184
    96         35
    97         21
    98         38
    99         15
   100         12
   101         23
   102         11
   105          5
   106          5
   108          6
   109         34
   110         45
   111         23
   112          5
   113         42
   114         10
   115          8
   116        118
   117         11
   123         55
   124        117
   125        789
   126         83
   127         17
   128          5
   129        234
   130         20
   140          5
   141        160
   142        467
   144          5
   152         16
   153         11
   155        131
   156         16
   184         89
   185         11