##TITLE=Library Entry 57026
##JCAMP-DX=Revision 4.10 
##DATA TYPE=MASS SPECTRUM
##SAMPLE DESCRIPTION=NIST Mass Spectrometry Data Center
##NAMES=HP
##CAS NAME=Methyl cyclopentanecarboxylate
##MOLFORM=C7H12O2
##CAS REGISTRY NO=4630-80-2
##MP= -300
##BP= -300
##MW= 128
##$RETENTION INDEX=898
##$CONDENSED SPECTRUM=NO
##NPOINTS= 62
##XYDATA=(XY..XY) 1 
    12          1
    13          1
    14          6
    15        132
    16          1
    17          1
    18          4
    26         28
    27        154
    28         60
    29         79
    30         15
    31         20
    32          8
    33          5
    37          8
    38         30
    39        273
    40         55
    41        513
    42         50
    43         20
    44          3
    45         19
    50          6
    51         13
    52          6
    53         36
    55        186
    56         10
    57          6
    59         72
    60          2
    61          9
    62          3
    63          6
    65         21
    67        122
    68        113
    69        416
    70         25
    71          5
    72          1
    74         20
    79          2
    81          4
    82          2
    83          1
    85         12
    87        999
    88         42
    89          4
    95         11
    97        137
    98         10
   100        155
   101          8
   111          1
   113          5
   127         19
   128         56
   129          5