##TITLE=Library Entry 88124
##JCAMP-DX=Revision 4.10 
##DATA TYPE=MASS SPECTRUM
##SAMPLE DESCRIPTION=D.HENNEBERG, MAX-PLANCK INSTITUTE, MULHEIM, WEST GERMAN
Y
##NAMES=HP
##CAS NAME=Cyclohexanecarboxylic acid, 1-ethyl-, methyl ester
##MOLFORM=C10H18O2
##CAS REGISTRY NO=4630-81-3
##MP= -300
##BP= -300
##MW= 170
##$RETENTION INDEX=1122
##$CONDENSED SPECTRUM=NO
##NPOINTS= 93
##XYDATA=(XY..XY) 1 
    26         55
    27        486
    28        110
    29        504
    30         31
    31        257
    32          3
    37          6
    38         18
    39        354
    40         68
    41        753
    42         71
    43        203
    44         18
    45        118
    50         20
    51         54
    52         31
    53        174
    54         93
    55        192
    56         44
    57         62
    58          5
    59        236
    60          9
    61          9
    62          4
    63         11
    64          3
    65         35
    66         21
    67        200
    68         51
    69        988
    70         73
    71         16
    72          2
    73         15
    74         55
    75         12
    77         45
    78         13
    79         59
    80         18
    81        310
    82         51
    83         38
    84         39
    85         10
    86          2
    87         74
    89          3
    91         12
    92          2
    93          7
    94          4
    95         58
    96         42
    97         74
    98          7
    99          9
   100          6
   101         43
   102        140
   103          9
   105          2
   107          3
   109         43
   110        183
   111        999
   112         90
   113         19
   114          7
   115        277
   116         20
   117          2
   123          8
   124          2
   125          3
   127          8
   129          7
   138         19
   139         12
   140          3
   141        151
   142        115
   143         10
   155         27
   156          9
   170         99
   171         13