##TITLE=Library Entry 20947
##JCAMP-DX=Revision 4.10 
##DATA TYPE=MASS SPECTRUM
##SAMPLE DESCRIPTION=Japan AIST/NIMC Database- Spectrum MS-NW-1050
##NAMES=HP
##CAS NAME=Cyclohexanecarboxylic acid, methyl ester
##MOLFORM=C8H14O2
##CAS REGISTRY NO=4630-82-4
##MP= -300
##BP= -300
##MW= 142
##$RETENTION INDEX=1011
##$CONDENSED SPECTRUM=NO
##NPOINTS= 95
##XYDATA=(XY..XY) 1 
    14          2
    15        117
    16          2
    17          3
    18         10
    26         15
    27        170
    28         13
    29        113
    30          4
    31         11
    32          2
    33          5
    36          2
    37          3
    38         11
    39        206
    40         31
    41        501
    42         51
    43         47
    44          5
    45         14
    49          1
    50         15
    51         28
    52         14
    53         89
    54        110
    55        999
    56         62
    57         13
    58          4
    59         88
    60          3
    61         14
    62          2
    63          4
    64          1
    65         13
    66         14
    67        201
    68        205
    69        124
    70          9
    71         15
    72          6
    73          4
    74        403
    75         57
    76          4
    77         24
    78          6
    79         36
    80          8
    81        141
    82        257
    83        870
    84         56
    85         11
    86          3
    87        915
    88         56
    89          5
    90          1
    91          7
    92          8
    93          3
    95          7
    96          2
    97          2
    98          5
    99         10
   100         70
   101        132
   102          8
   105          9
   106          1
   108          1
   109         15
   110        264
   111        192
   112         14
   113        205
   114         37
   115          3
   124          1
   125          2
   127         62
   128          5
   136          4
   141         35
   142        373
   143         34
   144          3