##TITLE=Library Entry 52811
##JCAMP-DX=Revision 4.10 
##DATA TYPE=MASS SPECTRUM
##SAMPLE DESCRIPTION=NIST Mass Spectrometry Data Center
##NAMES=HP
##CAS NAME=Tropine, TMS derivative
##MOLFORM=C11H23NOSi
##CAS REGISTRY NO=46320-09-6
##MP= -300
##BP= -300
##MW= 213
##$RETENTION INDEX=1276
##$CONDENSED SPECTRUM=NO
##NPOINTS= 140
##XYDATA=(XY..XY) 1 
    15          2
    26          1
    27          6
    28          8
    29          7
    30          5
    31          2
    32          1
    39         19
    40          4
    41         50
    42        159
    43         31
    44         26
    45         74
    46          5
    47         29
    48          1
    49          1
    50          1
    51          4
    52          4
    53         23
    54         29
    55         85
    56         45
    57         90
    58         30
    59         67
    60         10
    61         17
    62          1
    63          2
    65         19
    66          9
    67         94
    68         63
    69         14
    70         37
    71         10
    72          7
    73        165
    74         22
    75         91
    76          7
    77         27
    79         14
    80         30
    81         75
    82        787
    83        999
    84         87
    85         28
    86          3
    87          5
    88          2
    89          1
    91         21
    93         19
    94        181
    95         58
    96        736
    97        300
    98         24
    99         16
   100          3
   101         18
   102          3
   103          3
   104          1
   105          1
   106          4
   107          5
   108         21
   109          4
   110          5
   111          4
   112         13
   113          7
   114          7
   115         18
   116          7
   117         23
   118          3
   119          1
   120          3
   121          1
   122         27
   123         11
   124        424
   125         41
   126          5
   127          9
   128          5
   129         72
   130         14
   131          4
   132          3
   138          2
   139          1
   140          5
   141          9
   142         12
   143         11
   144          7
   145          2
   151          1
   152          2
   153          1
   154          6
   155          7
   156         16
   157          9
   158         14
   159          3
   160          1
   166          1
   167          2
   168          2
   169          1
   170         34
   171          7
   172          6
   173          1
   180          1
   181          3
   182          9
   184        224
   185        106
   186         21
   187          4
   196          1
   198         82
   199         14
   200          4
   212         22
   213        174
   214         33
   215          9
   216          1