##TITLE=Library Entry 85776
##JCAMP-DX=Revision 4.10 
##DATA TYPE=MASS SPECTRUM
##SAMPLE DESCRIPTION=D.HENNEBERG, MAX-PLANCK INSTITUTE, MULHEIM, WEST GERMAN
Y
##NAMES=HP
##CAS NAME=2,4-Heptadiene, 2,6-dimethyl-
##MOLFORM=C9H16
##CAS REGISTRY NO=4634-87-1
##MP= -300
##BP= -300
##MW= 124
##$RETENTION INDEX=0
##$CONDENSED SPECTRUM=NO
##NPOINTS= 72
##XYDATA=(XY..XY) 1 
    27         45
    28         10
    29         49
    30          0
    38          0
    39         54
    40         13
    41        246
    42         12
    43        202
    44          6
    49          0
    50          1
    51          7
    52          6
    53         73
    54          9
    55        176
    56         18
    57          9
    58          0
    63          1
    64          0
    65         36
    66         12
    67        647
    68        123
    69         92
    70          7
    71          2
    72          0
    73          0
    74          0
    75          0
    77         68
    78         11
    79         95
    80         14
    81        227
    82         37
    83          7
    84          1
    85          1
    87          7
    88          0
    89          0
    91         63
    92          8
    93         52
    94         27
    95         79
    96          9
    97          2
    98          0
    99          1
   103          1
   104          0
   105          8
   106          1
   107         39
   108          9
   109        999
   110         88
   111          3
   113          1
   114          0
   121          0
   122          1
   123          8
   124        503
   125         51
   126          1