##TITLE=Library Entry 77960
##JCAMP-DX=Revision 4.10 
##DATA TYPE=MASS SPECTRUM
##SAMPLE DESCRIPTION=NIST Mass Spectrometry Data Center
##NAMES=HP
##CAS NAME=Butanoyl chloride, 4-chloro-
##MOLFORM=C4H6Cl2O
##CAS REGISTRY NO=4635-59-0
##MP= -300
##BP= -300
##MW= 140
##$RETENTION INDEX=960
##$CONDENSED SPECTRUM=NO
##NPOINTS= 64
##XYDATA=(XY..XY) 1 
    14          2
    15          3
    25          3
    26         24
    27         64
    28         38
    29          6
    34          2
    35         16
    36          9
    37         28
    38         41
    39        190
    40         26
    41        474
    42        144
    43         10
    44          1
    47          8
    48          9
    49        116
    50         11
    51         44
    53          7
    54          1
    55         32
    56          7
    59          1
    60          5
    61         21
    62         13
    63        105
    64          5
    65         33
    66          1
    67          1
    68          3
    69         24
    70          1
    71          1
    72          2
    73          7
    74          1
    75         31
    76         49
    77        183
    78        443
    79         67
    80        143
    81          3
    83          2
    84          1
    85          1
    87          1
    91          6
    93          2
    96          1
    98          1
   103          1
   105        999
   106         57
   107        374
   108         16
   109          1