##TITLE=Library Entry 18634
##JCAMP-DX=Revision 4.10 
##DATA TYPE=MASS SPECTRUM
##SAMPLE DESCRIPTION=NIST Mass Spectrometry Data Center, 1998.
##NAMES=HP
##CAS NAME=3-Pentenenitrile
##MOLFORM=C5H7N
##CAS REGISTRY NO=4635-87-4
##MP= -300
##BP= -300
##MW= 81
##$RETENTION INDEX=0
##$CONDENSED SPECTRUM=NO
##NPOINTS= 45
##XYDATA=(XY..XY) 1 
    13          1
    14          1
    15          5
    24          1
    25          5
    26         57
    27        129
    28        104
    29         18
    30          1
    31          1
    36          4
    37         47
    38         87
    39        454
    40         57
    41        693
    42         28
    48          5
    49         28
    50        109
    51        141
    52        171
    53        288
    54        999
    55         60
    56          1
    60          2
    61          5
    62          7
    63         12
    64         32
    65         12
    66         78
    67          4
    74          3
    75         23
    76         17
    77          2
    78          9
    79          5
    80        128
    81        438
    82         26
    83          1