##TITLE=Library Entry 59789
##JCAMP-DX=Revision 4.10 
##DATA TYPE=MASS SPECTRUM
##SAMPLE DESCRIPTION=A.A.Kutin, Moscow, Russia
##NAMES=HP
##CAS NAME=Formamidine, N,N'-dibenzyl-
##MOLFORM=C15H16N2
##CAS REGISTRY NO=4636-51-5
##MP= -300
##BP= -300
##MW= 224
##$RETENTION INDEX=0
##$CONDENSED SPECTRUM=NO
##NPOINTS= 141
##XYDATA=(XY..XY) 1 
    33          0
    34          0
    35          1
    36          3
    37         17
    38         53
    39        281
    40         26
    41         87
    42         14
    43         12
    44          6
    46         13
    47          0
    49         11
    50        167
    51        325
    52         89
    53         25
    54          6
    55          9
    56          3
    57          8
    59          3
    60          2
    61         12
    62         53
    63        164
    65        535
    66         21
    67          4
    68          1
    69          2
    70          0
    71          0
    73          7
    74         38
    75         31
    76         48
    77        281
    78        110
    79        134
    80         12
    81          1
    82          0
    83          0
    84          0
    85          2
    86          7
    87          7
    89        131
    91        999
    92         87
    93          9
    94          0
    95          0
    97          0
    98          0
    99          0
   100          0
   101          1
   102          3
   103         10
   104        110
   105         36
   106        374
   107         31
   109          0
   110          0
   111          0
   112          0
   113          0
   115          1
   116         12
   117         27
   118         35
   119          4
   120          3
   121          2
   122          0
   123          0
   125          0
   126          0
   127          0
   128          0
   129          1
   130          2
   131         22
   132         26
   133        115
   134         17
   135         14
   136          0
   137          0
   139          0
   141          0
   143          0
   144          0
   145          1
   146          0
   147          1
   148          0
   149          1
   150          0
   151          0
   152          0
   153          0
   154          0
   157          0
   158          0
   164          0
   165          1
   166          0
   167          1
   168          0
   171          0
   173          0
   177          1
   178          0
   179          0
   180          0
   182          4
   183          0
   184          0
   192          0
   193          0
   194          2
   195          2
   196          0
   197          0
   210          0
   211          0
   212          0
   218          0
   220          0
   221          1
   222          1
   223          5
   224         36
   225          5
   226          0