##TITLE=Library Entry 14193
##JCAMP-DX=Revision 4.10 
##DATA TYPE=MASS SPECTRUM
##SAMPLE DESCRIPTION=Chemical Concepts
##NAMES=HP
##CAS NAME=Copper, bis(2,4-pentanedionato-O,O')-
##MOLFORM=C10H14CuO4
##CAS REGISTRY NO=46369-53-3
##MP= -300
##BP= -300
##MW= 261
##$RETENTION INDEX=0
##$CONDENSED SPECTRUM=NO
##NPOINTS= 208
##XYDATA=(XY..XY) 1 
    23          0
    25          3
    26         16
    27         67
    29         30
    30          1
    31         17
    32          0
    36          0
    37          4
    38          9
    39         44
    41         65
    42         32
    43        999
    44         18
    45          5
    49          0
    50          4
    51          4
    52          1
    53          8
    54          2
    55         53
    56          7
    57         75
    58         18
    59          3
    60          0
    61          0
    62          0
    63        137
    65         65
    66          3
    67          9
    68          1
    69         16
    70          5
    71         12
    72         16
    73         21
    74          1
    75          2
    76          0
    77          4
    78          3
    79          3
    80          1
    81         15
    82          5
    83         13
    84          5
    85        191
    86          9
    87          2
    88          0
    89          9
    90          3
    91         15
    92          1
    93          6
    94          0
    95         19
    96          4
    97          9
    98          3
    99         30
   100        109
   101          6
   102          3
   103         10
   104         54
   105        317
   106         30
   107        155
   108          4
   109         16
   110          3
   111          7
   112          1
   113          4
   115          2
   117          3
   118          0
   119          4
   120          3
   121          9
   122          7
   123         14
   124          0
   125          2
   126          0
   127         86
   128          0
   129          0
   131          3
   132          3
   133         59
   134          4
   135         26
   136          3
   137          6
   138          1
   139          4
   140          0
   141          3
   142          0
   143          1
   144          2
   145          6
   146          4
   147        690
   148         33
   149        322
   150         16
   151          5
   152          0
   153          0
   154          3
   155          8
   156          0
   157          7
   158         19
   159         27
   160          5
   161         34
   162        477
   163        310
   164        237
   165        138
   166          9
   167          2
   168          0
   169          0
   173          3
   175         41
   176         11
   177         36
   178          6
   179          9
   180          0
   181          0
   183          2
   184          4
   185          1
   186          1
   188          2
   189          7
   190          4
   191          5
   192          0
   193          1
   199          0
   200          9
   201         48
   202          9
   203         32
   204         12
   205          7
   206          4
   207          6
   208          0
   209          0
   215          1
   217          7
   218          6
   219         60
   220          6
   221         30
   222          4
   223          0
   225          5
   227          1
   228          3
   230          0
   231        421
   232         42
   233        225
   234         24
   235         16
   236          1
   237          4
   238          0
   239          3
   241          2
   242          6
   243         23
   244          3
   245         12
   246        473
   247         53
   248        221
   249         23
   250          5
   251          1
   253          0
   254          4
   255          0
   256          3
   257          6
   258          1
   261        841
   262        100
   263        379
   264         43
   265          5
   266          0
   267          0