##TITLE=Library Entry 57871
##JCAMP-DX=Revision 4.10 
##DATA TYPE=MASS SPECTRUM
##SAMPLE DESCRIPTION=Chemical Concepts
##NAMES=HP
##CAS NAME=Methanamine, 1,1-dimethoxy-N,N-dimethyl-
##MOLFORM=C5H13NO2
##CAS REGISTRY NO=4637-24-5
##MP= -300
##BP= -300
##MW= 119
##$RETENTION INDEX=726
##$CONDENSED SPECTRUM=NO
##NPOINTS= 56
##XYDATA=(XY..XY) 1 
    25          0
    26          0
    27          7
    29        115
    30         58
    31        181
    32         35
    33          2
    38          0
    41         13
    42        162
    43         26
    44        395
    45         57
    46         12
    47        240
    48          4
    49          0
    50          0
    52          0
    53          0
    54          1
    56          6
    58         61
    59         11
    60         12
    61          0
    72        117
    73        187
    74         13
    75        826
    76         25
    77          0
    80          0
    84          0
    85          0
    86          0
    87          3
    88        999
    89         42
    90          2
    92          0
    93          0
    94          1
    95          0
    96          1
    97          0
   102          1
   103          1
   104          2
   105          0
   115          0
   117          0
   118          2
   119         36
   120          2