##TITLE=Library Entry 68444
##JCAMP-DX=Revision 4.10 
##DATA TYPE=MASS SPECTRUM
##SAMPLE DESCRIPTION=Japan AIST/NIMC Database- Spectrum MS-NW-4331
##NAMES=HP
##CAS NAME=Bicyclo[2.2.1]heptan-2-ol, 1,7,7-trimethyl-, (1S-endo)-
##MOLFORM=C10H18O
##CAS REGISTRY NO=464-45-9
##MP= -300
##BP= -300
##MW= 154
##$RETENTION INDEX=1166
##$CONDENSED SPECTRUM=NO
##NPOINTS= 83
##XYDATA=(XY..XY) 1 
    15          5
    17          1
    18          3
    26          3
    27         55
    28          4
    29         46
    30          1
    31          4
    38          3
    39         60
    40         10
    41        159
    42         13
    43         64
    44          5
    45          7
    50          4
    51         11
    52          5
    53         36
    54          9
    55        103
    56         13
    57         24
    58          2
    59         14
    60          1
    62          1
    63          3
    64          1
    65         11
    66          6
    67         79
    68         17
    69         74
    70         22
    71         72
    72         31
    73          2
    77         23
    78          5
    79         34
    80         17
    81         52
    82         54
    83         45
    84         39
    85          9
    86          2
    91         19
    92         26
    93         89
    94         15
    95        999
    96         86
    97         15
    98          7
    99          9
   100          3
   103          1
   105         12
   106          4
   107         16
   108         27
   109         28
   110        191
   111         45
   112          4
   113          8
   119          2
   121         67
   122          8
   123          8
   124          1
   125          3
   126          2
   136         58
   137          7
   139         85
   140          9
   154          7
   155          1