##TITLE=Library Entry 68161
##JCAMP-DX=Revision 4.10 
##DATA TYPE=MASS SPECTRUM
##SAMPLE DESCRIPTION=Japan AIST/NIMC Database- Spectrum MS-NW-1984
##NAMES=HP
##CAS NAME=(+)-2-Bornanone
##MOLFORM=C10H16O
##CAS REGISTRY NO=464-49-3
##MP= -300
##BP= -300
##MW= 152
##$RETENTION INDEX=1143
##$CONDENSED SPECTRUM=NO
##NPOINTS= 81
##XYDATA=(XY..XY) 1 
    14          2
    15          9
    18          2
    26          8
    27        116
    28          9
    29         74
    30          1
    32          2
    36          1
    37          2
    38          8
    39        160
    40         31
    41        442
    42         26
    43         74
    44          2
    45          1
    50          9
    51         26
    52         14
    53         81
    54         23
    55        287
    56         19
    57         11
    59          1
    61          1
    62          3
    63          7
    64          2
    65         24
    66         11
    67        180
    68        160
    69        337
    70         22
    71          3
    72          1
    74          1
    77         37
    78          9
    79         44
    80        134
    81        719
    82        127
    83        342
    84         25
    85          1
    91         26
    92          6
    93        100
    94         16
    95        999
    96         94
    97         54
    98          4
   103          1
   105          4
   106          1
   107         11
   108        425
   109        297
   110        142
   111         14
   119          7
   120          1
   121          5
   122          1
   123          9
   124         12
   125          1
   134          1
   136          2
   137         36
   138          4
   139          1
   152        295
   153         31
   154          3