##TITLE=Library Entry 67806
##JCAMP-DX=Revision 4.10 
##DATA TYPE=MASS SPECTRUM
##SAMPLE DESCRIPTION=Exported from NIST MS Search
##NAMES=HP
##CAS NAME=Bicyclo[2.2.1]heptan-2-amine, 1,7,7-trimethyl-, endo-
##MOLFORM=C10H19N
##CAS REGISTRY NO=464-42-6
##MP= -300
##BP= -300
##MW= 153
##$RETENTION INDEX=0
##$CONDENSED SPECTRUM=NO
##NPOINTS= 60
##XYDATA=(XY..XY) 1 
    41        393
    42        196
    43        944
    44        427
    45        124
    51         22
    52         52
    53         22
    54        146
    55         67
    56        202
    57        202
    58         45
    63         61
    64         29
    65        196
    66         67
    67        308
    68        315
    69         90
    70         16
    77         83
    78         34
    79         90
    80         56
    81         67
    82        843
    83        135
    84         29
    85         11
    91         79
    92         34
    93        202
    94         56
    95        999
    96        112
    97         34
    98         83
    99         22
   105         29
   106         11
   107         52
   108        225
   109         61
   110         67
   111         11
   112         16
   119         11
   121        169
   122         29
   123          7
   124         22
   135         11
   136         45
   137         11
   138         61
   139         11
   152         11
   153        263
   154         34