##TITLE=Library Entry 68270
##JCAMP-DX=Revision 4.10 
##DATA TYPE=MASS SPECTRUM
##SAMPLE DESCRIPTION=NIST Mass Spectrometry Data Center, 1990.
##NAMES=HP
##CAS NAME=Bornyl chloride
##MOLFORM=C10H17Cl
##CAS REGISTRY NO=464-41-5
##MP= -300
##BP= -300
##MW= 172
##$RETENTION INDEX=0
##$CONDENSED SPECTRUM=NO
##NPOINTS= 51
##XYDATA=(XY..XY) 1 
    27         90
    29         46
    38         17
    39        205
    40         49
    41        267
    42         21
    43         42
    50         24
    51         79
    52         37
    53        161
    54         31
    55        137
    56         13
    57         22
    62         22
    63         34
    65        103
    66         36
    67        249
    68        104
    69        121
    75         22
    77        211
    78         46
    79        237
    80         58
    81        209
    82         37
    83         17
    89         20
    91        211
    92        137
    93        474
    94        126
    95        999
    96         78
   105         48
   107         91
   108         41
   109         36
   110        206
   119         55
   121        283
   122         24
   129         25
   136        270
   137         70
   157        101
   159         32