##TITLE=Library Entry 68489
##JCAMP-DX=Revision 4.10 
##DATA TYPE=MASS SPECTRUM
##SAMPLE DESCRIPTION=Chemical Concepts
##NAMES=HP
##CAS NAME=Bicyclo[2.2.1]heptane-1-carboxylic acid, 7,7-dimethyl-2-oxo-
##MOLFORM=C10H14O3
##CAS REGISTRY NO=464-78-8
##MP= -300
##BP= -300
##MW= 182
##$RETENTION INDEX=0
##$CONDENSED SPECTRUM=NO
##NPOINTS= 117
##XYDATA=(XY..XY) 1 
    26         23
    27        337
    28         28
    29        168
    30          3
    31         37
    37          8
    38         31
    39        447
    40         96
    41        651
    42         68
    43        271
    44         12
    45         85
    46         10
    47          6
    49          3
    50         33
    51         99
    52         49
    53        241
    54         65
    55        401
    56         44
    57         31
    58         10
    59        150
    60         16
    61          9
    62         30
    63         30
    64         10
    65         97
    66         58
    67        594
    68        148
    69        539
    70         89
    71         30
    72          9
    73         17
    74          8
    75          8
    76          4
    77        168
    78         39
    79        273
    80         58
    81        227
    82         87
    83        171
    84         30
    85         16
    86         11
    87          8
    88          9
    89          8
    90          5
    91         97
    92         37
    93        307
    94        170
    95        999
    96        137
    97        117
    98         16
    99        281
   100         19
   101          9
   103          8
   104          5
   105         37
   106          8
   107         65
   108        194
   109        538
   110        156
   111        154
   112        708
   113        191
   114         18
   115          5
   117          4
   118          8
   119         25
   120         27
   121        262
   122         95
   123        226
   124         28
   125        192
   126         52
   127          9
   135         25
   136        213
   137        113
   138        677
   139        411
   140         52
   141          7
   146          5
   149         85
   150          9
   153         18
   154        324
   155         32
   156          3
   163          7
   164        190
   165         49
   166          4
   167         24
   168          3
   182        228
   183         29
   184          4