##TITLE=Library Entry 68159
##JCAMP-DX=Revision 4.10 
##DATA TYPE=MASS SPECTRUM
##SAMPLE DESCRIPTION=NIST Mass Spectrometry Data Center, 1990.
##NAMES=HP
##CAS NAME=Bicyclo[2.2.1]heptan-2-one, 1,7,7-trimethyl-, (1S)-
##MOLFORM=C10H16O
##CAS REGISTRY NO=464-48-2
##MP= -300
##BP= -300
##MW= 152
##$RETENTION INDEX=1142
##$CONDENSED SPECTRUM=NO
##NPOINTS= 44
##XYDATA=(XY..XY) 1 
    15         15
    27        107
    29         69
    39        299
    40         70
    41        513
    42         61
    43         72
    50         26
    51         71
    52         39
    53        174
    54         45
    55        424
    56         26
    63         20
    64          9
    65         74
    66         31
    67        352
    68        182
    69        425
    70         36
    77        109
    78         27
    79        109
    80        160
    81        718
    82        137
    83        320
    84         25
    91         71
    93        159
    95        999
    96         93
    97         51
   108        358
   109        287
   110        111
   111         13
   123         12
   137         37
   152        250
   153         28