##TITLE=Library Entry 66520
##JCAMP-DX=Revision 4.10 
##DATA TYPE=MASS SPECTRUM
##SAMPLE DESCRIPTION=Exported from NIST MS Search
##NAMES=HP
##CAS NAME=Bicyclo[2.2.1]hept-2-ene, 1,7,7-trimethyl-
##MOLFORM=C10H16
##CAS REGISTRY NO=464-17-5
##MP= -300
##BP= -300
##MW= 136
##$RETENTION INDEX=908
##$CONDENSED SPECTRUM=NO
##NPOINTS= 57
##XYDATA=(XY..XY) 1 
    15          6
    26         10
    27        122
    29         82
    31         12
    38          8
    39        188
    40         20
    41        217
    42         18
    43        132
    45          9
    50         16
    51         70
    52         33
    53         95
    54         10
    55         73
    56          5
    57         25
    58         10
    59         13
    63         25
    64         10
    65         80
    66         25
    67         62
    68         11
    74          9
    75         10
    76          7
    77        264
    78         58
    79        250
    80         75
    81          3
    89         17
    91        272
    92        115
    93        999
    94         95
    95         20
   103         18
   104          7
   105        125
   106         35
   107        120
   108        245
   109         22
   115          7
   117          5
   119         27
   121        900
   122         95
   135          7
   136        320
   137         34