##TITLE=Library Entry 81568
##JCAMP-DX=Revision 4.10 
##DATA TYPE=MASS SPECTRUM
##SAMPLE DESCRIPTION=D.HENNEBERG, MAX-PLANCK INSTITUTE, MULHEIM, WEST GERMAN
Y
##NAMES=HP
##CAS NAME=Benzopinacol
##MOLFORM=C26H22O2
##CAS REGISTRY NO=464-72-2
##MP= -300
##BP= -300
##MW= 366
##$RETENTION INDEX=0
##$CONDENSED SPECTRUM=NO
##NPOINTS= 59
##XYDATA=(XY..XY) 1 
    27         14
    28          7
    29          7
    38          7
    39         18
    44          8
    50         29
    51        131
    52         19
    53          9
    62          7
    63         13
    64          7
    65          9
    74         12
    75         14
    76         27
    77        646
    78         75
    79         19
    89          9
    91         10
   102          9
   104         14
   105        999
   106         81
   107         14
   115         14
   126          8
   127          9
   128         10
   139         12
   151         13
   152         34
   153         23
   154         14
   155         12
   163         10
   164          9
   165         56
   166         16
   167         11
   168         11
   180          9
   181         56
   182         80
   183        927
   184        171
   185         20
   197          8
   239          7
   241          7
   243         11
   244          6
   271         10
   272          6
   332          6
   349          9
   350          6