##TITLE=Library Entry 24142
##JCAMP-DX=Revision 4.10 
##DATA TYPE=MASS SPECTRUM
##SAMPLE DESCRIPTION=Exported from NIST MS Search
##NAMES=HP
##CAS NAME=Butane, 2,2,3-trimethyl-
##MOLFORM=C7H16
##CAS REGISTRY NO=464-06-2
##MP= -300
##BP= -300
##MW= 100
##$RETENTION INDEX=640
##$CONDENSED SPECTRUM=NO
##NPOINTS= 57
##XYDATA=(XY..XY) 1 
     2          1
    12          1
    13          1
    14          3
    15         60
    16          3
    25          1
    26          6
    27        183
    28         37
    29        255
    30          6
    31          1
    33          1
    37          3
    38          6
    39        142
    40         25
    41        534
    42         37
    43        712
    44         24
    45          1
    46          1
    50          2
    51          7
    52          3
    53         22
    54          5
    55         53
    56        627
    57        999
    58         43
    59          1
    62          1
    63          1
    64          1
    65          2
    66          1
    67          6
    68          1
    69         26
    70          4
    71          1
    77          1
    78          1
    79          1
    80          1
    81          1
    82          1
    83          3
    84          6
    85        297
    86         19
    87          1
    99          1
   100          1