##TITLE=Library Entry 8702
##JCAMP-DX=Revision 4.10 
##DATA TYPE=MASS SPECTRUM
##SAMPLE DESCRIPTION=CARL DJERASSI DEPT OF CHEM STANFORD UNIV STANFORD CALIF
 94305
##NAMES=HP
##CAS NAME=Acetamide, N-5.alpha.-androst-2-en-3-yl-N-ethyl-
##MOLFORM=C23H37NO
##CAS REGISTRY NO=4642-51-7
##MP= -300
##BP= -300
##MW= 343
##$RETENTION INDEX=0
##$CONDENSED SPECTRUM=NO
##NPOINTS= 118
##XYDATA=(XY..XY) 1 
    41        430
    42        220
    43        999
    44         90
    45         10
    51         10
    52         10
    53        130
    54        430
    55        290
    56         60
    57         20
    58         20
    60         10
    65         40
    66         20
    67        220
    68         70
    69        120
    70        600
    71         50
    72         20
    77        100
    78         30
    79        180
    80         70
    81        220
    82        510
    83         50
    84         40
    85         20
    86         10
    88         90
    91        150
    92         30
    93        140
    94         50
    95        200
    96        210
    97        290
    98        150
    99         10
   103         10
   105         80
   106         60
   107         90
   108         80
   109         50
   110         50
   111         40
   112         10
   115         20
   117         20
   118         10
   119         40
   120         40
   121         50
   122         70
   123         30
   124         50
   125         20
   126         30
   127         10
   128         10
   129         20
   131         20
   132         10
   133         30
   134         30
   135         30
   136         70
   137         30
   138        110
   139        340
   140        150
   141         20
   143         10
   145         20
   146         10
   147         20
   148         30
   149         30
   150         70
   151         20
   152         20
   159         10
   161         20
   162         10
   164         30
   175         10
   178         20
   179         10
   189         20
   190         10
   192         20
   193         10
   202         10
   204         10
   241         30
   243         10
   244         10
   256         50
   257         10
   272         80
   273         20
   286         50
   287         20
   300        110
   301         30
   314        380
   315        100
   316         20
   328         80
   329         30
   342         30
   343        460
   344        130
   345         20