##TITLE=Library Entry 34394
##JCAMP-DX=Revision 4.10 
##DATA TYPE=MASS SPECTRUM
##SAMPLE DESCRIPTION=NIST Mass Spectrometry Data Center, 1990.
##NAMES=HP
##CAS NAME=2-Octen-4-one
##MOLFORM=C8H14O
##CAS REGISTRY NO=4643-27-0
##MP= -300
##BP= -300
##MW= 126
##$RETENTION INDEX=0
##$CONDENSED SPECTRUM=NO
##NPOINTS= 38
##XYDATA=(XY..XY) 1 
    14          3
    26          9
    27         56
    28         22
    29         48
    32          2
    37          4
    38         18
    39        177
    40         34
    41        322
    42         27
    43         19
    50          5
    51          7
    52          3
    53         12
    54          4
    55         31
    56         10
    57         35
    65          5
    66          7
    67          8
    68          3
    69        999
    70         45
    71          4
    77          5
    79          5
    82          2
    84        308
    85         26
    97         22
   108          4
   111         99
   112          8
   126          5