##TITLE=Library Entry 73248
##JCAMP-DX=Revision 4.10 
##DATA TYPE=MASS SPECTRUM
##SAMPLE DESCRIPTION=Exported from NIST MS Search
##NAMES=HP
##CAS NAME=Cyclohexane, 1,1'-oxybis-
##MOLFORM=C12H22O
##CAS REGISTRY NO=4645-15-2
##MP= -300
##BP= -300
##MW= 182
##$RETENTION INDEX=1349
##$CONDENSED SPECTRUM=NO
##NPOINTS= 66
##XYDATA=(XY..XY) 1 
    15          3
    17          3
    18         10
    26          2
    27         57
    28         14
    29         77
    30          3
    31          7
    39         68
    40          9
    41        266
    42         30
    43         52
    44         56
    45         14
    51          5
    52          3
    53         34
    54         66
    55        615
    56         82
    57        296
    58         45
    59          4
    60          3
    65          6
    66          6
    67        230
    68         17
    69         12
    70         11
    71        102
    72         73
    73          5
    77          8
    79         21
    80         19
    81        108
    82        718
    83        510
    84         34
    85          9
    87          3
    94          5
    95          4
    96          4
    97          6
    98          8
    99         38
   100        999
   101         83
   102          5
   109          2
   111          2
   114          3
   116          2
   117         13
   121          2
   125          2
   135          1
   139          5
   180          1
   182        219
   183         32
   184          3