##TITLE=Library Entry 58799
##JCAMP-DX=Revision 4.10 
##DATA TYPE=MASS SPECTRUM
##SAMPLE DESCRIPTION=ASES Database, Dalian Institute, P.R. China
##NAMES=HP
##CAS NAME=Bicyclo[4.1.0]hepta-1,3,5-triene
##MOLFORM=C7H6
##CAS REGISTRY NO=4646-69-9
##MP= -300
##BP= -300
##MW= 90
##$RETENTION INDEX=0
##$CONDENSED SPECTRUM=NO
##NPOINTS= 24
##XYDATA=(XY..XY) 1 
    37         29
    38         49
    39         99
    40         19
    43         39
    44         10
    45         19
    49         10
    50         48
    51         70
    61         39
    62         88
    63        241
    64        131
    65         10
    74         20
    75         20
    85         10
    86         29
    87         19
    88         20
    89        331
    90        999
    91         77