##TITLE=Library Entry 77497
##JCAMP-DX=Revision 4.10 
##DATA TYPE=MASS SPECTRUM
##SAMPLE DESCRIPTION=CARL DJERASSI DEPT OF CHEM STANFORD UNIV STANFORD CALIF
 94305
##NAMES=HP
##CAS NAME=1H-Indene-1,2-diol, 2,3-dihydro-, cis-
##MOLFORM=C9H10O2
##CAS REGISTRY NO=4647-42-1
##MP= -300
##BP= -300
##MW= 150
##$RETENTION INDEX=1400
##$CONDENSED SPECTRUM=NO
##NPOINTS= 57
##XYDATA=(XY..XY) 1 
    40         20
    41         30
    43         20
    44         10
    50         90
    51        280
    52         80
    53         20
    55         20
    61         10
    62         40
    63        120
    64         20
    65        140
    66         30
    74         40
    75         40
    76         50
    77        390
    78        250
    79        220
    80         30
    87         10
    89         90
    90         20
    91        310
    92         60
    93         60
    94         10
   101         10
   102         60
   103        370
   104        999
   105        170
   106         10
   107        610
   108        120
   109         10
   115         80
   116         70
   117         10
   118         10
   119        130
   120         80
   121         40
   122         10
   130         10
   131        320
   132        590
   133         80
   134         10
   135         10
   148         10
   149         10
   150        310
   151         70
   152         10