##TITLE=Library Entry 85893
##JCAMP-DX=Revision 4.10 
##DATA TYPE=MASS SPECTRUM
##SAMPLE DESCRIPTION=Chemical Concepts
##NAMES=HP
##CAS NAME=Methyl Camphorsulfonates
##MOLFORM=C11H18O4S
##CAS REGISTRY NO=46471-67-4
##MP= -300
##BP= -300
##MW= 246
##$RETENTION INDEX=0
##$CONDENSED SPECTRUM=NO
##NPOINTS= 139
##XYDATA=(XY..XY) 1 
    26         13
    27        254
    28         31
    29        215
    30         12
    31         38
    33         20
    34          4
    36          6
    37          7
    38         18
    39        375
    40        102
    41        521
    42         77
    43        355
    44         27
    45         38
    46          7
    47          7
    48         13
    49          7
    50         36
    51         88
    52         70
    53        268
    54        104
    55        289
    56         32
    57        108
    58         17
    59         43
    60         14
    61         10
    62         11
    63         30
    64         20
    65        150
    66         59
    67        474
    68        132
    69        296
    70         25
    71         23
    72          5
    73         13
    74          8
    75         16
    76         14
    77        212
    78         67
    79        350
    80         86
    81        827
    82        130
    83         87
    84         13
    85          7
    86          5
    87          7
    88          5
    89         11
    90          8
    91        177
    92         56
    93        432
    94        119
    95        307
    96         36
    97         58
    98          9
    99         47
   100          6
   101          4
   102          4
   103         10
   104          6
   105         72
   106        103
   107        505
   108        229
   109        999
   110        161
   111         13
   112          3
   113         11
   114          4
   115          6
   116          4
   117         11
   118          4
   119          8
   120          8
   121        236
   122         76
   123        532
   124        114
   125         31
   126          5
   127          4
   128          5
   129          6
   131          6
   132          8
   133        176
   134         22
   135         47
   136          9
   137          9
   138          4
   139          7
   141          5
   142          4
   145          8
   149         47
   150        163
   151        809
   152        159
   153         13
   154          4
   155         11
   163          5
   167        314
   168         54
   169          8
   175          7
   177         12
   178          6
   179          3
   186          9
   189         21
   190          5
   191          4
   202          8
   203         11
   215          6
   246         98
   247         13
   248          4