##TITLE=Library Entry 39277
##JCAMP-DX=Revision 4.10 
##DATA TYPE=MASS SPECTRUM
##SAMPLE DESCRIPTION=V.Zaikin,Topchiev Inst.Petrochem.Synth.,Moscow
##NAMES=HP
##CAS NAME=3-Phenylpropionic acid, 2-tetrahydrofurylmethyl ester
##MOLFORM=C14H18O3
##CAS REGISTRY NO=4647-36-3
##MP= -300
##BP= -300
##MW= 234
##$RETENTION INDEX=0
##$CONDENSED SPECTRUM=NO
##NPOINTS= 111
##XYDATA=(XY..XY) 1 
    25          1
    26          7
    27         24
    28          6
    29         15
    30          3
    31          4
    36          7
    37          1
    38          3
    39         27
    40          6
    41         53
    42         14
    43        132
    44          4
    45          1
    49          1
    50         11
    51         29
    52         10
    53          9
    54          6
    55         32
    56         11
    57         17
    58          1
    62          2
    63         10
    64          3
    65         33
    66          4
    67         18
    68          4
    69          8
    70         22
    71        999
    72         42
    73          5
    74          4
    75          5
    76          6
    77         69
    78         42
    79         40
    80          3
    81          5
    82          7
    83         14
    84        371
    85         97
    86          6
    87          1
    89         10
    90          5
    91        306
    92         29
    93          4
    94          1
    95          3
    96          1
    97          3
    98          1
    99          1
   100          2
   101         15
   102         12
   103         74
   104        548
   105        217
   106         19
   107         27
   108          3
   109          2
   111          2
   115          3
   116          2
   117          4
   118          2
   119          2
   120          2
   121          2
   123          1
   125          1
   128          1
   129          2
   130          2
   131         21
   132         38
   133         44
   134          8
   135          4
   137          1
   143          1
   144          1
   145          2
   146          1
   147          3
   148          2
   149          5
   150         13
   151          2
   162          2
   163          2
   165          3
   173          1
   191          1
   233          1
   234        106
   235         17
   236          2