##TITLE=Library Entry 39333
##JCAMP-DX=Revision 4.10 
##DATA TYPE=MASS SPECTRUM
##SAMPLE DESCRIPTION=V.Zaikin,Inst.Petrochem.Synth.,RAS,Moscow
##NAMES=HP
##CAS NAME=p-Toluic acid, 2-tetrahydrofurylmethyl ester
##MOLFORM=C13H16O3
##CAS REGISTRY NO=4647-35-2
##MP= -300
##BP= -300
##MW= 220
##$RETENTION INDEX=0
##$CONDENSED SPECTRUM=NO
##NPOINTS= 81
##XYDATA=(XY..XY) 1 
    26         12
    27         62
    28          6
    29         37
    30          7
    38          5
    39         99
    40         24
    41        107
    42         55
    43        274
    44          6
    50         23
    51         36
    52         13
    53         17
    54         10
    55         37
    56         26
    57         11
    58          2
    59          5
    61          3
    62         12
    63         46
    64         15
    65        123
    66          8
    67          2
    68          2
    69         15
    70         72
    71        999
    72         49
    73          7
    74          4
    75          4
    76          5
    77         14
    78          5
    79         12
    80          2
    81          3
    82          7
    83         11
    84        503
    85         35
    86          3
    87          2
    88          2
    89         41
    90         35
    91        311
    92         35
    93         10
    94          3
    95          2
    96          2
    98          2
   101          2
   103          3
   104          3
   105         22
   106          5
   107          8
   112          3
   117          4
   118          8
   119        540
   120         46
   121          5
   125          3
   133          2
   134          3
   135         15
   136         68
   137         48
   138          4
   139          3
   149         10
   150          3