##TITLE=Library Entry 6346
##JCAMP-DX=Revision 4.10 
##DATA TYPE=MASS SPECTRUM
##SAMPLE DESCRIPTION=CAR 0014
##NAMES=HP
##CAS NAME=3-Azabicyclo[3.2.1]octane, 1,8,8-trimethyl-, (1R)-
##MOLFORM=C10H19N
##CAS REGISTRY NO=465-49-6
##MP= -300
##BP= -300
##MW= 153
##$RETENTION INDEX=0
##$CONDENSED SPECTRUM=NO
##NPOINTS= 82
##XYDATA=(XY..XY) 1 
    14          5
    15         23
    16         13
    19         11
    26          8
    27        139
    29        136
    30        506
    31         20
    38          7
    39        186
    40         42
    41        551
    42        176
    43        999
    45         20
    46         13
    50          7
    51         27
    52         19
    53        114
    54         40
    55        286
    56         82
    57         67
    58         26
    63          8
    64          3
    65         41
    66         21
    67        227
    68        191
    69        243
    70        176
    71         50
    72         17
    77         59
    78         17
    79         64
    80         45
    81        170
    82        177
    83        236
    84        110
    85         25
    86          4
    91         59
    92         14
    93         70
    94         59
    95        100
    96         88
    97         41
    98         37
    99          4
   105         15
   106         11
   107        528
   108        111
   109        314
   110        106
   111         21
   112          8
   119          3
   120          6
   121         23
   122        296
   123         56
   124         52
   125         13
   126          2
   135          3
   136         65
   137          9
   138        150
   139         23
   150          6
   151         50
   152         88
   153        472
   154         59
   155          5