##TITLE=Library Entry 38473
##JCAMP-DX=Revision 4.10 
##DATA TYPE=MASS SPECTRUM
##SAMPLE DESCRIPTION=NIST Mass Spectrometry Data Center, 2010
##NAMES=HP
##CAS NAME=Bicyclo[2.2.1]heptan-2-ol, 2,3,3-trimethyl-
##MOLFORM=C10H18O
##CAS REGISTRY NO=465-31-6
##MP= -300
##BP= -300
##MW= 154
##$RETENTION INDEX=1148
##$CONDENSED SPECTRUM=NO
##NPOINTS= 53
##XYDATA=(XY..XY) 1 
    15          9
    27         61
    29         47
    31         12
    39        122
    40         25
    41        280
    42         35
    43        710
    44         23
    45         46
    51         18
    53         55
    54         10
    55        162
    56         31
    57         48
    58         38
    59         41
    65         51
    66         35
    67        192
    68         51
    69        433
    70         72
    71        999
    72         61
    77         29
    79         40
    82         15
    83         38
    84        260
    85        186
    86        394
    87         76
    91         25
    92         14
    93        114
    96        405
    97         63
    98         18
    99         58
   100          9
   107         58
   111        290
   112         24
   113          9
   121        108
   125          7
   136        128
   139         55
   140          7
   154         18