##TITLE=Library Entry 19060
##JCAMP-DX=Revision 4.10 
##DATA TYPE=MASS SPECTRUM
##SAMPLE DESCRIPTION=LAC, NIDDK, NIH, Bethesda, MD 20892
##NAMES=HP
##CAS NAME=Bufa-20,22-dienolide, 3,14-dihydroxy-, (3.beta.,5.beta.)-
##MOLFORM=C24H34O4
##CAS REGISTRY NO=465-21-4
##MP= -300
##BP= -300
##MW= 386
##$RETENTION INDEX=0
##$CONDENSED SPECTRUM=NO
##NPOINTS= 232
##XYDATA=(XY..XY) 1 
    41        897
    42         98
    43        893
    44        123
    45         92
    51         46
    52         31
    53        304
    54         97
    55        999
    56        100
    57        324
    58         40
    59         53
    60         52
    65        219
    66        307
    67        733
    68        154
    69        598
    70         79
    71        122
    72         34
    73        739
    74         64
    75         44
    76         20
    77        433
    78        110
    79        824
    80        169
    81        668
    82        129
    83        211
    84        125
    85        352
    86         34
    87         27
    91        680
    93        892
    94        489
    95        674
    96        120
    97        176
    98         66
    99         40
   101         25
   103         58
   104         45
   105        485
   106        168
   107        772
   108        346
   109        498
   110        209
   111        141
   112         40
   113         23
   115         87
   116         42
   117        141
   118        100
   119        341
   120        195
   121        473
   122        558
   123        852
   124         91
   125        117
   126         21
   127         29
   128         49
   129         89
   130         36
   131        204
   132         73
   133        350
   134        160
   135        295
   136        252
   137        157
   138        207
   139         43
   140         52
   141         43
   142         31
   143         81
   144         50
   145        236
   147        873
   148        223
   149        352
   150         72
   151         53
   152         33
   153         28
   155         38
   156         28
   157         76
   158         64
   159        164
   160        152
   161        251
   162        150
   163        118
   164         61
   165         67
   166         60
   167         41
   168         23
   169         35
   170         20
   171         72
   172         39
   173        119
   174         76
   175        145
   176         45
   177        115
   178        124
   179         41
   180         38
   181         36
   183         50
   184         28
   185         84
   187        142
   188        111
   189        104
   190         46
   191         98
   192         42
   193         69
   194         44
   195         29
   197         38
   199         75
   200         38
   201         93
   202         39
   203        364
   204         79
   205         91
   207        403
   208         57
   209         48
   211         57
   213        150
   214        187
   215        133
   216         43
   217         61
   218         31
   219         54
   221        203
   222         33
   223        195
   224         39
   225         56
   226         22
   227         56
   228         33
   229        119
   230         49
   231        153
   232        183
   233         69
   234         21
   237        114
   238         26
   239         33
   241         35
   242         45
   243         31
   244         40
   245         38
   246        136
   247         47
   248         39
   249        107
   250        189
   251         48
   255         26
   256         27
   257         27
   258         21
   259         29
   265         31
   267         76
   268         24
   269         30
   277         21
   279         31
   281        262
   282         67
   283         58
   295         39
   296         29
   297         65
   298         70
   299         29
   307         22
   309         20
   311         22
   322         38
   323         22
   325        856
   326        215
   327         52
   335         75
   339         21
   340         24
   341         80
   342         38
   343         85
   344         23
   350        509
   351        137
   353         81
   355        193
   356         64
   357         43
   358         30
   368        459
   369        132
   371        310
   372        104
   373         65
   374         20
   386        235
   387         62
   388          7