##TITLE=Library Entry 4873
##JCAMP-DX=Revision 4.10 
##DATA TYPE=MASS SPECTRUM
##SAMPLE DESCRIPTION=H. Fales, LC, NHLBI, NIH, Bethesda, MD 20892
##NAMES=HP
##CAS NAME=Isotazettinol
##MOLFORM=C17H19NO5
##CAS REGISTRY NO=465-63-4
##MP= -300
##BP= -300
##MW= 317
##$RETENTION INDEX=0
##$CONDENSED SPECTRUM=NO
##NPOINTS= 137
##XYDATA=(XY..XY) 1 
    42        999
    43        263
    44        769
    45         58
    49         25
    50         46
    51        111
    52         26
    53         68
    54         37
    55        135
    56         89
    57        150
    58        134
    62         22
    63         80
    64         17
    65         78
    66         14
    67         39
    68         16
    69         28
    70        847
    71        968
    72        204
    73         18
    74         44
    75         47
    76         59
    77        153
    78         48
    79         35
    81         15
    82         58
    83         14
    84         44
    85         17
    86         40
    87         16
    88         24
    89         63
    90         28
    91         76
    94         63
    95         50
    96         66
    98         48
    99          7
   101         35
   102         66
   103         72
   104          7
   105         18
   108         29
   113         45
   114         45
   115        350
   116         70
   117         53
   126         36
   127         81
   128        112
   129         48
   130         24
   131         45
   135         58
   139         68
   140         15
   141         94
   142         17
   143         87
   144         35
   145         35
   147          6
   149         25
   151         25
   152        101
   153         99
   154         37
   155         35
   156          7
   157         16
   159         64
   160         26
   165          7
   168         16
   169         52
   170          6
   171         75
   172         57
   173        293
   174         48
   175          7
   181        157
   182         35
   185         87
   186         57
   187         36
   188         15
   189          7
   197         46
   198          8
   199        155
   200         51
   201        261
   202         71
   204         24
   205          7
   209         24
   210         17
   211         85
   212         63
   213         26
   214         18
   217         46
   218          6
   219         29
   225          7
   226         38
   227         33
   228         74
   229         89
   230         48
   238         37
   239         15
   240         25
   242          6
   246         30
   247        153
   248         14
   254         14
   256         37
   260         14
   299         15
   317        735
   318        138
   319         14