##TITLE=Library Entry 68847
##JCAMP-DX=Revision 4.10 
##DATA TYPE=MASS SPECTRUM
##SAMPLE DESCRIPTION=Chemical Concepts
##NAMES=HP
##CAS NAME=1,4-Methanoazulen-9-one, decahydro-1,5,5,8a-tetramethyl-, [1R-(1.
alpha.,3a.beta.,4.alpha.,8a.beta.)]-
##MOLFORM=C15H24O
##CAS REGISTRY NO=465-26-9
##MP= -300
##BP= -300
##MW= 220
##$RETENTION INDEX=0
##$CONDENSED SPECTRUM=NO
##NPOINTS= 138
##XYDATA=(XY..XY) 1 
    26          4
    27        166
    28         15
    29        224
    30          4
    38          2
    39        274
    40         56
    41        832
    42         56
    43        202
    44          9
    45          6
    50          7
    51         50
    52         27
    53        222
    54         55
    55        497
    56         47
    57         67
    58          6
    59          8
    60          3
    61          4
    63         14
    64          8
    65        119
    66         40
    67        518
    68         76
    69        372
    70         31
    71         19
    73          3
    74          3
    75          4
    76          3
    77        247
    78         54
    79        424
    80        244
    81        516
    82        548
    83        214
    84         18
    85         97
    86          7
    89          6
    91        313
    92         64
    93        462
    94        266
    95        999
    96        188
    97        102
    98         21
    99          4
   103         23
   104         10
   105        157
   106         76
   107        632
   108        314
   109        364
   110        157
   111         61
   112         17
   113          6
   115         23
   116          9
   117         27
   118          8
   119         68
   120         55
   121        626
   122        233
   123        259
   124        464
   125        111
   126         29
   127          6
   128          9
   129         10
   130          4
   131         36
   132         17
   133        179
   134         47
   135        344
   136        399
   137        368
   138        113
   139         13
   143          3
   144          2
   145         30
   146         36
   147         32
   148         22
   149        256
   150        168
   151         99
   152         30
   153          5
   159         27
   160          9
   161         61
   162         18
   163        259
   164        125
   165         27
   166          4
   167          3
   173         11
   174          4
   175          9
   176         47
   177        863
   178        147
   179         14
   187         81
   188         12
   189         28
   190          4
   191         45
   192        102
   193         15
   202         28
   203          6
   205        269
   206         47
   207          5
   210          4
   219          4
   220        842
   221        149
   222         15