##TITLE=Library Entry 89914
##JCAMP-DX=Revision 4.10 
##DATA TYPE=MASS SPECTRUM
##SAMPLE DESCRIPTION=LAC, NIDDK, NIH, Bethesda, MD 20892
##NAMES=HP
##CAS NAME=Card-20(22)-enolide, 3-[(2,6-dideoxy-3-O-methyl-.beta.-D-ribo-hex
opyranosyl)oxy]-5,14,19-trihydroxy-, (3.beta.,5.beta.)-
##MOLFORM=C30H46O9
##CAS REGISTRY NO=465-84-9
##MP= -300
##BP= -300
##MW= 550
##$RETENTION INDEX=0
##$CONDENSED SPECTRUM=NO
##NPOINTS= 103
##XYDATA=(XY..XY) 1 
    41        414
    43        976
    44         54
    45        280
    49         95
    51         43
    53         97
    55        570
    57        379
    59        502
    60         16
    61         39
    65         30
    67        285
    69        713
    71        311
    73         39
    74        493
    77         91
    79        190
    81        280
    83        205
    84        107
    85        180
    87        414
    89         14
    91        210
    93        222
    95        361
    96         79
    97         96
    98        109
   101         97
   105        207
   107        166
   109        131
   111        164
   113        999
   114         56
   116         14
   117        115
   119        129
   121        129
   122         15
   123         87
   124         35
   125         51
   127         52
   129         69
   131        137
   133        142
   134         17
   135        114
   136         17
   137         44
   141         15
   143         44
   144        288
   145        345
   146         27
   147        121
   149         59
   153         15
   155         49
   157         68
   159         93
   161        278
   162         17
   163         65
   165         50
   170         19
   171         36
   173         69
   175         55
   176         14
   177         46
   179         17
   180         17
   181         21
   183         28
   185         67
   187         89
   189         68
   190         15
   195         30
   197         17
   199         49
   201         14
   205         13
   207         37
   215         14
   217         90
   323         84
   324         31
   335         50
   339         45
   340        281
   341        181
   342         81
   353         94
   354         59
   358        147
   359         63