##TITLE=Library Entry 7238
##JCAMP-DX=Revision 4.10 
##DATA TYPE=MASS SPECTRUM
##SAMPLE DESCRIPTION=DR GLENN PATTERSON
##NAMES=HP
##CAS NAME=Ergost-5-en-3-ol, (3.beta.)-
##MOLFORM=C28H48O
##CAS REGISTRY NO=4651-51-8
##MP= -300
##BP= -300
##MW= 400
##$RETENTION INDEX=0
##$CONDENSED SPECTRUM=NO
##NPOINTS= 167
##XYDATA=(XY..XY) 1 
    14         30
    15         30
    17         30
    18        110
    26         40
    27        100
    29        190
    39         80
    41        529
    42         80
    43        999
    44         30
    53         80
    54         30
    55        719
    56        110
    57        579
    58         30
    65         40
    67        330
    68         60
    69        400
    70         60
    71        400
    73         40
    77        120
    78         40
    79        320
    80         50
    81        519
    82         70
    83        260
    84         50
    85        170
    91        330
    92         80
    93        340
    94        120
    95        470
    96         80
    97        230
    98         30
    99         30
   103         30
   104         30
   105        400
   106        120
   107        450
   108        130
   109        270
   110         50
   111        120
   113         30
   115         40
   117        120
   118         80
   119        270
   120        210
   121        260
   122         80
   123        150
   124        120
   125         90
   128         30
   129         70
   130         40
   131        190
   132         70
   133        250
   134        100
   135        220
   136         70
   137         80
   138         30
   139         30
   141         40
   142         30
   143        130
   144         70
   145        330
   146        100
   147        230
   148         80
   149        140
   150         30
   151         60
   155         30
   157        100
   158        100
   159        240
   160        130
   161        230
   162         60
   163        180
   164         40
   165         40
   171         80
   172         40
   173        120
   174         50
   175         70
   176         40
   177         70
   178         80
   179         40
   185         70
   186         40
   187         80
   188         30
   189         40
   191         60
   197         30
   199         90
   200         30
   201         50
   203         30
   205         50
   213        230
   214         80
   215         70
   217         30
   219         30
   220         30
   227         40
   228         60
   229         90
   230         30
   231        140
   232         40
   233         30
   240         30
   245         30
   246         30
   247         30
   255        180
   256         40
   257         30
   259         30
   260         30
   261         80
   262         30
   270         30
   273        120
   274         60
   275         40
   281         30
   288         60
   289        250
   290         60
   301         30
   314         30
   315        200
   316         50
   340         40
   341         30
   367        180
   368         50
   382        270
   383        100
   384         30
   385        160
   386         50
   398         50
   399         30
   400        370
   401        120
   402         30