##TITLE=Library Entry 14955
##JCAMP-DX=Revision 4.10 
##DATA TYPE=MASS SPECTRUM
##SAMPLE DESCRIPTION=LAC, NIDDK, NIH, Bethesda, MD 20892
##NAMES=HP
##CAS NAME=Clionasterol acetate
##MOLFORM=C31H52O2
##CAS REGISTRY NO=4651-54-1
##MP= -300
##BP= -300
##MW= 456
##$RETENTION INDEX=3355
##$CONDENSED SPECTRUM=NO
##NPOINTS= 164
##XYDATA=(XY..XY) 1 
    41        135
    43        999
    44         24
    53         16
    55        233
    57        157
    61         13
    67         97
    69        219
    70         20
    71        102
    77         26
    79        112
    81        265
    83         67
    84         16
    85         60
    91         99
    92         23
    93         96
    94         16
    95        143
    96          9
    97         73
    98          3
    99          8
   103          4
   105        178
   106         45
   107        150
   108         40
   109         64
   111         21
   115         13
   116          9
   117         59
   118         20
   119         63
   120         64
   121         77
   122         22
   123         36
   124          3
   125         12
   127          4
   129         39
   130         10
   131         92
   132         14
   133        146
   134         38
   135         70
   137          9
   138          9
   139         11
   141         19
   142          8
   143        104
   144         36
   145        151
   146         55
   147        165
   148         36
   149         43
   150          3
   151          9
   155          8
   156          3
   157         54
   158         53
   159        113
   160         61
   161         79
   162         17
   163         24
   165          4
   169         12
   171         27
   172         11
   173         27
   174         15
   175         25
   176          9
   177         23
   179          4
   183          8
   185         34
   186         11
   187         24
   188          3
   189         19
   191         11
   195          3
   197         18
   199         28
   200         11
   201         21
   203          4
   205          9
   211         15
   212         16
   213        107
   214         31
   215         29
   216          7
   221          3
   225          3
   227         13
   228         34
   229         14
   233          5
   234          8
   239         13
   240          4
   241         11
   243          8
   247          3
   253         31
   254         22
   255        129
   256         31
   257         10
   259          5
   260          4
   261         17
   267         10
   268          3
   273         16
   274         34
   275         64
   276         21
   281         23
   282         22
   283         29
   284          4
   286          4
   287         10
   288         61
   289         14
   295          4
   296        126
   297         25
   302          4
   340          9
   351         25
   352          4
   353          4
   354         18
   367         56
   368         54
   369         13
   379         20
   380          6
   381        107
   382        351
   383        132
   384         27
   393          4
   394         33
   395        170
   396        791
   397        239
   398         52
   399          5