##TITLE=Library Entry 7347
##JCAMP-DX=Revision 4.10 
##DATA TYPE=MASS SPECTRUM
##SAMPLE DESCRIPTION=LAC, NIDDK, NIH, Bethesda, MD 20892
##NAMES=HP
##CAS NAME=Stigmasta-5,22-dien-3-ol, acetate, (3.beta.)-
##MOLFORM=C31H50O2
##CAS REGISTRY NO=4651-48-3
##MP= -300
##BP= -300
##MW= 454
##$RETENTION INDEX=3316
##$CONDENSED SPECTRUM=NO
##NPOINTS= 213
##XYDATA=(XY..XY) 1 
    41        303
    43        999
    44          5
    45          1
    47          1
    49          7
    51          4
    53         48
    55        764
    57        210
    58          5
    59          1
    61         11
    65         20
    67        282
    69        564
    71        133
    72          1
    73          0
    77         72
    79        230
    81        677
    83        552
    84         55
    85         58
    86          1
    87          0
    91        260
    93        333
    95        330
    97        279
    98          4
    99         23
   101          1
   103         15
   105        319
   107        311
   109        225
   111         69
   113         15
   115         23
   116          3
   117        120
   119        222
   120        101
   121        150
   122          9
   123        118
   125         23
   127         22
   128         24
   129         64
   130          9
   131        178
   133        359
   135        177
   137         67
   138          4
   139         93
   141         38
   142          5
   143        151
   144         14
   145        352
   146        175
   147        240
   149        103
   150          2
   151         22
   153          7
   155         27
   157        146
   158         87
   159        221
   160         57
   161        125
   162         24
   163         29
   165         30
   166          5
   167          4
   168          1
   169         20
   170          2
   171         48
   172         18
   173         73
   174         22
   175         55
   176          8
   177         20
   178          7
   179          4
   180          0
   181          4
   183         26
   185         46
   187         49
   188          3
   189         47
   190          6
   191         10
   192          2
   193          2
   195          3
   197         29
   198          3
   199         56
   200         14
   201         33
   202          9
   203         11
   204          0
   205          8
   207          3
   209          2
   211         43
   212          7
   213        110
   214         25
   215         19
   216          2
   217          8
   218          0
   219          4
   221          1
   223          1
   225         15
   226          9
   227         23
   228         83
   229         24
   231         10
   232          2
   233          3
   234          1
   237          1
   239         21
   240         11
   241         16
   242          1
   243         15
   244          2
   245          7
   247          1
   251          1
   252          5
   253         87
   254         18
   255        322
   256         55
   257         12
   258          1
   259          2
   261          3
   267         25
   268          8
   269          5
   271          8
   272          3
   273         12
   274          5
   275          4
   276          0
   281         27
   282         57
   283         32
   284          5
   285          3
   286         11
   287          5
   288          5
   295         13
   296         19
   297          6
   299          1
   300          0
   301          0
   307          0
   309          5
   310          5
   311          3
   312          0
   313          3
   315          1
   323          1
   337          0
   340          1
   351         62
   352         21
   353          3
   354          0
   365          6
   366          2
   367          2
   368          0
   379         27
   380         13
   381          6
   382         17
   383          6
   384          0
   392          4
   394        644
   395        212
   396         65
   397         14
   398          2
   408          1
   410          3
   411          1
   412          0
   454          0