##TITLE=Library Entry 54742
##JCAMP-DX=Revision 4.10 
##DATA TYPE=MASS SPECTRUM
##SAMPLE DESCRIPTION=NIST Mass Spectrometry Data Center
##NAMES=HP
##CAS NAME=4-Methoxy-3-buten-2-one
##MOLFORM=C5H8O2
##CAS REGISTRY NO=4652-27-1
##MP= -300
##BP= -300
##MW= 100
##$RETENTION INDEX=0
##$CONDENSED SPECTRUM=NO
##NPOINTS= 40
##XYDATA=(XY..XY) 1 
    14          1
    15          8
    25          1
    26         15
    27         45
    29         75
    30          3
    31         27
    37          6
    38         11
    39         28
    40          3
    41         27
    42         98
    43        211
    44          5
    45          4
    49          2
    50          6
    51          3
    52          2
    53         65
    54         20
    55         22
    56          5
    57         26
    58          6
    59         79
    60          1
    68          1
    69         38
    70          5
    71         77
    72          4
    83          2
    85        999
    86         45
    87          4
   100        107
   101          7