##TITLE=Library Entry 70356
##JCAMP-DX=Revision 4.10 
##DATA TYPE=MASS SPECTRUM
##SAMPLE DESCRIPTION=Japan AIST/NIMC Database- Spectrum MS-NW-5597
##NAMES=HP
##CAS NAME=4-(2-Thienyl)butyric acid
##MOLFORM=C8H10O2S
##CAS REGISTRY NO=4653-11-6
##MP= -300
##BP= -300
##MW= 170
##$RETENTION INDEX=0
##$CONDENSED SPECTRUM=NO
##NPOINTS= 102
##XYDATA=(XY..XY) 1 
    14          1
    15          2
    18          2
    26          7
    27         40
    28         15
    29          6
    31          3
    32          3
    33          1
    34          2
    37          4
    38         12
    39         79
    40          5
    41         26
    42          6
    43          5
    44          7
    45        166
    46          5
    47         11
    49          2
    50         11
    51         26
    52          9
    53         90
    54          4
    55         17
    56          2
    57         10
    58         27
    59          8
    60         11
    61          5
    62          9
    63         18
    64          3
    65         24
    66         28
    67         12
    68          1
    69         27
    70         11
    71         25
    72          2
    73          7
    74          2
    75          2
    76          3
    77         26
    78          9
    79         13
    80          1
    81          4
    82          7
    83          4
    84         40
    85         13
    86          3
    87          1
    89          2
    90          1
    91         10
    92          2
    93          2
    94          1
    95          9
    96          7
    97        999
    98         75
    99         49
   100          3
   107          1
   108          2
   109         25
   110        970
   111        185
   112         54
   113          9
   114          1
   121          4
   122          2
   123         26
   124         14
   125          6
   126          2
   127          1
   135          2
   137          1
   150          1
   151          1
   152         18
   153         11
   154          2
   155          1
   168          2
   169          2
   170        377
   171         38
   172         19
   173          2