##TITLE=Library Entry 34140
##JCAMP-DX=Revision 4.10 
##DATA TYPE=MASS SPECTRUM
##SAMPLE DESCRIPTION=NIST Mass Spectrometry Data Center, 1998.
##NAMES=HP
##CAS NAME=2-Propenoic acid, 2-methyl-, 1-methylethyl ester
##MOLFORM=C7H12O2
##CAS REGISTRY NO=4655-34-9
##MP= -300
##BP= -300
##MW= 128
##$RETENTION INDEX=807
##$CONDENSED SPECTRUM=NO
##NPOINTS= 61
##XYDATA=(XY..XY) 1 
    14          1
    15         14
    16          1
    25          1
    26         11
    27         82
    29         19
    30          1
    31         12
    36          1
    37         14
    38         39
    39        380
    40         77
    41        745
    42        131
    43        715
    44         29
    45         59
    46          1
    50          1
    51          1
    52          1
    53         10
    54          3
    55         15
    56          3
    57          7
    58         19
    59        268
    60          9
    61          1
    66          1
    67          4
    68         24
    69        999
    70        129
    71         11
    72          1
    73          1
    74         12
    82         27
    83         63
    84          5
    85          9
    86         51
    87        529
    88         23
    89          3
    95          7
    99          2
   100          1
   109          1
   110          9
   111          1
   112          1
   113         86
   114          6
   127          2
   128         24
   129          3