##TITLE=Library Entry 7746
##JCAMP-DX=Revision 4.10 
##DATA TYPE=MASS SPECTRUM
##SAMPLE DESCRIPTION=LAC, NIDDK, NIH, Bethesda, MD 20892
##NAMES=HP
##CAS NAME=Cycloartanol
##MOLFORM=C30H52O
##CAS REGISTRY NO=4657-58-3
##MP= -300
##BP= -300
##MW= 428
##$RETENTION INDEX=0
##$CONDENSED SPECTRUM=NO
##NPOINTS= 231
##XYDATA=(XY..XY) 1 
    41        285
    42         57
    43        999
    44         40
    45         16
    49          3
    51          3
    52          1
    53         36
    54          2
    55        335
    56         11
    57        394
    58         15
    59         13
    65         15
    66          1
    67        153
    68         22
    69        227
    70         25
    71        183
    72         15
    73          2
    77         44
    78         12
    79        138
    80         22
    81        187
    82         40
    83         89
    84         10
    85         27
    86          3
    91        137
    92         29
    93        165
    94         65
    95        311
    96         35
    97         51
    98          6
    99          5
   100          3
   101          1
   103          8
   104          8
   105        141
   106         39
   107        176
   108         42
   109        164
   110         18
   111         27
   112          3
   113          5
   114          1
   115          9
   116          5
   117         35
   118         15
   119        114
   120         50
   121        123
   122         46
   123         66
   124          9
   125         10
   126          1
   127          5
   128          6
   129         16
   130          8
   131         47
   132         17
   133         93
   134         75
   135        100
   136         29
   137         29
   138          4
   139          4
   141          4
   142          5
   143         17
   144          7
   145         53
   146         16
   147         74
   148         42
   149         54
   150         15
   151         12
   152          3
   153          2
   155          3
   156          2
   157         13
   158          5
   159         50
   160         13
   161         61
   162         25
   163         47
   164          7
   165         11
   166          2
   167          1
   169          2
   170          1
   171         12
   172          5
   173         37
   174         14
   175        128
   176         22
   177         27
   178          4
   179          8
   180          1
   181          1
   183          1
   185         10
   186          4
   187         37
   188         14
   189         24
   190          6
   191         12
   192          4
   193         12
   194          3
   197          2
   199          7
   200          2
   201         21
   202         15
   203         55
   204         16
   205         17
   206         23
   207         17
   208          3
   211          2
   213          8
   214          2
   215         13
   216          3
   217          7
   218          4
   219         12
   220         17
   221          8
   222          1
   225          1
   227         12
   228          3
   229         10
   230          2
   231         10
   232          3
   233         18
   234          6
   241          6
   242          1
   243          6
   245          8
   246         23
   247         14
   248          3
   253          1
   255          7
   256          2
   257          5
   258          1
   259         10
   260         11
   261         14
   262          3
   269          2
   270          2
   271          4
   272          1
   273         34
   274         13
   275          6
   276          4
   281          4
   283          2
   285          1
   287          4
   288        149
   289         35
   290          5
   297         31
   298          7
   299          4
   301          1
   302          8
   303          2
   311          1
   313          2
   314          2
   315         40
   316         10
   325          3
   326          1
   339          1
   341         43
   342         12
   343          3
   344          2
   355          2
   367         50
   368         16
   369          2
   381          2
   395         82
   396         27
   397          4
   409          4
   410         71
   411         25
   412          4
   413         51
   414         16
   415          2
   427          2
   428         41
   429         14
   430          2