##TITLE=Library Entry 5854
##JCAMP-DX=Revision 4.10 
##DATA TYPE=MASS SPECTRUM
##SAMPLE DESCRIPTION=P.A. Leclercq, Lab. Instrum. Anal., Eindhoven Univ. Tec
hnol., Netherlands
##NAMES=HP
##CAS NAME=Aziprotryne
##MOLFORM=C7H11N7S
##CAS REGISTRY NO=4658-28-0
##MP= -300
##BP= -300
##MW= 225
##$RETENTION INDEX=1800
##$CONDENSED SPECTRUM=NO
##NPOINTS= 122
##XYDATA=(XY..XY) 1 
    41        632
    42        483
    43        999
    44        176
    45        194
    46        182
    47        381
    48         76
    49         22
    50          8
    51         16
    52         21
    53        115
    54         56
    55         64
    56         44
    57         47
    58        264
    59         27
    60         56
    61         15
    62         14
    66         21
    67         76
    68        463
    69        235
    70        104
    71         10
    72         39
    73         91
    74        258
    75         23
    76         12
    77         11
    78         15
    79          7
    80         15
    81         20
    82        116
    83        135
    84         48
    85        131
    86         18
    87         21
    88         70
    89         59
    90        123
    91         36
    92         18
    93        134
    94        142
    95         32
    96         14
    97         19
    98         37
    99        139
   100         19
   101         10
   105         10
   106          3
   107         15
   108         88
   109         69
   110         69
   111         45
   112         58
   113         47
   114        128
   115        185
   116         34
   117         15
   122          9
   123         27
   124         10
   125         28
   126         27
   127         16
   128         35
   129         10
   134         12
   135         50
   136         61
   137          9
   138          7
   139        369
   140        131
   141         50
   142         19
   143         11
   150        112
   151         12
   152         17
   153          7
   154         49
   155         66
   156         17
   157         58
   158          9
   166          4
   167         58
   168         12
   169          6
   170          8
   178          6
   179          6
   180          3
   182        260
   183         77
   184         79
   185         12
   186         20
   196         54
   197         94
   198         15
   199         57
   200          7
   210        133
   211         15
   212          6
   225        184
   226         23
   227          9