##TITLE=Library Entry 28960
##JCAMP-DX=Revision 4.10 
##DATA TYPE=MASS SPECTRUM
##SAMPLE DESCRIPTION=Patti Price, Georgia Bureau of Investigation, Decatur,
 Georgia
##NAMES=HP
##CAS NAME=Isomethadone
##MOLFORM=C21H27NO
##CAS REGISTRY NO=466-40-0
##MP= -300
##BP= -300
##MW= 309
##$RETENTION INDEX=2128
##$CONDENSED SPECTRUM=NO
##NPOINTS= 143
##XYDATA=(XY..XY) 1 
    50          1
    51          3
    52          1
    53          1
    54          1
    55          1
    56          7
    57         42
    58        999
    59         36
    63          3
    64          1
    65          6
    67          1
    68          1
    69          1
    70          7
    71          8
    72          1
    73          1
    75          1
    76          1
    77          9
    78          2
    79          1
    80          1
    82          1
    83          1
    84          6
    85         17
    86          9
    87          1
    88          1
    89          4
    90          1
    91         37
    92          3
    94          1
    95          1
    96          1
   100          1
   102          5
   103          6
   104          1
   105          4
   106          1
   107          1
   110          1
   111          1
   113          1
   114          1
   115         45
   116         12
   117          9
   118          1
   121          1
   123          1
   126          1
   127          4
   128          7
   129          6
   130          5
   131          2
   132          1
   133          1
   134          1
   139          5
   140          1
   141          1
   142          1
   143          1
   144          1
   145          1
   147          1
   149          1
   151          2
   152         11
   153          2
   154          1
   155          1
   158          1
   159          1
   162          1
   163          5
   164          6
   165         36
   166          8
   167          5
   168          1
   171          1
   172          1
   173          1
   174          1
   175          1
   176          3
   177          2
   178         26
   179         15
   180          2
   181          1
   187          1
   188          1
   189          5
   190          4
   191          8
   192          2
   193         21
   194         10
   195          1
   200          1
   201          1
   202          1
   203          1
   204          1
   206          1
   207          4
   208          6
   209          1
   210          1
   216          1
   217          1
   218          1
   219          1
   221          1
   223          1
   224          1
   230          1
   231          1
   234          1
   235          1
   236          2
   246          1
   247          1
   248          1
   262          1
   263          1
   265          1
   266          1
   276          1
   281          1
   308          1
   309          2
   310          1