##TITLE=Library Entry 32377
##JCAMP-DX=Revision 4.10 
##DATA TYPE=MASS SPECTRUM
##SAMPLE DESCRIPTION=Exported from NIST MS Search
##NAMES=HP
##CAS NAME=Isopropenylcyclopropane
##MOLFORM=C6H10
##CAS REGISTRY NO=4663-22-3
##MP= -300
##BP= -300
##MW= 82
##$RETENTION INDEX=617
##$CONDENSED SPECTRUM=NO
##NPOINTS= 57
##XYDATA=(XY..XY) 1 
     1         10
     2          2
    12          2
    13          4
    14         16
    15         51
    16          1
    24          1
    25          3
    26         45
    27        245
    28         61
    29         44
    30          1
    31          3
    32          1
    36          2
    37         32
    38         72
    39        506
    40        102
    41        513
    42         91
    43         19
    44          1
    48          1
    49          8
    50         51
    51         72
    52         33
    53        150
    54        139
    55         60
    56         19
    57          1
    60          1
    61          6
    62         11
    63         23
    64          3
    65         78
    66         28
    67        999
    68         55
    69          2
    72          1
    73          2
    74          4
    76          1
    77         20
    78          4
    79         43
    80          7
    81        113
    82        219
    83         14
    84          1