##TITLE=Library Entry 18607
##JCAMP-DX=Revision 4.10 
##DATA TYPE=MASS SPECTRUM
##SAMPLE DESCRIPTION=D.HENNEBERG, MAX-PLANCK INSTITUTE, MULHEIM, WEST GERMAN
Y
##NAMES=HP
##CAS NAME=Cyclopropane, 1-propenyl-
##MOLFORM=C6H10
##CAS REGISTRY NO=4663-21-2
##MP= -300
##BP= -300
##MW= 82
##$RETENTION INDEX=684
##$CONDENSED SPECTRUM=NO
##NPOINTS= 28
##XYDATA=(XY..XY) 1 
    26         36
    27        290
    28        144
    29        106
    37         19
    38         43
    39        638
    40         56
    41        622
    42         72
    43         10
    45          1
    50         40
    51         66
    52         22
    53        145
    54        999
    55        156
    56         18
    63          5
    65         36
    66          8
    67        545
    68         22
    77         14
    79         23
    81         32
    82          5