##TITLE=Library Entry 12598
##JCAMP-DX=Revision 4.10 
##DATA TYPE=MASS SPECTRUM
##SAMPLE DESCRIPTION=Humboldt-Universitat zu Berlin, Department of Chemistry
, Analytical Group
##NAMES=HP
##CAS NAME=Bis[(3-acetoxy-4-acetoxymethyl-2-methylpyridin-5-yl)methyl] disul
fide
##MOLFORM=C24H28N2O8S2
##CAS REGISTRY NO=4667-08-7
##MP= -300
##BP= -300
##MW= 536
##$RETENTION INDEX=0
##$CONDENSED SPECTRUM=NO
##NPOINTS= 275
##XYDATA=(XY..XY) 1 
    12          2
    13          3
    14         10
    15         75
    16          5
    17         20
    18         61
    24          0
    25          0
    26          3
    27         17
    28         24
    29         11
    30          1
    31          2
    32          3
    33          1
    34          1
    37          0
    38          4
    39         70
    40          9
    41         18
    42         36
    43        999
    44         35
    45         43
    46          2
    47          4
    50          5
    51         23
    52         13
    53         31
    54         11
    55         14
    56          3
    57          7
    58          3
    59          4
    60         11
    61          2
    62          1
    63         11
    64         15
    65         46
    66         25
    67         19
    68          6
    69         11
    70          7
    71          7
    72          1
    73          3
    74          0
    75          1
    76          2
    77         55
    78         19
    79         39
    80         15
    81         10
    82          9
    83          6
    84          3
    85          7
    86          1
    87          1
    89          2
    90          1
    91          4
    92         12
    93          7
    94         21
    95          7
    96         12
    97         40
    98          6
    99          3
   102          0
   103          1
   104         11
   105         11
   106        208
   107         35
   108          9
   109          6
   110          6
   111          6
   112          2
   113          3
   114          1
   115          1
   116          0
   117          1
   118          1
   119          1
   120          6
   121          6
   122         28
   123         44
   124         49
   125          9
   126          3
   127          2
   128          2
   129          2
   130          0
   132          1
   133          5
   134         65
   135         80
   136         20
   137          8
   138         15
   139          5
   140          2
   141          1
   142          1
   143          0
   146          0
   147          1
   148          3
   149          6
   150         27
   151         17
   152        612
   153         61
   154         25
   155          2
   156          2
   157          1
   160          0
   163          0
   164          4
   165         13
   166         66
   167         32
   168         12
   169          3
   170          1
   171          2
   173          0
   175          2
   176          1
   177          2
   178          2
   179          1
   180          0
   181          0
   182          2
   183          1
   184         38
   185          6
   186          4
   187          0
   192          5
   194        544
   195         77
   196         11
   197          2
   198          4
   199          7
   200          4
   201          1
   207          1
   208         11
   209          9
   210          2
   211          0
   212          0
   216          0
   225          1
   226          9
   227          4
   228          1
   229          0
   234          0
   236         83
   237         38
   238          9
   239          1
   240          4
   241          5
   242          1
   243          0
   245          0
   253          0
   254          0
   255          1
   256          1
   257          1
   258          1
   259          1
   260          0
   267          1
   268          6
   269          5
   270          1
   271          0
   280          0
   281          0
   282          0
   283          1
   284          0
   285          1
   286          0
   287          0
   296          1
   297          1
   298          0
   299          1
   301         14
   302          2
   303          1
   310          1
   311          1
   312          0
   313          0
   315          0
   327          1
   328          4
   329          1
   331          0
   341          0
   342          0
   345          0
   355          1
   357          0
   370         16
   371          4
   372          1
   375          0
   387         62
   388         17
   389          2
   390          0
   391          0
   399          2
   400          0
   401          0
   411          0
   412          1
   413          1
   414          2
   415          0
   421          2
   422          0
   423          0
   429         42
   430         18
   431          4
   432          0
   433          1
   434          1
   435          1
   451          0
   457          2
   458          0
   463          0
   472        207
   473         56
   474         11
   476          6
   477          3
   478          1
   479          0
   493          0
   494          1
   495          0
   503          0
   536         71
   537         22
   538         10
   539          2
   540          0