##TITLE=Library Entry 50417
##JCAMP-DX=Revision 4.10 
##DATA TYPE=MASS SPECTRUM
##SAMPLE DESCRIPTION=CARL DJERASSI DEPT OF CHEM STANFORD UNIV STANFORD CALIF
 94305
##NAMES=HP
##CAS NAME=5H-Inden-5-one, octahydro-, trans-
##MOLFORM=C9H14O
##CAS REGISTRY NO=4668-81-9
##MP= -300
##BP= -300
##MW= 138
##$RETENTION INDEX=0
##$CONDENSED SPECTRUM=NO
##NPOINTS= 43
##XYDATA=(XY..XY) 1 
    37         10
    38         50
    39        747
    40        151
    41        828
    42        181
    43         50
    50         40
    51        111
    52         60
    53        303
    54        595
    55        373
    56         80
    57         60
    63         20
    65         50
    66         50
    67        696
    68        494
    69        111
    70         40
    77         60
    78         10
    79        131
    80         60
    81        999
    82        414
    83         50
    84         20
    91         20
    92         20
    93         20
    94        979
    95        424
    96        181
    97         10
   109        101
   110         50
   120         20
   123         10
   138        646
   139         40