##TITLE=Library Entry 49719
##JCAMP-DX=Revision 4.10 
##DATA TYPE=MASS SPECTRUM
##SAMPLE DESCRIPTION=CARL DJERASSI DEPT OF CHEM STANFORD UNIV STANFORD CALIF
 94305
##NAMES=HP
##CAS NAME=5H-Inden-5-one, octahydro-, cis-
##MOLFORM=C9H14O
##CAS REGISTRY NO=4668-91-1
##MP= -300
##BP= -300
##MW= 138
##$RETENTION INDEX=0
##$CONDENSED SPECTRUM=NO
##NPOINTS= 60
##XYDATA=(XY..XY) 1 
    26        130
    27        840
    28        430
    29        280
    30         10
    31         10
    32         20
    37         20
    38         70
    39        900
    40        190
    41        870
    42        270
    43         70
    44         10
    50         60
    51        140
    52         80
    53        370
    54        560
    55        820
    56         80
    57         30
    62         10
    63         30
    64         10
    65         80
    66         90
    67        900
    68        660
    69        110
    70        110
    71         70
    74         10
    75         10
    77         80
    78         20
    79        200
    80        290
    81        999
    82        490
    83        340
    84         50
    91         30
    92         30
    93         20
    94        700
    95        370
    96        280
    97         40
   105         10
   107         10
   109        200
   110        360
   111         30
   120         80
   123         50
   137         10
   138        710
   139         60