##TITLE=Library Entry 83465
##JCAMP-DX=Revision 4.10 
##DATA TYPE=MASS SPECTRUM
##SAMPLE DESCRIPTION=Chemical Concepts
##NAMES=HP
##CAS NAME=Tricyclo[4.4.1.1(2,5)]dodeca-3,7,9-trien-11-one, (1.alpha.,2.beta
.,5.beta.,6.alpha.)-
##MOLFORM=C12H12O
##CAS REGISTRY NO=4668-70-6
##MP= -300
##BP= -300
##MW= 172
##$RETENTION INDEX=0
##$CONDENSED SPECTRUM=NO
##NPOINTS= 66
##XYDATA=(XY..XY) 1 
    26         28
    27         62
    31         17
    33          6
    36          4
    37         39
    38         77
    39        313
    40        165
    41         17
    49         15
    50         99
    51        160
    52        120
    53         26
    55          7
    58          8
    60          5
    61         26
    62         42
    63         91
    64         31
    65        228
    66        820
    67         46
    71          8
    73          5
    74         24
    75         17
    76         20
    77        122
    78        409
    79         67
    80          6
    81          7
    85          6
    86          6
    87          5
    89         15
    90          5
    91         32
    92          5
    94         14
   102         10
   103         12
   106        142
   107        999
   108         73
   109          4
   115         52
   116         15
   117         17
   118          5
   127         18
   128         54
   129         33
   131         13
   143         11
   144          7
   145          6
   154          5
   155          8
   157         10
   171         19
   172         95
   173         14