##TITLE=Library Entry 114946
##JCAMP-DX=Revision 4.10 
##DATA TYPE=MASS SPECTRUM
##SAMPLE DESCRIPTION=RADIAN CORP
##NAMES=HP
##CAS NAME=Silanediamine, N,N,N',N'-tetraethyl-1,1-dimethyl-
##MOLFORM=C10H26N2Si
##CAS REGISTRY NO=4669-59-4
##MP= -300
##BP= -300
##MW= 202
##$RETENTION INDEX=0
##$CONDENSED SPECTRUM=NO
##NPOINTS= 65
##XYDATA=(XY..XY) 1 
    15          4
    27         28
    29        110
    31         11
    41          4
    42         35
    43         21
    44         12
    45         38
    55          3
    56         18
    57         12
    59        251
    60         21
    61         10
    63          1
    65          1
    69          5
    70         71
    71          9
    72         74
    73         35
    74          6
    75          1
    77         11
    78          2
    79          1
    85          2
    86        147
    87         19
    88         42
    89          2
    93         10
    95          5
   100         61
   101        111
   102         69
   103         35
   104          3
   114         51
   115         10
   116        422
   117         47
   118         15
   128         42
   129         84
   130        999
   131        134
   132         41
   133          3
   143          6
   150         13
   152          8
   157          1
   159          3
   171          7
   173         46
   174          7
   185          3
   187        137
   188         20
   189          4
   202        107
   203         16
   204          3