##TITLE=Library Entry 29319
##JCAMP-DX=Revision 4.10 
##DATA TYPE=MASS SPECTRUM
##SAMPLE DESCRIPTION=Patti Price, Georgia Bureau of Investigation, Decatur,
 Georgia
##NAMES=HP
##CAS NAME=Normethadone
##MOLFORM=C20H25NO
##CAS REGISTRY NO=467-85-6
##MP= -300
##BP= -300
##MW= 295
##$RETENTION INDEX=2075
##$CONDENSED SPECTRUM=NO
##NPOINTS= 184
##XYDATA=(XY..XY) 1 
    42         35
    43          8
    44          3
    50          1
    51          5
    52          1
    53          1
    54          1
    55          2
    56         11
    57         63
    58        999
    59         35
    62          1
    63          5
    65          6
    69          1
    70          5
    71         70
    72        154
    73          6
    74          1
    75          2
    76          6
    77         22
    78          4
    79          1
    80          1
    81          1
    82          1
    83          1
    84          1
    86          1
    87          1
    88          2
    89          8
    90          1
    91         51
    92          3
    93          1
    94          1
    95          1
    96          1
    98          1
    99          1
   100          1
   101          2
   102         12
   103         13
   104          1
   105         15
   106          1
   107          1
   109          1
   111          1
   112          1
   113          2
   114          1
   115         65
   116         14
   117         13
   118          2
   119          1
   120          1
   121          1
   122          1
   124          1
   126          4
   127          4
   128          9
   129          3
   130          1
   131          5
   132          4
   133          1
   134          1
   135          1
   137          1
   138          1
   139         13
   140          1
   141          3
   142          1
   143          1
   144          3
   145          2
   146          1
   147          1
   149          1
   150          4
   151         11
   152         30
   153          6
   154          1
   155          1
   157          1
   158          3
   159          1
   160          9
   161          1
   162          1
   163         12
   164         17
   165        109
   166         24
   167         29
   168          4
   169          1
   171          1
   172          1
   173          1
   174          1
   175          1
   176         15
   177         11
   178         94
   179         53
   180         15
   181          3
   182          1
   183          1
   184          1
   186          1
   187          1
   188          1
   189         13
   190          6
   191         20
   192          6
   193         25
   194         16
   195          8
   196          1
   197          1
   201          1
   202          3
   203          2
   204          2
   205          5
   206          6
   207          2
   208          1
   209          2
   210          1
   216          1
   217          3
   218          1
   219          1
   220          2
   222          4
   223          4
   224        165
   225         27
   226          3
   227          1
   228          1
   230          1
   231          1
   232          1
   233          1
   234          1
   235          1
   236         11
   237          2
   238          1
   239          1
   240          1
   248          3
   249          1
   250          1
   251          9
   252          1
   262          1
   263          1
   264          1
   266          1
   275          1
   276          1
   278          1
   293          1
   294          1
   295          9
   296          2
   297          1