##TITLE=Library Entry 52507
##JCAMP-DX=Revision 4.10 
##DATA TYPE=MASS SPECTRUM
##SAMPLE DESCRIPTION=H.Maurer, J.Chromatogr.,530,307(1990)
##NAMES=HP
##CAS NAME=Ethypicone
##MOLFORM=C10H15NO2
##CAS REGISTRY NO=467-90-3
##MP= -300
##BP= -300
##MW= 181
##$RETENTION INDEX=1541
##$CONDENSED SPECTRUM=NO
##NPOINTS= 37
##XYDATA=(XY..XY) 1 
    51         15
    52         18
    53         96
    54        136
    55        636
    56         74
    58          4
    65         11
    66          4
    67         29
    68         15
    69        110
    70         29
    71          4
    74          4
    77          7
    79          7
    80         26
    81         15
    82         40
    83        999
    84        471
    85         22
    94         11
    96         15
    97         29
    98        298
    99          7
   110         62
   138        143
   139          7
   152        121
   153        562
   154         29
   166        463
   167         37
   181         40