##TITLE=Library Entry 89616
##JCAMP-DX=Revision 4.10 
##DATA TYPE=MASS SPECTRUM
##SAMPLE DESCRIPTION=AAFS Toxicology Section MS DB Committee, U. Alberta, Ca
nada
##NAMES=HP
##CAS NAME=Dipipanone
##MOLFORM=C24H31NO
##CAS REGISTRY NO=467-83-4
##MP= -300
##BP= -300
##MW= 349
##$RETENTION INDEX=2473
##$CONDENSED SPECTRUM=NO
##NPOINTS= 125
##XYDATA=(XY..XY) 1 
    29         56
    30          8
    39          4
    40          1
    41         44
    42         15
    44         18
    51          3
    53          4
    54          5
    55         21
    56         37
    57         31
    58          9
    59          1
    65          3
    67          3
    68          6
    69         30
    70          5
    71          1
    72          1
    73          2
    74          1
    75          1
    76          2
    77          8
    78          2
    79          1
    80          3
    81          2
    82          6
    83          5
    84         11
    85          2
    87          1
    89          2
    91         27
    92          3
    94          1
    95          1
    96         20
    97          3
    98          1
    99          1
   101          1
   102          3
   103          5
   105          5
   106          2
   108          2
   109          2
   110         26
   111         10
   112        999
   113         79
   114          4
   115         16
   116          4
   117         11
   118          2
   119          1
   120          1
   121          1
   123          2
   124          5
   125          9
   126          3
   127          4
   128          7
   129          9
   130          2
   131          1
   133          2
   134          1
   135          1
   137          1
   139          3
   141          1
   142          1
   145          2
   147          2
   149          1
   151          3
   152          7
   153          2
   160          1
   163          1
   164          3
   165         19
   166          4
   167          4
   168          1
   169          1
   176          3
   177          1
   178         12
   179          7
   180          3
   189          3
   190          1
   191          3
   192          2
   193          2
   194          2
   195          4
   205          2
   207         17
   208          6
   209          1
   210          2
   211          1
   221          3
   223          8
   224          2
   249          1
   264          1
   265          1
   267          1
   281          3
   282          1
   283          1
   334         14
   335          4
   349          3