##TITLE=Library Entry 91081
##JCAMP-DX=Revision 4.10 
##DATA TYPE=MASS SPECTRUM
##SAMPLE DESCRIPTION=Finnigan MAT: Toxicological Library (LIBR-TX)
##NAMES=HP
##CAS NAME=Phenadoxone
##MOLFORM=C23H29NO2
##CAS REGISTRY NO=467-84-5
##MP= -300
##BP= -300
##MW= 351
##$RETENTION INDEX=2516
##$CONDENSED SPECTRUM=NO
##NPOINTS= 19
##XYDATA=(XY..XY) 1 
    41         18
    42         45
    55         18
    56         52
    57         39
    70         50
    91         32
   105          9
   112         10
   114        999
   115         76
   117         10
   127          9
   128          9
   129          9
   165         10
   178          9
   223         10
   336          9