##TITLE=Library Entry 63993
##JCAMP-DX=Revision 4.10 
##DATA TYPE=MASS SPECTRUM
##SAMPLE DESCRIPTION=K. Kirk, LC, NIDDK, NIH, Bethesda, MD 20892
##NAMES=HP
##CAS NAME=Benzeneethanamine, N-phenylacetyl-4,3',4'-tribenzyloxy-3-methoxy-
##MOLFORM=C38H37NO5
##CAS REGISTRY NO=4672-97-3
##MP= -300
##BP= -300
##MW= 587
##$RETENTION INDEX=0
##$CONDENSED SPECTRUM=NO
##NPOINTS= 142
##XYDATA=(XY..XY) 1 
    41          6
    42          2
    43          3
    44          6
    45          3
    49          4
    50          9
    51         13
    52          5
    53          1
    55          2
    56          2
    58         26
    59          0
    60          0
    61          3
    62          7
    63         19
    64          3
    65         86
    66          5
    69         70
    71          0
    72          4
    74          1
    76          2
    77         13
    78          5
    79          5
    81          2
    83          2
    84          4
    85          2
    86          3
    88          1
    89         21
    91        999
    92         69
    93          5
    94          2
    95          0
    96          1
   100         11
   103          5
   104          1
   105         10
   106          5
   107          5
   108          2
   114          3
   115          1
   119         10
   120          3
   121          5
   122          3
   123         11
   124          0
   127          1
   129          3
   131         30
   132          0
   134          5
   135          5
   136          1
   137         41
   138          3
   141          1
   148          1
   149         42
   150         24
   151          8
   152          3
   153          0
   155          0
   164          2
   165         10
   166          9
   167          7
   168          2
   169          4
   170          0
   172          0
   178          4
   179          9
   180          8
   181         57
   182         10
   183          1
   186          6
   194          2
   195          4
   196          0
   197          3
   198          0
   206          1
   208          0
   210          0
   211         11
   212          3
   213          3
   219         50
   220          0
   224          1
   225          6
   226          1
   227          9
   228          3
   238          0
   239         12
   240        133
   241         26
   242          2
   255          0
   256          7
   257          2
   258          0
   264         13
   271          1
   283          0
   284          1
   301          2
   317          0
   328          1
   329          1
   330          9
   331          2
   341          5
   342          1
   346          1
   347          6
   348          1
   414          7
   426          1
   432          1
   438          1
   464          4
   478          1
   496          4
   497          1
   502          9
   587          5
   588          2