##TITLE=Library Entry 65474
##JCAMP-DX=Revision 4.10 
##DATA TYPE=MASS SPECTRUM
##SAMPLE DESCRIPTION=Philip Morris R&D
##NAMES=HP
##CAS NAME=Pyridine, 3-propyl-
##MOLFORM=C8H11N
##CAS REGISTRY NO=4673-31-8
##MP= -300
##BP= -300
##MW= 121
##$RETENTION INDEX=1027
##$CONDENSED SPECTRUM=NO
##NPOINTS= 65
##XYDATA=(XY..XY) 1 
    36          0
    37          3
    38          8
    39         73
    40          8
    41         12
    42          2
    43          1
    44          1
    45          1
    46          1
    47          0
    48          0
    49          3
    50         11
    51         27
    52         17
    53          8
    54          2
    55          0
    56          0
    59          2
    60          0
    61          2
    62          5
    63         20
    64         12
    65        151
    66         18
    67          4
    68          0
    73          0
    74          1
    75          2
    76          1
    77         14
    78         14
    79         20
    80          7
    81          0
    85          0
    86          0
    87          0
    88          0
    89          1
    90          1
    91         13
    92        999
    93        144
    94          8
   103          0
   104          7
   105          3
   106         61
   107          4
   108          0
   114          0
   116          0
   117          5
   118          8
   119          2
   120         43
   121        683
   122         68
   123          2