##TITLE=Library Entry 77862
##JCAMP-DX=Revision 4.10 
##DATA TYPE=MASS SPECTRUM
##SAMPLE DESCRIPTION=A.A.Kutin, Moscow, Russia
##NAMES=HP
##CAS NAME=Propanedioic acid, 2-bromo-2-(2-nitro-1-phenylethyl)-, dimethyl e
ster
##MOLFORM=C13H14BrNO6
##CAS REGISTRY NO=4674-93-5
##MP= -300
##BP= -300
##MW= 359
##$RETENTION INDEX=0
##$CONDENSED SPECTRUM=NO
##NPOINTS= 218
##XYDATA=(XY..XY) 1 
    33         17
    34          7
    36          2
    37          5
    39        228
    40        107
    41         42
    42         14
    43         53
    44         49
    45         63
    46         22
    47          5
    50        100
    51        214
    52         52
    53         51
    55         45
    56          6
    57         27
    59        526
    61         19
    62         37
    63        119
    64         25
    65        117
    66         19
    67         11
    68         17
    69         27
    70          6
    71          6
    72          2
    74         42
    75         64
    76         64
    77        228
    78        158
    79         33
    80         20
    81         12
    82         18
    83          7
    84          2
    85          5
    86          9
    87         18
    88         19
    89        117
    91        277
    92         32
    93         13
    94          4
    95          8
    96          1
    97          3
    98         13
    99          4
   101         43
   102        151
   103        255
   104        999
   105        131
   106          8
   107          8
   108          2
   109          3
   110          1
   111          2
   113         22
   115        715
   116        162
   117         60
   118         17
   119         22
   120         12
   121         68
   122          7
   123          3
   125          4
   126          1
   127         11
   128         23
   129        100
   130         39
   131         99
   132         20
   133          8
   134          4
   135         34
   136          4
   137          3
   139          4
   140          0
   142         17
   143         34
   144         61
   145        220
   146         35
   147         12
   148          3
   149          9
   150         52
   151          8
   152          1
   153          5
   155          6
   156          2
   157         12
   158         14
   159         21
   160         14
   161         16
   162          3
   163          0
   165          0
   168          0
   169          4
   170         41
   171         35
   173        192
   174         65
   175         90
   176         12
   177          6
   178         11
   179          4
   180         12
   181          6
   182          1
   183          5
   185          2
   186         18
   187         18
   188          4
   189         11
   190          2
   191          1
   193         13
   195         13
   196          1
   197          0
   198          1
   199          0
   200          1
   201         20
   202         52
   203         10
   204          1
   205          3
   206          0
   207          0
   208          0
   209          3
   210         23
   212         26
   213          1
   214          1
   216         19
   217          3
   218          6
   219          6
   221         17
   222          7
   223         15
   224          7
   225          3
   226          1
   227          1
   228          0
   230         28
   231         12
   233        762
   234        111
   235         16
   236          2
   237          1
   238          0
   239          2
   240          0
   241          0
   244          0
   245          0
   246          1
   247         24
   248         94
   249         21
   250          3
   251          9
   252          1
   253          4
   254          0
   255          3
   256          0
   257          0
   262          2
   269          0
   271          0
   280         32
   281          7
   282          0
   283          3
   284          0
   294          1
   296          7
   297          0
   298          6
   299          0
   313          2
   314          0
   315          2
   316          0
   328          1
   330          1
   359          6
   360          0
   361          6
   362          0