##TITLE=Library Entry 10081
##JCAMP-DX=Revision 4.10 
##DATA TYPE=MASS SPECTRUM
##SAMPLE DESCRIPTION=Institute of Organic Chemistry, Novosibirsk, USSR 1988
##NAMES=HP
##CAS NAME=Methyl 16-acetoxyheptadecanoate
##MOLFORM=C20H38O4
##CAS REGISTRY NO=4675-59-6
##MP= -300
##BP= -300
##MW= 342
##$RETENTION INDEX=0
##$CONDENSED SPECTRUM=NO
##NPOINTS= 156
##XYDATA=(XY..XY) 1 
    38         17
    41        213
    42         42
    43        999
    44         27
    53          8
    54         42
    55        382
    56         76
    57        106
    58         32
    59         47
    60          9
    61         39
    67        107
    68         78
    69        274
    70         12
    71         60
    73         12
    74        403
    75        100
    79         23
    80          7
    81         47
    82        115
    83        232
    84        156
    85         13
    86         15
    87        443
    88         33
    91          9
    93          7
    94         23
    95         75
    96        178
    97        238
    98        252
    99         29
   100         17
   101         49
   102          8
   103         15
   108         11
   109         50
   110         39
   111        119
   112         62
   113         18
   114         30
   115         48
   116         13
   117         10
   119         10
   121          9
   124          8
   125         59
   126         16
   127         18
   128         35
   129         27
   130         36
   133          9
   134         19
   135         30
   137         31
   138         38
   139         52
   140         23
   141         61
   142         10
   143         63
   144         16
   147          8
   148         10
   149         16
   150         17
   151         42
   152         74
   153         32
   154         22
   157         23
   158         11
   161          9
   162          6
   163         17
   164          8
   165         22
   166         72
   167         26
   168         15
   171         10
   172          9
   175         10
   179          9
   180         13
   181         12
   182         15
   183          7
   185         10
   186          9
   189          3
   190          6
   191         23
   193          9
   194          8
   195          6
   197          8
   199         22
   200         16
   205          3
   206         25
   207          4
   208        111
   209         59
   210          6
   211          9
   212          6
   213          9
   221          6
   222         19
   223         20
   224          7
   225          6
   227          5
   232         22
   233          9
   234          5
   236         16
   239          7
   240         19
   241         30
   242         13
   243          5
   250        270
   251        156
   252         13
   253         23
   254         10
   255         10
   256         12
   267         92
   268          8
   276          6
   282         38
   283         17
   284          6
   285          7
   286          6
   296          5
   297         15
   298         10
   299         10
   300          4
   327          3