##TITLE=Library Entry 10200
##JCAMP-DX=Revision 4.10 
##DATA TYPE=MASS SPECTRUM
##SAMPLE DESCRIPTION=TAT 1102 1
##NAMES=HP
##CAS NAME=Cyclopropa[d]naphthalen-2(4aH)-one, 1,1a,5,6,7,8-hexahydro-4a,8,8
-trimethyl-, [1aR-(1a.alpha.,4a.beta.,8aS*)]-
##MOLFORM=C14H20O
##CAS REGISTRY NO=4677-90-1
##MP= -300
##BP= -300
##MW= 204
##$RETENTION INDEX=1992
##$CONDENSED SPECTRUM=NO
##NPOINTS= 54
##XYDATA=(XY..XY) 1 
    43        999
    44         80
    45        240
    51        200
    52        120
    53        320
    54         80
    55        680
    56         80
    63         80
    65        240
    66         80
    67        280
    69        320
    77        400
    78        160
    79        400
    80        120
    81        240
    82        160
    83        200
    91        720
    92        160
    93        280
    94        200
    95        200
    96        120
   103         80
   105        440
   106        200
   107        520
   108        200
   109        120
   115        120
   116         80
   117        120
   119        240
   120        200
   121        280
   122        400
   123        240
   131         80
   133        240
   134        240
   135        280
   136        160
   147        200
   148        160
   149         80
   161        240
   162         80
   176        120
   189        200
   204        160