##TITLE=Library Entry 9561
##JCAMP-DX=Revision 4.10 
##DATA TYPE=MASS SPECTRUM
##SAMPLE DESCRIPTION=CARL DJERASSI DEPT OF CHEM STANFORD UNIV STANFORD CALIF
 94305
##NAMES=HP
##CAS NAME=Spiro[5.alpha.-androstane-3,2'-thiazolidine], 3'-acetyl-
##MOLFORM=C23H37NOS
##CAS REGISTRY NO=4678-96-0
##MP= -300
##BP= -300
##MW= 375
##$RETENTION INDEX=0
##$CONDENSED SPECTRUM=NO
##NPOINTS= 192
##XYDATA=(XY..XY) 1 
    41        400
    42        110
    43        999
    44        145
    45         85
    46         10
    47          5
    51         10
    53        120
    54         65
    55        330
    56         55
    57         30
    58         25
    59         65
    60        100
    61        260
    62          5
    63         10
    65         40
    66         15
    67        275
    68         70
    69        105
    70         90
    71         20
    72         20
    73         25
    76         10
    77        100
    78         35
    79        200
    80         65
    81        500
    82        115
    83         50
    84         20
    85         15
    86        315
    87         50
    88         40
    91        160
    92         30
    93        190
    94         55
    95        295
    96         75
    97         30
    98         10
    99         30
   100         15
   101        180
   102         70
   103         45
   104         10
   105        110
   106         45
   107        135
   108         65
   109         85
   110         25
   111         65
   112        105
   113         70
   114        395
   115        130
   116         40
   117         30
   118         30
   119         95
   120         80
   121         65
   122         45
   123         50
   124         35
   125         30
   126          5
   127         50
   128         85
   129         55
   130         40
   131         35
   132         10
   133         35
   134         15
   135         45
   136         20
   137         25
   138         30
   139         15
   140        170
   141         25
   142         25
   143         45
   144         15
   145         25
   146          5
   147         25
   148         15
   149         40
   150         20
   151         15
   152         15
   153         10
   154         20
   155          5
   156        415
   157        245
   158         55
   159         30
   160         10
   161         30
   162         10
   163         20
   164          5
   165          5
   166          5
   167          5
   168         15
   169        115
   170         20
   171         20
   172         20
   173         10
   175         30
   176         10
   177         10
   180         20
   181          5
   182        245
   183         30
   184         15
   185          5
   189         45
   190          5
   194          5
   199          5
   201          5
   202          5
   203         15
   204         10
   208         20
   210         20
   211          5
   216          5
   219          5
   224          5
   241         20
   249         15
   251         10
   255         10
   256         85
   257        155
   258         35
   259          5
   272         20
   273          5
   274         25
   275          5
   276          5
   278          5
   280         25
   284          5
   286        315
   287         75
   288         25
   289        235
   290         65
   291         20
   299          5
   300         40
   301          5
   304         10
   313        110
   314         85
   315        270
   316         55
   317         25
   318          5
   328         30
   329          5
   332        130
   333         35
   334         10
   342         15
   346         10
   360         55
   361         15
   374         10
   375        500
   376        130
   377         35