##TITLE=Library Entry 86277
##JCAMP-DX=Revision 4.10 
##DATA TYPE=MASS SPECTRUM
##SAMPLE DESCRIPTION=NIST Mass Spectrometry Data Center
##NAMES=HP
##CAS NAME=1-Naphthalenepentanoic acid, 1,4,4a,5,6,7,8,8a-octahydro-.beta.,2
,5,5,8a-pentamethyl-
##MOLFORM=C20H34O2
##CAS REGISTRY NO=468-82-6
##MP= -300
##BP= -300
##MW= 306
##$RETENTION INDEX=2335
##$CONDENSED SPECTRUM=NO
##NPOINTS= 162
##XYDATA=(XY..XY) 1 
    27         21
    29         54
    31          6
    38          1
    39         50
    40         10
    41        321
    42         32
    43        141
    44          6
    45         53
    47          1
    51         10
    52          5
    53         83
    54         12
    55        340
    56         36
    57         44
    58          3
    59         31
    60         39
    63          3
    64          2
    65         44
    66         16
    67        202
    68        180
    69        353
    70         34
    71         48
    72          6
    73         43
    76          2
    77        123
    78         22
    79        210
    80         73
    81        380
    82        128
    83         79
    84         11
    85         22
    86          2
    87         14
    88          2
    89          3
    90          2
    91        196
    92         34
    93        203
    94         77
    95        427
    96         66
    97         55
    98          7
    99         10
   100          3
   101          8
   102          3
   103         19
   104         10
   105        156
   106         36
   107        272
   108         65
   109        999
   110        104
   111         41
   112          8
   113         30
   114          5
   115         35
   116         12
   117         41
   118         12
   119        141
   120         46
   121        197
   122        786
   123        401
   124        353
   125         48
   126         29
   127         16
   128         15
   129         15
   130          8
   131         26
   132          7
   133         52
   134         14
   135        105
   136         59
   139          6
   140          4
   141          9
   142          5
   143          7
   144          3
   145         13
   146          6
   147         24
   148          6
   149         65
   150         24
   153         68
   154          9
   155          4
   159         17
   160          3
   161         15
   163         29
   164         20
   165          9
   167         14
   168          6
   169          4
   173          8
   175         14
   179          3
   181          6
   182        594
   183         79
   184          8
   189         16
   191        272
   192         42
   193          6
   195         22
   196          5
   203         10
   207          5
   209         15
   210          7
   213          2
   219          3
   221         29
   222          9
   223          5
   224          7
   229          1
   233          3
   234          1
   235         16
   236         11
   237          8
   247          2
   249          5
   250         27
   251         11
   252          2
   262          1
   263         20
   275          2
   289          6
   291        130
   292         30
   305          2
   306        101
   307         21
   308          2