##TITLE=Library Entry 36852
##JCAMP-DX=Revision 4.10 
##DATA TYPE=MASS SPECTRUM
##SAMPLE DESCRIPTION=DB-25-6
##NAMES=HP
##CAS NAME=Lupulon
##MOLFORM=C26H38O4
##CAS REGISTRY NO=468-28-0
##MP= -300
##BP= -300
##MW= 414
##$RETENTION INDEX=0
##$CONDENSED SPECTRUM=NO
##NPOINTS= 253
##XYDATA=(XY..XY) 1 
    41        740
    42         50
    43        190
    44         50
    45         10
    46         10
    50         10
    51         20
    52         10
    53        100
    54         20
    55        120
    56         30
    57        160
    58         10
    63         10
    65         50
    66         30
    67        100
    68         70
    69        999
    70        100
    71         40
    74         10
    77         50
    78         20
    79         70
    80         20
    81         90
    82         30
    83         50
    84         10
    85         90
    86         10
    87         10
    89         10
    91         70
    92         20
    93         50
    94         20
    95         70
    96         20
    97         20
   103         10
   104         10
   105         40
   106         10
   107         50
   108         10
   109        120
   110         20
   111         10
   115         30
   116         10
   117         20
   118         10
   119         30
   120         10
   121         40
   122         10
   123         40
   124         20
   127         20
   128         20
   129         20
   130         10
   131         20
   132         10
   133         20
   134         10
   135         60
   136         30
   137         30
   138         30
   139         10
   141         10
   142         10
   143         10
   144         10
   145         30
   146         10
   147         30
   148         10
   149         40
   150         20
   151         30
   152         10
   153         10
   155         10
   157         10
   158         10
   159         20
   160         10
   161         30
   162         10
   163         50
   164         10
   165         60
   166         10
   167         10
   171         10
   173         10
   174         20
   175         30
   176         10
   177        160
   178         20
   179         30
   181         10
   182         10
   183         10
   185         10
   187         20
   188         10
   189         70
   190         20
   191         40
   192         10
   193         20
   194         10
   195         10
   197         10
   198         10
   199         20
   200         10
   201         30
   202         10
   203         40
   204         10
   205        100
   206         30
   207         50
   208         10
   209         20
   210         10
   211         10
   213         20
   214         10
   215         20
   216         10
   217         70
   218         20
   219         70
   220         30
   221         70
   222         10
   223         40
   224         10
   225         10
   227         20
   228         10
   229         40
   230         10
   231         50
   232         20
   233        120
   234         60
   235         90
   236         20
   237         10
   238         10
   239         10
   241         20
   242         20
   243         30
   244         10
   245         30
   246         10
   247        100
   248         30
   249         30
   253         10
   255         20
   256         10
   257         30
   258         10
   259         70
   260         30
   261         90
   262         30
   263         90
   264         20
   265         10
   267         10
   269         10
   271         50
   272         20
   273         80
   274         30
   275        310
   276         70
   277        500
   278        120
   279         20
   283         10
   285         20
   286         10
   287         20
   288         20
   289        760
   290        220
   291        190
   292         50
   293         10
   294         10
   297         10
   299         10
   301         20
   302         10
   303         40
   304         10
   311         10
   313         20
   314         10
   315         20
   316         20
   317         20
   318         10
   327         40
   328         20
   329        120
   330         50
   331        100
   332         40
   333         10
   341         10
   342         10
   343         50
   344         70
   345        410
   346        210
   347         50
   348         10
   353         10
   355         10
   357         10
   358         10
   359         10
   371         10
   384         10
   386         10
   394         10
   396         10
   397         10
   398         10
   399         10
   400         30
   401         10
   412         50
   413         30
   414        170
   415         60
   416         10