##TITLE=Library Entry 56381
##JCAMP-DX=Revision 4.10 
##DATA TYPE=MASS SPECTRUM
##SAMPLE DESCRIPTION=NIST Mass Spectrometry Data Center, 1998.
##NAMES=HP
##CAS NAME=Oxeladin
##MOLFORM=C20H33NO3
##CAS REGISTRY NO=468-61-1
##MP= -300
##BP= -300
##MW= 335
##$RETENTION INDEX=0
##$CONDENSED SPECTRUM=NO
##NPOINTS= 105
##XYDATA=(XY..XY) 1 
    15          1
    26          1
    27         10
    28         17
    29         30
    30         41
    31          2
    39          7
    40          1
    41         24
    42         38
    43         21
    44         56
    45         14
    50          1
    51          6
    52          2
    53          4
    54          4
    55          6
    56         45
    57         28
    58         91
    59          5
    60          1
    63          3
    65          9
    66          1
    67          2
    68          2
    69          8
    70         16
    71         13
    72         27
    73         11
    74          1
    75          1
    76          2
    77         19
    78          8
    79         12
    80          1
    82          1
    83          1
    84         19
    85          1
    86        999
    87        139
    88          5
    89          4
    90          2
    91        200
    92         16
    93          1
    96          1
    98          4
    99          3
   100         50
   101          9
   102          5
   103         32
   104          5
   105        134
   106         12
   107          2
   113          1
   114          5
   115         34
   116         11
   117         61
   118         13
   119          3
   127          2
   128          5
   129          3
   130          5
   131          6
   132          3
   133          1
   141          1
   142          2
   144         91
   145         11
   146         10
   147         21
   148          3
   149          3
   159          1
   160          1
   175          7
   176          1
   189          1
   190          1
   191          1
   219          6
   220          1
   276          1
   290          1
   292          1
   306          2
   320         18
   321          4
   334          6
   335          2
   336          1