##TITLE=Library Entry 96152
##JCAMP-DX=Revision 4.10 
##DATA TYPE=MASS SPECTRUM
##SAMPLE DESCRIPTION=LAC, NIDDK, NIH, Bethesda, MD 20892
##NAMES=HP
##CAS NAME=Cholest-5-ene-16,22-dione, 3,26-dihydroxy-, (3.beta.,25R)-
##MOLFORM=C27H42O4
##CAS REGISTRY NO=468-99-5
##MP= -300
##BP= -300
##MW= 430
##$RETENTION INDEX=0
##$CONDENSED SPECTRUM=NO
##NPOINTS= 233
##XYDATA=(XY..XY) 1 
    41        422
    43        485
    45        210
    46          2
    50          1
    51          9
    53        101
    55        635
    57        339
    58         16
    59         17
    60          1
    61          1
    63          4
    65         48
    67        181
    69        610
    70         18
    71         83
    73        169
    74          7
    75          0
    77         90
    79        131
    81        125
    82         63
    84        153
    85         64
    86          5
    87          3
    89          1
    91        187
    93        190
    95        200
    97        369
    98         16
    99          8
   100          1
   101          1
   103         23
   105        277
   106         26
   107        124
   108         27
   109         35
   110          9
   111         19
   112          8
   113         12
   115        999
   116         71
   117         70
   118         21
   119         46
   120         66
   121         65
   122         21
   123         36
   124         35
   125         33
   126         13
   128         27
   129         40
   131         85
   133        114
   134         14
   135         57
   136         16
   137         15
   139        213
   140         22
   141         17
   143         85
   145        137
   146         15
   147         62
   148         11
   149         11
   151         14
   152          7
   153          6
   155         28
   156         20
   157         71
   158         30
   159         48
   160         14
   161         20
   162         13
   163         15
   164         13
   165         17
   166         14
   167          8
   169         16
   171         37
   172         21
   173         38
   174         16
   175         24
   176          8
   177         26
   178          2
   179          3
   180         16
   181         10
   183         24
   185         44
   187         36
   188          2
   189          9
   190          4
   191          4
   192          2
   193          2
   194          1
   195          7
   197         13
   198         57
   199         49
   200          8
   201          6
   203          9
   204          8
   205          9
   206          2
   207          2
   209          5
   211         11
   213         86
   214         74
   215         51
   216         17
   217         16
   218          5
   219          0
   221          1
   223          4
   225         11
   226          2
   227         14
   229         20
   231         29
   232         14
   233          4
   234          1
   235          2
   237          5
   239         12
   241          5
   243          5
   244          4
   245          2
   246          2
   247          1
   249          2
   251          2
   254         20
   255          8
   256          7
   257          5
   258          3
   259          2
   263          0
   265         22
   266          2
   267          6
   269          7
   270          1
   271          3
   273         13
   274          1
   275          2
   279          4
   280          9
   283         35
   284          5
   285          1
   286          1
   287          5
   288          1
   289          2
   295          1
   298         91
   301        143
   302         20
   303          3
   307          2
   309          0
   313          1
   315         50
   316        778
   320          0
   321          0
   325          8
   327          4
   329          2
   337          1
   338          1
   339          2
   341          1
   343        154
   345          2
   351          0
   354          2
   355          2
   356          1
   358         13
   359          1
   361          1
   367          0
   369          2
   371          5
   376          0
   379          6
   381          0
   382          1
   383          1
   385          8
   386          0
   394         38
   395         19
   397         36
   399         12
   400          8
   411          2
   412         77
   413         66
   414         23
   415         13
   430         16
   431          5
   432          0