##TITLE=Library Entry 15546
##JCAMP-DX=Revision 4.10 
##DATA TYPE=MASS SPECTRUM
##SAMPLE DESCRIPTION=Exported from NIST MS Search
##NAMES=HP
##CAS NAME=Pregn-5-en-18-ol, 3,20-diamino-, (3.beta.,20S)-
##MOLFORM=C21H36N2O
##CAS REGISTRY NO=468-31-5
##MP= -300
##BP= -300
##MW= 332
##$RETENTION INDEX=0
##$CONDENSED SPECTRUM=NO
##NPOINTS= 80
##XYDATA=(XY..XY) 1 
    41         60
    42         30
    43         50
    44        999
    45         20
    53         20
    55         60
    56        750
    57         70
    58         10
    59         40
    65         10
    67         50
    69         20
    70         50
    77         20
    78         10
    79         70
    80         10
    81         50
    82         40
    83         10
    92        100
    93         20
    94         50
    95         30
    96         40
    97         10
   103         10
   104         10
   105         50
   106         30
   107         40
   108         10
   109         10
   115         10
   116         20
   117         10
   118         60
   119         40
   120         40
   121         10
   128         10
   130         30
   131         10
   132         30
   133         10
   134         10
   140         10
   141         10
   142         20
   143         10
   144         20
   145         10
   151         10
   156         10
   158         20
   159         20
   160         10
   170         10
   229         20
   230         10
   240         50
   241         20
   257         20
   258         80
   259         30
   260         20
   261         10
   270         20
   272         30
   273         20
   285         30
   286         10
   287         10
   289        220
   290         50
   291         20
   301         30
   332         20