##TITLE=Library Entry 38107
##JCAMP-DX=Revision 4.10 
##DATA TYPE=MASS SPECTRUM
##SAMPLE DESCRIPTION=Exported from NIST MS Search
##NAMES=HP
##CAS NAME=23-Norcon-5-enin-3-amine, N-methyl-, (3.beta.)-
##MOLFORM=C22H36N2
##CAS REGISTRY NO=468-41-7
##MP= -300
##BP= -300
##MW= 328
##$RETENTION INDEX=0
##$CONDENSED SPECTRUM=NO
##NPOINTS= 52
##XYDATA=(XY..XY) 1 
    55         80
    56        100
    57        400
    58         80
    65         10
    67         20
    68         10
    69         10
    70        999
    71         80
    77         30
    78         10
    79         30
    80         20
    81         20
    82         20
    83         10
    84         10
    91         50
    92         10
    93         20
    94         20
    95         20
    96         10
   105         20
   106         10
   107         10
   108         10
   117         10
   118         20
   119         10
   120         10
   121         10
   127         10
   128         10
   130         10
   132         10
   145         10
   154         10
   241         20
   243         10
   257         10
   258         10
   259        600
   260        130
   261         10
   272         20
   313         30
   314         10
   327         20
   328         50
   329         10