##TITLE=Library Entry 34250
##JCAMP-DX=Revision 4.10 
##DATA TYPE=MASS SPECTRUM
##SAMPLE DESCRIPTION=RE-123-3
##NAMES=HP
##CAS NAME=1,2,4-Cyclopentanetrione, 3,3-bis(3-methyl-2-butenyl)-5-(3-methyl
-1-oxobutyl)-
##MOLFORM=C20H28O4
##CAS REGISTRY NO=468-62-2
##MP= -300
##BP= -300
##MW= 332
##$RETENTION INDEX=2124
##$CONDENSED SPECTRUM=NO
##NPOINTS= 165
##XYDATA=(XY..XY) 1 
    27         81
    28          6
    29        142
    39        110
    40         20
    41        979
    42         49
    43        240
    44         16
    51         20
    52         12
    53        138
    54         14
    55        163
    56         24
    57        383
    58         14
    59         16
    63          2
    65         40
    66         20
    67         97
    68         30
    69        999
    70         57
    71         36
    73         12
    77         67
    78        134
    79         36
    80        112
    81         20
    82         81
    83         30
    84        161
    85          4
    91         81
    92         14
    93         59
    94         24
    95         83
    96         16
    97         24
    98          6
    99          4
   103         12
   105         53
   106          4
   107         79
   108         32
   109        157
   110         46
   111         36
   113          2
   115         16
   116          2
   117         14
   119         61
   120         10
   121         12
   122         18
   123        161
   124         32
   125         16
   126          4
   127         26
   128          8
   129         10
   131         14
   133         32
   134          4
   135         65
   136         20
   137         49
   141          4
   143          4
   145         16
   146          6
   147         30
   148         10
   149         44
   150         12
   151         87
   152         59
   153         16
   155          2
   157         16
   159         16
   160          4
   161         67
   162         22
   163         57
   164         24
   165         46
   166         12
   167         16
   171          2
   173         18
   174         14
   175         34
   176         10
   177         42
   178         20
   179         83
   180         16
   185          2
   187         24
   188         12
   189         61
   190         57
   191         81
   192         40
   193         57
   194         20
   195         57
   196         18
   199         14
   204         63
   205         53
   206         24
   207        118
   208         65
   209        110
   210         59
   215          8
   217         32
   219         38
   220         12
   221         53
   222         28
   229         10
   230         30
   231         36
   233         67
   234          2
   235        224
   236         53
   243         20
   245         57
   246         30
   247         53
   248         65
   249        183
   250         36
   261         71
   262         14
   263        200
   264        128
   265         57
   271         36
   276         28
   286          8
   287         14
   289        167
   290         26
   299         12
   304        171
   305         34
   314         20
   315          8
   317         30
   318         10
   331         55
   332        136
   333         16