##TITLE=Library Entry 39394
##JCAMP-DX=Revision 4.10 
##DATA TYPE=MASS SPECTRUM
##SAMPLE DESCRIPTION=HOME OFFICE, CENTRAL RES. EST., ALDERMASTON, BERKS., U.
K.
##NAMES=HP
##CAS NAME=Hydroxypethidine
##MOLFORM=C15H21NO3
##CAS REGISTRY NO=468-56-4
##MP= -300
##BP= -300
##MW= 263
##$RETENTION INDEX=2045
##$CONDENSED SPECTRUM=NO
##NPOINTS= 46
##XYDATA=(XY..XY) 1 
    39         54
    41         54
    42        297
    43        189
    44        297
    53         54
    56         27
    57        297
    58         81
    65         81
    70        702
    71        999
    72         54
    77         27
    80         54
    91        108
    94         27
    97        108
    99         27
   102         27
   107         54
   119        108
   127         27
   133        297
   134        189
   140        864
   141        162
   142         54
   144        189
   145         27
   147        135
   149         27
   156         81
   160         27
   174         54
   180        189
   188        189
   189        378
   190        189
   218         81
   234        189
   235         54
   248         54
   262        513
   263        540
   264        108