##TITLE=Library Entry 22718
##JCAMP-DX=Revision 4.10 
##DATA TYPE=MASS SPECTRUM
##SAMPLE DESCRIPTION=Finnigan MAT: Toxicological Library (LIBR-TX)
##NAMES=HP
##CAS NAME=Viloxazine
##MOLFORM=C13H19NO3
##CAS REGISTRY NO=46817-91-8
##MP= -300
##BP= -300
##MW= 237
##$RETENTION INDEX=1861
##$CONDENSED SPECTRUM=NO
##NPOINTS= 21
##XYDATA=(XY..XY) 1 
    41        108
    42         77
    56        999
    57        168
    58         49
    65         39
    70        128
    81         49
    86         90
    98         29
   100        752
   101         39
   109         47
   110        200
   111         10
   121         21
   138        394
   139         28
   222         10
   237        131
   238         30