##TITLE=Library Entry 22089
##JCAMP-DX=Revision 4.10 
##DATA TYPE=MASS SPECTRUM
##SAMPLE DESCRIPTION=M. VANDEWALLE
##NAMES=HP
##CAS NAME=1,3-Cyclopentanedione, 4,4-dimethyl-
##MOLFORM=C7H10O2
##CAS REGISTRY NO=4683-51-6
##MP= -300
##BP= -300
##MW= 126
##$RETENTION INDEX=0
##$CONDENSED SPECTRUM=NO
##NPOINTS= 13
##XYDATA=(XY..XY) 1 
    41        550
    42        120
    43         90
    55        110
    56        999
    69        100
    70         50
    71         10
    84         30
    97          5
   112         10
   126        300
   127         20