##TITLE=Library Entry 15130
##JCAMP-DX=Revision 4.10 
##DATA TYPE=MASS SPECTRUM
##SAMPLE DESCRIPTION=Japan AIST/NIMC Database- Spectrum MS-NW-3479
##NAMES=HP
##CAS NAME=L-Aspartic acid, N-glycyl-
##MOLFORM=C6H10N2O5
##CAS REGISTRY NO=4685-12-5
##MP= -300
##BP= -300
##MW= 190
##$RETENTION INDEX=0
##$CONDENSED SPECTRUM=NO
##NPOINTS= 110
##XYDATA=(XY..XY) 1 
    25          9
    26         50
    27        107
    28        243
    29         75
    30        483
    31         16
    32          5
    36          9
    37          7
    38         14
    39         36
    40         64
    41        140
    42        190
    43        169
    44        999
    45         57
    46         18
    50         11
    51         17
    52         22
    53         25
    54         53
    55        183
    56        120
    57         43
    58         19
    59         36
    60         71
    61          5
    63         11
    64         11
    65         25
    66         10
    67         23
    68         25
    69         40
    70        137
    71         31
    72         28
    73         10
    74          7
    77         20
    78         12
    79         13
    80         14
    81         13
    82         50
    83         43
    84         42
    85        109
    86         16
    87         16
    88         60
    89         19
    90          9
    91         89
    92         21
    93          7
    94          6
    95          8
    96         18
    97         30
    98         38
    99         43
   100         26
   101         47
   102          6
   105          8
   106          5
   107         22
   108         16
   109         10
   110         64
   111         76
   112        112
   113         74
   114         34
   115          8
   116          6
   123          8
   124         11
   125          9
   126        236
   127         40
   128          7
   129         20
   130          6
   135          8
   136         15
   137          8
   138         12
   139          7
   140          9
   149          7
   150          7
   151          9
   152          9
   153         19
   154        120
   155         19
   164          6
   165          7
   166          6
   167          9
   168          8
   171         15
   172        147
   173         17