##TITLE=Library Entry 66326
##JCAMP-DX=Revision 4.10 
##DATA TYPE=MASS SPECTRUM
##SAMPLE DESCRIPTION=O.KELLER THE TECHNICAL COLLEGE, ZURICH, SWITZERLAND
##NAMES=HP
##CAS NAME=Pentanamide, 4-hydroxy-4-methyl-N-phenyl-
##MOLFORM=C12H17NO2
##CAS REGISTRY NO=4685-97-6
##MP= -300
##BP= -300
##MW= 207
##$RETENTION INDEX=0
##$CONDENSED SPECTRUM=NO
##NPOINTS= 62
##XYDATA=(XY..XY) 1 
    18         15
    27         20
    28         55
    29         25
    31         20
    32         17
    38         10
    39         45
    40         14
    41         87
    42         22
    43        129
    44         31
    45         17
    51         24
    52         10
    53         14
    55         68
    56         25
    57         34
    58         12
    59         44
    63         10
    64         11
    65         52
    66         54
    67         24
    69         84
    70         32
    71         53
    72         15
    73         37
    77         53
    78         14
    81         13
    83         10
    84         10
    85         13
    91         19
    92         34
    93        999
    94        133
    95         13
    96         16
    97         45
    99        168
   100         12
   104         18
   105         15
   106         15
   120         11
   121         24
   132         14
   134         13
   148         15
   149         47
   174         14
   188         20
   189         15
   191         25
   207        106
   208         17