##TITLE=Library Entry 28433
##JCAMP-DX=Revision 4.10 
##DATA TYPE=MASS SPECTRUM
##SAMPLE DESCRIPTION=NIST Mass Spectrometry Data Center
##NAMES=HP
##CAS NAME=Doxylamine
##MOLFORM=C17H22N2O
##CAS REGISTRY NO=469-21-6
##MP= -300
##BP= -300
##MW= 270
##$RETENTION INDEX=1915
##$CONDENSED SPECTRUM=NO
##NPOINTS= 99
##XYDATA=(XY..XY) 1 
    15          4
    18          1
    27          6
    28          9
    29          9
    30         26
    39          8
    40          1
    41          5
    42         89
    43         41
    44         37
    45          6
    50          8
    51         45
    52         18
    53          6
    54          2
    55          3
    56         45
    57         30
    58        999
    59         56
    62          1
    63          7
    64          2
    65          5
    66          1
    70         20
    71        809
    72        115
    73          4
    74          2
    75          4
    76          7
    77         54
    78         61
    79         17
    80          5
    83          3
    86          6
    87          2
    88         40
    89          7
    90          4
    91          6
    92          1
    93          2
   101          2
   102          7
   103         11
   104         15
   105         15
   106         11
   107          1
   113          2
   114          2
   115          6
   116          1
   117          2
   122          6
   126          3
   127          7
   128          6
   129          1
   130          1
   133          2
   134          1
   139         10
   140          6
   141          2
   146          2
   150          1
   151          5
   152         18
   153          5
   154          6
   155          2
   156          4
   165          1
   166         20
   167        185
   168         29
   169          2
   177          1
   178          6
   179          5
   180        102
   181         49
   182        100
   183         46
   184          9
   194          1
   196          1
   198          4
   199          1
   200         16
   201          2
   212          1