##TITLE=Library Entry 87443
##JCAMP-DX=Revision 4.10 
##DATA TYPE=MASS SPECTRUM
##SAMPLE DESCRIPTION=H. Fales, LC, NHLBI, NIH, Bethesda, MD 20892
##NAMES=HP
##CAS NAME=Veratraman-11-one, 17,23-epoxy-3-hydroxy-, (3.beta.,23.beta.)-
##MOLFORM=C27H39NO3
##CAS REGISTRY NO=469-59-0
##MP= -300
##BP= -300
##MW= 425
##$RETENTION INDEX=3559
##$CONDENSED SPECTRUM=NO
##NPOINTS= 231
##XYDATA=(XY..XY) 1 
    41        128
    42         38
    43        100
    44         23
    45          5
    51          2
    53         32
    54         18
    55        107
    56         38
    57        190
    58         21
    59          2
    65         24
    66         14
    67         74
    68        227
    69         45
    70        102
    71         29
    72         14
    77         64
    78         19
    79        102
    80         33
    81         65
    82         74
    83        189
    84        238
    85         55
    86          6
    91        180
    92         30
    93         62
    94         32
    95         35
    96         69
    97         90
    98         21
    99          2
   100          2
   102          7
   103         24
   104         12
   105        141
   106         29
   107         94
   108         61
   109         41
   110        999
   111         83
   112        148
   113        317
   114        230
   115         56
   116         23
   117         64
   118         20
   119         67
   120         25
   121         49
   122         30
   123         21
   124        615
   125        717
   126        181
   127         24
   128         31
   129         48
   130         31
   131         78
   132         28
   133         43
   134         22
   135         23
   136         13
   137         12
   138          5
   139          9
   140         47
   141         31
   142         22
   143         31
   144         18
   145         82
   146         27
   147         39
   148         24
   149         32
   150         11
   151          7
   152         13
   153         14
   154         12
   155         20
   156         10
   157         25
   158         14
   159         29
   160         14
   161         26
   162         18
   163         15
   164         12
   165         19
   166          9
   167         28
   168         12
   169         18
   170         10
   171         21
   172         12
   173         20
   174         19
   175         76
   176         26
   177         10
   178         24
   179         41
   180         26
   181         15
   182          7
   183         14
   184          6
   185         17
   186         13
   187         24
   188         22
   189         16
   190         11
   191          9
   192          7
   193          9
   194          7
   195         11
   196          2
   197         11
   198          6
   199         11
   200          8
   201          8
   202          8
   203          7
   204          5
   205         10
   206          2
   207         11
   209         10
   210          4
   211         10
   212          3
   213          7
   214          4
   215          9
   216          2
   218         11
   219          3
   221          7
   222          2
   223          8
   225         10
   226          4
   227          7
   228          3
   229          4
   232         12
   233         63
   234         15
   235          7
   237          7
   239          9
   240          2
   241          7
   243         11
   247         12
   251          6
   253          2
   255         10
   256          4
   257          2
   261          2
   265          6
   267          7
   269          3
   271          2
   277          2
   279          7
   284          8
   285          7
   286         16
   295          9
   297          9
   299         22
   300         10
   302         41
   303          9
   309          9
   312         17
   313         33
   314        188
   315         41
   316          6
   323          4
   324         16
   325          9
   326         13
   328          7
   340          9
   341         11
   342          9
   354         16
   355          6
   368          4
   369         13
   382         11
   392         26
   393          7
   396        174
   397         54
   398          9
   406          2
   407         19
   408         12
   410        137
   411         42
   412          9
   424         17
   425        598
   426        204
   427         40
   428          3