##TITLE=Library Entry 20138
##JCAMP-DX=Revision 4.10 
##DATA TYPE=MASS SPECTRUM
##SAMPLE DESCRIPTION=LAC, NIDDK, NIH, Bethesda, MD 20892
##NAMES=HP
##CAS NAME=Pregnan-3-ol-16-one, 20-[4-carboxypentanoyl]-
##MOLFORM=C27H42O5
##CAS REGISTRY NO=469-00-1
##MP= -300
##BP= -300
##MW= 446
##$RETENTION INDEX=0
##$CONDENSED SPECTRUM=NO
##NPOINTS= 165
##XYDATA=(XY..XY) 1 
    41        322
    43        506
    44         17
    45        178
    47         17
    49         42
    50          2
    51         21
    53         85
    54          6
    55        999
    56        131
    57        220
    59        220
    60          5
    65         37
    67        367
    69        650
    70         39
    71         54
    73         21
    74         10
    77         93
    79        285
    81        335
    82        174
    83        348
    84        357
    85         94
    86         15
    87          6
    91        208
    93        301
    94         62
    95        155
    96         19
    97         28
    98         24
    99         20
   101        408
   102         27
   103          3
   105        190
   106         71
   107        160
   108        131
   109         83
   110         19
   111         43
   112         11
   113          9
   115         19
   117         41
   119         78
   120         36
   121         91
   122         42
   123         48
   124        115
   125         38
   126          9
   127         10
   129        217
   131         40
   133         72
   134         35
   135         84
   136         23
   137         27
   138         10
   139          5
   140          2
   141          5
   143         12
   145         49
   146         17
   147         70
   148         30
   149         53
   150         11
   151         13
   152          3
   153          4
   157         15
   159         64
   160         25
   161         58
   162         25
   163         21
   164          7
   165          5
   166          4
   167          2
   169          3
   171         15
   172          5
   173         36
   174         20
   175         32
   176          9
   177         11
   178          3
   179          3
   180          5
   183          6
   185         14
   187         25
   188          4
   189          6
   190         35
   191         14
   192          3
   194          2
   195         10
   197          4
   199         11
   201         43
   202          9
   203          6
   204          3
   205          4
   211          2
   212         16
   213         12
   215        149
   216        166
   217         45
   218          7
   219         34
   220          4
   227          4
   229          9
   230          3
   231         13
   232         11
   233         80
   234         33
   235          3
   236          5
   243          4
   246          2
   255          3
   257          2
   267          5
   268          3
   275         15
   276          2
   281          2
   285         13
   299          8
   300         17
   301          7
   303        116
   304         18
   317         42
   318        313
   319         74
   320          3
   321          3
   345         12
   360          3
   387          2
   400         16
   413          3
   429          3