##TITLE=Library Entry 30922
##JCAMP-DX=Revision 4.10 
##DATA TYPE=MASS SPECTRUM
##SAMPLE DESCRIPTION=Japan AIST/NIMC Database- Spectrum MS-NW-9096
##NAMES=HP
##CAS NAME=Sedoheptulosan
##MOLFORM=C7H12O6
##CAS REGISTRY NO=469-90-9
##MP= -300
##BP= -300
##MW= 192
##$RETENTION INDEX=0
##$CONDENSED SPECTRUM=NO
##NPOINTS= 101
##XYDATA=(XY..XY) 1 
    14          4
    15         42
    17          3
    18         20
    19          2
    26          6
    27         52
    28         53
    29        137
    30         20
    31        232
    32          6
    33          1
    38          1
    39         25
    40          5
    41         59
    42         66
    43        134
    44         57
    45         66
    46          3
    47         11
    49        109
    50          2
    51          2
    52          1
    53         17
    54          6
    55         65
    56        136
    57        757
    58         40
    59         15
    60        999
    61         76
    62          8
    67          1
    68          3
    69        122
    70        143
    71         89
    72         19
    73        341
    74         96
    75         13
    76          4
    77        210
    78          5
    79          1
    80          1
    81         18
    82          2
    83          4
    84          2
    85         26
    86         14
    87         24
    88          5
    89          7
    90          5
    91         33
    92          1
    96          1
    97         43
    98        115
    99         86
   100          7
   101          7
   102        153
   103         37
   104          7
   105          1
   109          1
   111          1
   113          3
   114          6
   115         18
   116         25
   117          3
   119        138
   120          8
   121          1
   125          1
   126          1
   127          2
   128          2
   129          1
   131         56
   132         27
   133          4
   136          1
   143          3
   145          1
   156          1
   157          8
   161          1
   174         41
   175         17
   176          1
   193          7