##TITLE=Library Entry 37271
##JCAMP-DX=Revision 4.10 
##DATA TYPE=MASS SPECTRUM
##SAMPLE DESCRIPTION=HOME OFFICE, CENTRAL RES. EST., ALDERMASTON, BERKS., U.
K.
##NAMES=HP
##CAS NAME=Ketobemidone
##MOLFORM=C15H21NO2
##CAS REGISTRY NO=469-79-4
##MP= -300
##BP= -300
##MW= 247
##$RETENTION INDEX=2036
##$CONDENSED SPECTRUM=NO
##NPOINTS= 35
##XYDATA=(XY..XY) 1 
    29         90
    32         30
    36        160
    38         40
    41         20
    42        170
    43         40
    44        690
    53         30
    55         40
    57        260
    58         50
    65         30
    70        999
    71        470
    77         90
    79         20
    80         20
    81         20
    82         30
    84         30
    91         70
    93         30
    94         30
    96         70
   107         60
   115         70
   119        130
   147         70
   189         60
   190        250
   191        110
   246         30
   247        250
   248         30