##TITLE=Library Entry 34398
##JCAMP-DX=Revision 4.10 
##DATA TYPE=MASS SPECTRUM
##SAMPLE DESCRIPTION=Exported from NIST MS Search
##NAMES=HP
##CAS NAME=2-Cyclopenten-1-one, 3,4,5-trihydroxy-5-(3-methyl-2-butenyl)-2-(3
-methyl-1-oxobutyl)-
##MOLFORM=C15H22O5
##CAS REGISTRY NO=469-30-7
##MP= -300
##BP= -300
##MW= 282
##$RETENTION INDEX=0
##$CONDENSED SPECTRUM=NO
##NPOINTS= 113
##XYDATA=(XY..XY) 1 
    41        369
    42         30
    43        151
    44        221
    45          9
    51         12
    53         54
    54         21
    55         72
    56         36
    57        212
    58          6
    59          3
    60         24
    65         21
    66          6
    67         78
    68         36
    69        999
    70         97
    71         30
    72          3
    73         24
    77         30
    79         21
    80         21
    81         30
    82         21
    83         66
    84         69
    85        354
    86         21
    87         21
    91         18
    93         21
    94          6
    95         30
    96         60
    97         39
    98          6
   101         24
   105          6
   107          6
   108          3
   109         42
   110          9
   111         60
   112         12
   119          6
   120         24
   121         15
   123          6
   124          3
   125         24
   126         36
   127         24
   129         36
   135          9
   136          3
   137         27
   138         21
   139         72
   140        281
   141         21
   142          3
   147          3
   149          6
   151         18
   152          9
   153         51
   154         90
   155         21
   156          6
   161          6
   162          6
   163          6
   164          6
   165          6
   166          6
   167         60
   168          6
   171         54
   175          6
   176          9
   177          9
   178          6
   179         15
   180         21
   189          9
   190         24
   191          9
   194          9
   196        172
   197         81
   198         36
   199          6
   207         54
   208         18
   209         24
   210          6
   213        121
   214        242
   215         30
   231         18
   233          6
   235         30
   246         21
   247          9
   248          9
   249         48
   264        272
   265         45
   282         42