##TITLE=Library Entry 34920
##JCAMP-DX=Revision 4.10 
##DATA TYPE=MASS SPECTRUM
##SAMPLE DESCRIPTION=NIST Mass Spectrometry Data Center
##NAMES=HP
##CAS NAME=9,19-Cyclolanost-24-en-3-ol, (3.beta.)-
##MOLFORM=C30H50O
##CAS REGISTRY NO=469-38-5
##MP= -300
##BP= -300
##MW= 426
##$RETENTION INDEX=3466
##$CONDENSED SPECTRUM=NO
##NPOINTS= 193
##XYDATA=(XY..XY) 1 
    27         11
    29         38
    39         31
    40          8
    41        463
    42         26
    43        260
    45         12
    53         75
    54         12
    55        485
    56         42
    57        100
    59         14
    65         33
    66         11
    67        286
    68         39
    69        999
    70         68
    71         94
    72         12
    77         94
    78         25
    79        263
    80         40
    81        367
    82        109
    83        135
    84         13
    85         18
    91        231
    92         52
    93        292
    94         68
    95        423
    96         59
    97         50
   103         20
   104         16
   105        267
   106         72
   107        331
   108         73
   109        340
   110         45
   111         40
   115         26
   116         14
   117         90
   118         43
   119        272
   120        108
   121        306
   122        110
   123        176
   124         23
   125         13
   127         11
   128         23
   129         38
   130         25
   131        114
   132         53
   133        233
   134        149
   135        247
   136         64
   137         80
   138         20
   139          8
   141         12
   142         12
   143         33
   144         15
   145        126
   146         46
   147        221
   148        108
   149        151
   150         30
   151         16
   153          5
   155         10
   157         30
   158         12
   159        108
   160         52
   161        131
   162         44
   163         75
   164         13
   165         13
   171         24
   172         14
   173        149
   174         41
   175        152
   176         34
   177         60
   178          9
   179          6
   183          6
   185         21
   186          9
   187         77
   188         32
   189         68
   190         17
   191         27
   192         10
   193         10
   198          5
   199         18
   200          9
   201         77
   202         48
   203         90
   204         36
   205         55
   206         23
   211          6
   212          5
   213         17
   214          9
   215         38
   216         12
   217         41
   218         28
   219         19
   220          9
   225          6
   227         28
   228          7
   229         29
   230          9
   231         46
   232         18
   233          6
   241         18
   242          5
   243         32
   244         23
   245         22
   246          9
   247          9
   255         20
   256          8
   257         21
   258         12
   259         32
   260          9
   269         10
   270          9
   271         91
   272         26
   273         15
   274         10
   283          9
   285          6
   286        163
   287         42
   288          7
   295         14
   296          4
   297         20
   298          7
   299          5
   300          4
   309          5
   311          9
   313         17
   315         14
   323          8
   324          6
   339         56
   340         16
   342         12
   344          4
   357          7
   365         75
   366         22
   383          4
   393        156
   394         51
   395         10
   408        100
   409         34
   410          6
   411         78
   412         24
   426         47
   427         16