##TITLE=Library Entry 99927
##JCAMP-DX=Revision 4.10 
##DATA TYPE=MASS SPECTRUM
##SAMPLE DESCRIPTION=G.BRAMMER,UNIVERSITY OF TEXAS
##NAMES=HP
##CAS NAME=1H-3a,7-Methanoazulene, 2,3,4,7,8,8a-hexahydro-3,6,8,8-tetramethy
l-, [3R-(3.alpha.,3a.beta.,7.beta.,8a.alpha.)]-
##MOLFORM=C15H24
##CAS REGISTRY NO=469-61-4
##MP= -300
##BP= -300
##MW= 204
##$RETENTION INDEX=1411
##$CONDENSED SPECTRUM=NO
##NPOINTS= 172
##XYDATA=(XY..XY) 1 
    26          1
    27         19
    29         21
    30          0
    31          0
    33          0
    37          0
    38          0
    39         37
    41        120
    42         16
    43         37
    45          0
    46          0
    47          0
    49          0
    50          3
    51         16
    52          5
    53         45
    54          4
    55        105
    56         86
    57         30
    58          1
    59          0
    60          0
    61          0
    62          1
    63          6
    64          2
    65         35
    66          9
    67         46
    68         18
    69        159
    70         46
    71          5
    72          1
    73          1
    74          0
    75          1
    76          1
    77        102
    78         23
    79         78
    80         22
    81         67
    82         29
    83         21
    84         14
    85          1
    86          0
    87          1
    88          0
    89          4
    90          1
    91        163
    92        117
    93        448
    94         67
    95         48
    96         16
    97         18
    98          1
    99          0
   100          0
   101          0
   102          2
   103         19
   104          6
   105        293
   106         45
   107         60
   108         43
   109         51
   110          6
   111          2
   112          1
   113          0
   114          0
   115         21
   116         10
   117         26
   118         21
   119        999
   120        153
   121        151
   122         36
   123         30
   124         11
   125          1
   126          1
   127          3
   128         10
   129         11
   130          4
   131         19
   132          5
   133         70
   134         44
   135         36
   136         77
   137         10
   138          1
   139          1
   140          0
   141          2
   142          2
   143          3
   144          3
   145         10
   146         17
   147        106
   148         44
   149         13
   150          1
   151          0
   152          0
   153          0
   154          0
   155          0
   156          0
   157          1
   158          1
   159          4
   160          5
   161        215
   162         41
   163          6
   164          0
   165          0
   166          0
   167          1
   168          0
   169          0
   170          0
   171          0
   172          0
   173          1
   174          0
   175         15
   176          4
   177          0
   178          0
   179          0
   180          0
   181          0
   182          0
   183          0
   184          0
   185          0
   186          0
   187          0
   188          1
   189         48
   190          9
   191          0
   192          0
   193          0
   194          0
   195          0
   196          0
   197          0
   198          0
   199          0
   200          0
   201          1
   202          0
   203          1
   204        230
   205         47