##TITLE=Library Entry 20104
##JCAMP-DX=Revision 4.10 
##DATA TYPE=MASS SPECTRUM
##SAMPLE DESCRIPTION=DR GLENN PATTERSON
##NAMES=HP
##CAS NAME=9,19-Cycloergost-24(28)-en-3-ol, 4,14-dimethyl-, (3.beta.,4.alpha
.,5.alpha.)-
##MOLFORM=C30H50O
##CAS REGISTRY NO=469-39-6
##MP= -300
##BP= -300
##MW= 426
##$RETENTION INDEX=0
##$CONDENSED SPECTRUM=NO
##NPOINTS= 122
##XYDATA=(XY..XY) 1 
    18         40
    27         70
    29        120
    39         50
    41        649
    42         50
    43        499
    44         70
    53         80
    55        999
    56         80
    57        410
    66         60
    68        390
    69        799
    70         80
    71        220
    77        100
    79        330
    80         50
    81        330
    82        110
    83        330
    84         50
    85        120
    91        330
    92         70
    93        330
    94        110
    95        559
    96        110
    97        210
    99         30
   105        330
   106        110
   107        330
   108        140
   109        330
   110         50
   111         80
   117        100
   118         50
   119        330
   120        160
   121        330
   122        120
   123        250
   124         70
   125         80
   129         50
   131        140
   132         70
   133        330
   134        160
   135        330
   136         80
   137        100
   143         50
   145        160
   146         50
   147        330
   148        130
   149        170
   150         50
   151         40
   157         50
   158         30
   159        160
   160         70
   161        220
   162         50
   163        200
   171         40
   173        160
   174         80
   175        220
   176         50
   177         60
   185         40
   187        100
   188         50
   189        140
   190         50
   191         40
   199         90
   201        100
   202         30
   203         60
   205         30
   213         50
   215         60
   216         60
   217         70
   218         40
   219         50
   220         30
   227         50
   229         50
   231         40
   232         30
   233         30
   241         40
   243         30
   245         60
   257         40
   259         30
   269         30
   273         40
   283         70
   285         70
   299         30
   300         90
   301         70
   327         30
   353         40
   393        230
   394         80
   408        220
   409         70
   411        140
   412         50
   426         70