##TITLE=Library Entry 28738
##JCAMP-DX=Revision 4.10 
##DATA TYPE=MASS SPECTRUM
##SAMPLE DESCRIPTION=Dr. P.K. Shah, NYC Police Laboratory, NY
##NAMES=HP
##CAS NAME=Propoxyphene
##MOLFORM=C22H29NO2
##CAS REGISTRY NO=469-62-5
##MP= -300
##BP= -300
##MW= 339
##$RETENTION INDEX=2173
##$CONDENSED SPECTRUM=NO
##NPOINTS= 95
##XYDATA=(XY..XY) 1 
    39          5
    41          5
    42         21
    43          8
    44         10
    45          4
    51          7
    55          3
    56          7
    57         49
    58        999
    59         39
    63          3
    65         12
    70          5
    71          8
    72          3
    73          2
    74          3
    76          2
    77         29
    78          6
    79          2
    82          3
    84          7
    85          7
    86         20
    87          2
    89          5
    90          2
    91         77
    92          7
    99          2
   101          2
   102          4
   103          6
   104          3
   105         39
   106          3
   115         47
   116         10
   117         24
   118          3
   120          3
   127          5
   128         14
   129         21
   130         23
   131          6
   132          3
   133          9
   134          8
   141          2
   143          7
   144          2
   147          2
   150          2
   151          3
   152          6
   153          2
   158          3
   163          2
   164          2
   165         12
   166          3
   167          2
   172          2
   174          9
   176          4
   177          3
   178         25
   179         17
   180          3
   182          2
   189          5
   190          3
   191         10
   192          5
   193         22
   194          4
   197         11
   198          2
   202          3
   203          3
   204          5
   205          5
   206          4
   207          5
   208         25
   209          4
   250         21
   251          4
   265          9
   266         11
   267          2