##TITLE=Library Entry 63926
##JCAMP-DX=Revision 4.10 
##DATA TYPE=MASS SPECTRUM
##SAMPLE DESCRIPTION=LAC, NIDDK, NIH, Bethesda, MD 20892
##NAMES=HP
##CAS NAME=N-Carbobenzyloxy-glutaminyl-leucine ethyl ester
##MOLFORM=C21H30N2O7
##CAS REGISTRY NO=4691-86-5
##MP= -300
##BP= -300
##MW= 422
##$RETENTION INDEX=0
##$CONDENSED SPECTRUM=NO
##NPOINTS= 116
##XYDATA=(XY..XY) 1 
    41         76
    42         38
    43        116
    44        109
    45         27
    46          4
    50          9
    51         16
    52          7
    53          8
    54         11
    55         29
    56         51
    57         21
    58         42
    59         30
    62          6
    63         13
    64          2
    65         71
    66          4
    68          8
    69         25
    70         26
    71          9
    72         15
    73         26
    74         27
    77         27
    78         10
    79         25
    80          4
    81          2
    82         15
    83         19
    84        202
    85         25
    86        216
    87         13
    88          4
    89         23
    91        999
    92         51
    96          6
    97          1
    99          9
   100         34
   101        132
   102         32
   105          9
   106          7
   107         44
   108         84
   109          4
   110          3
   112         10
   113         13
   114         11
   115          2
   116          2
   117          7
   124          2
   126          2
   127          9
   128         10
   129          9
   130         30
   132          7
   141          7
   142          2
   145         24
   146         19
   151          5
   152          7
   155         14
   156          7
   157         21
   158         28
   160         27
   168         13
   170          2
   171         17
   173         11
   174        127
   175         14
   176         19
   181          7
   183          9
   186          2
   191         35
   192         31
   193          2
   195         10
   196          7
   198          5
   209          8
   214         22
   220         10
   223          7
   224          6
   225         12
   226         10
   227          2
   235        342
   236         81
   237         11
   241          6
   262          4
   263         24
   264         10
   269         10
   287          2
   348         18
   349          7
   421         23
   422          9