##TITLE=Library Entry 50196
##JCAMP-DX=Revision 4.10 
##DATA TYPE=MASS SPECTRUM
##SAMPLE DESCRIPTION=Chemical Concepts
##NAMES=HP
##CAS NAME=D-Fenchone
##MOLFORM=C10H16O
##CAS REGISTRY NO=4695-62-9
##MP= -300
##BP= -300
##MW= 152
##$RETENTION INDEX=0
##$CONDENSED SPECTRUM=NO
##NPOINTS= 90
##XYDATA=(XY..XY) 1 
    26          5
    27         88
    28          4
    29         52
    30          1
    31          1
    37          0
    38          3
    39         97
    40         20
    41        334
    42         29
    43         28
    44          2
    45          1
    46          1
    50          4
    51         15
    52          9
    53         54
    54         10
    55         44
    56         12
    57         17
    58          2
    59          5
    60          0
    61          0
    62          0
    63          2
    64          0
    65         15
    66          7
    67         67
    68         50
    69        634
    70         38
    71          1
    72         24
    73          2
    74          0
    75          1
    76          0
    77         20
    78          4
    79         37
    80        143
    81        999
    82         95
    83          8
    84          1
    85          0
    87          0
    89          0
    91         12
    92          2
    93          6
    94          1
    95         12
    96          3
    97          3
    98          0
   101         10
   102          0
   103          0
   105          1
   106          0
   107          3
   108          2
   109         57
   110          5
   111          0
   112          0
   113          2
   115          0
   117          0
   119          3
   120          0
   121          1
   122          0
   123          4
   124          0
   133          0
   134          0
   135          0
   137         19
   138          2
   152        155
   153         16
   154          0