##TITLE=Library Entry 3085
##JCAMP-DX=Revision 4.10 
##DATA TYPE=MASS SPECTRUM
##SAMPLE DESCRIPTION=D.HENNEBERG, MAX-PLANCK INSTITUTE, MULHEIM, WEST GERMAN
Y
##NAMES=HP
##CAS NAME=1-Propene, 1,1'-oxybis-, (E,E)-
##MOLFORM=C6H10O
##CAS REGISTRY NO=4696-28-0
##MP= -300
##BP= -300
##MW= 98
##$RETENTION INDEX=0
##$CONDENSED SPECTRUM=NO
##NPOINTS= 63
##XYDATA=(XY..XY) 1 
    25          4
    26         48
    27        172
    28        122
    29        199
    30        205
    31         54
    34          1
    35          1
    36          0
    37         24
    38         49
    39        654
    40        106
    41        999
    42         88
    43        110
    44          5
    45          7
    46          1
    47          1
    48          1
    49          6
    50          1
    51          2
    52          2
    53         15
    54         14
    55        103
    56         70
    57        992
    58        652
    59         22
    61          0
    62          0
    66          4
    67         12
    68          9
    69        296
    70         47
    72          1
    73          0
    74          0
    76          1
    77          7
    78          3
    79          5
    80          4
    81          7
    82          1
    83         72
    84          5
    85          2
    87          3
    88          2
    90          0
    93          1
    95          4
    96          5
    97         11
    98        671
    99         41
   100          1