##TITLE=Library Entry 23717
##JCAMP-DX=Revision 4.10 
##DATA TYPE=MASS SPECTRUM
##SAMPLE DESCRIPTION=D.HENNEBERG, MAX-PLANCK INSTITUTE, MULHEIM, WEST GERMAN
Y
##NAMES=HP
##CAS NAME=1-Propene, 1,1'-oxybis-, (E,Z)-
##MOLFORM=C6H10O
##CAS REGISTRY NO=4696-29-1
##MP= -300
##BP= -300
##MW= 98
##$RETENTION INDEX=0
##$CONDENSED SPECTRUM=NO
##NPOINTS= 63
##XYDATA=(XY..XY) 1 
    25          2
    26         48
    27        148
    28        146
    29        168
    30        183
    31         48
    32          1
    33          0
    36          0
    37         16
    38         44
    39        609
    40         93
    41        904
    42         88
    43        101
    45          1
    47          0
    48          1
    49          2
    50          3
    51          1
    52          1
    53         11
    54         14
    55         86
    56         54
    57        999
    58        630
    59         27
    60          1
    62          0
    63          0
    64          0
    65          3
    66          1
    67         11
    68          8
    69        297
    70         39
    71          1
    73          0
    74          0
    75          0
    77          3
    78          1
    79          6
    80          5
    81          6
    82          1
    83         67
    84          3
    85          1
    87          0
    88          0
    94          0
    95          3
    96          3
    97         11
    98        632
    99         43
   100          2