##TITLE=Library Entry 23586
##JCAMP-DX=Revision 4.10 
##DATA TYPE=MASS SPECTRUM
##SAMPLE DESCRIPTION=D.HENNEBERG, MAX-PLANCK INSTITUTE, MULHEIM, WEST GERMAN
Y
##NAMES=HP
##CAS NAME=1-Propene, 1,1'-oxybis-, (Z,Z)-
##MOLFORM=C6H10O
##CAS REGISTRY NO=4696-27-9
##MP= -300
##BP= -300
##MW= 98
##$RETENTION INDEX=0
##$CONDENSED SPECTRUM=NO
##NPOINTS= 61
##XYDATA=(XY..XY) 1 
    25          2
    26         42
    27        139
    28        152
    29        179
    30        172
    31         49
    34          0
    36          0
    37         17
    38         46
    39        625
    40         96
    41        917
    42         95
    43         94
    44          3
    45          1
    47          0
    48          0
    49          4
    50          1
    51          1
    52          1
    53          9
    54         15
    55         94
    56         62
    57        999
    58        700
    59         29
    60          1
    61          0
    62          0
    63          0
    65          2
    66          1
    67         11
    68          8
    69        323
    70         42
    71          3
    73          4
    75          1
    77         10
    78          0
    79          6
    80          5
    81          5
    82          1
    83         69
    84          4
    85          0
    92          0
    93          0
    95          2
    96          2
    97         12
    98        651
    99         44
   100          1