##TITLE=Library Entry 100282
##JCAMP-DX=Revision 4.10 
##DATA TYPE=MASS SPECTRUM
##SAMPLE DESCRIPTION=Exported from NIST MS Search
##NAMES=HP
##CAS NAME=cis-Thujopsene
##MOLFORM=C15H24
##CAS REGISTRY NO=470-40-6
##MP= -300
##BP= -300
##MW= 204
##$RETENTION INDEX=1429
##$CONDENSED SPECTRUM=NO
##NPOINTS= 109
##XYDATA=(XY..XY) 1 
    15          6
    26         11
    27        132
    29        165
    38          6
    39        193
    40         31
    41        560
    42         33
    43        149
    50         11
    51         60
    52         29
    53        194
    54         19
    55        410
    56         85
    57         69
    58          6
    59         11
    63         24
    64         15
    65        113
    66         36
    67        156
    68         25
    69        344
    70         40
    71         36
    72         10
    73          7
    74          7
    75         15
    76          9
    77        262
    78         75
    79        303
    80        131
    81        338
    82         50
    83         56
    84         18
    85          7
    87          8
    89         18
    90         13
    91        403
    92        291
    93        594
    94        284
    95        238
    96         47
    97         34
   101          7
   102         11
   103         56
   104         30
   105        625
   106        185
   107        412
   108        141
   109        238
   110         35
   111        328
   112         32
   115         72
   116         31
   117         84
   118         39
   119        999
   120        219
   121        625
   122        156
   123        690
   124         72
   127         13
   128         34
   129         36
   130         18
   131         47
   132         21
   133        369
   134        144
   135        100
   136         53
   137          7
   141         11
   142          8
   143         12
   144          6
   145         36
   146         11
   147        128
   148         63
   149         25
   150          7
   151          9
   159         13
   160         11
   161        113
   162         26
   163          5
   173          7
   175         34
   176         12
   189        131
   190         20
   204        244
   205         44