##TITLE=Library Entry 11146
##JCAMP-DX=Revision 4.10 
##DATA TYPE=MASS SPECTRUM
##SAMPLE DESCRIPTION=TNO Volatile Compounds in Food - Chemical Concepts
##NAMES=HP
##CAS NAME=7-Oxabicyclo[2.2.1]heptane, 1-methyl-4-(1-methylethyl)-
##MOLFORM=C10H18O
##CAS REGISTRY NO=470-67-7
##MP= -300
##BP= -300
##MW= 154
##$RETENTION INDEX=1016
##$CONDENSED SPECTRUM=NO
##NPOINTS= 97
##XYDATA=(XY..XY) 1 
    26         11
    27        196
    28         57
    29         85
    30          8
    31         12
    33          6
    34          4
    36          7
    37          8
    38         14
    39        178
    40         26
    41        439
    42         54
    43        999
    44         21
    45         13
    46          2
    47          4
    49          4
    50          9
    51         26
    52         11
    53         89
    54         40
    55        505
    56         49
    57         22
    58        110
    59         16
    60          4
    61          2
    62          3
    63         10
    64          2
    65         29
    66         10
    67         89
    68         91
    69        302
    70         39
    71        634
    72         34
    73          5
    74          5
    75          3
    76          2
    77         23
    79         32
    80         11
    81        155
    82         31
    83        126
    84         61
    85         13
    86         83
    87         13
    89          2
    90          2
    91         14
    92          8
    93         61
    94         10
    95         39
    96         90
    97         50
    98         13
    99         14
   100          2
   102          3
   103          4
   105          7
   107         42
   108         22
   109         14
   110         38
   111        732
   112         52
   113          3
   114          2
   116          5
   117          2
   119          8
   121         53
   122          5
   123          2
   125        263
   126         51
   127          3
   131          5
   136         14
   137          2
   139         75
   140          6
   154        208
   155         23