##TITLE=Library Entry 109386
##JCAMP-DX=Revision 4.10 
##DATA TYPE=MASS SPECTRUM
##SAMPLE DESCRIPTION=Japan AIST/NIMC Database- Spectrum MS-IW-6272
##NAMES=HP
##CAS NAME=2-Cyclohexen-1-ol, 3,5,5-trimethyl-
##MOLFORM=C9H16O
##CAS REGISTRY NO=470-99-5
##MP= -300
##BP= -300
##MW= 140
##$RETENTION INDEX=1147
##$CONDENSED SPECTRUM=NO
##NPOINTS= 101
##XYDATA=(XY..XY) 1 
    15          6
    17          2
    18          7
    26          3
    27         75
    28         12
    29         79
    30          2
    31          9
    37          1
    38          8
    39        146
    40         26
    41        214
    42         17
    43        210
    44          9
    45         10
    46          1
    47          1
    50         11
    51         45
    52         20
    53         68
    54         31
    55        230
    56        110
    57         50
    58          6
    59         18
    60          4
    61          3
    62          5
    63         16
    64          4
    65         62
    66         42
    67         60
    68         10
    69        407
    70         21
    71         12
    72          2
    74          2
    75          2
    76          2
    77         96
    78         23
    79        193
    80         37
    81         67
    82         75
    83        295
    84        591
    85         61
    86          4
    87          1
    89          4
    90          2
    91        287
    92         42
    93         84
    94         19
    95         29
    96          9
    97         27
    98          7
    99          2
   100          1
   102          2
   103         11
   104          4
   105        115
   106         17
   107        634
   108         59
   109         21
   110          5
   111          7
   112         24
   113          2
   115          2
   117          2
   119          9
   120         19
   121         19
   122        186
   123         43
   124          6
   125        999
   126         89
   127          5
   133          1
   135          2
   136          1
   137          1
   138         11
   139         39
   140        195
   141         18
   142          1