##TITLE=Library Entry 16088
##JCAMP-DX=Revision 4.10 
##DATA TYPE=MASS SPECTRUM
##SAMPLE DESCRIPTION=Chemical Concepts
##NAMES=HP
##CAS NAME=4-Imidazolidinecarboxylic acid, 4-hydroxy-2,5-dioxo-
##MOLFORM=C4H4N2O5
##CAS REGISTRY NO=470-44-0
##MP= -300
##BP= -300
##MW= 160
##$RETENTION INDEX=0
##$CONDENSED SPECTRUM=NO
##NPOINTS= 58
##XYDATA=(XY..XY) 1 
    26          2
    27         34
    28        108
    29        103
    30         17
    31        108
    32         29
    33         15
    38          1
    39          1
    40          1
    41          4
    42         26
    43        147
    44        999
    45        193
    46         10
    47          0
    53          1
    54         11
    55         15
    56          4
    57          1
    58          8
    59         68
    60         57
    61          3
    68          0
    69          1
    70         50
    71         13
    72          9
    73          6
    74          0
    75         10
    76          0
    83          0
    86         21
    87          9
    88        113
    89          3
    90          2
    98          3
    99         14
   100          5
   101          0
   102          2
   103          9
   104          1
   113          0
   114         17
   115        968
   116         54
   117          8
   118          0
   126          1
   129          3
   131          2