##TITLE=Library Entry 9537
##JCAMP-DX=Revision 4.10 
##DATA TYPE=MASS SPECTRUM
##SAMPLE DESCRIPTION=NIST Mass Spectrometry Data Center
##NAMES=HP
##CAS NAME=Eucalyptol
##MOLFORM=C10H18O
##CAS REGISTRY NO=470-82-6
##MP= -300
##BP= -300
##MW= 154
##$RETENTION INDEX=1032
##$CONDENSED SPECTRUM=NO
##NPOINTS= 85
##XYDATA=(XY..XY) 1 
    15         14
    26          5
    27         87
    29         83
    30          2
    31         15
    37          1
    38          7
    39        205
    40         35
    41        342
    42         48
    43        999
    44         24
    45         20
    46          2
    47          1
    50         11
    51         38
    52         19
    53        144
    54         94
    55        400
    56         88
    57         33
    58        158
    59        151
    60          5
    62          3
    63         10
    64          2
    65         47
    66         21
    67        236
    68        236
    69        414
    70         32
    71        492
    72         28
    73          2
    77         74
    78         13
    79        104
    80         23
    81        654
    82         91
    83        242
    84        454
    85         41
    86          2
    89          1
    91         36
    92         11
    93        380
    94         41
    95        180
    96        246
    97         81
    98         19
    99          6
   103          1
   105          6
   106          4
   107         54
   108        560
   109         64
   110         18
   111        470
   112         38
   113          2
   119          1
   121         60
   122          5
   123          3
   125         77
   126         49
   127          4
   136         52
   137          7
   139        355
   140         35
   141          2
   154        362
   155         38
   156          2