##TITLE=Library Entry 3248
##JCAMP-DX=Revision 4.10 
##DATA TYPE=MASS SPECTRUM
##SAMPLE DESCRIPTION=CAR 0003
##NAMES=HP
##CAS NAME=Cyclohexanone, 3-methyl-, oxime
##MOLFORM=C7H13NO
##CAS REGISTRY NO=4701-95-5
##MP= -300
##BP= -300
##MW= 127
##$RETENTION INDEX=0
##$CONDENSED SPECTRUM=NO
##NPOINTS= 78
##XYDATA=(XY..XY) 1 
    12          2
    14          6
    15         37
    16          9
    26         25
    27        269
    29        173
    30         97
    31         18
    33          5
    37         11
    38         29
    39        360
    40         98
    41        999
    42        305
    43        329
    45         22
    46         21
    47          6
    50         18
    51         43
    52         41
    53        150
    54        537
    55        470
    56        233
    57        245
    58         38
    59        243
    60          9
    62          7
    63         14
    64         11
    65         39
    66         49
    67        241
    68        988
    69        518
    70         70
    71         65
    72         88
    73        201
    74         11
    75          5
    77         49
    78         16
    79         76
    80         61
    81        153
    82        137
    83        152
    84         65
    85         42
    86         25
    91         18
    92         10
    93         46
    94         88
    95        284
    96        470
    97         67
    98        299
    99        153
   100         12
   106         13
   107         13
   108         35
   109         41
   110        205
   111        258
   112        470
   113         35
   125         17
   126         36
   127        482
   128         41
   129          3