##TITLE=Library Entry 97370
##JCAMP-DX=Revision 4.10 
##DATA TYPE=MASS SPECTRUM
##SAMPLE DESCRIPTION=NIST Mass Spectrometry Data Center, 1990.
##NAMES=HP
##CAS NAME=Benzene, (1-ethyl-1-propenyl)-
##MOLFORM=C11H14
##CAS REGISTRY NO=4701-36-4
##MP= -300
##BP= -300
##MW= 146
##$RETENTION INDEX=1145
##$CONDENSED SPECTRUM=NO
##NPOINTS= 74
##XYDATA=(XY..XY) 1 
    14          3
    15         18
    26         18
    27        113
    28         18
    29         27
    32          3
    37          5
    38         24
    39        182
    40         26
    41         74
    42          7
    50         75
    51        167
    52         41
    53         75
    54          3
    55          6
    57         14
    61          9
    62         37
    63         99
    64         54
    65        126
    66         12
    67         62
    68         41
    69          4
    70          4
    71          6
    72          5
    73          3
    74         28
    75         32
    76         42
    77        133
    78         54
    79         23
    85          3
    86          9
    87         13
    88          8
    89         65
    90          3
    91        454
    92         35
    98          3
   101          9
   102         51
   103         58
   104         38
   105         34
   106          2
   113          8
   115        474
   116        202
   117        999
   118        106
   119          5
   126          7
   127         34
   128         69
   129         79
   130         32
   131        180
   132         18
   139          2
   141          4
   143          6
   145         81
   146        467
   147         53
   148          2