##TITLE=Library Entry 47758
##JCAMP-DX=Revision 4.10 
##DATA TYPE=MASS SPECTRUM
##SAMPLE DESCRIPTION=Japan AIST/NIMC Database- Spectrum MS-NW-4469
##NAMES=HP
##CAS NAME=Benzil-dihydrazone
##MOLFORM=C14H14N4
##CAS REGISTRY NO=4702-78-7
##MP= -300
##BP= -300
##MW= 238
##$RETENTION INDEX=0
##$CONDENSED SPECTRUM=NO
##NPOINTS= 189
##XYDATA=(XY..XY) 1 
    16          6
    17          3
    18          2
    26          5
    27         20
    28         40
    29         11
    30          7
    31         21
    32         66
    37          4
    38         11
    39         64
    40          7
    41          6
    42          2
    43         11
    44          1
    49          3
    50         63
    51        228
    52         37
    53          7
    54          2
    55          2
    56          2
    57          1
    61          7
    62         24
    63         69
    64         25
    65         31
    66          8
    67          3
    68          2
    69          4
    70          2
    71          1
    73          3
    74         25
    75         39
    76        123
    77        999
    78         80
    79         22
    80          7
    81          6
    82         16
    83          9
    84          2
    85          3
    86         10
    87         15
    88         19
    89        126
    90         43
    91         91
    92         65
    93         14
    94          3
    95          7
    96          6
    97          6
    98          8
    99          7
   100          4
   101          6
   102         26
   103        138
   104        145
   105         60
   106         43
   107         27
   108          3
   109          2
   110         24
   111         10
   112          2
   113          7
   114          7
   115         19
   116         31
   117         15
   118         97
   119        455
   120         41
   121          3
   122          2
   123          2
   125          3
   126         14
   127          8
   128          7
   129          4
   130          2
   131         30
   132          9
   133          7
   134          3
   135          1
   137          3
   138          4
   139         15
   140          6
   141          3
   142          1
   143          3
   144         11
   145          2
   146          3
   149          3
   150         12
   151         27
   152         49
   153          9
   154          3
   155          1
   156          2
   157          1
   158          1
   159          4
   161          1
   162          2
   163         11
   164         15
   165        242
   166        120
   167         72
   168         14
   169          5
   170          4
   171          1
   174          3
   175          5
   176         44
   177         49
   178        394
   179        158
   180         35
   181          7
   182         12
   183          4
   184          2
   185          1
   186          2
   187          1
   188          2
   189          2
   190         20
   191         16
   192         53
   193        149
   194        102
   195         50
   196          9
   197          1
   198          1
   202          1
   203          2
   204          3
   205         26
   206          9
   207         15
   208         32
   209        120
   210        122
   211         21
   212          3
   213          1
   214          1
   215          1
   216          1
   217          1
   218          2
   219          3
   220        193
   221         46
   222        397
   223         67
   224         10
   225          1
   233          1
   234          1
   235          2
   236          4
   237        400
   238        662
   239        112
   240          9