##TITLE=Library Entry 76895
##JCAMP-DX=Revision 4.10 
##DATA TYPE=MASS SPECTRUM
##SAMPLE DESCRIPTION=Chemical Concepts
##NAMES=HP
##CAS NAME=2-(1,3-Dioxo-1,3-dihydroisoindol-2-yl)-3-hydroxypropanoic acid
##MOLFORM=C11H9NO5
##CAS REGISTRY NO=4702-14-1
##MP= -300
##BP= -300
##MW= 235
##$RETENTION INDEX=0
##$CONDENSED SPECTRUM=NO
##NPOINTS= 177
##XYDATA=(XY..XY) 1 
    26         13
    27         52
    28         56
    29        100
    30         20
    31         98
    33          3
    35          4
    36          9
    37         24
    38         43
    39         67
    40         15
    41        103
    42         36
    43        147
    44         29
    45         97
    46         10
    47          5
    48          5
    49         26
    50        375
    51        148
    52         40
    53         32
    54         14
    55        102
    56         35
    57        120
    58          9
    59          9
    60         17
    61         16
    62         27
    63         32
    64         26
    65         99
    66         43
    67         34
    68         17
    69         86
    70         34
    71         72
    72         11
    73         46
    74        227
    75        238
    76        768
    77        348
    78         51
    79         26
    80         10
    81         44
    82         23
    83         58
    84         26
    85         43
    86          9
    87         11
    88         14
    89         67
    90         47
    91         44
    92         24
    93         50
    94         13
    95         36
    96         15
    97         41
    98         14
    99         17
   100          7
   101         12
   102        159
   103         75
   104        999
   105        340
   106         36
   107         16
   108          7
   109         23
   110         10
   111         24
   112         10
   113         12
   114         15
   115         12
   116         56
   117         56
   118         24
   119         15
   120         10
   121         36
   122         42
   123         18
   124          8
   125         15
   126          7
   127         11
   128         10
   129         61
   130        563
   131         64
   132        670
   133        406
   134         62
   135         29
   136          7
   137         13
   138          8
   139         10
   140          6
   141          8
   143          7
   144         97
   145         64
   146         40
   147         15
   148        637
   149        244
   150         28
   151          8
   152          5
   153          7
   154          5
   155          9
   156          6
   157          4
   158          6
   159         12
   160        127
   161         47
   162         46
   163         10
   164         21
   165          8
   166          5
   167          6
   168          5
   169          6
   171         13
   172        302
   173        379
   174         61
   175         12
   176          7
   177          5
   179          5
   180          4
   181          5
   182          4
   183          6
   184          4
   185          4
   186          6
   187        706
   188        106
   189         19
   190        276
   191         39
   192         17
   193         12
   194          4
   195          4
   196          3
   197          4
   204        107
   205        542
   206         68
   207         10
   217        137
   218         21
   219          4
   235          5
   236          9
   237          6