##TITLE=Library Entry 79452
##JCAMP-DX=Revision 4.10 
##DATA TYPE=MASS SPECTRUM
##SAMPLE DESCRIPTION=Japan AIST/NIMC Database- Spectrum MS-NW-2431
##NAMES=HP
##CAS NAME=N-Benzoyl-dl-methionine
##MOLFORM=C12H15NO3S
##CAS REGISTRY NO=4703-38-2
##MP= -300
##BP= -300
##MW= 253
##$RETENTION INDEX=0
##$CONDENSED SPECTRUM=NO
##NPOINTS= 131
##XYDATA=(XY..XY) 1 
    14          1
    15          4
    16          2
    17         15
    18         58
    26          3
    27         29
    28         52
    29          7
    30          4
    31          1
    32         10
    34          1
    35         11
    36          1
    37          1
    38          3
    39         16
    40          1
    41         27
    42          3
    43          2
    44         10
    45         27
    46          9
    47         38
    48         15
    49          9
    50         30
    51        107
    52          9
    53          3
    54          7
    55          5
    56         27
    57         11
    58          3
    59          9
    60          3
    61         66
    62          5
    63          6
    64          1
    65          2
    69          1
    71          2
    72          1
    73          4
    74         38
    75         62
    76         23
    77        393
    78         28
    79          6
    82          1
    83          4
    85          3
    86         10
    87          9
    88          8
    89          3
    90          2
    91          2
    92          1
    99          2
   100          7
   101          1
   102          6
   103          8
   104         20
   105        999
   106        103
   107          7
   114          5
   115          1
   116          7
   117          3
   118          1
   119          1
   120          1
   121          3
   122         14
   123          2
   126          1
   130          7
   131         41
   132          8
   133         51
   134         14
   135          7
   139          1
   143          1
   144          1
   145          1
   146          2
   147          1
   148         13
   149          2
   150          1
   151          1
   159          4
   160         15
   161        318
   162         44
   163          5
   166          1
   174         87
   175         10
   176          2
   178          6
   179        298
   180         30
   181          4
   187         11
   188          2
   192         43
   193          5
   194          2
   205          3
   206          9
   207          2
   208          2
   209          2
   210          1
   235         15
   236          3
   237          4
   238          4
   253         28
   254          4
   255          2