##TITLE=Library Entry 50936
##JCAMP-DX=Revision 4.10 
##DATA TYPE=MASS SPECTRUM
##SAMPLE DESCRIPTION=A.A.Kutin, Moscow, Russia
##NAMES=HP
##CAS NAME=Thiazolidin-4-one, 3-furfuryl-2-thioxo-
##MOLFORM=C8H7NO2S2
##CAS REGISTRY NO=4703-95-1
##MP= -300
##BP= -300
##MW= 213
##$RETENTION INDEX=0
##$CONDENSED SPECTRUM=NO
##NPOINTS= 123
##XYDATA=(XY..XY) 1 
    33         10
    34          4
    37         40
    38         70
    39        132
    40         22
    42        151
    45        224
    46        185
    47         25
    48          9
    50         97
    51        162
    53        570
    55         26
    57         14
    58         25
    59         13
    60         10
    61          2
    62          3
    64         40
    65          7
    66         14
    67          9
    68         11
    69         14
    70         16
    72         68
    74          9
    76         44
    77         17
    78         35
    79         17
    81        999
    83         61
    84         21
    86         40
    88          4
    89          3
    90          5
    91          2
    92          5
    94         36
    95         24
    96         13
    97         12
    98          3
    99          5
   100          1
   101          0
   102          0
   104          6
   106         64
   108         12
   109         15
   110          6
   111         13
   112         54
   113         53
   115          8
   116          1
   117          2
   118          2
   119          3
   120          7
   121          2
   122          2
   124          7
   125          2
   126          4
   127          1
   129          3
   130          1
   131          0
   132          1
   133          2
   135          2
   138        427
   139         57
   140         23
   141          3
   142          2
   143          3
   144          0
   145          1
   146          0
   147          0
   152          3
   153          0
   154          3
   156          9
   158          2
   159          0
   160          1
   161          2
   162          0
   167          2
   168          2
   169          0
   171         98
   173         15
   174          0
   175          0
   178          0
   180          1
   181          0
   182          0
   184         18
   185         32
   186          4
   187          3
   188          0
   195          9
   196          1
   197          1
   209          0
   213        719
   214         71
   215         67
   216          6
   217          2
   218          0