##TITLE=Library Entry 54463
##JCAMP-DX=Revision 4.10 
##DATA TYPE=MASS SPECTRUM
##SAMPLE DESCRIPTION=Japan AIST/NIMC Database- Spectrum MS-IW-3726
##NAMES=HP
##CAS NAME=Piperidine, 1-[(4-methylphenyl)sulfonyl]-
##MOLFORM=C12H17NO2S
##CAS REGISTRY NO=4703-22-4
##MP= -300
##BP= -300
##MW= 239
##$RETENTION INDEX=0
##$CONDENSED SPECTRUM=NO
##NPOINTS= 100
##XYDATA=(XY..XY) 1 
    15          8
    26          2
    27         26
    28         53
    29         44
    30         35
    38          3
    39         58
    40          6
    41         71
    42        203
    43         11
    44          4
    45          3
    50          8
    51         18
    52          6
    53         11
    54         26
    55        187
    56         71
    57         39
    58          2
    61          1
    62          6
    63         28
    64          9
    65        130
    66          8
    67          9
    68          9
    69          8
    70          5
    71          1
    74          1
    75          2
    76          4
    77         10
    78          5
    79          4
    80          4
    81          1
    82         38
    83        377
    84        999
    85         62
    86          2
    87          1
    88          1
    89         34
    90         22
    91        547
    92         96
    93          8
    98          1
   100          4
   103          1
   104          1
   105          9
   106          3
   107          4
   108          3
   111          1
   116          1
   117          2
   118          7
   119          6
   120          1
   121          1
   122          1
   123          1
   130          1
   131          1
   132          7
   133          1
   134          3
   136          1
   139         18
   140          5
   141          1
   146          3
   155        331
   156         30
   157         26
   158          2
   160          1
   173          1
   174         66
   175         16
   176          1
   184          3
   198         34
   199          3
   200          1
   224          3
   238        440
   239        594
   240        103
   241         34
   242          4