##TITLE=Library Entry 12661
##JCAMP-DX=Revision 4.10 
##DATA TYPE=MASS SPECTRUM
##SAMPLE DESCRIPTION=Japan AIST/NIMC Database- Spectrum MS-NW-3473
##NAMES=HP
##CAS NAME=Vinyl decanoate
##MOLFORM=C12H22O2
##CAS REGISTRY NO=4704-31-8
##MP= -300
##BP= -300
##MW= 198
##$RETENTION INDEX=1812
##$CONDENSED SPECTRUM=NO
##NPOINTS= 112
##XYDATA=(XY..XY) 1 
    14          4
    15         19
    17          1
    18          3
    25          1
    26         12
    27        174
    28         27
    29        211
    30          5
    31          4
    37          1
    38          3
    39         91
    40         18
    41        415
    42        134
    43        999
    44         43
    45          9
    46          1
    47          1
    48          1
    50          2
    51          6
    52          4
    53         27
    54         26
    55        337
    56         70
    57        655
    58         57
    59          7
    60         18
    61          3
    62          1
    63          2
    65          6
    66          4
    67         78
    68         27
    69        170
    70         37
    71        604
    72         37
    73         21
    74          2
    77          6
    78          3
    79         12
    80          5
    81        144
    82         19
    83         64
    84         35
    85        364
    86        172
    87         22
    88          2
    91          9
    92          5
    93          8
    94          3
    95        155
    96         15
    97         30
    98         39
    99         19
   100          3
   101          2
   104          1
   105          4
   106          1
   107          4
   108          1
   109          6
   110          5
   111         12
   112          8
   113          6
   114          1
   115          3
   117          2
   119          2
   121          3
   122          1
   123          2
   124          1
   125          4
   126          2
   127          5
   128          2
   129          6
   130          1
   133          1
   134          1
   135          3
   136          2
   137         40
   138          7
   139          2
   141          3
   143          1
   151          1
   152          1
   153          3
   154          4
   155        904
   156        105
   157          8
   158          1
   169          1