##TITLE=Library Entry 16857
##JCAMP-DX=Revision 4.10 
##DATA TYPE=MASS SPECTRUM
##SAMPLE DESCRIPTION=Japan AIST/NIMC Database- Spectrum MS-NW-2795
##NAMES=HP
##CAS NAME=2-Tetradecanol
##MOLFORM=C14H30O
##CAS REGISTRY NO=4706-81-4
##MP= -300
##BP= -300
##MW= 214
##$RETENTION INDEX=1593
##$CONDENSED SPECTRUM=NO
##NPOINTS= 79
##XYDATA=(XY..XY) 1 
    13          1
    15          2
    17          2
    18          7
    19          1
    26          1
    27         35
    28         28
    29         70
    30          2
    31          6
    32          8
    39         22
    40          4
    41        139
    42         43
    43        207
    44         44
    45        999
    46         22
    47          2
    51          1
    53          8
    54         15
    55        176
    56        103
    57        202
    58         22
    59          9
    65          1
    66          1
    67         20
    68         22
    69        154
    70        103
    71        100
    72          6
    73          1
    79          2
    81         12
    82         33
    83        141
    84         72
    85         58
    86          4
    87          1
    95          6
    96         19
    97        124
    98         50
    99         14
   100          1
   109          2
   110          9
   111         72
   112         35
   113          9
   124          6
   125         36
   126         20
   127          7
   138          3
   139         11
   140         13
   141          5
   152          2
   153          5
   154         12
   155          2
   167          3
   168         27
   169          4
   170          9
   171          1
   196         27
   197          5
   199         17
   200          3
   213          2