##TITLE=Library Entry 63182
##JCAMP-DX=Revision 4.10 
##DATA TYPE=MASS SPECTRUM
##SAMPLE DESCRIPTION=Exported from NIST MS Search
##NAMES=HP
##CAS NAME=1H-Benzotriazole, 1-(phenylmethyl)-
##MOLFORM=C13H11N3
##CAS REGISTRY NO=4706-43-8
##MP= -300
##BP= -300
##MW= 209
##$RETENTION INDEX=0
##$CONDENSED SPECTRUM=NO
##NPOINTS= 17
##XYDATA=(XY..XY) 1 
    39        130
    50         50
    51        120
    63         90
    65        230
    76         60
    77        150
    89         60
    90         80
    91        999
    92        100
   104         60
   152         70
   180        999
   181        180
   209        520
   210         80