##TITLE=Library Entry 81441
##JCAMP-DX=Revision 4.10 
##DATA TYPE=MASS SPECTRUM
##SAMPLE DESCRIPTION=CARL DJERASSI DEPT OF CHEM STANFORD UNIV STANFORD CALIF
 94305
##NAMES=HP
##CAS NAME=Pyridine, 1-benzoyl-1,2,3,4-tetrahydro-5-(2-piperidinyl)-
##MOLFORM=C17H22N2O
##CAS REGISTRY NO=47077-87-2
##MP= -300
##BP= -300
##MW= 270
##$RETENTION INDEX=0
##$CONDENSED SPECTRUM=NO
##NPOINTS= 62
##XYDATA=(XY..XY) 1 
    41        161
    42         50
    43         90
    44         50
    51         90
    54         50
    55        151
    56         70
    57        141
    67         80
    68         40
    69         80
    70         40
    71         80
    77        737
    78         70
    80         90
    81        151
    82        101
    83         80
    84        131
    85         40
    93         50
    94        141
    95        121
    96         50
    97         80
   105        999
   106        171
   107        131
   108        202
   109        212
   110        141
   120         60
   121         80
   122        282
   123        484
   124         40
   135         50
   136        666
   137        242
   138         40
   149        202
   150         40
   163         40
   164         20
   165        939
   166         90
   187         20
   188         30
   213         80
   214         90
   215         20
   227        101
   228         40
   241        242
   242         60
   253        292
   254         50
   269        323
   270        646
   271        101