##TITLE=Library Entry 67350
##JCAMP-DX=Revision 4.10 
##DATA TYPE=MASS SPECTRUM
##SAMPLE DESCRIPTION=Exported from NIST MS Search
##NAMES=HP
##CAS NAME=1,4-Etheno-3H,7H-benzo[1,2-c:3,4-c']dipyran-3,7-dione, 9-(3-furan
yl)decahydro-4-hydroxy-4a,10a-dimethyl-, [1R-(1.alpha.,4.beta.,4a.alpha.,6a.
beta.,9.beta.,10a.beta.,10b.alpha.)]-
##MOLFORM=C20H22O6
##CAS REGISTRY NO=471-54-5
##MP= -300
##BP= -300
##MW= 358
##$RETENTION INDEX=0
##$CONDENSED SPECTRUM=NO
##NPOINTS= 107
##XYDATA=(XY..XY) 1 
    27         56
    28        254
    29         88
    31         77
    39         96
    40         40
    41        267
    43        233
    44        670
    53        122
    55        354
    65         82
    66         65
    67        182
    68        203
    69        210
    71         66
    77        251
    79        520
    80        161
    81        690
    82        250
    83         68
    84        108
    91        380
    92        119
    93        405
    94        999
    95        446
    96         95
    97        122
   105        168
   106        143
   107         46
   108        585
   109        770
   110        230
   112        182
   115         51
   116         35
   117         96
   118         60
   119        373
   120        122
   121        645
   122        230
   123         82
   129         56
   130         35
   131        169
   132         88
   133        325
   134        177
   135        136
   136         46
   137         51
   138         37
   143         45
   145        119
   146         65
   147        255
   148        150
   149         68
   150         35
   151         30
   152         77
   153        168
   158         26
   159         88
   160        126
   161        140
   162         35
   163         37
   164         35
   165         25
   166         46
   171         39
   173         59
   175         56
   176         46
   177         37
   178         33
   179         28
   183         37
   185         31
   186         25
   187         54
   188        102
   189         70
   190         39
   191         63
   204         81
   205        115
   206         47
   239         24
   245         37
   246         24
   252         28
   262         16
   269         18
   270         18
   295         16
   298         17
   310         16
   313        175
   314         56
   358         42