##TITLE=Library Entry 66104
##JCAMP-DX=Revision 4.10 
##DATA TYPE=MASS SPECTRUM
##SAMPLE DESCRIPTION=Chemical Concepts
##NAMES=HP
##CAS NAME=Bicyclo[2.2.1]heptane, 7,7-dimethyl-2-methylene-
##MOLFORM=C10H16
##CAS REGISTRY NO=471-84-1
##MP= -300
##BP= -300
##MW= 136
##$RETENTION INDEX=950
##$CONDENSED SPECTRUM=NO
##NPOINTS= 88
##XYDATA=(XY..XY) 1 
    26          6
    27         87
    28         16
    29         58
    30          3
    31          2
    36          2
    37          1
    38          9
    39        140
    40         40
    41        267
    42         22
    43         81
    44         14
    45          4
    46          1
    47          2
    48          2
    49          2
    50         20
    51         62
    52         32
    53        100
    54         20
    55         87
    56         14
    57         27
    58          9
    59          5
    60          3
    61          2
    62          6
    63         18
    64          7
    65         63
    66         38
    67        125
    68         63
    69        125
    70         19
    71          8
    72          2
    73          3
    74          6
    75          7
    76          9
    77        286
    78         67
    79        558
    80        439
    81        269
    82         47
    83          9
    84          6
    85          3
    86          2
    87          3
    88          2
    89          7
    90          5
    91        281
    92        201
    93        999
    94        273
    95         80
    96          9
    97          4
    98          8
    99          3
   102          3
   103         14
   104         10
   105         72
   106         20
   107        287
   108        100
   109         13
   119         19
   120          6
   121        422
   122         56
   123          8
   134          4
   135         12
   136        269
   137         37
   138          5