##TITLE=Library Entry 18485
##JCAMP-DX=Revision 4.10 
##DATA TYPE=MASS SPECTRUM
##SAMPLE DESCRIPTION=Leung Pu, NIH, Bethesda, Maryland, U.S.
##NAMES=HP
##CAS NAME=Propiolic acid
##MOLFORM=C3H2O2
##CAS REGISTRY NO=471-25-0
##MP= -300
##BP= -300
##MW= 70
##$RETENTION INDEX=660
##$CONDENSED SPECTRUM=NO
##NPOINTS= 13
##XYDATA=(XY..XY) 1 
    44         32
    45        128
    47         16
    48          8
    53        999
    54         28
    55          5
    56          0
    57          0
    69          3
    70        490
    71         54
    72          1