##TITLE=Library Entry 52876
##JCAMP-DX=Revision 4.10 
##DATA TYPE=MASS SPECTRUM
##SAMPLE DESCRIPTION=Exported from NIST MS Search
##NAMES=HP
##CAS NAME=Ethane, 1,1-dichloro-2,2-difluoro-
##MOLFORM=C2H2Cl2F2
##CAS REGISTRY NO=471-43-2
##MP= -300
##BP= -300
##MW= 134
##$RETENTION INDEX=0
##$CONDENSED SPECTRUM=NO
##NPOINTS= 84
##XYDATA=(XY..XY) 1 
    12          2
    14          1
    24          2
    25          7
    26          9
    27          1
    28          4
    29          1
    31         36
    32          5
    33         10
    35         18
    36          6
    37          6
    38          2
    40          1
    43          3
    44         32
    45         25
    46          1
    47         43
    48         47
    49         97
    50         21
    51        124
    52          1
    57          1
    58          1
    59          3
    60          8
    61          3
    62          4
    63         16
    64         10
    65          1
    66          2
    67         48
    68          1
    69         16
    70          1
    71          1
    72          1
    78          7
    79         83
    80         18
    81         29
    82         22
    83        999
    84         22
    85        666
    86          9
    87        108
    88          1
    94          1
    95         43
    96          2
    97         33
    98         35
    99         87
   100         13
   101         27
   102          1
   103          1
   113          4
   114         10
   115         23
   116          7
   117         50
   118          2
   119         37
   120          1
   121         11
   123          1
   129          1
   130          1
   131          1
   132          3
   133         92
   134        237
   135         63
   136        147
   137         12
   138         23
   139          1