##TITLE=Library Entry 67544
##JCAMP-DX=Revision 4.10 
##DATA TYPE=MASS SPECTRUM
##SAMPLE DESCRIPTION=Japan AIST/NIMC Database- Spectrum MS-NW-5107
##NAMES=HP
##CAS NAME=Phosphonic acid, diphenyl ester
##MOLFORM=C12H11O3P
##CAS REGISTRY NO=4712-55-4
##MP= -300
##BP= -300
##MW= 234
##$RETENTION INDEX=0
##$CONDENSED SPECTRUM=NO
##NPOINTS= 87
##XYDATA=(XY..XY) 1 
    14          1
    15          1
    25          2
    26          7
    27         16
    28          8
    29          6
    31          6
    32          3
    36          2
    37         16
    38         38
    39        152
    40         57
    41          4
    42          4
    43          3
    44          1
    46          3
    47         72
    48          1
    49          5
    50         39
    51         83
    52          8
    53         13
    54          2
    55         37
    56          2
    57          1
    60          2
    61          9
    62         16
    63         37
    64         18
    65        171
    66        144
    67          9
    68          7
    69          1
    73          3
    74         11
    75          8
    76         16
    77        189
    78         15
    79          5
    83          1
    84          4
    86          1
    92          5
    93         24
    94        999
    95         66
    96          5
    99          1
   112          7
   115          3
   117          2
   123          1
   138          1
   139         33
   140        198
   141         27
   142          5
   151          2
   152          6
   153          9
   154          3
   155          1
   157          3
   160          2
   168          2
   169         12
   170         66
   171          9
   173          2
   199          4
   215          4
   216          4
   217         51
   218          7
   232          1
   233         48
   234        240
   235         33
   236          4