##TITLE=Library Entry 40748
##JCAMP-DX=Revision 4.10 
##DATA TYPE=MASS SPECTRUM
##SAMPLE DESCRIPTION=NIST Mass Spectrometry Data Center, 1994
##NAMES=HP
##CAS NAME=Silane, [thiobis(methylene)]bis[thiomethyl-
##MOLFORM=C8H22SSi2
##CAS REGISTRY NO=4712-51-0
##MP= -300
##BP= -300
##MW= 206
##$RETENTION INDEX=0
##$CONDENSED SPECTRUM=NO
##NPOINTS= 120
##XYDATA=(XY..XY) 1 
     6          0
     9          0
    10          0
    11          0
    12          0
    13          0
    15          4
    17          0
    18          0
    21          0
    23          0
    24          0
    27          4
    28         13
    29         38
    30          3
    31         27
    32          0
    33          1
    34          0
    35          0
    39          1
    40          0
    41          0
    42         13
    43        113
    44         78
    45        186
    46         15
    47          8
    48          0
    53          5
    54          2
    55         16
    56          4
    57         21
    58         30
    59        105
    60         11
    61         14
    62          1
    63          2
    65          0
    66          0
    67          1
    68          0
    69          1
    70          9
    71         11
    72         72
    73        999
    74         74
    75         60
    76          7
    77          6
    78          0
    79          0
    80          0
    81          0
    83          1
    85          7
    86          2
    87          3
    88          0
    89          6
    90         42
    91          9
    92          3
    93          0
    94          0
    99          1
   100          0
   101          2
   103         19
   104          4
   105          6
   106          0
   107          0
   113          0
   115          0
   117          4
   118         29
   119         57
   120          7
   121          4
   122          0
   129          3
   130          0
   131          1
   132          0
   133          3
   134          0
   135          0
   145          3
   146          0
   147          3
   149         16
   150          3
   151          2
   161          0
   163         58
   164          9
   165          7
   166          0
   167          0
   175          6
   176          0
   177          0
   188          0
   191        104
   192         18
   193         13
   194          1
   195          0
   204          0
   206         44
   207          8
   208          5
   209          0
   210          0