##TITLE=Library Entry 50602
##JCAMP-DX=Revision 4.10 
##DATA TYPE=MASS SPECTRUM
##SAMPLE DESCRIPTION=S.A. Rang et al., IR & MS of Unsatd. Hydrocarbons, 1977
##NAMES=HP
##CAS NAME=Benzene, [(cyclohex-1-en-1-yl)methyl]-
##MOLFORM=C13H16
##CAS REGISTRY NO=4714-09-4
##MP= -300
##BP= -300
##MW= 172
##$RETENTION INDEX=0
##$CONDENSED SPECTRUM=NO
##NPOINTS= 140
##XYDATA=(XY..XY) 1 
    15          2
    16          0
    24          0
    25          2
    26         15
    27        142
    28         21
    29         72
    30          2
    31          3
    36          0
    37          2
    38         10
    39        263
    40         32
    41        210
    42         17
    43         10
    44          3
    45          9
    46          0
    47          0
    49          0
    50         34
    51        152
    52         49
    53        126
    54         13
    55         48
    56          3
    57          3
    58          3
    59          2
    60          0
    61          1
    62         15
    63        100
    64         32
    65        258
    66         44
    67         48
    68         10
    69          3
    70          4
    71         10
    72          1
    73          8
    74         10
    75         24
    76         37
    77        173
    78         89
    79        226
    80        351
    81        999
    82         65
    83          4
    84          1
    85          1
    86          3
    87          8
    88          8
    89         84
    90         18
    91        293
    92        115
    93         19
    94         39
    95          5
    96          1
    97          1
    98          1
    99          1
   100          1
   101          8
   102         51
   103         59
   104        473
   105         62
   106          4
   107          1
   108          0
   109          0
   110          0
   111          0
   112          0
   113          7
   114         10
   115        366
   116         94
   117        131
   118         35
   119          3
   120          0
   121          0
   122          0
   123          0
   125          2
   126          9
   127         84
   128        247
   129        351
   130        147
   131         54
   132          5
   133          1
   134          0
   135          0
   137          0
   138          0
   139         11
   140          4
   141         66
   142         35
   143         84
   144         39
   145          5
   146          0
   147          0
   149          0
   150          1
   151          3
   152         12
   153         10
   154          5
   155          7
   156          2
   157         13
   158          4
   159          1
   165         12
   166          4
   167         10
   168          5
   169          2
   170          6
   171         18
   172        427
   173         59
   174          4