##TITLE=Library Entry 55722
##JCAMP-DX=Revision 4.10 
##DATA TYPE=MASS SPECTRUM
##SAMPLE DESCRIPTION=Finnigan MAT: Toxicological Library (LIBR-TX)
##NAMES=HP
##CAS NAME=Levobunolol
##MOLFORM=C17H25NO3
##CAS REGISTRY NO=47141-42-4
##MP= -300
##BP= -300
##MW= 291
##$RETENTION INDEX=0
##$CONDENSED SPECTRUM=NO
##NPOINTS= 31
##XYDATA=(XY..XY) 1 
    41        201
    44         43
    57        179
    58         40
    60         40
    70         74
    71         71
    85         23
    86        999
    87         58
   105         11
   114         21
   115         17
   116         33
   124          8
   131         11
   133          8
   134          9
   145          8
   147         12
   160          1
   161          3
   162         12
   175          3
   201          8
   206         12
   207          3
   247         15
   276        164
   277         25
   291         18