##TITLE=Library Entry 50323
##JCAMP-DX=Revision 4.10 
##DATA TYPE=MASS SPECTRUM
##SAMPLE DESCRIPTION=S.A. Rang et al., IR & MS of Unsatd. Hydrocarbons, 1977
##NAMES=HP
##CAS NAME=Benzene, [(cyclohex-1-en-3-yl)methyl]-
##MOLFORM=C13H16
##CAS REGISTRY NO=4714-10-7
##MP= -300
##BP= -300
##MW= 172
##$RETENTION INDEX=0
##$CONDENSED SPECTRUM=NO
##NPOINTS= 122
##XYDATA=(XY..XY) 1 
    15          4
    16          0
    24          0
    25          1
    26          7
    27         85
    28         35
    29         30
    30          1
    31          6
    37          1
    38          5
    39        150
    40         16
    41        178
    42          7
    43          6
    44          4
    45         23
    46          0
    47          0
    49          0
    50         15
    51         70
    52         29
    53        143
    54         11
    55         29
    56          1
    57          1
    58          2
    59          2
    60          0
    61          0
    62          4
    63         35
    64         11
    65        191
    66         30
    67         16
    68          1
    69          0
    70          1
    71          3
    72          1
    73         19
    74          3
    75          6
    76          8
    77         94
    78         33
    79        205
    80        551
    81        999
    82         66
    83          2
    84          0
    85          0
    86          0
    87          2
    88          1
    89         25
    90          8
    91        534
    92         66
    93          6
    94          5
    95          1
    96          0
    97          0
    98          0
    99          0
   100          0
   101          1
   102          8
   103         13
   104         19
   105          4
   106          0
   107          0
   108          0
   113          1
   114          1
   115         42
   116         11
   117         12
   118          2
   119          0
   125          0
   126          1
   127          9
   128         28
   129         26
   130          7
   131          2
   132          0
   139          2
   140          0
   141          8
   142          4
   143          4
   144          2
   145          0
   150          0
   151          1
   152          3
   153          1
   154          1
   155          1
   156          0
   157          1
   158          0
   165          3
   166          1
   167          1
   168          0
   169          0
   170          0
   171          0
   172         47
   173          6
   174          0