##TITLE=Library Entry 55921
##JCAMP-DX=Revision 4.10 
##DATA TYPE=MASS SPECTRUM
##SAMPLE DESCRIPTION=RADIAN CORP
##NAMES=HP
##CAS NAME=1,3,5-Triazine-1,3,5(2H,4H,6H)-triethanol
##MOLFORM=C9H21N3O3
##CAS REGISTRY NO=4719-04-4
##MP= -300
##BP= -300
##MW= 219
##$RETENTION INDEX=0
##$CONDENSED SPECTRUM=NO
##NPOINTS= 33
##XYDATA=(XY..XY) 1 
    15         39
    18         18
    27         60
    28        194
    29        143
    30         74
    31         16
    40         31
    41        119
    42        342
    43         70
    44         87
    45          3
    49         22
    54         42
    55         61
    56        937
    57        206
    58         33
    69          9
    70          3
    71         14
    72         72
    83         17
    85         38
    86        999
    87         57
    97          4
    98        260
    99         16
   100          4
   128         91
   158         66