##TITLE=Library Entry 41661
##JCAMP-DX=Revision 4.10 
##DATA TYPE=MASS SPECTRUM
##SAMPLE DESCRIPTION=Exported from NIST MS Search
##NAMES=HP
##CAS NAME=Myo-Inositol, 4-C-methyl-
##MOLFORM=C7H14O6
##CAS REGISTRY NO=472-95-7
##MP= -300
##BP= -300
##MW= 194
##$RETENTION INDEX=0
##$CONDENSED SPECTRUM=NO
##NPOINTS= 42
##XYDATA=(XY..XY) 1 
    31         32
    41         38
    42         20
    43        177
    44         12
    45         27
    47          7
    53          5
    54          3
    55         25
    56         16
    57         27
    58          7
    59          4
    60         62
    61         23
    69         23
    70          8
    71        117
    72         12
    73        999
    74        130
    75         16
    85         59
    86        101
    87        327
    88         18
    89         15
    91         16
    97         17
   102         38
   103         32
   111          3
   115         19
   116         15
   125          5
   129          2
   140          2
   143          5
   158         35
   161          2
   179          3