##TITLE=Library Entry 85568
##JCAMP-DX=Revision 4.10 
##DATA TYPE=MASS SPECTRUM
##SAMPLE DESCRIPTION=NIST Mass Spectrometry Data Center
##NAMES=HP
##CAS NAME=Junenol
##MOLFORM=C15H26O
##CAS REGISTRY NO=472-07-1
##MP= -300
##BP= -300
##MW= 222
##$RETENTION INDEX=1617
##$CONDENSED SPECTRUM=NO
##NPOINTS= 107
##XYDATA=(XY..XY) 1 
    27         47
    29         82
    31          8
    39        100
    40         32
    41        378
    42         31
    43        271
    44         15
    45          9
    51         26
    52         19
    53        140
    54         23
    55        263
    56         39
    57         97
    58          6
    63         10
    64          5
    65         89
    66         33
    67        313
    68         63
    69        206
    70         30
    71         72
    72         10
    73          5
    77        222
    78         37
    79        323
    80         62
    81        332
    82         70
    83         97
    84         56
    85         11
    91        302
    92         62
    93        363
    94         49
    95        296
    96         41
    97         93
    98         11
    99         12
   103         24
   104         14
   105        227
   106         52
   107        192
   108        156
   109        999
   110        103
   111         42
   112         14
   113         13
   115         30
   116         14
   117         36
   118         10
   119        147
   120         48
   121        171
   122         49
   123         96
   124         46
   125         36
   126         16
   128         17
   131         23
   133        169
   134         29
   135        193
   136         43
   137        111
   138         22
   139         26
   140         11
   147         52
   148         34
   149         37
   150         25
   151         38
   152         26
   153        133
   154         11
   161        322
   162         47
   165         14
   175         11
   176         13
   177         22
   178         12
   179        187
   180         36
   189        128
   190         22
   191         75
   192         13
   204        281
   205         32
   207         60
   208         13
   222         64
   223         12