##TITLE=Library Entry 14507
##JCAMP-DX=Revision 4.10 
##DATA TYPE=MASS SPECTRUM
##SAMPLE DESCRIPTION=H. Fales, LC, NHLBI, NIH, Bethesda, MD 20892
##NAMES=HP
##CAS NAME=Acetylandromedol
##MOLFORM=C22H36O7
##CAS REGISTRY NO=4720-09-6
##MP= -300
##BP= -300
##MW= 412
##$RETENTION INDEX=0
##$CONDENSED SPECTRUM=NO
##NPOINTS= 220
##XYDATA=(XY..XY) 1 
    41        139
    42         44
    43        999
    44         35
    45         85
    53         31
    54          9
    55        151
    56         57
    57         66
    58         29
    59         19
    60         17
    61         21
    63          6
    65         18
    66          9
    67         66
    68         18
    69        126
    70         29
    71        114
    72         21
    73         18
    74          6
    77         62
    78         81
    79         78
    80         17
    81         67
    82         36
    91         81
    92         22
    93        116
    94         44
    95        112
    96         23
    97         44
    98         16
    99         20
   100         13
   101         22
   103         11
   104          8
   105         63
   106         65
   107         79
   108         35
   109        173
   110         32
   111         63
   112         11
   113         18
   115         39
   116         50
   117         29
   118         13
   119         83
   120         51
   121         77
   122         37
   123         60
   124         65
   125         62
   126         31
   127         10
   128          9
   129         18
   130         11
   131         38
   132         24
   133        104
   134         40
   135         86
   136         37
   137         85
   138         30
   139         26
   140         65
   141         30
   142         10
   143         26
   144         10
   145         47
   146         21
   147         49
   148         54
   149         43
   150         20
   151         31
   152         11
   153         38
   154         15
   155         16
   156          5
   157         19
   158         10
   159         37
   160         15
   161         54
   162         40
   163        103
   164         42
   165         27
   166         32
   167         16
   168          8
   169         11
   170         10
   171        189
   172         46
   173         34
   174         24
   175         31
   176         22
   177         49
   178         19
   179         51
   180         18
   181         29
   182         12
   183         24
   184         52
   185         22
   186         10
   187         32
   188         22
   189         66
   190         22
   191         22
   192         10
   193         10
   194         14
   195         10
   197         21
   198          8
   199         18
   200          6
   201         21
   202         10
   203         11
   204          5
   205         35
   206         18
   207         20
   208          5
   209          6
   211         12
   212          8
   213         21
   214         12
   215         36
   216         19
   217         13
   219          9
   223         24
   224         12
   225         16
   227         29
   228         15
   229         24
   230         18
   231         13
   233         23
   234         39
   235         10
   237         12
   240         17
   241         33
   242         10
   243         11
   244          8
   245         13
   247         34
   248         12
   249         14
   252         15
   253          9
   255         79
   256         20
   257          8
   258         67
   259         27
   260          9
   261          4
   262          8
   265        105
   266         20
   267         74
   268         12
   269          8
   270         14
   271          7
   273         56
   274         13
   276          8
   280          8
   283         36
   284          8
   288         27
   289          8
   291         10
   298        196
   299         49
   300          7
   301         53
   302         12
   315         13
   316        138
   317         31
   330         11
   333          8
   334         29
   335          7
   343         19
   358         75
   359         19
   361         18
   376         49
   377         12