##TITLE=Library Entry 51234
##JCAMP-DX=Revision 4.10 
##DATA TYPE=MASS SPECTRUM
##SAMPLE DESCRIPTION=James Little,Eastman Chem.Co.,Kingsport,TN
##NAMES=HP
##CAS NAME=1-Methylvinylphosphonic acid
##MOLFORM=C3H7O3P
##CAS REGISTRY NO=4721-36-2
##MP= -300
##BP= -300
##MW= 122
##$RETENTION INDEX=0
##$CONDENSED SPECTRUM=NO
##NPOINTS= 31
##XYDATA=(XY..XY) 1 
    27         51
    29        147
    38         97
    39        527
    40        250
    41        368
    43        132
    47        381
    55         30
    57         71
    58        387
    63        119
    64        148
    65        533
    69        170
    80         32
    81        303
    82        999
    83        131
    89         18
    96        132
   103         24
   104         37
   105         34
   107         19
   119         70
   120         15
   121         59
   122        487
   123         58
   124         12