##TITLE=Library Entry 3758
##JCAMP-DX=Revision 4.10 
##DATA TYPE=MASS SPECTRUM
##SAMPLE DESCRIPTION=NIST Mass Spectrometry Data Center, 1994
##NAMES=HP
##CAS NAME=1,8-Cyclopentadecadiyne
##MOLFORM=C15H22
##CAS REGISTRY NO=4722-42-3
##MP= -300
##BP= -300
##MW= 202
##$RETENTION INDEX=0
##$CONDENSED SPECTRUM=NO
##NPOINTS= 86
##XYDATA=(XY..XY) 1 
    14          6
    15         22
    17          9
    18         16
    26         39
    27        493
    28         67
    29        289
    32          8
    39        805
    40        196
    41        999
    42         75
    43         63
    44          6
    50         72
    51        260
    52        303
    53        411
    54         88
    55        260
    56         16
    57          7
    62         12
    63         73
    64         29
    65        330
    66        120
    67        448
    68         39
    69         45
    75          8
    77        459
    78        175
    79        724
    80        133
    81        169
    82         12
    83          7
    89         15
    91        965
    92        196
    93        238
    94         48
    95         39
   102          9
   103         63
   104        114
   105        436
   106        119
   107         59
   108         10
   109          5
   115         95
   116         50
   117        412
   118        126
   119        174
   120         55
   121         15
   127         11
   128         35
   129         68
   130         49
   131        425
   132         97
   133        112
   134         38
   135         10
   141          7
   142          8
   143         20
   144          7
   145        282
   146        100
   147         60
   148         26
   157          6
   159        160
   160         33
   161         26
   173         50
   174         77
   175         10
   187         19
   201          5