##TITLE=Library Entry 85701
##JCAMP-DX=Revision 4.10 
##DATA TYPE=MASS SPECTRUM
##SAMPLE DESCRIPTION=Div. of Experiment Therapeutics WRAIR, WRAMC, Washingto
n DC 20307
##NAMES=HP
##CAS NAME=Hexan-1,6-diol, O,O'-bis[4-aminophenyl]-
##MOLFORM=C18H24N2O2
##CAS REGISTRY NO=47244-09-7
##MP= -300
##BP= -300
##MW= 300
##$RETENTION INDEX=0
##$CONDENSED SPECTRUM=NO
##NPOINTS= 81
##XYDATA=(XY..XY) 1 
    41        151
    42          7
    43         25
    44          1
    45          0
    47          1
    49          2
    51         42
    52         10
    53        142
    55        347
    56          2
    57          2
    60          0
    61          1
    62          3
    63          9
    64          3
    65        110
    66         11
    67          7
    68          3
    69          2
    70          1
    73          0
    74          0
    75          0
    76          0
    77         23
    80        320
    81         10
    83        137
    84          5
    86          1
    90          0
    91          2
    92         92
    94         92
    95          2
   103          1
   104          0
   105          0
   106         10
   108        258
   109        999
   110        107
   111          4
   115          0
   117          0
   118          0
   119          0
   120         11
   122        148
   123          5
   124          0
   130          0
   131          0
   133          1
   134          2
   135          3
   136          7
   143          1
   145          0
   146          0
   148          4
   150         11
   162          2
   163          1
   164          0
   165          0
   189          1
   191         35
   192         53
   193          3
   296          0
   297          1
   298          0
   299          0
   300        191
   301         40
   302          1