##TITLE=Library Entry 107215
##JCAMP-DX=Revision 4.10 
##DATA TYPE=MASS SPECTRUM
##SAMPLE DESCRIPTION=Chemical Concepts
##NAMES=HP
##CAS NAME=3,5-Dihydroxyphenylacetic acid, methyl ester
##MOLFORM=C9H10O4
##CAS REGISTRY NO=4724-10-1
##MP= -300
##BP= -300
##MW= 182
##$RETENTION INDEX=0
##$CONDENSED SPECTRUM=NO
##NPOINTS= 111
##XYDATA=(XY..XY) 1 
    26          5
    27         25
    28          4
    29         21
    30          3
    31         10
    36          2
    37          5
    38         15
    39         54
    40         14
    41         60
    42         17
    43         95
    44          6
    45          8
    46          2
    47          4
    49          3
    50         20
    51         41
    52         13
    53         28
    54          8
    55         63
    56         10
    57         28
    58         21
    59         65
    60          4
    61          4
    62          6
    63         10
    64          6
    65         42
    66         35
    67         60
    68         11
    69         63
    70         13
    71         20
    72          3
    73          5
    74          8
    75         10
    76          8
    77         40
    78         10
    79         11
    80          4
    81         25
    82          9
    83         14
    84          6
    85         12
    86          4
    87          2
    91          8
    92          3
    93         15
    94         42
    95         35
    96          7
    97         14
    98          4
    99          5
   103          4
   104          3
   105         16
   106         18
   107          7
   108          4
   109         14
   110         10
   111         18
   112          7
   113          6
   114          2
   119          4
   120          3
   121         24
   122         30
   123        999
   124        148
   125         16
   126          3
   127          4
   129          4
   131          2
   133          3
   135          4
   136          6
   137         26
   138          8
   139          6
   140          5
   141          2
   146          2
   147          3
   149         33
   150         56
   151         26
   152          4
   153         11
   154          2
   167          9
   181          3
   182        697
   183         77
   184         10
   185          2