##TITLE=Library Entry 10411
##JCAMP-DX=Revision 4.10 
##DATA TYPE=MASS SPECTRUM
##SAMPLE DESCRIPTION=CARL DJERASSI DEPT OF CHEM STANFORD UNIV STANFORD CALIF
 94305
##NAMES=HP
##CAS NAME=Androstan-6-one, 3-(acetyloxy)-5-hydroxy-, (3.beta.,5.alpha.)-
##MOLFORM=C21H32O4
##CAS REGISTRY NO=4725-53-5
##MP= -300
##BP= -300
##MW= 348
##$RETENTION INDEX=0
##$CONDENSED SPECTRUM=NO
##NPOINTS= 156
##XYDATA=(XY..XY) 1 
    40        188
    41        311
    42         37
    43        999
    44        240
    45         51
    51          9
    52          4
    53         80
    54         28
    55        438
    56         28
    57         47
    58          4
    60         18
    61         23
    65         23
    66         18
    67        353
    68        132
    69        188
    70         14
    71         33
    73          4
    77         89
    78         23
    79        254
    80         66
    81        400
    82        108
    83        132
    84         14
    85         18
    91        160
    92         56
    93        334
    94        155
    95        561
    96         75
    97         47
    99          4
   103          4
   104          4
   105        136
   106         51
   107        216
   108        235
   109        316
   110        268
   111        169
   112         14
   115          4
   117         28
   118         14
   119        103
   120         89
   121        165
   122         56
   123         61
   124         28
   125          9
   129          9
   130          4
   131         42
   132         14
   133        165
   134        108
   135        339
   136         70
   137         47
   138         28
   139         28
   141          4
   143          9
   145         42
   146         14
   147         61
   148         37
   149        113
   150         42
   151         33
   152         23
   153          4
   157          9
   158          4
   159         33
   160         14
   161         75
   162         28
   163         42
   164         14
   171          4
   173         18
   174          9
   175         28
   176         23
   177        103
   178         33
   179          9
   180         14
   185          9
   187         18
   188          9
   189         18
   190          9
   191        132
   192         18
   193          4
   197          9
   199          9
   200          4
   201         33
   202         14
   203         23
   204          9
   205         51
   206        245
   207         42
   213          4
   215          4
   216          4
   217          9
   218          9
   219         56
   220          9
   226          4
   227         33
   228          9
   229          4
   230          4
   231          9
   232          4
   235          4
   237          4
   241          9
   242         18
   243         14
   244          4
   245         56
   246          9
   252          4
   253          4
   254          4
   255         51
   256         14
   257          9
   260         42
   261          4
   270         23
   271          9
   272         18
   273         42
   274          4
   288        462
   289         94
   290          4