##TITLE=Library Entry 63349
##JCAMP-DX=Revision 4.10 
##DATA TYPE=MASS SPECTRUM
##SAMPLE DESCRIPTION=Japan AIST/NIMC Database- Spectrum MS-NW-8064
##NAMES=HP
##CAS NAME=4-Piperidinol, 1-(phenylmethyl)-
##MOLFORM=C12H17NO
##CAS REGISTRY NO=4727-72-4
##MP= -300
##BP= -300
##MW= 191
##$RETENTION INDEX=0
##$CONDENSED SPECTRUM=NO
##NPOINTS= 106
##XYDATA=(XY..XY) 1 
    15          8
    17          1
    18          4
    26          2
    27         20
    28         40
    29         24
    30         23
    31          8
    38          2
    39         37
    40          4
    41         35
    42        130
    43         26
    44        136
    45          9
    50          5
    51         19
    52          6
    53          9
    54         13
    55         36
    56        109
    57         18
    58          9
    59          3
    62          3
    63         16
    64          5
    65        119
    66          7
    67          4
    68          4
    69          7
    70         12
    71         14
    72          3
    73          2
    74          1
    75          1
    76          1
    77         13
    78          5
    79          6
    80          2
    81          1
    82         40
    83          3
    84          7
    85          2
    86          1
    87          1
    89         22
    90         14
    91        999
    92        160
    93          9
    94          1
    95          2
    96          9
    98          3
    99          2
   100        446
   101         26
   102          2
   103          3
   104         23
   105         11
   106          7
   107          7
   112          1
   113          8
   114        388
   115         28
   116          3
   117         11
   118         24
   119          9
   120         19
   121          1
   130          3
   131          3
   132         54
   133         10
   134         12
   135          6
   143          1
   144          4
   145          2
   146         64
   147          8
   158          2
   160          1
   162          1
   172         24
   173          9
   174         31
   175          4
   176          1
   188          2
   189          2
   190        351
   191        512
   192         70
   193          5