##TITLE=Library Entry 19392
##JCAMP-DX=Revision 4.10 
##DATA TYPE=MASS SPECTRUM
##SAMPLE DESCRIPTION=NIST Mass Spectrometry Data Center, 1990.
##NAMES=HP
##CAS NAME=Cyclopentadecanol
##MOLFORM=C15H30O
##CAS REGISTRY NO=4727-17-7
##MP= -300
##BP= -300
##MW= 226
##$RETENTION INDEX=1987
##$CONDENSED SPECTRUM=NO
##NPOINTS= 65
##XYDATA=(XY..XY) 1 
    27        118
    28         27
    29        233
    31         32
    39        209
    40         75
    41        942
    42        211
    43        343
    44         79
    45         37
    51         15
    52         15
    53        154
    54        355
    55        999
    56        215
    57        466
    58         57
    59         14
    65         43
    66        111
    67        705
    68        458
    69        466
    70        136
    71        162
    72         27
    77         36
    78         11
    79         87
    80         79
    81        619
    82        822
    83        404
    84         73
    85         62
    91         15
    93         28
    94         45
    95        398
    96        586
    97        242
    98         43
    99         15
   108         20
   109        178
   110        172
   111         60
   112         18
   122         15
   123        100
   124        108
   125         31
   126         16
   137         59
   138         57
   139         11
   151         31
   152         44
   165         15
   166         15
   180         36
   208        121
   209         19