##TITLE=Library Entry 19282
##JCAMP-DX=Revision 4.10 
##DATA TYPE=MASS SPECTRUM
##SAMPLE DESCRIPTION=L.E. Slivon, Battelle Columbus Laboratories, Columbus,
 Ohio 43201
##NAMES=HP
##CAS NAME=Cyclopentadecanone, 2-hydroxy-
##MOLFORM=C15H28O2
##CAS REGISTRY NO=4727-18-8
##MP= -300
##BP= -300
##MW= 240
##$RETENTION INDEX=1846
##$CONDENSED SPECTRUM=NO
##NPOINTS= 179
##XYDATA=(XY..XY) 1 
    40         31
    41        994
    42        336
    43        625
    45         39
    46          2
    47          1
    48          1
    49          1
    50          3
    51          8
    52          5
    53         89
    54        172
    55        999
    56        393
    57        334
    58        102
    59         51
    60        115
    61         49
    62          2
    63          2
    64          1
    65         17
    66         34
    67        315
    68        322
    69        775
    70        293
    71        202
    72         20
    73        193
    74         20
    75          3
    76          0
    77         11
    78          8
    79         62
    80         55
    81        328
    82        465
    83        610
    84        359
    85         91
    86         18
    87         76
    88         10
    89          4
    90          0
    91         16
    92          5
    93         38
    94         58
    95        241
    96        456
    97        465
    98        368
    99         65
   100         53
   101         77
   102         19
   103          3
   104          1
   105          9
   106          5
   107         27
   108         46
   109        124
   110        237
   111        196
   112        103
   113         61
   114         88
   115         61
   116         66
   117          7
   118          3
   119         25
   120         11
   121         34
   122         39
   123        127
   124        150
   125        102
   126         37
   127         81
   128         24
   129         76
   130         16
   131          2
   132          1
   133         25
   134         34
   135         31
   136         21
   137         89
   138        119
   139         51
   140         18
   141         36
   142          8
   143         13
   144         12
   145          2
   146          0
   147         21
   148         24
   149         20
   150         18
   151         60
   152         69
   153         24
   154          8
   155         13
   156          4
   157          8
   158         13
   159          5
   160          0
   161         15
   162          8
   163          7
   164          3
   165         30
   166         16
   167         12
   168          7
   169          8
   170          2
   171         18
   172         33
   173          9
   174          1
   175          9
   176          7
   177          2
   178         43
   179         28
   180         60
   181         14
   182          3
   183          5
   184          2
   185          3
   186          0
   187          0
   188          0
   189          0
   190          0
   191          0
   192          0
   193         12
   194         15
   195          3
   196          1
   197         11
   198          1
   199          0
   203          0
   204          8
   205          1
   206          0
   207          1
   208          0
   209          0
   210          1
   211          2
   212          2
   213          0
   218          0
   221          0
   222         29
   223          6
   224          0
   225          0
   238          0
   240         15
   241          2