##TITLE=Library Entry 48932
##JCAMP-DX=Revision 4.10 
##DATA TYPE=MASS SPECTRUM
##SAMPLE DESCRIPTION=Exported from NIST MS Search
##NAMES=HP
##CAS NAME=Spiro[4.5]decan-1-one
##MOLFORM=C10H16O
##CAS REGISTRY NO=4728-91-0
##MP= -300
##BP= -300
##MW= 152
##$RETENTION INDEX=0
##$CONDENSED SPECTRUM=NO
##NPOINTS= 57
##XYDATA=(XY..XY) 1 
    38         40
    39        632
    40        163
    41        724
    42         77
    43         57
    44          3
    50         40
    51        116
    52         69
    53        312
    54        367
    55        436
    56         46
    57         12
    65        112
    66         97
    67        685
    68        408
    69        130
    70         14
    71         14
    77        138
    78         65
    79        999
    80        102
    81        867
    82        134
    83        108
    84        265
    85         34
    91        126
    92         73
    93        163
    94        214
    95        163
    96        183
    97        738
    98         61
   105         34
   106         30
   107         30
   108        183
   109         77
   110        204
   111        134
   119         49
   120         24
   123         12
   124         57
   125         24
   134         71
   137         16
   150         57
   151         34
   152        306
   153         36