##TITLE=Library Entry 49444
##JCAMP-DX=Revision 4.10 
##DATA TYPE=MASS SPECTRUM
##SAMPLE DESCRIPTION=D.HENNEBERG, MAX-PLANCK INSTITUTE, MULHEIM, WEST GERMAN
Y
##NAMES=HP
##CAS NAME=Bicyclo[6.1.0]non-4-ene
##MOLFORM=C9H14
##CAS REGISTRY NO=4729-13-9
##MP= -300
##BP= -300
##MW= 122
##$RETENTION INDEX=0
##$CONDENSED SPECTRUM=NO
##NPOINTS= 43
##XYDATA=(XY..XY) 1 
    27        375
    28        139
    29        118
    37         22
    38         40
    39        629
    40        132
    41         58
    42         58
    43         13
    44         46
    50         48
    51         91
    52         57
    53        349
    54        728
    55        146
    56         13
    58         14
    62         16
    63         42
    65         98
    66        161
    67        800
    68        231
    69         17
    74         20
    75         27
    77        136
    78         75
    79        568
    80        999
    81        479
    82         37
    91         69
    92         17
    93        258
    94        134
    95         19
   105         12
   107         69
   121         14
   122         38