##TITLE=Library Entry 67293
##JCAMP-DX=Revision 4.10 
##DATA TYPE=MASS SPECTRUM
##SAMPLE DESCRIPTION=NIST Mass Spectrometry Data Center
##NAMES=HP
##CAS NAME=3,6-Ditigloyloxytropane
##MOLFORM=C18H27NO4
##CAS REGISTRY NO=47295-99-8
##MP= -300
##BP= -300
##MW= 321
##$RETENTION INDEX=2587
##$CONDENSED SPECTRUM=NO
##NPOINTS= 86
##XYDATA=(XY..XY) 1 
    27         13
    29         29
    39         21
    41         23
    42         48
    43         17
    45          3
    46          1
    53         48
    54         32
    55        262
    56         14
    64          5
    65         11
    66          6
    68         13
    69          5
    73          4
    74          2
    78         17
    80         14
    81         76
    82         74
    83         99
    84         14
    93          7
    94        999
    95        780
    96        101
    97         38
    98         12
   106          9
   107         12
   108         17
   110         12
   111          4
   112         22
   113         11
   120         13
   121        108
   122        510
   123         48
   127          4
   129          3
   133          3
   135          4
   138        104
   139          8
   140         14
   148          2
   149          4
   151          3
   152          3
   153          2
   156          3
   159         11
   163          2
   165          2
   169          1
   175          1
   176          2
   178          1
   180          2
   187          2
   193          2
   194          4
   195         35
   196          6
   198          2
   205          1
   206         20
   213          4
   215          8
   220          4
   221         44
   222        129
   223         22
   224          2
   238         80
   239          6
   280          1
   292          6
   306          7
   307          5
   321         77
   322         14