##TITLE=Library Entry 10626
##JCAMP-DX=Revision 4.10 
##DATA TYPE=MASS SPECTRUM
##SAMPLE DESCRIPTION=Chemical Concepts
##NAMES=HP
##CAS NAME=Bicyclo[3.1.1]heptan-2-ol, 2,6,6-trimethyl-
##MOLFORM=C10H18O
##CAS REGISTRY NO=473-54-1
##MP= -300
##BP= -300
##MW= 154
##$RETENTION INDEX=1135
##$CONDENSED SPECTRUM=NO
##NPOINTS= 95
##XYDATA=(XY..XY) 1 
    27        310
    28         38
    29        212
    30          5
    31         35
    37          5
    38         17
    39        307
    40         50
    41        481
    42         46
    43        999
    44         25
    45         37
    46          1
    48          1
    49          2
    50         18
    51         54
    52         22
    53        161
    54         32
    55        320
    56         69
    57         39
    58         65
    59         50
    60          3
    61          2
    62          4
    63         16
    64          3
    65         45
    66         21
    67        129
    68         83
    69        184
    70         29
    71        502
    72         47
    73          6
    74          1
    75          3
    77         88
    78         18
    79        116
    80        148
    81        309
    82         52
    83        205
    84         74
    85         34
    86         22
    87          1
    89          3
    90          1
    91         67
    92         90
    93        384
    94         65
    95         86
    96        167
    97         47
    98         42
    99        717
   100         43
   101          2
   103          3
   105         24
   106          7
   107         53
   108         36
   109         12
   110         14
   111        104
   112         12
   113          7
   115          1
   117          2
   119          5
   120          1
   121        172
   122         16
   123          4
   125         13
   126         40
   127          3
   135          2
   136         67
   137         11
   138          2
   139         59
   140          6
   154         13
   155          1