##TITLE=Library Entry 85569
##JCAMP-DX=Revision 4.10 
##DATA TYPE=MASS SPECTRUM
##SAMPLE DESCRIPTION=N.W. Davies, Centr. Sci. Lab., Univ. Tasmania, Hobart,
 Australia
##NAMES=HP
##CAS NAME=Verbenol
##MOLFORM=C10H16O
##CAS REGISTRY NO=473-67-6
##MP= -300
##BP= -300
##MW= 152
##$RETENTION INDEX=1140
##$CONDENSED SPECTRUM=NO
##NPOINTS= 86
##XYDATA=(XY..XY) 1 
    26         13
    27        369
    30         15
    31         50
    36          6
    37          6
    38         18
    39        451
    40         25
    41        893
    42         53
    43        407
    44         10
    45         47
    50         28
    51        116
    52         48
    53        232
    54         48
    55        429
    56        174
    57        394
    58         23
    59        393
    60         93
    61         36
    62         11
    63         36
    64         14
    65        150
    66         48
    67        310
    68         60
    69        430
    70         48
    71         25
    72         50
    74         11
    77        233
    78         63
    79        232
    80        190
    81        539
    82        219
    83        359
    84        279
    85         23
    87          9
    89         12
    91        427
    92        121
    93        159
    94        743
    95        337
    96        166
    97        114
    98         14
    99          6
   101         22
   102         26
   103         86
   104         13
   105        109
   106         20
   107        174
   108         81
   109        999
   110        109
   111         11
   115         24
   117         27
   118          7
   119        248
   120         36
   121        136
   122         25
   123        105
   124         14
   125         19
   133         10
   134        132
   135         18
   137        132
   138         10
   143         14
   152         48