##TITLE=Library Entry 65054
##JCAMP-DX=Revision 4.10 
##DATA TYPE=MASS SPECTRUM
##SAMPLE DESCRIPTION=R.T. LOEFFLER,LONG ASHTON RES. STN.,LONG ASHTON,BRISTOL
,U.K.
##NAMES=HP
##CAS NAME=4-Aminophenyl trifluoromethyl sulfone
##MOLFORM=C7H6F3NO2S
##CAS REGISTRY NO=473-27-8
##MP= -300
##BP= -300
##MW= 225
##$RETENTION INDEX=0
##$CONDENSED SPECTRUM=NO
##NPOINTS= 65
##XYDATA=(XY..XY) 1 
    37         23
    38         81
    39        323
    40         99
    41        133
    42         41
    43         32
    44         96
    45         31
    46         12
    48         30
    49         11
    50         56
    51         44
    52        114
    53         53
    54         35
    55         20
    56         15
    57         37
    60         17
    61         22
    62         63
    63        152
    64        150
    65        994
    66        118
    67         14
    69        141
    70         18
    71         17
    74         17
    75         15
    76         11
    78         12
    79         22
    80         54
    81         14
    83         15
    84         11
    85         35
    87         10
    90         21
    91         94
    92        999
    93         76
    95         22
    96         12
    97         17
   107         16
   108        475
   109         36
   123         15
   124         14
   130         10
   132         10
   140         55
   142         14
   149         26
   155         20
   156        663
   157         52
   158         34
   225        114
   226         11