##TITLE=Library Entry 30590
##JCAMP-DX=Revision 4.10 
##DATA TYPE=MASS SPECTRUM
##SAMPLE DESCRIPTION=NIST Mass Spectrometry Data Center
##NAMES=HP
##CAS NAME=2-Naphthalenemethanol, decahydro-.alpha.,.alpha.,4a-trimethyl-8-m
ethylene-, [2R-(2.alpha.,4a.alpha.,8a.beta.)]-
##MOLFORM=C15H26O
##CAS REGISTRY NO=473-15-4
##MP= -300
##BP= -300
##MW= 222
##$RETENTION INDEX=1649
##$CONDENSED SPECTRUM=NO
##NPOINTS= 132
##XYDATA=(XY..XY) 1 
    15          2
    26          1
    27         20
    28          3
    29         33
    31         38
    39         53
    40         13
    41        173
    42         13
    43        173
    44          4
    45         16
    50          3
    51         16
    52         11
    53         83
    54         17
    55        147
    56         12
    57         17
    58         18
    59        999
    60         33
    61          3
    62          1
    63          5
    64          2
    65         44
    66         19
    67        169
    68         47
    69         52
    70          4
    71         31
    72          3
    73          2
    74          1
    75          2
    76          2
    77        105
    78         28
    79        200
    80         51
    81        187
    82        132
    83         50
    84          5
    85          3
    87          1
    89          3
    90          1
    91        175
    92         35
    93        203
    94         78
    95        172
    96         58
    97         27
    98          2
    99          1
   102          2
   103         11
   104          6
   105        137
   106         30
   107        154
   108        251
   109        230
   110         38
   111          6
   112          1
   115         12
   116          4
   117         16
   118          9
   119         59
   120         20
   121        152
   122        178
   123        151
   124         14
   125         14
   126          2
   127          2
   128          5
   129          4
   130          3
   131          8
   132          3
   133         57
   134         14
   135         95
   136         23
   137          9
   138          1
   139          1
   141          2
   142          1
   143          1
   144          1
   145          9
   146          2
   147         37
   148         22
   149        466
   150         75
   151          8
   152          1
   159          2
   160          2
   161         51
   162         16
   163         15
   164        208
   165         35
   166          3
   173          1
   175          5
   176          3
   177          1
   189         49
   190          8
   191          1
   203          1
   204         26
   205          5
   206          1
   207         11
   208          2
   222         12
   223          2