##TITLE=Library Entry 21022
##JCAMP-DX=Revision 4.10 
##DATA TYPE=MASS SPECTRUM
##SAMPLE DESCRIPTION=NIST Mass Spectrometry Data Center, 1998.
##NAMES=HP
##CAS NAME=Bicyclo[3.1.1]heptane, 2,6,6-trimethyl-
##MOLFORM=C10H18
##CAS REGISTRY NO=473-55-2
##MP= -300
##BP= -300
##MW= 138
##$RETENTION INDEX=1002
##$CONDENSED SPECTRUM=NO
##NPOINTS= 76
##XYDATA=(XY..XY) 1 
    15          6
    26          6
    27        128
    29        107
    30          3
    37          2
    38         12
    39        307
    40         51
    41        674
    42         58
    43        111
    44          4
    45          1
    46          1
    50         20
    51         69
    52         34
    53        224
    54         72
    55        999
    56         78
    57         57
    58          5
    59          1
    61          1
    62          5
    63         19
    64          4
    65         80
    66         29
    67        691
    68        320
    69        483
    70         69
    71          6
    74          2
    75          2
    76          2
    77        117
    78         24
    79        175
    80         75
    81        601
    82        641
    83        529
    84         62
    85          3
    89          3
    91         70
    92          9
    93         56
    94        109
    95        923
    96        337
    97         49
    98          3
   102          1
   103          4
   104          1
   105          9
   106          1
   107          8
   108          4
   109        102
   110         46
   111          3
   115          2
   119          1
   121          3
   123        290
   124         29
   125          1
   137          1
   138         18
   139          2