##TITLE=Library Entry 9658
##JCAMP-DX=Revision 4.10 
##DATA TYPE=MASS SPECTRUM
##SAMPLE DESCRIPTION=A.Swigar, R.Silverstein, Monoterpenes,1981
##NAMES=HP
##CAS NAME=Pinonic acid
##MOLFORM=C10H16O3
##CAS REGISTRY NO=473-72-3
##MP= -300
##BP= -300
##MW= 184
##$RETENTION INDEX=1427
##$CONDENSED SPECTRUM=NO
##NPOINTS= 55
##XYDATA=(XY..XY) 1 
    31         30
    39        238
    40         64
    41        483
    42         81
    43        999
    44         41
    45         71
    50         41
    51         51
    52         43
    53        131
    54         41
    55        318
    56         73
    57         41
    58         41
    59         69
    65         41
    67         90
    68        242
    69        801
    70         92
    71        693
    72         94
    73         41
    77         43
    79         56
    80         37
    81        154
    82         54
    83        996
    84         75
    85         43
    91         43
    95        105
    96        154
    97         43
    98        393
    99         94
   107         47
   108         30
   109        103
   113         30
   114        217
   115         30
   123         75
   124         81
   125        154
   126         36
   127         34
   151         26
   166         66
   169         51
   184         39