##TITLE=Library Entry 11289
##JCAMP-DX=Revision 4.10 
##DATA TYPE=MASS SPECTRUM
##SAMPLE DESCRIPTION=A.A.Kutin, Moscow, Russia
##NAMES=HP
##CAS NAME=Guanazine
##MOLFORM=C2H6N6
##CAS REGISTRY NO=473-96-1
##MP= -300
##BP= -300
##MW= 114
##$RETENTION INDEX=0
##$CONDENSED SPECTRUM=NO
##NPOINTS= 44
##XYDATA=(XY..XY) 1 
    33          1
    34         12
    39         29
    40         68
    41        115
    42        340
    43        999
    44        108
    45         12
    46          1
    47          3
    49          0
    50          3
    51          6
    52          8
    53         38
    54         21
    55         20
    56         26
    57        113
    58         70
    59         11
    60         38
    61          7
    67         10
    68         63
    69         83
    70        174
    71         16
    72          5
    73         33
    74          6
    75          3
    84         54
    85         18
    86          3
    98         61
    99        358
   100         17
   101          2
   114        663
   115         36
   116          3
   117          1