##TITLE=Library Entry 83734
##JCAMP-DX=Revision 4.10 
##DATA TYPE=MASS SPECTRUM
##SAMPLE DESCRIPTION=Chemical Concepts
##NAMES=HP
##CAS NAME=Bicyclo[3.1.1]hept-2-en-6-one, 2,7,7-trimethyl-
##MOLFORM=C10H14O
##CAS REGISTRY NO=473-06-3
##MP= -300
##BP= -300
##MW= 150
##$RETENTION INDEX=1123
##$CONDENSED SPECTRUM=NO
##NPOINTS= 80
##XYDATA=(XY..XY) 1 
    26          8
    27        146
    28          3
    29         81
    34          0
    37          3
    38         27
    39        251
    40         42
    41        233
    42         45
    43         57
    44          5
    50         38
    51         96
    52         48
    53        100
    54         32
    55         88
    56         11
    57          6
    58          4
    59          5
    60          2
    61          3
    62          8
    63         37
    64          9
    65         84
    66         31
    67         77
    68         15
    69         25
    70         97
    71          7
    73          2
    74          6
    75          0
    76          0
    77        158
    78         45
    79        283
    80        397
    81         78
    82        122
    83         15
    89          3
    90          6
    91        572
    92         92
    93         81
    94         44
    95        121
    96         15
    97          2
    98          2
   102          1
   103         19
   105        181
   106         36
   107        999
   108        161
   109         70
   115         19
   116          3
   117         20
   119         21
   120          1
   121         55
   122        257
   123         30
   131          2
   132          6
   133          5
   134          6
   135        191
   136         16
   149         20
   150        338
   151         47