##TITLE=Library Entry 37221
##JCAMP-DX=Revision 4.10 
##DATA TYPE=MASS SPECTRUM
##SAMPLE DESCRIPTION=Chemical Concepts
##NAMES=HP
##CAS NAME=Bicyclo[3.1.1]heptan-3-ol, 2,6,6-trimethyl-
##MOLFORM=C10H18O
##CAS REGISTRY NO=473-61-0
##MP= -300
##BP= -300
##MW= 154
##$RETENTION INDEX=0
##$CONDENSED SPECTRUM=NO
##NPOINTS= 73
##XYDATA=(XY..XY) 1 
    26          5
    27        157
    28         46
    29        160
    30          6
    38          6
    39        162
    40         25
    41        480
    42        110
    43        749
    44         52
    45         23
    50          7
    52         11
    53         90
    54         26
    55        485
    56         77
    57         88
    58         25
    59         13
    63          9
    65         33
    66         14
    67        146
    68         42
    69        504
    70        999
    71        180
    72         21
    77         59
    78         16
    79        108
    80         46
    81        296
    82         74
    83        220
    84        484
    85         79
    86          8
    91         58
    92         61
    93        198
    94         54
    95        203
    96         44
    97         30
    98        120
    99         70
   100          8
   101          6
   105         21
   106         10
   107         49
   108         13
   109         14
   110         93
   111         33
   112          8
   113         10
   119          8
   120         10
   121        130
   122         16
   136         60
   137          9
   138          0
   139         19
   140          2
   141          0
   154          0
   155          0