##TITLE=Library Entry 45145
##JCAMP-DX=Revision 4.10 
##DATA TYPE=MASS SPECTRUM
##SAMPLE DESCRIPTION=Leung Pu, NIH, Bethesda, Maryland, U.S.
##NAMES=HP
##CAS NAME=Propanoic acid, 2,3-dihydroxy-
##MOLFORM=C3H6O4
##CAS REGISTRY NO=473-81-4
##MP= -300
##BP= -300
##MW= 106
##$RETENTION INDEX=0
##$CONDENSED SPECTRUM=NO
##NPOINTS= 34
##XYDATA=(XY..XY) 1 
    42         48
    43        114
    44         23
    45        170
    47        171
    53          1
    54          1
    55          9
    56          8
    57         19
    58         15
    59         69
    60         39
    61         68
    62          4
    68          0
    69          3
    70          3
    71         22
    72          7
    73         49
    74         77
    75        999
    76         30
    77          8
    78          1
    82          0
    83          3
    89         67
    90         31
    91          7
   105          1
   106          6
   107          0