##TITLE=Library Entry 30591
##JCAMP-DX=Revision 4.10 
##DATA TYPE=MASS SPECTRUM
##SAMPLE DESCRIPTION=N.W. Davies, Centr. Sci. Lab., Univ. Tasmania, Hobart,
 Australia
##NAMES=HP
##CAS NAME=2-Naphthalenemethanol, 1,2,3,4,4a,5,6,8a-octahydro-.alpha.,.alpha
.,4a,8-tetramethyl-, [2R-(2.alpha.,4a.alpha.,8a.beta.)]-
##MOLFORM=C15H26O
##CAS REGISTRY NO=473-16-5
##MP= -300
##BP= -300
##MW= 222
##$RETENTION INDEX=1653
##$CONDENSED SPECTRUM=NO
##NPOINTS= 143
##XYDATA=(XY..XY) 1 
    22         11
    26          6
    27         27
    28          1
    29          1
    30          1
    31         59
    32          1
    33          2
    34          1
    36          1
    38          1
    39         52
    40          1
    41        213
    42          1
    43        114
    44          1
    45         14
    46          5
    50          4
    51          7
    52          1
    53         70
    54          1
    55        154
    56          1
    57         42
    58          6
    59        999
    60         19
    61          1
    63          1
    64          9
    65         29
    66          7
    67        122
    68          6
    69        114
    70          5
    71         16
    72         16
    73          7
    74          3
    75          4
    77         62
    78         19
    79        157
    80          8
    81        204
    82         49
    83         21
    84          4
    85          4
    86          6
    87          1
    89          2
    90          6
    91        151
    92         33
    93        234
    94         48
    95        145
    96         61
    97         24
    98         11
    99          1
   100          5
   102          7
   103          1
   104          5
   105        168
   106          9
   107        241
   108         78
   109        235
   110         22
   111          6
   113          5
   115          1
   116          5
   117         14
   118          1
   119         63
   120         19
   121         74
   122        148
   123        103
   124          3
   125          2
   127          1
   128          3
   129          1
   130          3
   131         10
   132          6
   133        145
   134         18
   135        120
   136         19
   137          3
   138          7
   139          4
   142          1
   144          7
   145          9
   146          3
   147         86
   148         30
   149        515
   150         66
   151          8
   152          6
   153          6
   155          1
   157          3
   159         19
   160          3
   161        442
   162         61
   163         65
   164         16
   165          1
   173          7
   175         83
   176         14
   177          9
   178          1
   187          8
   189        436
   190         58
   191          7
   192          7
   193          5
   202          8
   203          9
   204        361
   205         51
   206          7
   207         20
   220          7
   222         26
   223          1