##TITLE=Library Entry 47390
##JCAMP-DX=Revision 4.10 
##DATA TYPE=MASS SPECTRUM
##SAMPLE DESCRIPTION=Japan AIST/NIMC Database- Spectrum MS-NW-1803
##NAMES=HP
##CAS NAME=N,N-Dichlorobenzenesulfonamide
##MOLFORM=C6H5Cl2NO2S
##CAS REGISTRY NO=473-29-0
##MP= -300
##BP= -300
##MW= 225
##$RETENTION INDEX=0
##$CONDENSED SPECTRUM=NO
##NPOINTS= 59
##XYDATA=(XY..XY) 1 
    26          2
    27         14
    28          7
    35          5
    36         17
    37          5
    38         10
    39         25
    40          1
    41          2
    44          1
    45          5
    48          3
    49          4
    50         68
    51        216
    52         10
    53          4
    57          1
    61          2
    62          3
    63          8
    64          8
    65         12
    66          2
    69          5
    70          9
    72          7
    73          3
    74         17
    75         12
    76         16
    77        999
    78         65
    79          1
    81          1
    82          1
    84          1
    90          6
    91         11
    92          1
    93          9
    94          4
    97          8
    99          3
   109          2
   112          8
   114          3
   125         19
   126          4
   127          1
   128          1
   141        398
   142         31
   143         20
   144          1
   176         26
   177          2
   178          9