##TITLE=Library Entry 25215
##JCAMP-DX=Revision 4.10 
##DATA TYPE=MASS SPECTRUM
##SAMPLE DESCRIPTION=NIST Mass Spectrometry Data Center, 1990.
##NAMES=HP
##CAS NAME=2-Bromo-6-methylheptane
##MOLFORM=C8H17Br
##CAS REGISTRY NO=4730-24-9
##MP= -300
##BP= -300
##MW= 192
##$RETENTION INDEX=0
##$CONDENSED SPECTRUM=NO
##NPOINTS= 42
##XYDATA=(XY..XY) 1 
    14          2
    15         20
    18          8
    26         28
    27        323
    28         88
    29        246
    30          6
    32          0
    39        311
    40         88
    41        878
    42        296
    43        809
    44         31
    50          8
    51         23
    52         11
    53         69
    54          8
    55        519
    56        195
    57        999
    58         40
    65         11
    67         28
    69        275
    71        968
    72         51
    77          7
    79         11
    81         10
    83          7
    84         10
    97         55
   107         15
   109         15
   113        164
   114         13
   121          7
   149         56
   151         59