##TITLE=Library Entry 6242
##JCAMP-DX=Revision 4.10 
##DATA TYPE=MASS SPECTRUM
##SAMPLE DESCRIPTION=Chemical Concepts
##NAMES=HP
##CAS NAME=Trioctylphosphine
##MOLFORM=C24H51P
##CAS REGISTRY NO=4731-53-7
##MP= -300
##BP= -300
##MW= 370
##$RETENTION INDEX=0
##$CONDENSED SPECTRUM=NO
##NPOINTS= 226
##XYDATA=(XY..XY) 1 
    26          7
    27        197
    28         35
    29        624
    30         14
    33          2
    34          2
    35          3
    36          2
    37          1
    38          1
    39         75
    40         14
    41        922
    42         97
    43        999
    44         32
    45         44
    46         16
    47         58
    48        121
    49         50
    50          1
    51          3
    52          1
    53         34
    54         29
    55        762
    56         72
    57        335
    58         19
    59         99
    60         54
    61        316
    62        815
    63         74
    64         11
    65          8
    66          4
    67         70
    68         20
    69        474
    70         45
    71         95
    72         13
    73        133
    74        148
    75        281
    76        868
    77         52
    78         37
    79         16
    80          4
    81         35
    82         10
    83         41
    84          8
    85         27
    86         13
    87         91
    88        175
    89        198
    90        334
    91         29
    92         21
    93          3
    94          3
    95         11
    96          2
    97         14
    98          2
    99         18
   100         21
   101         93
   102        156
   103        148
   104        197
   105         20
   106          6
   107          1
   109          3
   110          3
   111         11
   112         19
   113         15
   114         15
   115         72
   116         91
   117        122
   118        113
   119         15
   120          3
   121          1
   127          8
   128          6
   129         59
   130         40
   131         89
   132         53
   133          7
   134          1
   135          1
   136          1
   137          2
   141          7
   142          3
   143         55
   144         22
   145        278
   146         79
   147         93
   148          9
   149          2
   155          7
   156          2
   157         41
   158         13
   159        126
   160        661
   161        119
   162         12
   163          4
   169          5
   170          1
   171         43
   172         10
   173        188
   174        415
   175         54
   176         15
   177          6
   178          1
   179          8
   180          7
   181          5
   182          2
   183          4
   184          1
   185         31
   186          7
   187        233
   188        167
   189         27
   190          9
   193          3
   197          3
   199         37
   200          9
   201        125
   202         84
   203         18
   204          3
   211          2
   213         32
   214          7
   215        189
   216         74
   217         15
   218          1
   225          2
   227         33
   228          5
   229        148
   230         41
   231          9
   232          1
   239          1
   241         34
   242          6
   243        100
   244         21
   245          6
   246          1
   253          2
   255         31
   257        215
   258        849
   259        207
   260         23
   261          1
   267          1
   269         21
   271         70
   272        150
   273         33
   274         13
   275         16
   276          2
   281          1
   283         30
   285        454
   286        113
   287         15
   288          3
   289          1
   291          3
   297         17
   298          4
   299         92
   300         25
   301          8
   302          1
   311         19
   313        287
   314         66
   315          9
   325         14
   327        372
   328         84
   329         15
   330          1
   339         10
   341        267
   342         63
   343         11
   344          1
   353          3
   355         61
   356         16
   357          3
   367          4
   369        227
   370        276
   371         84
   372         13
   373          2