##TITLE=Library Entry 81840
##JCAMP-DX=Revision 4.10 
##DATA TYPE=MASS SPECTRUM
##SAMPLE DESCRIPTION=Chemical Concepts
##NAMES=HP
##CAS NAME=Glyoxylamide, N,2-diphenyl-
##MOLFORM=C14H11NO2
##CAS REGISTRY NO=4732-66-5
##MP= -300
##BP= -300
##MW= 225
##$RETENTION INDEX=0
##$CONDENSED SPECTRUM=NO
##NPOINTS= 104
##XYDATA=(XY..XY) 1 
    26          2
    27         21
    28          8
    29          0
    30          0
    36          0
    37          2
    38         12
    39         55
    40          2
    41          3
    42          0
    43          0
    44          0
    47          0
    49          1
    50         49
    51        234
    52         20
    53          2
    54          0
    55          0
    56          0
    57          0
    60          0
    61          0
    62          4
    63         15
    64         17
    65         58
    66          5
    67          0
    68          0
    69          0
    71          0
    72          0
    74          9
    75          9
    76         23
    77        740
    78         57
    79          1
    80          0
    81          0
    82          0
    84          0
    85          0
    86          0
    87          0
    88          0
    89          0
    90          1
    91         19
    92         58
    93          6
    94          1
    95          0
    98          0
   102          0
   103          0
   104          5
   105        999
   106        140
   107          8
   108          0
   109          0
   113          0
   114          0
   115          0
   118          0
   119        137
   120         86
   121          8
   122          0
   126          0
   127          0
   134          0
   135          0
   139          0
   141          0
   146          0
   149          0
   150          0
   151          0
   152          1
   153          0
   162          0
   166          0
   167          1
   168          0
   178          0
   180          0
   181          0
   191          0
   195          0
   196          0
   197          2
   198          0
   212          0
   224          1
   225        839
   226        144
   227         14
   228          1