##TITLE=Library Entry 18739
##JCAMP-DX=Revision 4.10 
##DATA TYPE=MASS SPECTRUM
##SAMPLE DESCRIPTION=D.HENNEBERG, MAX-PLANCK INSTITUTE, MULHEIM, WEST GERMAN
Y
##NAMES=HP
##CAS NAME=1,5,9-Cyclododecatriene, (Z,Z,Z)-
##MOLFORM=C12H18
##CAS REGISTRY NO=4736-48-5
##MP= -300
##BP= -300
##MW= 162
##$RETENTION INDEX=1292
##$CONDENSED SPECTRUM=NO
##NPOINTS= 92
##XYDATA=(XY..XY) 1 
    25          2
    26          9
    27        169
    28         55
    29         68
    30          0
    33          0
    34          0
    35          0
    37          4
    38         10
    39        401
    40         38
    41        408
    42         19
    43         19
    46          0
    49          1
    50         15
    51         56
    52         35
    53        146
    54        999
    55        118
    56          9
    58          2
    59          0
    61          0
    62          4
    63         20
    64          7
    65        106
    66        219
    67        752
    68         55
    69         12
    70          1
    71          2
    74         14
    75         13
    76          4
    77        175
    78        158
    79        891
    80        690
    81        164
    82         18
    83          8
    84          0
    86          0
    87          1
    88          0
    89          8
    90          6
    91        316
    92        186
    93        475
    94        140
    95        105
    96         65
    97          5
   101          0
   102          1
   103          7
   104          6
   105        114
   106         72
   107         70
   108         48
   109          4
   115          5
   116          1
   117          8
   118          4
   119        134
   120         76
   121         78
   122          6
   128          1
   129          1
   130          0
   131          2
   132          1
   133        131
   134         69
   135          5
   147        137
   148          3
   160          0
   161          4
   162         15
   163          1