##TITLE=Library Entry 19697
##JCAMP-DX=Revision 4.10 
##DATA TYPE=MASS SPECTRUM
##SAMPLE DESCRIPTION=LAC, NIDDK, NIH, Bethesda, MD 20892
##NAMES=HP
##CAS NAME=22-Stigmasten-3-one
##MOLFORM=C29H48O
##CAS REGISTRY NO=4736-95-2
##MP= -300
##BP= -300
##MW= 412
##$RETENTION INDEX=0
##$CONDENSED SPECTRUM=NO
##NPOINTS= 99
##XYDATA=(XY..XY) 1 
    41        353
    43        817
    44          8
    53         64
    55        999
    56         55
    57        103
    65         11
    67        274
    68         17
    69        696
    70         31
    71         39
    77         69
    79        259
    81        570
    82         37
    83        368
    84         60
    85         16
    91        162
    93        268
    94         80
    95        363
    96         82
    97        282
    98         13
   105        133
   107        228
   108         26
   109        192
   110         63
   111         69
   117         22
   119        104
   121        154
   122         89
   123        327
   124         78
   125          9
   129          8
   131         38
   133        104
   134         20
   135        123
   137        161
   138         19
   139         21
   144          9
   145         50
   147         98
   149        129
   151         53
   157         12
   159         61
   161        106
   163        177
   164         15
   165         22
   166        107
   173         27
   175         37
   176         11
   177         30
   180         14
   185         10
   187         27
   189         23
   191         35
   199         13
   201         17
   203         41
   205         22
   213         11
   215         28
   217         39
   229          9
   230         16
   231         37
   233         16
   243          9
   245         12
   255         46
   257         24
   258         37
   259         27
   270         28
   271        150
   272         96
   273         87
   274         12
   285         32
   299         29
   300         76
   301         18
   314         17
   369         17
   412         40
   413         10