##TITLE=Library Entry 21894
##JCAMP-DX=Revision 4.10 
##DATA TYPE=MASS SPECTRUM
##SAMPLE DESCRIPTION=DR GLENN PATTERSON
##NAMES=HP
##CAS NAME=Ergosta-5,24(28)-dien-3-ol, (3.beta.)-
##MOLFORM=C28H46O
##CAS REGISTRY NO=474-63-5
##MP= -300
##BP= -300
##MW= 398
##$RETENTION INDEX=3119
##$CONDENSED SPECTRUM=NO
##NPOINTS= 195
##XYDATA=(XY..XY) 1 
    18        100
    26         40
    27         80
    28        170
    29        180
    39         90
    40         30
    41        699
    42         60
    43        529
    53        110
    54         40
    55        999
    56        100
    57        440
    65         50
    67        400
    68         70
    69        779
    70        120
    71        270
    77        150
    78         40
    79        390
    80         70
    81        669
    82        120
    83        410
    84         80
    85        160
    91        490
    92        100
    93        499
    94        110
    95        609
    96        100
    97        300
    98         60
    99         60
   103         30
   104         30
   105        529
   106        130
   107        719
   108        160
   109        380
   110         70
   111        120
   112         30
   113         40
   115         60
   116         40
   117        180
   118         80
   119        430
   120        170
   121        380
   122        120
   123        290
   124        140
   125        100
   127         30
   128         70
   129        130
   130         70
   131        300
   132        130
   133        370
   134        150
   135        300
   136         90
   137        120
   141         60
   142         60
   143        170
   144         80
   145        360
   146        120
   147        420
   148        100
   149        180
   150        280
   151        120
   155         70
   156         40
   157        160
   158         70
   159        280
   160         90
   161        280
   162         60
   163        110
   164         40
   165         50
   167         30
   169         80
   170         30
   171        150
   172         60
   173        200
   174         70
   175        120
   176         30
   177         60
   183         60
   184         30
   185        130
   186         50
   187        130
   188         40
   189         80
   191         40
   197         60
   198         30
   199        120
   200         50
   201        130
   202         40
   203         60
   205         40
   211        130
   212         50
   213        340
   214         80
   215        120
   216         40
   217        100
   218         60
   219        100
   225         40
   226         30
   227        270
   228        100
   229        280
   230         70
   231        240
   232         80
   233         30
   239         60
   240         30
   241         60
   242         30
   243         60
   244         50
   245        150
   246        140
   247         70
   253         80
   255        160
   256         50
   257        130
   258         70
   259         60
   260         30
   267         40
   269        120
   270         50
   271        370
   272        120
   273        130
   274         40
   281         40
   283         40
   285         90
   286         40
   287         30
   297         50
   298         30
   299        100
   300         70
   301         40
   313         30
   314         40
   315         30
   341         30
   351         30
   355         30
   365        120
   366         50
   367         40
   369         90
   370         30
   380         70
   381         80
   382         60
   383        499
   384        270
   385        100
   386         30
   396        110
   397         50
   398        799
   399        250
   400        140
   401         40