##TITLE=Library Entry 7079
##JCAMP-DX=Revision 4.10 
##DATA TYPE=MASS SPECTRUM
##SAMPLE DESCRIPTION=Chemical Concepts
##NAMES=HP
##CAS NAME=Campesterol
##MOLFORM=C28H48O
##CAS REGISTRY NO=474-62-4
##MP= -300
##BP= -300
##MW= 400
##$RETENTION INDEX=3131
##$CONDENSED SPECTRUM=NO
##NPOINTS= 284
##XYDATA=(XY..XY) 1 
    26          7
    27         71
    28         20
    29        190
    30          5
    31          8
    38          2
    39         51
    40          9
    41        470
    42         44
    43        999
    44         28
    45          4
    51          7
    52          4
    53         74
    54         13
    55        617
    56         39
    57        452
    58         22
    59          6
    60          2
    61          1
    63          2
    65         31
    66         14
    67        266
    68         41
    69        277
    70         29
    71        312
    72         20
    73         16
    74          3
    75          4
    76          2
    77         96
    78         27
    79        269
    80         43
    81        436
    82         51
    83        194
    84         23
    85        114
    86          9
    87          3
    88          2
    89          3
    90          3
    91        268
    92         73
    93        274
    94         94
    95        414
    96         48
    97        166
    98         16
    99         15
   100          4
   101          3
   102          3
   103         17
   104         20
   105        306
   106         94
   107        403
   108        106
   109        206
   110         32
   111         73
   112          8
   113          8
   114          5
   115         23
   116         17
   117         86
   118         57
   119        209
   120        177
   121        206
   122         60
   123        110
   124         60
   125         71
   126         10
   127         13
   128         21
   129         48
   130         29
   131        143
   132         49
   133        195
   134         79
   135        179
   136         52
   137         58
   138         24
   139         14
   140          4
   141         15
   142         15
   143        101
   144         46
   145        285
   146         70
   147        170
   148         53
   149        112
   150         25
   151         45
   152         13
   153          6
   154          3
   155         10
   156          9
   157         65
   158         83
   159        189
   160        117
   161        200
   162         49
   163        159
   164         30
   165         26
   166          7
   167          4
   168          2
   169          9
   170          6
   171         60
   172         27
   173        100
   174         40
   175         49
   176         24
   177         53
   178         74
   179         30
   180          5
   181          2
   183          8
   184          5
   185         60
   186         31
   187         61
   188         17
   189         33
   190         10
   191         41
   192         13
   193          9
   194          2
   195          2
   197         14
   198          7
   199         70
   200         24
   201         42
   202         11
   203         19
   204          6
   205         37
   206          8
   207         29
   208          6
   209          4
   210          2
   211          7
   212          6
   213        203
   214         60
   215         45
   216         12
   217         21
   218          9
   219         26
   220         18
   221         13
   222          4
   225          3
   226          3
   227         33
   228         47
   229         57
   230         16
   231        121
   232         34
   233         21
   234         14
   235          3
   238          3
   239          7
   240          2
   241         23
   242          6
   243          5
   244          4
   245         14
   246         25
   247         20
   248          7
   249          4
   253          4
   254          5
   255        130
   256         29
   257         11
   258          2
   259         14
   260         14
   261         52
   262         16
   263          3
   267          2
   269          4
   270          1
   271         10
   272          8
   273         99
   274         37
   275         19
   276          9
   281          8
   282          2
   283         11
   284          3
   285          2
   287          6
   288         46
   289        225
   290         52
   291          6
   297          2
   299          4
   300          2
   301         12
   302          7
   313          5
   314         16
   315        152
   316         41
   317          6
   325          6
   326          2
   327         12
   328         11
   329          5
   330          3
   339          6
   340         27
   341         15
   342          7
   343         15
   344          4
   350          6
   351          3
   353          5
   354          6
   355          2
   356          6
   357          7
   358          3
   365          8
   367        124
   368         40
   369          8
   370          4
   371          5
   372          3
   379          2
   380          3
   382        167
   383         53
   384         15
   385        116
   386         35
   387          5
   398          8
   400        278
   401         83
   402         12