##TITLE=Library Entry 52905
##JCAMP-DX=Revision 4.10 
##DATA TYPE=MASS SPECTRUM
##SAMPLE DESCRIPTION=Japan AIST/NIMC Database- Spectrum MS-IW-7163
##NAMES=HP
##CAS NAME=D,L-3-Camphorcarboxylic acid
##MOLFORM=C11H16O3
##CAS REGISTRY NO=474-98-6
##MP= -300
##BP= -300
##MW= 196
##$RETENTION INDEX=0
##$CONDENSED SPECTRUM=NO
##NPOINTS= 137
##XYDATA=(XY..XY) 1 
    12          1
    15          4
    16          6
    17          1
    18          3
    26          5
    27         96
    28         30
    29         78
    30          1
    31          4
    32          1
    37          1
    38          6
    39        164
    40         34
    41        447
    42         32
    43        131
    44        294
    45         18
    46          3
    47          1
    50          9
    51         36
    52         19
    53        104
    54         26
    55        476
    56         34
    57         23
    58          2
    59         13
    60          5
    61          2
    62          3
    63          9
    64          3
    65         46
    66         22
    67        190
    68        126
    69        429
    70         65
    71         19
    72          2
    73          4
    74          2
    75          2
    76          1
    77         72
    78         14
    79         91
    80         94
    81        432
    82        100
    83        999
    84         78
    85          9
    86         39
    87         10
    89          2
    90          2
    91         80
    92         14
    93        167
    94         40
    95        890
    96        103
    97         88
    98         17
    99          9
   100         13
   101          1
   102          1
   103          5
   104          1
   105         20
   106         11
   107        167
   108        563
   109        576
   110        295
   111         69
   112         84
   113         14
   114          9
   115          3
   116          1
   117          5
   118          2
   119         61
   120          7
   121         27
   122        117
   123        141
   124         49
   125        166
   126         23
   127         17
   128          9
   129          1
   131          1
   132         14
   133         16
   134         77
   135        110
   136         44
   137        131
   138         13
   139         33
   140         18
   141          2
   145          2
   149          8
   150        117
   151        210
   152        414
   153        451
   154         45
   155          6
   160          3
   161          1
   163         29
   164          3
   167          1
   168         69
   169          8
   177          2
   178        162
   179         41
   180          4
   181         11
   182          1
   196        421
   197         57
   198          6