##TITLE=Library Entry 14325
##JCAMP-DX=Revision 4.10 
##DATA TYPE=MASS SPECTRUM
##SAMPLE DESCRIPTION=LAC, NIDDK, NIH, Bethesda, MD 20892
##NAMES=HP
##CAS NAME=5-Cholestene, 3.beta.-fluoro-
##MOLFORM=C27H45F
##CAS REGISTRY NO=474-75-9
##MP= -300
##BP= -300
##MW= 388
##$RETENTION INDEX=0
##$CONDENSED SPECTRUM=NO
##NPOINTS= 194
##XYDATA=(XY..XY) 1 
    41        454
    42         23
    43        999
    44         28
    47          6
    51          3
    53         79
    54         11
    55        615
    57        348
    58          7
    59         36
    61         10
    65         37
    66         16
    67        218
    68         27
    69        212
    70         16
    71        191
    72          3
    73         40
    77         82
    78         19
    79        200
    80         12
    81        395
    82         39
    83        192
    84          6
    85         97
    86          9
    87          6
    91        260
    92         56
    93        306
    94        115
    95        403
    96         29
    97        116
    98          8
    99         30
   101         14
   103         30
   104         13
   105        286
   106         72
   107        211
   108         69
   109        136
   110          6
   111        101
   112          4
   113         41
   114          2
   115         38
   116         18
   117         77
   118         16
   119         99
   120         53
   121        122
   122         40
   123        101
   124         12
   125         88
   126         31
   127        143
   128         27
   129         37
   130         22
   131        105
   132         29
   133        145
   134         67
   135        210
   136         42
   137         47
   138          9
   139         53
   140         85
   141         28
   142         13
   143         71
   144         28
   145        186
   146         36
   147        111
   148         19
   149         99
   150          6
   151         68
   152         41
   153        142
   154         24
   155         10
   156          8
   157         34
   158         17
   159         42
   160         18
   161        104
   162         11
   163        496
   164         93
   165        192
   166         56
   167         50
   168          5
   169          7
   171         29
   172          3
   173         39
   174          7
   175         29
   176         12
   177        130
   178        161
   179        115
   180        180
   181         49
   182          3
   183         11
   185         27
   187         22
   189         22
   191         72
   192         28
   193         68
   194         41
   195         10
   197          7
   199         25
   201          7
   203         17
   204          3
   205         69
   206         52
   207         43
   208          6
   213         44
   214          5
   215         11
   217         27
   218          2
   219         93
   220         38
   221         29
   227          8
   229         17
   231         15
   232         10
   233        546
   234        178
   235         53
   236         29
   245         20
   246         18
   247        133
   248        113
   249         42
   255         27
   256          6
   259         22
   260         15
   261         42
   262         26
   263          2
   273         29
   274         96
   275        998
   276        218
   277         25
   287         14
   289          8
   301        137
   302         39
   303         25
   304         11
   317          8
   318          3
   353         12
   359          5
   368          9
   369          5
   371          2
   373        328
   374         96
   375         15
   386         19
   387         27
   388        946
   389        264
   390         33