##TITLE=Library Entry 21879
##JCAMP-DX=Revision 4.10 
##DATA TYPE=MASS SPECTRUM
##SAMPLE DESCRIPTION=D.HENNEBERG, MAX-PLANCK INSTITUTE, MULHEIM, WEST GERMAN
Y
##NAMES=HP
##CAS NAME=Chenodiol
##MOLFORM=C24H40O4
##CAS REGISTRY NO=474-25-9
##MP= -300
##BP= -300
##MW= 392
##$RETENTION INDEX=0
##$CONDENSED SPECTRUM=NO
##NPOINTS= 311
##XYDATA=(XY..XY) 1 
    27         92
    28         47
    29        312
    31         63
    39         69
    41        654
    42         55
    43        439
    44         26
    45         93
    53        158
    54         36
    55        999
    56         65
    57        201
    59        107
    60        121
    65         51
    66         31
    67        569
    68        150
    69        306
    70        101
    71         77
    73         51
    77        170
    78         42
    79        467
    80         96
    81        650
    82        110
    83        229
    84         43
    85        110
    91        354
    92         84
    93        575
    94        225
    95        550
    96        102
    97         92
    99         46
   101         50
   103         37
   104         21
   105        362
   106        141
   107        394
   108        186
   109        315
   110         56
   111         52
   114         19
   115         32
   116         20
   117         97
   118         83
   119        287
   120        204
   121        275
   122        168
   123        123
   124         34
   125         37
   127         40
   128         28
   129         51
   130         25
   131        184
   132        101
   133        250
   134        126
   135        179
   136         51
   137         66
   138         56
   139         45
   140        121
   141         75
   142         23
   143         72
   144         36
   145        222
   146        110
   147        235
   148        164
   149         86
   150         28
   151         28
   152         31
   153         20
   154         10
   155         31
   156         14
   157        120
   158         73
   159        194
   160         95
   161        130
   162        121
   163         66
   164         19
   165         22
   166          6
   167         10
   169         20
   170          9
   171         96
   172         50
   173        143
   174        112
   175         70
   176         22
   177         27
   178         24
   179         16
   180          6
   181         26
   182          9
   183         17
   184          8
   185         81
   186         44
   187         75
   188         26
   189         31
   190         11
   191         15
   192         17
   193         17
   194         36
   195         25
   196          6
   197         22
   198         11
   199         96
   200         69
   201        127
   202         56
   203         30
   204         11
   205         11
   206          4
   207         17
   208          9
   209          8
   210          3
   211         19
   212         12
   213        340
   214         85
   215        100
   216         47
   217         46
   218         18
   219         15
   220          8
   221         11
   222          7
   223          6
   224          3
   225          9
   226          6
   227         46
   228        338
   229        176
   230         34
   231         81
   232         33
   233         26
   234         60
   235         36
   236         33
   237         12
   238          9
   239         12
   240          9
   241         28
   242         17
   243         10
   244          6
   245         14
   246        195
   247         61
   248         59
   249         35
   250         25
   251         11
   252          4
   253         17
   254         14
   255        189
   256         45
   257         12
   258          4
   259          9
   260         36
   261         31
   262         44
   263         16
   264        179
   265         40
   266          7
   267          5
   268          3
   269          6
   270          1
   271         10
   272          5
   273         58
   274         32
   275         13
   276         18
   277          7
   278          4
   279          3
   280         15
   281         11
   282          2
   283         16
   284          6
   285          7
   286          4
   287         12
   288         10
   289         12
   290         35
   291          9
   292          1
   293          1
   294          1
   295          3
   296          4
   297          9
   298          2
   299         21
   300         18
   301         37
   302         93
   303         19
   304          5
   305          5
   306          3
   307          1
   309          1
   310          4
   311          6
   312          4
   313         13
   314         12
   315         28
   316         11
   317          6
   318          1
   319          2
   320          2
   321          2
   323         16
   324          8
   325          4
   326          9
   327         13
   328         14
   329          6
   330          5
   331          1
   332          2
   333          5
   334          1
   335          1
   336          1
   337          3
   339         28
   340         15
   341        306
   342         82
   343         15
   344          9
   345          5
   346          4
   347          2
   348          2
   349          1
   352          3
   354          9
   355         16
   356        819
   357        228
   358         40
   359         80
   360         21
   361          3
   363          1
   364          1
   366          1
   368          1
   370          3
   372         10
   373          5
   374        294
   375         82
   376         12
   377          2
   387          0
   388          3
   389          1
   390          3
   392         86
   393         20
   394          3
   395          0