##TITLE=Library Entry 34990
##JCAMP-DX=Revision 4.10 
##DATA TYPE=MASS SPECTRUM
##SAMPLE DESCRIPTION=DR GLENN PATTERSON
##NAMES=HP
##CAS NAME=Ergosta-5,22-dien-3-ol, (3.beta.,22E)-
##MOLFORM=C28H46O
##CAS REGISTRY NO=474-67-9
##MP= -300
##BP= -300
##MW= 398
##$RETENTION INDEX=3079
##$CONDENSED SPECTRUM=NO
##NPOINTS= 123
##XYDATA=(XY..XY) 1 
    39         60
    41        350
    43        310
    53         80
    55        799
    56         50
    57        210
    67        360
    68         60
    69        999
    70         80
    71         70
    77        120
    79        280
    80         40
    81        649
    82        130
    83        350
    84         40
    91        310
    92         70
    93        320
    94        100
    95        350
    96        110
    97         90
   105        360
   106         80
   107        350
   108         80
   109        340
   110         40
   117        110
   118         40
   119        220
   120        110
   121        210
   122         60
   123        140
   124         70
   125        250
   128         40
   129         80
   130         40
   131        160
   132         60
   133        330
   134         70
   135        180
   137         60
   143        120
   144         60
   145        340
   146        100
   147        290
   148         60
   149        120
   151         60
   157        100
   158         80
   159        320
   160         80
   161        200
   162         50
   163        100
   171         60
   173        110
   174         40
   175        100
   176         40
   177         50
   185         60
   187         80
   189         70
   197         40
   199         80
   201         60
   203         40
   211         50
   213        170
   214         40
   215         80
   217         40
   227         60
   228         60
   229        100
   230         40
   231         60
   239         40
   241         50
   243         40
   245         60
   253        110
   254         50
   255        519
   256        120
   257         60
   258         50
   267         50
   269         80
   270         80
   271        260
   272        120
   273         90
   281         40
   282         50
   283         80
   285         50
   298         70
   299         60
   300        170
   301         50
   337         90
   353         40
   355         40
   365         70
   380        320
   381        100
   382         40
   383         50
   396         80
   398        280
   399         80