##TITLE=Library Entry 31022
##JCAMP-DX=Revision 4.10 
##DATA TYPE=MASS SPECTRUM
##SAMPLE DESCRIPTION=Exported from NIST MS Search
##NAMES=HP
##CAS NAME=Thiophene, tetrahydro-3-methyl-
##MOLFORM=C5H10S
##CAS REGISTRY NO=4740-00-5
##MP= -300
##BP= -300
##MW= 102
##$RETENTION INDEX=847
##$CONDENSED SPECTRUM=NO
##NPOINTS= 73
##XYDATA=(XY..XY) 1 
    17          3
    18          9
    24          1
    25          4
    26         17
    27        388
    28        123
    29        158
    30          5
    31          1
    32         14
    33         11
    34         13
    35         18
    36          3
    37         23
    38         46
    39        355
    40         53
    41        685
    42         48
    43         14
    44          6
    45        561
    46        325
    47        266
    48         26
    49         20
    50         32
    51         33
    52         10
    53         82
    54         85
    55        317
    56        472
    57         86
    58         96
    59        307
    60        999
    61        153
    62         49
    63         10
    64          1
    65         15
    67         89
    68        211
    69        241
    70         15
    71         21
    72          7
    73         54
    74        502
    75         24
    76         20
    77          1
    81          1
    82          2
    83          2
    84          5
    85         42
    86          9
    87        448
    88         24
    89         20
    90          1
    97          4
    98          1
    99         16
   100          6
   101         95
   102        879
   103         57
   104         40