##TITLE=Library Entry 16168
##JCAMP-DX=Revision 4.10 
##DATA TYPE=MASS SPECTRUM
##SAMPLE DESCRIPTION=RADIAN CORP
##NAMES=HP
##CAS NAME=1,3-Propanediamine, N,N'-bis(2-aminoethyl)-
##MOLFORM=C7H20N4
##CAS REGISTRY NO=4741-99-5
##MP= -300
##BP= -300
##MW= 160
##$RETENTION INDEX=0
##$CONDENSED SPECTRUM=NO
##NPOINTS= 59
##XYDATA=(XY..XY) 1 
    27         19
    29         20
    30        168
    31          3
    39         15
    40          7
    41         92
    42        171
    43        156
    44        999
    45         41
    53          2
    54         21
    55         23
    56        140
    57         38
    58        206
    59         15
    60          6
    61          2
    67          2
    68         43
    69         27
    70        327
    71         62
    72         53
    73        184
    74          8
    75          3
    80          2
    81          2
    82         36
    83         65
    84         95
    85         35
    86          2
    87        408
    88         17
    95          2
    96          7
    97         23
    98         18
    99         44
   100          7
   101         49
   102          1
   109          3
   110         25
   111         16
   112         10
   113        445
   114         38
   115          1
   118          2
   125          1
   126          2
   127          2
   130        508
   131         43