##TITLE=Library Entry 47672
##JCAMP-DX=Revision 4.10 
##DATA TYPE=MASS SPECTRUM
##SAMPLE DESCRIPTION=C.W.FONG DEPT. OF CHEM., UNIV. OF QLD., BRISBANE, AUSTR
ALIA
##NAMES=HP
##CAS NAME=Plumbane, triphenyl[(2-propenylsulfinyl)oxy]-
##MOLFORM=C21H20O2PbS
##CAS REGISTRY NO=47415-74-7
##MP= -300
##BP= -300
##MW= 544
##$RETENTION INDEX=0
##$CONDENSED SPECTRUM=NO
##NPOINTS= 63
##XYDATA=(XY..XY) 1 
    37         50
    38         70
    39        140
    40         50
    41        170
    47        290
    48         35
    49        190
    50        270
    51        200
    53         35
    54         35
    56         35
    61         35
    62         85
    63         65
    64         35
    65         70
    66         85
    68         35
    72         50
    73        120
    74         70
    75        120
    76        270
    77        999
    78        140
    89         35
    91        100
    92         35
   102         35
   105         35
   110         35
   115         70
   117        100
   118         70
   121         50
   122         50
   123         35
   125         35
   126         50
   127         50
   128         50
   151         70
   152        150
   153        150
   154        460
   155         85
   196         50
   197         35
   199         35
   204         50
   206        475
   207        405
   208        915
   283        305
   284        255
   285        545
   286         50
   437        170
   438        150
   439        240
   440         50