##TITLE=Library Entry 38301
##JCAMP-DX=Revision 4.10 
##DATA TYPE=MASS SPECTRUM
##SAMPLE DESCRIPTION=V.Zaikin,Topchiev Inst.Petrochem.Synth.,Moscow
##NAMES=HP
##CAS NAME=Trichloroacetic acid, 2-tetrahydrofurylmethyl ester
##MOLFORM=C7H9Cl3O3
##CAS REGISTRY NO=4743-27-5
##MP= -300
##BP= -300
##MW= 246
##$RETENTION INDEX=0
##$CONDENSED SPECTRUM=NO
##NPOINTS= 98
##XYDATA=(XY..XY) 1 
    22          1
    25          1
    26          8
    27         34
    28          8
    29         26
    30          4
    31          6
    35         12
    36         79
    37          4
    38         26
    39         40
    40         10
    41        105
    42         55
    43        157
    44          7
    45          2
    47         11
    48          5
    49          5
    50          9
    51         12
    52         20
    53         15
    54         28
    55         58
    56          8
    57         40
    58          2
    61          1
    63          5
    65          3
    66          2
    67         46
    68          5
    69         13
    70          5
    71        999
    72         50
    73          5
    75          3
    76          8
    77          2
    78          6
    79         35
    80          5
    81          6
    82         37
    83         25
    84         44
    85         20
    86          4
    87          2
    89          1
    91          5
    92          2
    93          3
    96          2
    99          2
   100          2
   103          5
   104          1
   105          3
   110         28
   111          4
   112         18
   113          3
   114          3
   115          1
   117         73
   118          1
   119         68
   120          1
   121         23
   123          2
   125          1
   127          2
   129          1
   133          1
   135          2
   141          6
   143          4
   145          3
   147          4
   149          2
   169          2
   171          2
   175          2
   176          1
   177          2
   188          2
   190          2
   191          2
   193          1
   211          5
   213          2