##TITLE=Library Entry 10566
##JCAMP-DX=Revision 4.10 
##DATA TYPE=MASS SPECTRUM
##SAMPLE DESCRIPTION=NIST Mass Spectrometry Data Center, 1994
##NAMES=HP
##CAS NAME=.beta.-Acetylacrylic acid
##MOLFORM=C5H6O3
##CAS REGISTRY NO=4743-82-2
##MP= -300
##BP= -300
##MW= 114
##$RETENTION INDEX=0
##$CONDENSED SPECTRUM=NO
##NPOINTS= 48
##XYDATA=(XY..XY) 1 
    12          3
    13         20
    14         66
    15        210
    16          6
    17          9
    18          6
    25         43
    26        260
    27        312
    28         39
    29         69
    30          4
    31          8
    36         10
    37         60
    38         68
    39         82
    40         15
    41         51
    42        154
    43        999
    44         38
    45        302
    46          7
    48          5
    49         18
    50         35
    51         22
    52         17
    53        238
    54        109
    55         27
    68         16
    69         85
    70         15
    71        150
    72          8
    81        210
    82         36
    86         54
    97         65
    99        950
   100         42
   101          7
   114        257
   115         14
   116          0