##TITLE=Library Entry 12071
##JCAMP-DX=Revision 4.10 
##DATA TYPE=MASS SPECTRUM
##SAMPLE DESCRIPTION=V.A.Korolev, Moscow, Russia
##NAMES=HP
##CAS NAME=2-(Pyridin-3-yl)ethanimidamide
##MOLFORM=C7H9N3
##CAS REGISTRY NO=474310-74-2
##MP= -300
##BP= -300
##MW= 135
##$RETENTION INDEX=0
##$CONDENSED SPECTRUM=NO
##NPOINTS= 65
##XYDATA=(XY..XY) 1 
    35          2
    36          6
    37         20
    38         28
    39        344
    40        147
    41        220
    42        320
    43        999
    44         16
    45          3
    48          3
    49         36
    50        132
    51        151
    52        108
    53         40
    54         29
    55         10
    56          6
    57          3
    58          5
    60          9
    61         58
    62        110
    63        236
    64        130
    65        340
    66        156
    67        110
    68          6
    69          5
    73          1
    74          5
    75         15
    76         14
    77          9
    78        136
    79         12
    80         31
    81          8
    82          5
    86          1
    87          2
    88          4
    89          1
    90         13
    91         61
    92        283
    93        543
    94         69
    95          3
   105          6
   106          5
   107         40
   108         17
   109          1
   117          9
   118         32
   119         17
   120          3
   134        704
   135        301
   136         28
   137          1