##TITLE=Library Entry 45258
##JCAMP-DX=Revision 4.10 
##DATA TYPE=MASS SPECTRUM
##SAMPLE DESCRIPTION=Japan AIST/NIMC Database- Spectrum MS-NW-1076
##NAMES=HP
##CAS NAME=Propane, 1,1-dimethoxy-
##MOLFORM=C5H12O2
##CAS REGISTRY NO=4744-10-9
##MP= -300
##BP= -300
##MW= 104
##$RETENTION INDEX=653
##$CONDENSED SPECTRUM=NO
##NPOINTS= 47
##XYDATA=(XY..XY) 1 
    13          1
    14         15
    15         74
    16          1
    17          1
    18          3
    25          2
    26         20
    27        107
    28        100
    29        142
    30         11
    31        191
    32         13
    33          9
    37          3
    38          7
    39         53
    40          9
    41        316
    42         45
    43         44
    44          6
    45        318
    46          7
    47        163
    48          4
    53          2
    55          9
    56          7
    57         71
    58         32
    59         16
    60          1
    61          1
    69          1
    70          3
    71         69
    72        106
    73        804
    74         37
    75        999
    76         34
    77          5
    88          1
    89          1
   103         14