##TITLE=Library Entry 30251
##JCAMP-DX=Revision 4.10 
##DATA TYPE=MASS SPECTRUM
##SAMPLE DESCRIPTION=Japan AIST/NIMC Database- Spectrum MS-NW-2704
##NAMES=HP
##CAS NAME=Propane, 1,1-diethoxy-
##MOLFORM=C7H16O2
##CAS REGISTRY NO=4744-08-5
##MP= -300
##BP= -300
##MW= 132
##$RETENTION INDEX=813
##$CONDENSED SPECTRUM=NO
##NPOINTS= 63
##XYDATA=(XY..XY) 1 
    12          1
    13          1
    14          8
    15         29
    16          1
    17          1
    18          7
    19         20
    25          3
    26         33
    27        187
    28         98
    29        349
    30         39
    31        394
    32          5
    37          2
    38          4
    39         29
    40         14
    41        106
    42         13
    43         72
    44         12
    45        160
    46         35
    47        584
    48          7
    49          2
    50          1
    51          2
    52          2
    53          1
    55          8
    56          5
    57        221
    58        153
    59        999
    60         33
    61          9
    69          2
    70          4
    71          4
    72          2
    73         20
    74         10
    75        348
    76         11
    77          4
    78         11
    83          1
    85          2
    86         68
    87        661
    88         37
    89          3
   102          2
   103        456
   104         26
   105          2
   115          1
   117          1
   131          5