##TITLE=Library Entry 84509
##JCAMP-DX=Revision 4.10 
##DATA TYPE=MASS SPECTRUM
##SAMPLE DESCRIPTION=A.A.Kutin, Moscow, Russia
##NAMES=HP
##CAS NAME=Guanidine, 1,2,3-tri(4-methylphenyl)-
##MOLFORM=C22H23N3
##CAS REGISTRY NO=47459-89-2
##MP= -300
##BP= -300
##MW= 329
##$RETENTION INDEX=0
##$CONDENSED SPECTRUM=NO
##NPOINTS= 119
##XYDATA=(XY..XY) 1 
    36          1
    37          6
    38         27
    39        184
    40         59
    41         77
    42         17
    43         16
    44         21
    50         49
    51        126
    52         87
    53         71
    54         20
    55          7
    56          2
    57          6
    61          1
    62         19
    63         78
    64         36
    65        364
    66         33
    67          6
    70          2
    74          4
    75          9
    76         32
    77        394
    78        179
    79        311
    80         57
    81          9
    82         14
    87          1
    89        101
    90         70
    91        576
    92         84
    93          8
    94          1
    95          0
   102          6
   103         12
   104         87
   105         75
   106        735
   107        999
   108         69
   109          4
   110          7
   111          8
   115          3
   116         32
   117         16
   118         26
   119          3
   120          1
   121          7
   122          0
   127          1
   128          1
   129          3
   130          6
   131         84
   132         21
   133          9
   134          1
   139          5
   141          2
   144          2
   147          2
   148          0
   150          6
   151          5
   152          4
   153          1
   154          2
   155          1
   157          8
   164         10
   165         47
   166          5
   167          5
   171          0
   178          1
   179          2
   180         18
   181         18
   182          4
   192          2
   193          1
   194          7
   195          4
   196          9
   197         48
   198          6
   205          6
   206          5
   207         12
   208          6
   219         11
   220         19
   221        162
   222        889
   223        266
   224         35
   225          1
   236         16
   237          8
   238         24
   239          1
   240          3
   312          0
   326          2
   328         65
   329        249
   330         54
   331          5