##TITLE=Library Entry 99893
##JCAMP-DX=Revision 4.10 
##DATA TYPE=MASS SPECTRUM
##SAMPLE DESCRIPTION=ASES Database, Dalian Institute, P.R. China
##NAMES=HP
##CAS NAME=Pyrrolo(2,3-b)pyrazine
##MOLFORM=C6H5N3
##CAS REGISTRY NO=4745-93-1
##MP= -300
##BP= -300
##MW= 119
##$RETENTION INDEX=0
##$CONDENSED SPECTRUM=NO
##NPOINTS= 10
##XYDATA=(XY..XY) 1 
    45        109
    52         50
    64         80
    65        149
    66         48
    91         30
    92        320
   118         99
   119        999
   120         78