##TITLE=Library Entry 7211
##JCAMP-DX=Revision 4.10 
##DATA TYPE=MASS SPECTRUM
##SAMPLE DESCRIPTION=Japan AIST/NIMC Database- Spectrum MS-NW-2812
##NAMES=HP
##CAS NAME=2,5-Furandione, dihydro-3-octadecyl-
##MOLFORM=C22H40O3
##CAS REGISTRY NO=47458-32-2
##MP= -300
##BP= -300
##MW= 352
##$RETENTION INDEX=0
##$CONDENSED SPECTRUM=NO
##NPOINTS= 311
##XYDATA=(XY..XY) 1 
    15          2
    16          2
    17         25
    18        126
    20          3
    26          6
    27        117
    28         37
    29        314
    30          7
    31          1
    32          5
    36          3
    38          2
    39         89
    40         21
    41        693
    42        151
    43        999
    44         32
    45          8
    50          3
    51          7
    52          4
    53         49
    54        111
    55        793
    56        310
    57        761
    58         33
    59          9
    60         16
    61          9
    62          1
    63          2
    64          1
    65         10
    66         14
    67        214
    68        163
    69        591
    70        257
    71        340
    72         22
    73         74
    74         41
    75          5
    76          2
    77         15
    78          6
    79         57
    80         48
    81        265
    82        269
    83        610
    84        190
    85        187
    86         25
    87         55
    88          9
    89          1
    90          1
    91         26
    92          9
    93         64
    94         56
    95        238
    96        248
    97        611
    98        303
    99         58
   100         93
   101         33
   102         26
   103          5
   104          7
   105         20
   106          9
   107         50
   108         41
   109        169
   110        124
   111        255
   112        132
   113         55
   114         39
   115         22
   116        102
   117         14
   118         63
   119         33
   120         14
   121         55
   122         32
   123        122
   124        110
   125        122
   126         67
   127         59
   128        132
   129         43
   130         32
   131         12
   132          4
   133         34
   134         17
   135         51
   136         28
   137        101
   138        174
   139         76
   140         57
   141         98
   142        344
   143         40
   144         42
   145          9
   146          4
   147         31
   148         15
   149         31
   150         23
   151         94
   152        116
   153         59
   154         80
   155         67
   156        320
   157         38
   158         41
   159          8
   160          3
   161         21
   162         17
   163         23
   164         21
   165         73
   166         75
   167         48
   168         68
   169         34
   170         50
   171         14
   172         41
   173          8
   174          3
   175         16
   176         13
   177         16
   178         18
   179         53
   180         61
   181         45
   182         37
   183         30
   184         24
   185         12
   186         36
   187          7
   188          2
   189         11
   190          9
   191         13
   192         15
   193         43
   194         53
   195         29
   196         32
   197         17
   198         20
   199         12
   200         28
   201          6
   202          2
   203          9
   204          9
   205          9
   206         12
   207         34
   208         50
   209         30
   210         28
   211         19
   212         35
   213         11
   214         18
   215          4
   216          1
   217          6
   218          6
   219          9
   220         10
   221         32
   222         55
   223         23
   224         24
   225         15
   226         54
   227         13
   228         10
   229          3
   230          1
   231          5
   232          6
   233          7
   234          9
   235         29
   236         59
   237         27
   238         22
   239         19
   240         63
   241         14
   242          7
   243          2
   244          1
   245          4
   246          5
   247          7
   248         10
   249         30
   250        167
   251         47
   252         22
   253         17
   254         78
   255         16
   256          6
   257          2
   258          1
   259          3
   260          4
   261          5
   262          9
   263         26
   264         68
   265         22
   266          8
   267         14
   268         73
   269         15
   270          4
   271          1
   272          1
   273          3
   274         10
   275          9
   276          5
   277         24
   278         55
   279         17
   280         29
   281         13
   282         61
   283         12
   284          2
   285          1
   286          1
   287          3
   288          6
   289          6
   290          6
   291         21
   292         27
   293         13
   294          5
   295          9
   296         35
   297          8
   298          1
   299          1
   301          1
   302          1
   303          2
   304          4
   305         19
   306         49
   307         20
   308          7
   309          6
   310         17
   311          5
   312          1
   315          1
   316          5
   317          3
   318          1
   319          3
   320          2
   321          5
   322          5
   323          5
   324         11
   325          3
   326          1
   330          1
   331          1
   332          6
   333          4
   334        105
   335         26
   336          5
   337          2
   338          1
   348          1
   349          1
   350         30
   351          9
   352         51
   353         12
   354          2