##TITLE=Library Entry 72168
##JCAMP-DX=Revision 4.10 
##DATA TYPE=MASS SPECTRUM
##SAMPLE DESCRIPTION=Chemical Concepts
##NAMES=HP
##CAS NAME=1,4-Dioxaspiro[4.5]decane-6-carboxylic acid
##MOLFORM=C9H14O4
##CAS REGISTRY NO=4746-93-4
##MP= -300
##BP= -300
##MW= 186
##$RETENTION INDEX=0
##$CONDENSED SPECTRUM=NO
##NPOINTS= 115
##XYDATA=(XY..XY) 1 
    26         18
    27        210
    28         69
    29        111
    30          8
    31         42
    35          4
    36         19
    37          7
    38         27
    39        189
    40         53
    41        250
    42        129
    43        182
    44        333
    45        174
    46          9
    47          2
    50         26
    51         60
    52         40
    53        151
    54         55
    55        289
    56         65
    57         92
    58         12
    59          5
    60         19
    61         10
    62          6
    63         13
    64          4
    65         48
    66         50
    67        139
    68         62
    69        210
    70        526
    71        271
    72         24
    73         26
    74          6
    75          7
    76          9
    77         96
    78         25
    79        187
    80         86
    81          8
    82         53
    83        284
    84         47
    85         19
    86        147
    87         19
    88          4
    89         14
    90          2
    91         11
    92          4
    93         16
    94         12
    95         43
    96         34
    97        297
    98        293
    99        999
   100        135
   101         12
   102         10
   104          8
   105         10
   106          4
   107          8
   108          8
   109         16
   110         14
   111         26
   112         22
   113        125
   114         31
   115          8
   117          6
   119          6
   120          3
   121          8
   122          7
   123         11
   124          9
   125         14
   126          5
   127          7
   128          3
   129          9
   130         19
   131          5
   135          3
   136          3
   137          4
   138          4
   139          5
   140          4
   141         22
   142        363
   143        139
   144         14
   157          8
   158          1
   168          3
   169          2
   185          4
   186         35
   187          3