##TITLE=Library Entry 3868
##JCAMP-DX=Revision 4.10 
##DATA TYPE=MASS SPECTRUM
##SAMPLE DESCRIPTION=NIST Mass Spectrometry Data Center
##NAMES=HP
##CAS NAME=n-Heptyl isocyanate
##MOLFORM=C8H15NO
##CAS REGISTRY NO=4747-81-3
##MP= -300
##BP= -300
##MW= 141
##$RETENTION INDEX=0
##$CONDENSED SPECTRUM=NO
##NPOINTS= 61
##XYDATA=(XY..XY) 1 
    15         58
    17          1
    18          6
    26         54
    27        523
    28        235
    29        477
    30         77
    37          4
    39        320
    40         80
    41        999
    42        404
    43        650
    44         42
    46          8
    50         10
    51         21
    52         13
    53         56
    54         69
    55        543
    56        651
    57        115
    58         97
    59          7
    60          4
    63          3
    65          7
    66          3
    67         42
    68         34
    69        159
    70        168
    71         33
    72          4
    73          2
    77          3
    78          2
    79          4
    81         36
    82         20
    83         32
    84        248
    85        341
    86         21
    87          4
    94          4
    95          6
    96         31
    98        454
    99        757
   100         45
   101          2
   112        162
   113         55
   114          3
   124          2
   126         46
   127          3
   140          6