##TITLE=Library Entry 62105
##JCAMP-DX=Revision 4.10 
##DATA TYPE=MASS SPECTRUM
##SAMPLE DESCRIPTION=Japan AIST/NIMC Database- Spectrum MS-IW-2406
##NAMES=HP
##CAS NAME=Benzene, (2-methoxyethenyl)-
##MOLFORM=C9H10O
##CAS REGISTRY NO=4747-15-3
##MP= -300
##BP= -300
##MW= 134
##$RETENTION INDEX=0
##$CONDENSED SPECTRUM=NO
##NPOINTS= 69
##XYDATA=(XY..XY) 1 
    14          1
    15          9
    26          2
    27         11
    28          6
    29          9
    30          1
    31          3
    37          5
    38         15
    39         90
    40          8
    41         22
    42          2
    43         16
    44          1
    45          2
    47          6
    49          4
    50         50
    51        109
    52         18
    53          5
    55          2
    61          8
    62         27
    63         84
    64         23
    65        197
    66         13
    67         17
    73          3
    74         23
    75         76
    76         27
    77         95
    78         36
    79         12
    80          1
    85          2
    86          5
    87          5
    88          1
    89         84
    90         71
    91        999
    92         87
    93          3
    98          3
    99          1
   101          4
   102         47
   103         61
   104         46
   105         57
   106          8
   107          2
   115          2
   116          1
   117          2
   118         22
   119        194
   120         20
   121          4
   131          1
   133         49
   134        977
   135        108
   136          7