##TITLE=Library Entry 27689
##JCAMP-DX=Revision 4.10 
##DATA TYPE=MASS SPECTRUM
##SAMPLE DESCRIPTION=CARL DJERASSI DEPT OF CHEM STANFORD UNIV STANFORD CALIF
 94305
##NAMES=HP
##CAS NAME=2-Propanamine, N-methyl-
##MOLFORM=C4H11N
##CAS REGISTRY NO=4747-21-1
##MP= -300
##BP= -300
##MW= 73
##$RETENTION INDEX=542
##$CONDENSED SPECTRUM=NO
##NPOINTS= 24
##XYDATA=(XY..XY) 1 
    15         30
    16         10
    17         10
    18         10
    27         50
    28         90
    29         40
    30        290
    31         10
    41         70
    42         70
    43         90
    44         20
    45         10
    55         10
    56         80
    57         40
    58        999
    59         40
    60         10
    70         10
    71         10
    72        100
    73        110