##TITLE=Library Entry 17012
##JCAMP-DX=Revision 4.10 
##DATA TYPE=MASS SPECTRUM
##SAMPLE DESCRIPTION=NIST Mass Spectrometry Data Center
##NAMES=HP
##CAS NAME=Hexane, 1-methoxy-
##MOLFORM=C7H16O
##CAS REGISTRY NO=4747-07-3
##MP= -300
##BP= -300
##MW= 116
##$RETENTION INDEX=827
##$CONDENSED SPECTRUM=NO
##NPOINTS= 52
##XYDATA=(XY..XY) 1 
    15         11
    26          5
    27         62
    28         21
    29         94
    30          4
    31         11
    33         31
    37          1
    38          4
    39         72
    40         13
    41        169
    42        116
    43        132
    45        999
    46         25
    47         14
    50          3
    51          5
    52          2
    53         15
    54         15
    55        169
    56        559
    57         35
    58         14
    59          7
    60          3
    63          1
    65          2
    66          1
    67          6
    68          5
    69        128
    70         21
    71          8
    72          1
    73          5
    77          1
    79          1
    81          1
    82          2
    83         13
    84        155
    85         13
    86          1
    87          8
    88          1
    98          1
   115          1
   116          1