##TITLE=Library Entry 69207
##JCAMP-DX=Revision 4.10 
##DATA TYPE=MASS SPECTRUM
##SAMPLE DESCRIPTION=Exported from NIST MS Search
##NAMES=HP
##CAS NAME=Propanoic acid, 2,2,3-trichloro-, methyl ester
##MOLFORM=C4H5Cl3O2
##CAS REGISTRY NO=4749-35-3
##MP= -300
##BP= -300
##MW= 190
##$RETENTION INDEX=1030
##$CONDENSED SPECTRUM=NO
##NPOINTS= 96
##XYDATA=(XY..XY) 1 
    13          1
    14          4
    15        223
    16          3
    18          2
    24          2
    25         13
    26         55
    27          9
    28         11
    29         26
    30          6
    31         27
    35          7
    36          5
    37          4
    38          2
    39          6
    40          1
    41          4
    42          3
    43          1
    44          3
    45          6
    47         12
    48          6
    49         43
    50          3
    51         16
    52          2
    53         21
    54          6
    55          3
    59        895
    60         63
    61        230
    62         42
    63         94
    64          9
    65          7
    75          6
    76          2
    77         11
    79          6
    81          1
    82          8
    83          4
    84          5
    85          5
    87          2
    89         63
    90          3
    91         21
    92          1
    94          3
    95        211
    96        999
    97        186
    98        644
    99         53
   100        103
   101          5
   102          1
   105          1
   108          1
   109          1
   110          3
   111         20
   112          3
   113         20
   115          7
   119          5
   120          3
   121          6
   122          1
   123         18
   124          3
   125         13
   126          2
   127          4
   130         19
   131        389
   132         27
   133        377
   134         15
   135        120
   136          4
   137         13
   141          5
   143          4
   155         14
   157          9
   159          7
   161          5
   190          1
   192          1