##TITLE=Library Entry 14126
##JCAMP-DX=Revision 4.10 
##DATA TYPE=MASS SPECTRUM
##SAMPLE DESCRIPTION=H. Fales, LC, NHLBI, NIH, Bethesda, MD 20892
##NAMES=HP
##CAS NAME=Dihydrolycorine acetate
##MOLFORM=C20H23NO6
##CAS REGISTRY NO=475-90-1
##MP= -300
##BP= -300
##MW= 373
##$RETENTION INDEX=0
##$CONDENSED SPECTRUM=NO
##NPOINTS= 232
##XYDATA=(XY..XY) 1 
    41         61
    43        999
    44         34
    45         46
    46          1
    47          1
    49          3
    50          1
    51         34
    53         36
    55         88
    56          9
    57          8
    58          2
    60         32
    61          5
    63         27
    65         38
    67         24
    68         30
    69         17
    70          2
    71          7
    73          3
    74          2
    75         11
    76          1
    77         45
    78         34
    79         12
    80         14
    82         41
    83          8
    84         23
    85          0
    86          3
    87          3
    89         45
    90         11
    91         43
    92          6
    93          6
    94          6
    95          4
    96         10
    97         21
    98         25
    99          0
   100          0
   101          7
   102         30
   103         26
   104          9
   105         23
   107         15
   108          1
   109          1
   111          2
   112         32
   113          1
   114          2
   115         34
   116         14
   117         13
   118          5
   119         39
   120          4
   121          2
   122          2
   123          0
   124          3
   126         52
   127          5
   128         21
   129         16
   130         21
   131         13
   132          4
   133          2
   135         40
   136          3
   137          1
   139          6
   140          4
   141          8
   142          5
   143          5
   144          4
   145          5
   147         71
   148         23
   149         18
   150          3
   151          2
   152          6
   153          7
   154         13
   155          8
   156         12
   157          8
   158          3
   159         19
   160         24
   161          8
   162         12
   163          4
   164          2
   165          4
   166          9
   167         11
   168          8
   169          4
   170          3
   171          3
   172          7
   173         17
   174         23
   175         23
   176         16
   177         16
   178          4
   179          2
   180          3
   181          5
   182          4
   183          3
   184          5
   185          7
   186         10
   187         31
   188         16
   189          4
   190          2
   191          5
   192          5
   193          4
   194         11
   195          5
   196          7
   197          4
   198          4
   199          3
   200          8
   201          6
   202          4
   203          2
   204          1
   205          0
   206          0
   207          1
   208          1
   209          2
   210          3
   211         10
   212         39
   213         17
   214         21
   215          6
   216          2
   217          1
   219          1
   220          1
   221          0
   222          8
   223          3
   224         16
   225          5
   226         25
   227         10
   228         16
   229          3
   230          1
   231          0
   236          1
   237          4
   238          3
   239          1
   240         13
   241          3
   242          7
   243          1
   244          1
   245          0
   248          1
   250         31
   251          7
   252        147
   253         55
   254        547
   255        104
   256         16
   257          2
   258          2
   259          0
   264          0
   265          0
   266          1
   268         14
   269          4
   270         39
   271          7
   272         18
   273          4
   274          0
   282          0
   284          1
   285          1
   286          2
   287          1
   288         19
   289          7
   290          1
   300          0
   310          0
   312         53
   313         13
   314         36
   315          9
   316          1
   328          1
   329          0
   330         14
   331          5
   332          1
   343          0
   344          1
   345          0
   372        257
   373        146
   374         29
   375          4
   376          0