##TITLE=Library Entry 78803
##JCAMP-DX=Revision 4.10 
##DATA TYPE=MASS SPECTRUM
##SAMPLE DESCRIPTION=Chemical Concepts
##NAMES=HP
##CAS NAME=N,N'-(4,5-Dimethyl-1,3-phenylene)bisbenzamide
##MOLFORM=C22H20N2O2
##CAS REGISTRY NO=47507-95-9
##MP= -300
##BP= -300
##MW= 344
##$RETENTION INDEX=0
##$CONDENSED SPECTRUM=NO
##NPOINTS= 110
##XYDATA=(XY..XY) 1 
    34          8
    35          9
    36         20
    37         25
    38         41
    39         38
    40         62
    41         22
    42         14
    43         40
    44         31
    45         21
    47          3
    48          6
    49         19
    50         77
    51        135
    52         17
    53         10
    55          8
    56          8
    57         10
    58          1
    59          2
    60          2
    61          7
    62          7
    63         11
    64          5
    65         11
    66          2
    67          2
    68          2
    69          4
    70          3
    71          3
    72          3
    73         10
    74         21
    75         34
    77        650
    78         30
    80          6
    81          2
    82          2
    83          2
    84          1
    85          1
    87          1
    88          1
    89          3
    91         35
    92         11
    93          3
    94          1
    99          1
   100          2
   102         13
   105        999
   106         58
   108          9
   109          2
   111          1
   115          3
   116          1
   117          2
   118          2
   119          2
   120          2
   121          3
   122         12
   123          3
   126          2
   127          3
   128          1
   140          3
   145          2
   149          3
   150          5
   151          1
   152          1
   153          1
   154          1
   166          1
   172          1
   181          1
   195          2
   199          1
   200          1
   220          1
   222          8
   223         20
   224          3
   234          1
   247          2
   248          4
   249         19
   250          3
   298          2
   309          2
   310          2
   311          9
   312          1
   323          1
   325         23
   326         19
   327          7
   328          1
   343          3
   344          1