##TITLE=Library Entry 70485
##JCAMP-DX=Revision 4.10 
##DATA TYPE=MASS SPECTRUM
##SAMPLE DESCRIPTION=Exported from NIST MS Search
##NAMES=HP
##CAS NAME=Heptanedioic acid, 4-methyl-, dimethyl ester
##MOLFORM=C10H18O4
##CAS REGISTRY NO=4751-49-9
##MP= -300
##BP= -300
##MW= 202
##$RETENTION INDEX=1458
##$CONDENSED SPECTRUM=NO
##NPOINTS= 109
##XYDATA=(XY..XY) 1 
    15         73
    16          9
    17         80
    18        350
    26          8
    27         69
    28         79
    29        110
    30         31
    31         20
    32          8
    39         76
    40         21
    41        300
    42         75
    43        230
    44         99
    45         53
    46          5
    48          5
    51          6
    53         49
    54         24
    55        500
    56         95
    57         54
    58         10
    59        190
    60          9
    62         14
    63          6
    67         40
    68         33
    69        470
    70         56
    71         30
    72         11
    73        280
    74        350
    75         28
    76          5
    77          4
    78          5
    79          8
    80          4
    81         41
    82         94
    83        370
    84         39
    85         73
    86         13
    87        230
    88         29
    89          5
    91          5
    92          5
    93         49
    95         48
    96        140
    97        999
    98         71
    99         29
   100         18
   101         26
   102         13
   109         26
   110        150
   111        180
   112         20
   113         36
   114         43
   115        130
   116         84
   117          6
   121         21
   122          4
   123         65
   124          8
   125        160
   126         18
   127         61
   128         61
   129        780
   130         78
   131         11
   137         19
   138         48
   139        360
   140         35
   141         23
   142        230
   143         49
   145         30
   146          5
   152         10
   153         28
   154          4
   155        110
   156         14
   157          5
   160         11
   167          8
   169          6
   170         60
   171        350
   172         40
   173          6
   185         11
   202          9