##TITLE=Library Entry 7015
##JCAMP-DX=Revision 4.10 
##DATA TYPE=MASS SPECTRUM
##SAMPLE DESCRIPTION=Chemical Concepts
##NAMES=HP
##CAS NAME=1-Butanol, 4-bromo-, acetate
##MOLFORM=C6H11BrO2
##CAS REGISTRY NO=4753-59-7
##MP= -300
##BP= -300
##MW= 194
##$RETENTION INDEX=0
##$CONDENSED SPECTRUM=NO
##NPOINTS= 72
##XYDATA=(XY..XY) 1 
    26         31
    27        167
    28         12
    29         44
    30          4
    31         20
    33          0
    36          0
    37          5
    38         15
    39        127
    40         19
    41        120
    42         59
    43        999
    44         30
    45         12
    50          7
    51          8
    52          4
    53         24
    54        107
    55        411
    56         22
    57          1
    58         10
    61         72
    62          1
    69          0
    70          0
    71         26
    72          2
    73         60
    74          1
    79          3
    80          3
    81          5
    82          4
    85          1
    86          2
    87         24
    88          3
    91          0
    92          0
    93         15
    94          1
    95         16
    96          0
    97          6
    98          0
   105          1
   106         19
   107         11
   108         17
   109         11
   114          2
   115         26
   116          2
   119          1
   121          2
   123          1
   134        105
   135         10
   136        105
   137          8
   151          8
   152          0
   153          8
   176          5
   177          0
   178          5
   179          0