##TITLE=Library Entry 57030
##JCAMP-DX=Revision 4.10 
##DATA TYPE=MASS SPECTRUM
##SAMPLE DESCRIPTION=Exported from NIST MS Search
##NAMES=HP
##CAS NAME=Thiepane
##MOLFORM=C6H12S
##CAS REGISTRY NO=4753-80-4
##MP= -300
##BP= -300
##MW= 116
##$RETENTION INDEX=963
##$CONDENSED SPECTRUM=NO
##NPOINTS= 95
##XYDATA=(XY..XY) 1 
     2          6
    12          1
    13          2
    14          9
    15         76
    16          1
    25          2
    26         78
    27        585
    28        152
    29        198
    30          4
    31          1
    32         11
    33          9
    34         15
    35         34
    36          1
    37         14
    38         38
    39        474
    40         47
    41        881
    42        185
    43         38
    44          5
    45        495
    46        496
    47        614
    48         43
    49         35
    50         23
    51         36
    52         13
    53        123
    54        520
    55        351
    56         36
    57         27
    58         81
    59        167
    60        527
    61        544
    62         81
    63         29
    64          3
    65         16
    66         14
    67        633
    68        181
    69        129
    70         24
    71         27
    72         13
    73        141
    74        113
    75         68
    76          8
    77          9
    78          5
    79         13
    80          3
    81         60
    82        429
    83         76
    84          6
    85         25
    86         11
    87        999
    88        218
    89         52
    90          9
    91         11
    92          2
    93          1
    95          1
    96          1
    97          3
    98          1
    99          6
   100          1
   101        221
   102         29
   103         12
   104          7
   105          2
   106          1
   113          1
   114          2
   115         41
   116        799
   117         46
   118         34
   119          2
   120          1