##TITLE=Library Entry 18784
##JCAMP-DX=Revision 4.10 
##DATA TYPE=MASS SPECTRUM
##SAMPLE DESCRIPTION=Exported from NIST MS Search
##NAMES=HP
##CAS NAME=2,5-Cyclohexadiene-1,4-dione, 2-ethyl-
##MOLFORM=C8H8O2
##CAS REGISTRY NO=4754-26-1
##MP= -300
##BP= -300
##MW= 136
##$RETENTION INDEX=0
##$CONDENSED SPECTRUM=NO
##NPOINTS= 92
##XYDATA=(XY..XY) 1 
    12         18
    13         24
    14         41
    15        134
    16          4
    24          5
    25         49
    26        618
    27        452
    28        130
    29         58
    30          2
    31          7
    32          4
    35          1
    36         12
    37         79
    38        174
    39        612
    40         47
    41         39
    42         12
    43         50
    44          4
    45          3
    46          3
    48          6
    49         47
    50        205
    51        267
    52        208
    53        561
    54        999
    55        138
    56          9
    57          3
    60          5
    61         27
    62         41
    63         65
    64         25
    65        186
    66         54
    67         43
    68         25
    69          8
    71          1
    73          7
    74         21
    75         14
    76          5
    77        135
    78         73
    79        705
    80        194
    81         72
    82        592
    83         30
    84          6
    85          4
    86          4
    87          3
    88          2
    89         39
    90         67
    91         33
    92          6
    93         18
    94         15
    95          7
    96          3
    97          1
   101          2
   105          4
   106         24
   107        296
   108        930
   109         72
   110         13
   118          4
   119          3
   120          1
   121         43
   122          7
   123         35
   124          3
   134         14
   135         14
   136        563
   137         51
   138         23
   139          2