##TITLE=Library Entry 59979
##JCAMP-DX=Revision 4.10 
##DATA TYPE=MASS SPECTRUM
##SAMPLE DESCRIPTION=G.GERCKEN UNIV. HAMBURG, 2 HAMBURG 13, GERMANY, F.R.G.
##NAMES=HP
##CAS NAME=9,12-Octadecadienoic acid (Z,Z)-, phenylmethyl ester
##MOLFORM=C25H38O2
##CAS REGISTRY NO=47557-83-5
##MP= -300
##BP= -300
##MW= 370
##$RETENTION INDEX=2765
##$CONDENSED SPECTRUM=NO
##NPOINTS= 98
##XYDATA=(XY..XY) 1 
    26         30
    27         85
    29        130
    36         80
    37         15
    38         25
    39        150
    40         45
    41        370
    42        150
    43        340
    44         95
    45         40
    49         15
    50         25
    51         40
    52         20
    53         50
    54        105
    55        310
    56         60
    57        155
    58         20
    60         20
    61         10
    62         20
    63         35
    65        105
    66         20
    67        480
    68         80
    69        170
    70         35
    71         65
    72         15
    73         55
    74         10
    77         50
    78         55
    79        115
    80         50
    81        350
    82         45
    83         90
    84         20
    85         40
    89         25
    90         20
    91        999
    92         90
    93         50
    94         25
    95        205
    96         40
    97         60
    98         20
    99         10
   101         10
   103         10
   104         10
   105         25
   107         40
   108         35
   109        100
   110         20
   111         30
   115         10
   117         20
   119         20
   121         30
   123         55
   124         10
   125         15
   126         40
   127         10
   128         10
   129         10
   131         15
   133         20
   135         35
   137         35
   145         15
   147         30
   149         35
   151         15
   163         20
   173         10
   181         15
   187         15
   190         10
   207         50
   209         15
   221         20
   268         10
   280         40
   281         10
   282         20
   359         10