##TITLE=Library Entry 5482
##JCAMP-DX=Revision 4.10 
##DATA TYPE=MASS SPECTRUM
##SAMPLE DESCRIPTION=Japan AIST/NIMC Database- Spectrum MS-NW-8521
##NAMES=HP
##CAS NAME=Butanoic acid, 2-chloro-3-oxo-, methyl ester
##MOLFORM=C5H7ClO3
##CAS REGISTRY NO=4755-81-1
##MP= -300
##BP= -300
##MW= 150
##$RETENTION INDEX=0
##$CONDENSED SPECTRUM=NO
##NPOINTS= 80
##XYDATA=(XY..XY) 1 
    13          2
    14          8
    15        108
    16          1
    18          1
    25          3
    26         12
    27         47
    28         13
    29         28
    30          3
    31         16
    32          2
    35          1
    36          5
    37          4
    38          6
    39          9
    40          2
    41         16
    42         49
    43        999
    44         27
    45          7
    47          4
    48         10
    49          8
    50          5
    51          5
    52          1
    53          5
    54          1
    55         10
    56          2
    57          1
    59         35
    60          1
    61          3
    62          9
    63          8
    64          4
    65          7
    67          2
    68          1
    69         26
    70          1
    72          1
    73          3
    74          4
    75          2
    76         56
    77          3
    78         18
    79          7
    81          2
    83          1
    84          2
    85          3
    87          1
    89          4
    90          2
    91          2
    92          2
    93          1
   101          1
   103          5
   105          2
   107          2
   108         54
   109          2
   110         17
   116          1
   118         23
   119         17
   120          9
   121          6
   135          1
   150         16
   151          1
   152          5