##TITLE=Library Entry 31121
##JCAMP-DX=Revision 4.10 
##DATA TYPE=MASS SPECTRUM
##SAMPLE DESCRIPTION=Chemical Concepts
##NAMES=HP
##CAS NAME=1-Propanol, 3,3'-[1,2-ethanediylbis(thio)]bis-
##MOLFORM=C8H18O2S2
##CAS REGISTRY NO=4756-21-2
##MP= -300
##BP= -300
##MW= 210
##$RETENTION INDEX=0
##$CONDENSED SPECTRUM=NO
##NPOINTS= 125
##XYDATA=(XY..XY) 1 
    25          0
    26          9
    27         97
    28          0
    29         56
    30         31
    31        544
    33          0
    34          3
    35         33
    37          2
    38          0
    39         24
    40         15
    41        156
    42         12
    43         20
    44          9
    45        115
    46         44
    47         81
    48          4
    49          7
    50          0
    51          0
    52          0
    53          5
    54          3
    55         10
    56          4
    57        153
    58         81
    59         88
    60         70
    61        999
    62        121
    63         65
    64         11
    65          2
    66          0
    67         15
    68          1
    69          5
    70          0
    71          3
    72         44
    73         51
    74         44
    75         70
    76          6
    77          4
    78          4
    79         24
    81          3
    82          1
    83          2
    84          1
    85         24
    86          1
    87         13
    88          4
    89         54
    90        112
    91        119
    92         35
    93         22
    94          5
    95          2
    99          1
   100         18
   101          7
   102          1
   103          4
   104          0
   105         62
   106          8
   107          5
   108          1
   109          1
   110          0
   112          0
   114          0
   117          2
   118        447
   119        413
   120         42
   121         21
   122          1
   123          1
   127          0
   128          0
   131          3
   132          0
   133          3
   135          0
   136          0
   145          0
   149          0
   150          0
   151         28
   152         27
   153          5
   154          0
   156          0
   157          0
   158          1
   159          0
   160          0
   161          0
   165          1
   180          0
   181          0
   182          1
   183          0
   184          0
   186          0
   187          0
   191          1
   192          0
   203          0
   210        147
   211         15
   212         14
   213          0
   214          0