##TITLE=Library Entry 56157
##JCAMP-DX=Revision 4.10 
##DATA TYPE=MASS SPECTRUM
##SAMPLE DESCRIPTION=Tox21 Consortium/NIST Mass Spectrometry Data Center, 20
12
##NAMES=HP
##CAS NAME=Dimetacrine
##MOLFORM=C20H26N2
##CAS REGISTRY NO=4757-55-5
##MP= -300
##BP= -300
##MW= 294
##$RETENTION INDEX=2322
##$CONDENSED SPECTRUM=NO
##NPOINTS= 155
##XYDATA=(XY..XY) 1 
    15          2
    27          3
    28          5
    29          7
    30         21
    39          7
    40          1
    41         13
    42         59
    43         21
    44         24
    45          1
    50          2
    51          6
    52          2
    53          1
    54          1
    55          2
    56         20
    57         17
    58        945
    59         36
    62          1
    63          5
    64          2
    65          4
    66          1
    68          3
    69          1
    70         21
    71         18
    72          4
    74          1
    75          4
    76          4
    77         12
    78          2
    82          3
    84         25
    85         28
    86        999
    87         60
    88          4
    89         10
    90          5
    91          6
    92          1
    95          6
    96          4
    98          1
    99          1
   100          1
   101          5
   102          9
   103          4
   105          1
   106          1
   108          3
   109          2
   110          1
   113          3
   114          2
   115         10
   116          4
   117          3
   118          2
   125          2
   126          4
   127          4
   128          9
   129          2
   130          4
   131          1
   132          1
   133          1
   137          1
   138          2
   139         20
   140          9
   141          2
   142          1
   143          1
   144          1
   147         14
   149          1
   150          5
   151         10
   152         16
   153          4
   154          2
   162          1
   163          7
   164         11
   165         38
   166         14
   167         16
   168          3
   175          1
   176          7
   177         10
   178         22
   179         14
   180         17
   181          4
   182          1
   188          1
   189          4
   190         21
   191         53
   192        110
   193        136
   194         69
   195         10
   196          1
   201          1
   202          2
   203          3
   204         31
   205         11
   206         35
   207         48
   208         40
   209         10
   210          2
   215          1
   216          3
   217          8
   218         17
   219          6
   220         89
   221         21
   222         21
   223          4
   224          1
   228          1
   230          2
   231          2
   232          5
   233          2
   234         36
   235          8
   236          5
   237          1
   248          4
   249          2
   250          1
   263          1
   277          1
   279        353
   280         76
   281          8
   282          1
   294        149
   295         34
   296          4