##TITLE=Library Entry 16565
##JCAMP-DX=Revision 4.10 
##DATA TYPE=MASS SPECTRUM
##SAMPLE DESCRIPTION=K.E. MALTERUD, DEP. PHARM., UNIV. OSLO, BLINDERN, NORWA
Y
##NAMES=HP
##CAS NAME=Thebenine
##MOLFORM=C18H19NO3
##CAS REGISTRY NO=476-68-6
##MP= -300
##BP= -300
##MW= 297
##$RETENTION INDEX=0
##$CONDENSED SPECTRUM=NO
##NPOINTS= 221
##XYDATA=(XY..XY) 1 
    34          4
    35         35
    36        244
    37         10
    38         77
    39         13
    40         83
    41         15
    42        108
    43         43
    44        999
    45         30
    51         15
    52          4
    53          4
    54          3
    55         17
    56         13
    57         49
    58         38
    59          2
    60          3
    62          5
    63         18
    64          4
    65          5
    67          5
    68          4
    69          6
    70         87
    71         10
    72          3
    73          3
    74          6
    75         16
    76         21
    77         18
    78         14
    79          2
    80          2
    81          9
    82         32
    83          7
    84          7
    85          3
    86          4
    87         10
    88         15
    89         12
    90          3
    91          7
    92          2
    93          1
    94          7
    95          3
    96         11
    97          6
    98          4
    99          5
   100          3
   101          9
   102         12
   103          8
   104          8
   105          3
   106          1
   109          5
   110          7
   111          7
   112          3
   113          9
   114         10
   115         30
   116          5
   117          7
   118          7
   119          4
   120          2
   123          2
   124          2
   125          8
   126         16
   127         28
   128         15
   129          5
   130          2
   131          2
   132          6
   133          3
   134          1
   137          3
   138          6
   139         52
   140         17
   141         19
   142          3
   143          4
   144          1
   145          1
   148          2
   149          8
   150         15
   151         35
   152         81
   153         31
   154          9
   155         12
   156          6
   157          4
   161          1
   162          3
   163         28
   164         19
   165         64
   166         15
   167         11
   168         20
   169         13
   170          4
   171          5
   172          2
   173          1
   174          1
   175          4
   176         16
   177         12
   178          9
   179         10
   180          9
   181         43
   182         17
   183         13
   184         12
   185          6
   186          1
   187          3
   188          2
   189          7
   190          5
   191          6
   192         12
   193         24
   194         13
   195         18
   196         14
   197         20
   198          8
   199          6
   200          1
   201         10
   202          3
   203          2
   205         25
   206         13
   207         17
   208         14
   209         21
   210         21
   211         31
   212         12
   213          8
   214          3
   215          1
   216         10
   217          5
   218         20
   219          9
   220         14
   221        124
   222         48
   223         35
   225         31
   227         10
   228          5
   229          2
   230          1
   231          1
   232          3
   233         14
   234         22
   235         51
   238        179
   241         17
   242          7
   243          1
   244          1
   246          7
   247          7
   248          9
   249         25
   251        210
   252         77
   254        441
   255         76
   256          9
   261          1
   262          7
   263          7
   266         97
   267         24
   268         61
   269         40
   270          6
   276          1
   277          4
   278         13
   279         28
   280         41
   281         23
   282         74
   283         14
   284          1
   291          2
   292          1
   293          6
   294          1
   295         10
   297        375
   298         74
   299         10
   300          1