##TITLE=Library Entry 51963
##JCAMP-DX=Revision 4.10 
##DATA TYPE=MASS SPECTRUM
##SAMPLE DESCRIPTION=NIST Mass Spectrometry Data Center, 1994
##NAMES=HP
##CAS NAME=Propanenitrile, 3-(dodecylamino)-
##MOLFORM=C15H30N2
##CAS REGISTRY NO=4763-40-0
##MP= -300
##BP= -300
##MW= 238
##$RETENTION INDEX=0
##$CONDENSED SPECTRUM=NO
##NPOINTS= 72
##XYDATA=(XY..XY) 1 
     4          1
    14          0
    15          3
    18          4
    26          4
    27         35
    28         43
    29         77
    30         98
    31          2
    32          2
    39         23
    41        144
    42        162
    43        123
    44        162
    45          9
    51          2
    52          3
    53         11
    54         70
    55         69
    56         49
    57         40
    58          4
    59          1
    65          1
    66          1
    67          8
    68         10
    69         30
    70         19
    71         25
    72          6
    77          0
    79          2
    80          1
    81          7
    82          0
    83        999
    84         60
    85          5
    86          4
    95          2
    96          5
    97         17
    98          7
    99          1
   100          2
   109          3
   110          1
   111          1
   112          3
   125          3
   126          2
   139          4
   140          1
   148          1
   153          2
   154          1
   167          1
   168          1
   181          1
   182          0
   184          6
   185          1
   196          2
   198         67
   199          9
   237          1
   238          3
   239          0