##TITLE=Library Entry 35448
##JCAMP-DX=Revision 4.10 
##DATA TYPE=MASS SPECTRUM
##SAMPLE DESCRIPTION=Exported from NIST MS Search
##NAMES=HP
##CAS NAME=Bicyclo[3.1.1]heptane-2-carboxaldehyde, 6,6-dimethyl-
##MOLFORM=C10H16O
##CAS REGISTRY NO=4764-14-1
##MP= -300
##BP= -300
##MW= 152
##$RETENTION INDEX=1188
##$CONDENSED SPECTRUM=NO
##NPOINTS= 71
##XYDATA=(XY..XY) 1 
    15         10
    26          9
    27        203
    29        161
    31         12
    38         11
    39        283
    40         39
    41        817
    42         56
    43        223
    44          6
    50         19
    51         64
    52         29
    53        181
    54        125
    55        375
    56         48
    57         80
    58          5
    59          7
    62          5
    63         18
    64          5
    65         68
    66         50
    67        802
    68        111
    69        999
    70        322
    71         32
    72          9
    75          8
    77        116
    78         38
    79        234
    80         54
    81        606
    82        822
    83        536
    84         43
    85          5
    91         98
    92         31
    93         73
    94         30
    95        129
    96         52
    97         30
    98         84
    99          7
   105         20
   106         11
   107         27
   108         75
   109        188
   110         47
   111         12
   119         24
   120          7
   121         66
   122         13
   123        643
   124         82
   125          6
   134         10
   135          5
   137        168
   138         16
   152         45