##TITLE=Library Entry 16210
##JCAMP-DX=Revision 4.10 
##DATA TYPE=MASS SPECTRUM
##SAMPLE DESCRIPTION=NIST Mass Spectrometry Data Center
##NAMES=HP
##CAS NAME=Tenamfetamine
##MOLFORM=C10H13NO2
##CAS REGISTRY NO=4764-17-4
##MP= -300
##BP= -300
##MW= 179
##$RETENTION INDEX=1484
##$CONDENSED SPECTRUM=NO
##NPOINTS= 94
##XYDATA=(XY..XY) 1 
    14          1
    15          4
    18         25
    26          2
    27         12
    28         17
    29          8
    30          6
    31          1
    37          2
    38          6
    39         22
    40          4
    41          8
    42         41
    43         12
    44        999
    45         27
    46          1
    49          1
    50         22
    51         86
    52         17
    53         14
    54          3
    55          2
    56          3
    57          2
    58          1
    61          2
    62          8
    63         17
    64          5
    65         11
    66          4
    67          5
    68          1
    73          1
    74          6
    75          6
    76         12
    77        106
    78         42
    79         23
    80          6
    81         27
    86          1
    87          1
    89          7
    90          2
    91          6
    92          2
    93          2
    94          1
   101          1
   102          3
   103         10
   104         11
   105         29
   106         26
   107          8
   108          1
   116          2
   117          2
   118          3
   119          1
   120          4
   121          6
   122          2
   130          1
   131          5
   132          2
   133          2
   134          9
   135        167
   136        362
   137         32
   138          3
   145          1
   146          1
   147          2
   148          3
   149          1
   160          1
   161          2
   162          3
   163          5
   164          7
   165          1
   176          1
   177          2
   178          4
   179         17
   180          2