##TITLE=Library Entry 55735
##JCAMP-DX=Revision 4.10 
##DATA TYPE=MASS SPECTRUM
##SAMPLE DESCRIPTION=Japan AIST/NIMC Database- Spectrum MS-NW-6994
##NAMES=HP
##CAS NAME=Dimethylolpropionic acid
##MOLFORM=C5H10O4
##CAS REGISTRY NO=4767-03-7
##MP= -300
##BP= -300
##MW= 134
##$RETENTION INDEX=0
##$CONDENSED SPECTRUM=NO
##NPOINTS= 67
##XYDATA=(XY..XY) 1 
    14          2
    15         12
    16          2
    17          2
    18          7
    25          2
    26         15
    27         94
    28         28
    29        106
    30         12
    31        187
    32          4
    33          1
    37          4
    38          9
    39        110
    40         66
    41        332
    42         90
    43         61
    44         18
    45         47
    46          4
    47         16
    49          6
    50          1
    51          2
    52          1
    53         12
    54          7
    55         39
    56         18
    57        125
    58        111
    59         25
    60          5
    63          1
    67          2
    68        135
    69        138
    70         32
    71         47
    72         30
    73          8
    74          1
    81          1
    83         19
    84          5
    85        135
    86        999
    87        112
    88         23
    89          7
    95          1
    97          2
    98         53
    99          5
   101          2
   103         22
   104        212
   105         12
   106          2
   111          1
   115          4
   116          8
   117          3