##TITLE=Library Entry 76877
##JCAMP-DX=Revision 4.10 
##DATA TYPE=MASS SPECTRUM
##SAMPLE DESCRIPTION=V.G.Zaikin, TIPS, Russian Acad. Sci.
##NAMES=HP
##CAS NAME=3-Ethylideneisobenzofuranone
##MOLFORM=C10H8O2
##CAS REGISTRY NO=4767-63-9
##MP= -300
##BP= -300
##MW= 160
##$RETENTION INDEX=0
##$CONDENSED SPECTRUM=NO
##NPOINTS= 69
##XYDATA=(XY..XY) 1 
    37        144
    38        160
    39        249
    40        140
    41         69
    42         83
    43        378
    44         45
    45        191
    47         13
    48          6
    49        105
    50        845
    51        362
    52         97
    53         71
    54          6
    55         90
    56         11
    60         83
    61         39
    62         57
    63        136
    64         29
    65        211
    66         64
    74        211
    75        222
    76        907
    77        412
    78         99
    79         35
    81         20
    82          5
    83         16
    84         10
    85         12
    86          9
    87         35
    88         42
    89         84
    90         84
    91        177
    92         38
    93         27
   102         42
   103        112
   104        999
   105        298
   106          9
   113         12
   114          8
   115         18
   116          7
   117          9
   118         82
   119        119
   120         10
   121         31
   122          3
   130         19
   131         98
   132        113
   133         48
   134         15
   159         33
   160        177
   161         19
   162          1