##TITLE=Library Entry 1656
##JCAMP-DX=Revision 4.10 
##DATA TYPE=MASS SPECTRUM
##SAMPLE DESCRIPTION=HCACAV,61(7)2542(1978); H. SCHMID ET AL
##NAMES=HP
##CAS NAME=2H-Pyrano[3,2-b]pyridine
##MOLFORM=C8H7NO
##CAS REGISTRY NO=4767-91-3
##MP= -300
##BP= -300
##MW= 133
##$RETENTION INDEX=0
##$CONDENSED SPECTRUM=NO
##NPOINTS= 11
##XYDATA=(XY..XY) 1 
    37        220
    38        370
    39        999
    50        210
    51        240
    52        160
    64         80
    78         90
   104        110
   132        150
   133        140