##TITLE=Library Entry 14921
##JCAMP-DX=Revision 4.10 
##DATA TYPE=MASS SPECTRUM
##SAMPLE DESCRIPTION=A. Brossi, LC, NIDDK, NIH, Bethesda, MD 20892
##NAMES=HP
##CAS NAME=Colchiceine
##MOLFORM=C21H23NO6
##CAS REGISTRY NO=477-27-0
##MP= -300
##BP= -300
##MW= 385
##$RETENTION INDEX=0
##$CONDENSED SPECTRUM=NO
##NPOINTS= 231
##XYDATA=(XY..XY) 1 
    42         91
    43        999
    44         37
    45         26
    51         24
    52         11
    53         24
    54         15
    55         41
    56         17
    57         18
    59          8
    60         24
    63         26
    64         11
    65         20
    66          8
    67         14
    68          8
    69         19
    70         26
    71         10
    73          7
    74          8
    75         22
    76         21
    77         44
    78         18
    79         13
    80          8
    81          8
    82          9
    83         12
    84         14
    85          9
    87          9
    88         10
    89         25
    91         29
    92         11
    93          8
    95          7
    96          7
    97         10
    99         10
   101         14
   102         25
   103         18
   104         11
   105         13
   106         10
   107          9
   111          7
   112         12
   113         19
   114         18
   115         80
   116         16
   117         11
   118         11
   119          9
   120         13
   121          9
   125         11
   126         23
   127         42
   128         50
   129         23
   130         14
   131         19
   132         11
   133         11
   134          9
   137          8
   138         12
   139         54
   140         29
   141         43
   142         24
   143         18
   144         15
   145         11
   146         14
   147         10
   148         10
   149          7
   150         11
   151         30
   152         55
   153         33
   154         23
   155         32
   156         26
   157         37
   158         14
   159          9
   162          7
   163         12
   164         11
   165         39
   166         18
   167         25
   168         42
   169         52
   170         27
   171         24
   172         11
   173          8
   175          9
   176         13
   177         13
   178         14
   179         12
   180         19
   181         65
   182         26
   183         32
   184         31
   185         34
   186         16
   187          8
   190          8
   191         11
   192          9
   193         13
   194         20
   195         30
   196         42
   197         63
   198         33
   199         23
   200         11
   201          8
   203          7
   205         15
   206         11
   207         33
   208         25
   209         29
   210         26
   211         39
   212         40
   213         40
   214         25
   215          9
   220         11
   221         18
   222         22
   223         36
   224         47
   225         55
   226         32
   227         30
   228         26
   229         12
   235         13
   236         21
   237         30
   238         30
   239         47
   240         83
   241         40
   242         35
   243         14
   249          9
   250         13
   251         37
   252         45
   253         42
   254         39
   255         60
   256         54
   257         30
   258         14
   264         10
   265         18
   266         31
   267        106
   268         63
   269         41
   270         48
   271         31
   272         23
   273         11
   278          7
   279         12
   280         19
   281         25
   282         38
   283        110
   284         72
   285         48
   286         55
   287         16
   288          8
   293          9
   294         18
   295         46
   296         29
   297         45
   298        104
   299         36
   300         69
   301         62
   302         12
   308         11
   309          8
   310         18
   311         69
   312         74
   313         36
   314        275
   315         99
   316         19
   324         10
   325         19
   326        132
   327         35
   328         46
   329         11
   342        246
   343        135
   344         28
   354         12
   357        694
   358        148
   359         24
   370          9
   385        737
   386        194
   387         38