##TITLE=Library Entry 62463
##JCAMP-DX=Revision 4.10 
##DATA TYPE=MASS SPECTRUM
##SAMPLE DESCRIPTION=NIST Mass Spectrometry Data Center
##NAMES=HP
##CAS NAME=Azuleno[4,5-b]furan-2(3H)-one, decahydro-3,6,9-tris(methylene)-,
 [3aS-(3a.alpha.,6a.alpha.,9a.alpha.,9b.beta.)]-
##MOLFORM=C15H18O2
##CAS REGISTRY NO=477-43-0
##MP= -300
##BP= -300
##MW= 230
##$RETENTION INDEX=2007
##$CONDENSED SPECTRUM=NO
##NPOINTS= 180
##XYDATA=(XY..XY) 1 
    26          3
    27         52
    28          6
    29         27
    30          1
    31          1
    37          1
    38          9
    39        214
    40         51
    41        214
    42         12
    43         25
    44          2
    45          1
    49          1
    50         31
    51        135
    52         80
    53        462
    54         57
    55        114
    56          6
    57         10
    58          7
    59          2
    61          1
    62         13
    63         72
    64         28
    65        262
    66         82
    67        196
    68         55
    69         41
    70          6
    71         13
    72         12
    73          5
    74         10
    75         14
    76         17
    77        591
    78        217
    79        760
    80        259
    81        340
    82         45
    83         15
    84          4
    85          2
    86          5
    87          8
    88          2
    89         31
    90         11
    91        999
    92        194
    93        267
    94        140
    95        110
    96         38
    97         18
    98          6
    99          2
   100          3
   101          6
   102         27
   103        162
   104        229
   105        618
   106        416
   107        392
   108         89
   109        149
   110         37
   111         18
   112         20
   113          5
   114          3
   115        266
   116        110
   117        733
   118        164
   119        404
   120        321
   121        144
   122        197
   123        116
   124         22
   125          9
   126          7
   127         50
   128        187
   129        309
   130        133
   131        437
   132        356
   133        157
   134         63
   135         36
   136         28
   137         19
   138          6
   139          8
   140          2
   141        109
   142         81
   143        221
   144         99
   145        255
   146         87
   147         91
   148         46
   149         86
   150        833
   151        105
   152         22
   153         26
   154         28
   155         88
   156        120
   157        140
   158         99
   159        244
   160         98
   161         49
   162         28
   163         12
   164          4
   165          8
   166          4
   167         11
   168         14
   169        114
   170         35
   171         61
   172        213
   173        219
   174        112
   175         89
   176         25
   177          5
   178          3
   179         10
   180          2
   181          5
   182          4
   183         50
   184         62
   185        157
   186         37
   187        149
   188         84
   189         95
   190         14
   191          1
   193          3
   194          3
   195          5
   196          1
   197         53
   198          8
   199          7
   200          3
   201        378
   202        168
   203         22
   204          2
   211         14
   212         47
   213         17
   214          2
   215        219
   216         32
   217          4
   229         15
   230        486
   231         78
   232          9