##TITLE=Library Entry 86194
##JCAMP-DX=Revision 4.10 
##DATA TYPE=MASS SPECTRUM
##SAMPLE DESCRIPTION=H. Fales, LC, NHLBI, NIH, Bethesda, MD 20892
##NAMES=HP
##CAS NAME=Lycorenan-7-one,9,10-dimethoxy-1-methyl-
##MOLFORM=C18H21NO4
##CAS REGISTRY NO=477-20-3
##MP= -300
##BP= -300
##MW= 315
##$RETENTION INDEX=0
##$CONDENSED SPECTRUM=NO
##NPOINTS= 211
##XYDATA=(XY..XY) 1 
    41         51
    42        109
    43         19
    44         17
    45          3
    47          2
    48          0
    49          9
    50          8
    51         17
    52          6
    53         20
    54          8
    55         17
    56          6
    57         13
    58          1
    59          2
    60          4
    61          1
    62          4
    63         17
    64          8
    65         19
    66         14
    67         24
    68          7
    69          6
    70          3
    71          5
    73          5
    74          2
    75          5
    76          8
    77         30
    78         12
    79         19
    80         15
    81         43
    82         58
    83          8
    84          8
    85          3
    86          5
    87          3
    88          3
    89         11
    90          5
    91         17
    92         17
    93         32
    94         44
    95          6
    96          4
    97          2
    98          2
    99          2
   100          1
   101          2
   102          4
   103          5
   104          5
   105          8
   106         13
   107         37
   108        492
   109        999
   110        652
   111          7
   112          1
   113          3
   114          3
   115         15
   116          4
   117          7
   118          5
   119         10
   120          7
   121          4
   122          2
   123          1
   124          1
   125          1
   126          2
   127          7
   128          9
   129          5
   130          3
   131          4
   132          9
   133          5
   134          5
   135         13
   136          2
   137          0
   138          0
   139          4
   140          2
   141          6
   142          2
   143          2
   144          2
   145          3
   146          1
   147          2
   148          1
   149         10
   150         15
   151          4
   152          5
   153          4
   154          3
   155          2
   156          3
   157          3
   158          2
   159          1
   160          0
   161          2
   162          1
   163          3
   164          1
   165          3
   166          1
   167          3
   168          3
   169          3
   170          3
   171          1
   172          1
   173          0
   174          0
   175          1
   176          0
   177          2
   178         26
   179          3
   180          2
   181          2
   182          2
   183          2
   184          2
   185          2
   186          1
   187          0
   188          0
   189          1
   190          1
   191          2
   192          0
   193          1
   194          1
   195          1
   196          1
   197          1
   198          2
   199          1
   200          1
   201          0
   204          0
   205          7
   206         10
   207          2
   208          0
   209          0
   210          1
   211          1
   212          2
   213          1
   214          0
   215          0
   217          0
   219          0
   220          2
   221          0
   222          0
   223          0
   224          1
   225          0
   226          1
   227          1
   228          1
   229          0
   236          1
   237          0
   238          1
   239          1
   240          1
   241          0
   242          1
   243          0
   252          0
   254          1
   255          1
   256          1
   257          0
   266          0
   268          0
   269          0
   270          2
   271          0
   280          0
   281          0
   282          0
   284          0
   298          1
   299          0
   313          1
   314          3
   315          1
   316          1