##TITLE=Library Entry 50321
##JCAMP-DX=Revision 4.10 
##DATA TYPE=MASS SPECTRUM
##SAMPLE DESCRIPTION=Japan AIST/NIMC Database- Spectrum MS-NW-3054
##NAMES=HP
##CAS NAME=3-Cyclohexene-1-carboxylic acid
##MOLFORM=C7H10O2
##CAS REGISTRY NO=4771-80-6
##MP= -300
##BP= -300
##MW= 126
##$RETENTION INDEX=1360
##$CONDENSED SPECTRUM=NO
##NPOINTS= 86
##XYDATA=(XY..XY) 1 
    15          4
    17          2
    18          7
    25          1
    26         44
    27        122
    28         20
    29         29
    30          1
    31          5
    32          2
    36          2
    37          8
    38         19
    39        189
    40         23
    41        217
    42         18
    43         25
    44          8
    45         37
    46          2
    47          9
    49          4
    50         36
    51         67
    52         38
    53        157
    54        291
    55         53
    56          6
    57         16
    58          2
    60          6
    61          2
    62          4
    63          9
    64          3
    65         36
    66         53
    67        101
    68         33
    69         18
    70         15
    71          9
    72          9
    73          9
    74          6
    75          3
    76          2
    77         98
    78         28
    79        362
    80        666
    81        999
    82         65
    83         17
    84         18
    85          7
    86          3
    90          1
    91          5
    92          2
    93          5
    94          1
    95          2
    96          1
    97         90
    98         14
    99          4
   105          2
   107         11
   108        310
   109         32
   110          5
   111         41
   112          4
   119          5
   121          1
   122          2
   123          1
   124          1
   125         10
   126        202
   127         15
   128          1