##TITLE=Library Entry 78575
##JCAMP-DX=Revision 4.10 
##DATA TYPE=MASS SPECTRUM
##SAMPLE DESCRIPTION=NIST Mass Spectrometry Data Center, 1994
##NAMES=HP
##CAS NAME=N-(m-Nitrophenyl)benzamide
##MOLFORM=C13H10N2O3
##CAS REGISTRY NO=4771-08-8
##MP= -300
##BP= -300
##MW= 242
##$RETENTION INDEX=0
##$CONDENSED SPECTRUM=NO
##NPOINTS= 53
##XYDATA=(XY..XY) 1 
    16          2
    18          2
    27          3
    28          4
    30         21
    37          6
    38         23
    39         28
    40          5
    41          7
    46          2
    50         59
    51        184
    52         29
    53          7
    54          5
    55          1
    61          3
    62         13
    63         47
    64         46
    65         14
    66          1
    73          1
    74         10
    75         17
    76          1
    77        578
    78         39
    79          5
    80          2
    84          1
    88          2
    89          3
    90          6
    91         16
    92          3
   102          1
   105        999
   106         83
   107          5
   115          1
   137          4
   139          3
   140          2
   166          4
   167          3
   195          4
   212          7
   226          3
   242        112
   243         17
   244          1