##TITLE=Library Entry 79326
##JCAMP-DX=Revision 4.10 
##DATA TYPE=MASS SPECTRUM
##SAMPLE DESCRIPTION=CARL DJERASSI DEPT OF CHEM STANFORD UNIV STANFORD CALIF
 94305
##NAMES=HP
##CAS NAME=Benzamide, N-hexyl-
##MOLFORM=C13H19NO
##CAS REGISTRY NO=4773-75-5
##MP= -300
##BP= -300
##MW= 205
##$RETENTION INDEX=0
##$CONDENSED SPECTRUM=NO
##NPOINTS= 37
##XYDATA=(XY..XY) 1 
    41         50
    42         10
    43         30
    44         20
    50         20
    51         70
    52         10
    53         10
    55         20
    56         10
    74         10
    75         10
    76         20
    77        310
    78         30
    79         20
    81         10
    91         10
   103         10
   104         10
   105        999
   106         70
   107         10
   121         10
   122         40
   134        140
   135        160
   136         20
   148         70
   149         20
   162         80
   163         20
   176         50
   177         10
   204         20
   205        110
   206         10