##TITLE=Library Entry 73463
##JCAMP-DX=Revision 4.10 
##DATA TYPE=MASS SPECTRUM
##SAMPLE DESCRIPTION=RADIAN CORP
##NAMES=HP
##CAS NAME=Silane, diazidodimethyl-
##MOLFORM=C2H6N6Si
##CAS REGISTRY NO=4774-73-6
##MP= -300
##BP= -300
##MW= 142
##$RETENTION INDEX=0
##$CONDENSED SPECTRUM=NO
##NPOINTS= 44
##XYDATA=(XY..XY) 1 
    14         11
    15         36
    26          3
    27         11
    28         75
    29         72
    30         13
    31         10
    40          5
    41         29
    42        135
    43        401
    44         51
    45        110
    46          7
    47          3
    53         13
    54         24
    55         21
    56         93
    57         16
    58         36
    63          4
    69          2
    70        186
    71         15
    72          8
    85          8
    86         13
    93          5
    99         17
   100        999
   101         91
   102         39
   120         12
   122          4
   126          2
   127        893
   128         79
   129         32
   135          1
   142        305
   143         29
   144         10