##TITLE=Library Entry 19774
##JCAMP-DX=Revision 4.10 
##DATA TYPE=MASS SPECTRUM
##SAMPLE DESCRIPTION=A.E.FONTAINE DYESTUFFS DIV., I.C.I., MANCHESTER
##NAMES=HP
##CAS NAME=2-Piperidinone, 6-methyl-
##MOLFORM=C6H11NO
##CAS REGISTRY NO=4775-98-8
##MP= -300
##BP= -300
##MW= 113
##$RETENTION INDEX=0
##$CONDENSED SPECTRUM=NO
##NPOINTS= 54
##XYDATA=(XY..XY) 1 
    14          6
    15         74
    16          3
    17          1
    18         22
    26          4
    27        123
    28        199
    29         50
    30         54
    31          1
    38         11
    39        168
    40         51
    41        253
    42        584
    43        113
    44        838
    45         15
    50          3
    51          8
    52          9
    53         19
    54         27
    55        999
    56         72
    57        169
    58         27
    59          3
    65          5
    66          4
    67         15
    68         21
    69         23
    70        163
    71         20
    72          3
    78          1
    80          3
    82         11
    83          6
    84         73
    85         56
    86          2
    96          3
    97          2
    98        123
    99         70
   100          3
   111          4
   112         34
   113         18
   114         29
   115          1