##TITLE=Library Entry 31332
##JCAMP-DX=Revision 4.10 
##DATA TYPE=MASS SPECTRUM
##SAMPLE DESCRIPTION=Japan AIST/NIMC Database- Spectrum MS-NW-2281
##NAMES=HP
##CAS NAME=.beta.'-Dithiodilactic acid
##MOLFORM=C6H10O4S2
##CAS REGISTRY NO=4775-93-3
##MP= -300
##BP= -300
##MW= 210
##$RETENTION INDEX=0
##$CONDENSED SPECTRUM=NO
##NPOINTS= 132
##XYDATA=(XY..XY) 1 
    12          4
    13          3
    14          8
    15         13
    16          6
    17         16
    18         67
    19          2
    24          3
    25         17
    26         99
    27        330
    28         94
    29         97
    30          6
    31          8
    32         37
    33         43
    34         78
    35        163
    36         12
    37          8
    38          4
    39         10
    40          7
    41          7
    42          8
    43         37
    44        118
    45        273
    46         25
    47         34
    48          2
    49          2
    50          2
    51          2
    52          3
    53         16
    54         10
    55        132
    56         63
    57         63
    58        203
    59        391
    60        274
    61        999
    62         44
    63         53
    64         29
    65          8
    66          6
    67          2
    68          3
    69          5
    70          2
    71         10
    72         14
    73         69
    74         79
    75          4
    76         10
    77          3
    78         23
    79          1
    80          3
    81          3
    82          2
    83          2
    84          2
    85          6
    86          8
    87          6
    88         68
    89         11
    90          5
    91          8
    92         28
    93         48
    94          5
    95          4
    96          1
    97          2
    98          2
    99          1
   100          3
   103          2
   104         88
   105          8
   106        407
   107         31
   108         23
   109         14
   110          1
   111          3
   113          1
   114          1
   115          1
   116          8
   117          1
   118          2
   119         37
   120         39
   121         17
   122          3
   123          2
   128          4
   129          1
   130          1
   131          1
   132          1
   133          4
   134          1
   136          1
   137          6
   138          2
   139          1
   143          1
   146          1
   147         12
   148          2
   149          2
   155          3
   160          4
   162          2
   164          2
   165          6
   166          1
   172          4
   192          6
   210         56
   211          4
   212          4