##TITLE=Library Entry 51812
##JCAMP-DX=Revision 4.10 
##DATA TYPE=MASS SPECTRUM
##SAMPLE DESCRIPTION=Patti Price, Georgia Bureau of Investigation, Decatur,
 Georgia
##NAMES=HP
##CAS NAME=Pseudococaine
##MOLFORM=C17H21NO4
##CAS REGISTRY NO=478-73-9
##MP= -300
##BP= -300
##MW= 303
##$RETENTION INDEX=2180
##$CONDENSED SPECTRUM=NO
##NPOINTS= 123
##XYDATA=(XY..XY) 1 
    41         29
    42        104
    43          9
    44         18
    45          4
    47          3
    48          1
    49          1
    50         15
    51         56
    52          6
    53         17
    54         11
    55         38
    56         17
    57         22
    58          5
    59         29
    60          1
    63          1
    64          1
    65         21
    66          9
    67         43
    68         42
    69         14
    70         17
    71          6
    72          1
    73          1
    74          4
    75          4
    76         14
    77        253
    78         24
    79         28
    80         29
    81        103
    82        999
    83        386
    84         31
    85         14
    87          3
    91         38
    92          8
    93         31
    94        150
    95         27
    96        224
    97        100
    98          9
    99          2
   100         11
   101          2
   103          1
   104          2
   105        236
   106         23
   107         13
   108         36
   109          9
   110         11
   111          2
   112          1
   113          1
   114          2
   115          1
   117          2
   118          4
   119         30
   120         17
   121          6
   122         71
   123         13
   124          6
   125          3
   126          3
   127          1
   128          1
   129          1
   132          1
   133          3
   134          1
   135          5
   136          1
   137          1
   138         15
   139          2
   140         11
   141          1
   147          1
   148          4
   149          2
   150         25
   151          6
   152        139
   153         25
   154         10
   155         19
   156          2
   164          1
   166         18
   167          2
   168          1
   179          2
   180          8
   181         39
   182        777
   183         85
   184          5
   198        115
   199         13
   200          2
   207          1
   222          1
   244          4
   259          1
   272         50
   273          9
   274          1
   303        156
   304         35
   305          4