##TITLE=Library Entry 58234
##JCAMP-DX=Revision 4.10 
##DATA TYPE=MASS SPECTRUM
##SAMPLE DESCRIPTION=V.A.Korolev, Moscow, Russia
##NAMES=HP
##CAS NAME=6,8-Dibromo-1,2,3,4-benzotetrazine-1,3-dione
##MOLFORM=C6H2Br2N4O2
##CAS REGISTRY NO=478189-82-1
##MP= -300
##BP= -300
##MW= 320
##$RETENTION INDEX=0
##$CONDENSED SPECTRUM=NO
##NPOINTS= 119
##XYDATA=(XY..XY) 1 
    30         61
    37        274
    38        153
    39         12
    40        102
    41          8
    42          4
    43         37
    44        137
    45         17
    46         53
    48         21
    49         65
    50         69
    51         65
    52         27
    53          4
    55          2
    57          3
    60         69
    61        544
    62        256
    63        107
    64         36
    67          3
    72          9
    73        105
    74        444
    75        110
    76         69
    78         12
    79         40
    80         17
    81         37
    82         17
    86         85
    87        320
    88        999
    89         96
    90         20
    91         16
    93         19
    95         17
   100          4
   101         51
   102         23
   104         23
   106         20
   107         17
   109         16
   115          7
   116         61
   117        143
   118         88
   119        111
   120         13
   128         21
   129          7
   130         29
   131         12
   132          3
   140          8
   141         64
   142        111
   143         67
   144         94
   149          2
   152          6
   153        531
   154        124
   155        570
   156        114
   157         53
   160          3
   161          2
   166         16
   167         92
   168         70
   169         97
   170         47
   171         58
   173         82
   175         33
   181         20
   183         22
   195         28
   196         45
   197        103
   198         58
   199         64
   200          9
   219          7
   221         17
   222          7
   223          7
   232        213
   233         11
   234        421
   235         27
   236        209
   237          8
   246        331
   247         43
   248        659
   249         87
   250        329
   251         42
   275          9
   276          7
   277         29
   278         17
   279         10
   280          4
   320         95
   321          4
   322        186
   323          8
   324         92
   325          4