##TITLE=Library Entry 14692
##JCAMP-DX=Revision 4.10 
##DATA TYPE=MASS SPECTRUM
##SAMPLE DESCRIPTION=DENNIS H SMITH DEPT OF CHEM STANFORD UNIV STANFORD CALI
F 9430
##NAMES=HP
##CAS NAME=19-Norpregn-4-ene-3,20-dione, 10-ethyl-
##MOLFORM=C22H32O2
##CAS REGISTRY NO=4781-53-7
##MP= -300
##BP= -300
##MW= 328
##$RETENTION INDEX=0
##$CONDENSED SPECTRUM=NO
##NPOINTS= 128
##XYDATA=(XY..XY) 1 
    41        231
    42         13
    43        999
    45         10
    51         11
    52          8
    53         64
    55        228
    57         26
    65         47
    66         13
    67        155
    68         22
    69         56
    71         79
    77        116
    78         40
    79        223
    80         36
    81        151
    82         17
    83         32
    84         51
    85         76
    91        208
    92         36
    93        162
    94         39
    95        138
    97         11
   103         11
   104          9
   105        139
   106         25
   107        132
   108         44
   109         95
   110        139
   111         32
   115         29
   116         14
   117         61
   118         19
   119         89
   120         35
   121         98
   122         36
   123         53
   124         24
   125         20
   128         13
   129         28
   130         11
   131         64
   132         28
   133        129
   134         38
   135         86
   136         80
   137         72
   138        298
   139         32
   141         12
   142         10
   143         24
   144         12
   145         63
   146         27
   147        138
   148         54
   149        107
   150         16
   151         33
   155         10
   157         14
   158          9
   159         53
   160         10
   161         49
   162         16
   163         34
   171         26
   172         12
   173         67
   174         13
   175         29
   177         18
   185         20
   186          9
   187         21
   189         20
   190         35
   191         71
   192         14
   199         13
   201         26
   203         13
   211          8
   215         11
   225         13
   229        102
   230         20
   231         11
   239          8
   241         27
   242         10
   243         97
   244         22
   257         64
   258         60
   259          9
   267          9
   268         11
   271         17
   281         19
   283         39
   284         12
   285         20
   286        236
   299         87
   300         25
   301         24
   310         13
   313         12
   326         62
   328        399
   329         97
   330         26