##TITLE=Library Entry 49096
##JCAMP-DX=Revision 4.10 
##DATA TYPE=MASS SPECTRUM
##SAMPLE DESCRIPTION=A.G. HARRISON, UNIV. OF TORONTO, TORONTO 5, ONTARIO, CA
NADA
##NAMES=HP
##CAS NAME=1,3-Cyclopentadiene, 1,2-dimethyl-
##MOLFORM=C7H10
##CAS REGISTRY NO=4784-86-5
##MP= -300
##BP= -300
##MW= 94
##$RETENTION INDEX=0
##$CONDENSED SPECTRUM=NO
##NPOINTS= 15
##XYDATA=(XY..XY) 1 
    27        111
    39        272
    41         54
    51        113
    52         52
    53         76
    65         58
    66         37
    77        503
    78         86
    79        999
    91        234
    92         28
    93        174
    94        543