##TITLE=Library Entry 82899
##JCAMP-DX=Revision 4.10 
##DATA TYPE=MASS SPECTRUM
##SAMPLE DESCRIPTION=Chemical Concepts
##NAMES=HP
##CAS NAME=2-Piperidinone, 1-phenyl-
##MOLFORM=C11H13NO
##CAS REGISTRY NO=4789-09-7
##MP= -300
##BP= -300
##MW= 175
##$RETENTION INDEX=0
##$CONDENSED SPECTRUM=NO
##NPOINTS= 96
##XYDATA=(XY..XY) 1 
    26          9
    27         75
    29         27
    30          6
    37          3
    38         12
    39         68
    41         38
    42         50
    43          5
    49          0
    50         27
    51        112
    52         23
    53         14
    54          8
    55         67
    56          3
    59          0
    60          0
    61          1
    62          6
    63         27
    64         32
    65         40
    66         15
    67          2
    68          2
    69          5
    70        129
    71          6
    72          0
    73          1
    74          8
    75          9
    76         16
    77        385
    78         55
    79         68
    80          5
    81          1
    82         12
    83          1
    84          0
    87          0
    88          1
    89          4
    90         13
    91         93
    92         42
    93         66
    94         26
    95          1
    97          0
    98          0
   101          0
   102          1
   103          6
   104        141
   105         89
   106        999
   107         81
   108          2
   115          3
   116          2
   117         23
   118        283
   119        929
   120         94
   121          4
   122          0
   127          0
   128          1
   129          0
   130         12
   131          4
   132         52
   133          8
   134          2
   143          1
   144          3
   145          1
   146        154
   147         69
   148          7
   156          0
   158          0
   159          0
   160          0
   170          0
   172          0
   173          0
   174         65
   175        683
   176         87
   177          6