##TITLE=Library Entry 1424
##JCAMP-DX=Revision 4.10 
##DATA TYPE=MASS SPECTRUM
##SAMPLE DESCRIPTION=Japan AIST/NIMC Database- Spectrum MS-NW-2531
##NAMES=HP
##CAS NAME=Tetryl
##MOLFORM=C7H5N5O8
##CAS REGISTRY NO=479-45-8
##MP= -300
##BP= -300
##MW= 287
##$RETENTION INDEX=2107
##$CONDENSED SPECTRUM=NO
##NPOINTS= 161
##XYDATA=(XY..XY) 1 
    12          2
    14          4
    15         92
    16         11
    17         22
    18        103
    20          1
    25          1
    26          9
    27         29
    28        114
    29         62
    30        999
    31         20
    32          5
    36          2
    37         40
    38         47
    39         88
    40         30
    41         27
    42         45
    43          9
    44         72
    45         23
    46        395
    47          5
    48          6
    49         10
    50        178
    51        143
    52        107
    53         53
    54         11
    55         13
    56         21
    57          3
    58         12
    59          2
    60         10
    61        100
    62        248
    63        130
    64        184
    65        104
    66        229
    67         27
    68         25
    69         18
    70          7
    71          1
    72          5
    73         27
    74        188
    75        460
    76        262
    77        343
    78        143
    79         49
    80        110
    81         15
    82          9
    83          7
    84          8
    85          1
    86          9
    87         51
    88        226
    89         74
    90        254
    91        346
    92        157
    93         52
    94         18
    95          9
    96          5
    97          1
    98          2
    99          6
   100         10
   101         10
   102        181
   103        146
   104        128
   105         68
   106         24
   107         37
   108         27
   109          5
   110          1
   111          1
   115          6
   116         10
   117         24
   118        128
   119         78
   120        109
   121         23
   122          7
   123          9
   124          5
   126          1
   131          9
   132         46
   133         40
   134         32
   135         18
   136         49
   137         78
   138          7
   139          3
   147          3
   148         30
   149        148
   150         37
   151         10
   152          4
   153         12
   154          1
   162          5
   163         13
   164         60
   165         45
   166         66
   167         31
   168          4
   169          1
   178         27
   179         28
   180          6
   181        344
   182         31
   183         29
   184          3
   185          1
   192          2
   193          2
   194        219
   195         83
   196         14
   197         27
   198          3
   208         14
   209          4
   210         29
   211         27
   212         25
   213         28
   214          4
   224        137
   225         44
   226          9
   227          1
   228          2
   240         10
   241        554
   242        141
   243         16
   244          2
   257          1
   287          9