##TITLE=Library Entry 34807
##JCAMP-DX=Revision 4.10 
##DATA TYPE=MASS SPECTRUM
##SAMPLE DESCRIPTION=Japan AIST/NIMC Database- Spectrum MS-IW-3445
##NAMES=HP
##CAS NAME=p-Benzoquinone, 2,5-dihydroxy-3,6-dinitro-
##MOLFORM=C6H2N2O8
##CAS REGISTRY NO=479-22-1
##MP= -300
##BP= -300
##MW= 230
##$RETENTION INDEX=0
##$CONDENSED SPECTRUM=NO
##NPOINTS= 138
##XYDATA=(XY..XY) 1 
    12         20
    13          7
    14         10
    15          3
    16         37
    17          2
    18          6
    24         11
    25         24
    26         36
    27         94
    28        414
    29        127
    30        565
    31          5
    32          5
    33          1
    34          1
    36         13
    37         15
    38         30
    39         15
    40         56
    41        347
    42        121
    43        123
    44        945
    45        100
    46        168
    47         10
    48         34
    49          1
    50          7
    51          4
    52         66
    53        145
    54        332
    55         28
    56         10
    57          8
    58          5
    59          2
    60          2
    61          1
    62          3
    63          1
    64         12
    65          8
    66          6
    67         15
    68        267
    69        999
    70        820
    71        187
    72         20
    73          3
    74          1
    76          2
    77          1
    78          4
    79          1
    80         81
    81         47
    82         38
    83         45
    84          9
    85         47
    86          9
    87         45
    88        110
    89          4
    90          1
    91          1
    92          6
    93         11
    94         10
    95         28
    96         11
    97          9
    98        115
    99         40
   100          9
   101          1
   107          1
   108         47
   109          8
   110          9
   111         24
   112          7
   113         19
   114         52
   115         70
   116          7
   117          1
   122          8
   123          1
   124          3
   125          1
   126         11
   127          4
   128          2
   132          7
   135          8
   136          1
   137          4
   138         77
   139          7
   140          6
   141          3
   142          1
   149          3
   150          1
   152          2
   153          1
   154          5
   155          8
   156          1
   157          1
   165          1
   166          3
   167          4
   168          3
   169          5
   170          1
   178          2
   179          4
   180          1
   182          1
   183         12
   184          7
   185          6
   200          6
   201          2
   212          3
   214          3
   230         42
   231          4
   232          5