##TITLE=Library Entry 84098
##JCAMP-DX=Revision 4.10 
##DATA TYPE=MASS SPECTRUM
##SAMPLE DESCRIPTION=P.A. Leclercq, Lab. Instrum. Anal., Tech. Univ. Eindhov
en, Netherlands
##NAMES=HP
##CAS NAME=Diazene, bis(4-ethoxyphenyl)-, 1-oxide
##MOLFORM=C16H18N2O3
##CAS REGISTRY NO=4792-83-0
##MP= -300
##BP= -300
##MW= 286
##$RETENTION INDEX=0
##$CONDENSED SPECTRUM=NO
##NPOINTS= 116
##XYDATA=(XY..XY) 1 
    14          0
    15          3
    18          0
    27        120
    28          1
    29        287
    30          8
    36          3
    37          2
    38         15
    39        109
    40         11
    41          9
    43         10
    50         28
    51         33
    52        184
    53         61
    54         10
    55         20
    62          9
    63         60
    64         63
    65        275
    66         20
    67          4
    68          5
    69          5
    74          5
    75         12
    76         42
    77        130
    78         46
    79        203
    80         75
    81         62
    82          4
    88          2
    89          6
    90         11
    91         87
    92         48
    93        201
    94         51
    95         10
    96          2
    97          3
   102          3
   103         17
   104          4
   105          4
   107        999
   108        145
   109         69
   110          9
   115         10
   116          4
   117          8
   118          3
   119         10
   121        655
   122         75
   123        247
   124         51
   125          6
   127         20
   128         12
   129          6
   131         13
   132          6
   133          5
   135        488
   136        103
   137         17
   138          4
   139          6
   140          3
   144          5
   145         13
   146          3
   148         11
   149         76
   151        156
   152         19
   155          5
   156          3
   157          9
   159          3
   161          3
   163          3
   165          5
   170          3
   172          3
   173         23
   174          4
   183          8
   184          6
   185          8
   186          5
   187          5
   198          3
   200          5
   201         53
   202          7
   212          4
   213         13
   229         82
   230         10
   241          5
   257         44
   258          9
   270         32
   271          7
   286        480
   287         84
   288          9