##TITLE=Library Entry 17390
##JCAMP-DX=Revision 4.10 
##DATA TYPE=MASS SPECTRUM
##SAMPLE DESCRIPTION=NIST Mass Spectrometry Data Center, 2007
##NAMES=HP
##CAS NAME=Pentaethylene glycol
##MOLFORM=C10H22O6
##CAS REGISTRY NO=4792-15-8
##MP= -300
##BP= -300
##MW= 238
##$RETENTION INDEX=1795
##$CONDENSED SPECTRUM=NO
##NPOINTS= 80
##XYDATA=(XY..XY) 1 
    14          1
    15         17
    16          1
    18          1
    19         21
    26          5
    27         49
    28         67
    29         73
    30         12
    31         82
    32          3
    33          2
    39          1
    40          1
    41         10
    42         17
    43        113
    44        107
    45        999
    46         24
    47          3
    55          1
    56          1
    57         16
    58         79
    59         79
    60          6
    61          8
    62          1
    63          1
    69          1
    70          8
    71         10
    72         24
    73         41
    74          4
    75         40
    76          5
    77         17
    78          1
    86          8
    87        126
    88         79
    89        354
    90         19
    91          3
    99          1
   100          2
   101         26
   102         19
   103         31
   104          4
   105          2
   107          4
   114          1
   115          1
   116          1
   117          5
   118          1
   119         20
   120          1
   121         12
   122          1
   131         11
   132          3
   133         52
   134          3
   135          4
   147          1
   149          2
   151          6
   163         11
   164          1
   165          1
   177          1
   178          1
   195          2
   207          1
   208          2