##TITLE=Library Entry 87536
##JCAMP-DX=Revision 4.10 
##DATA TYPE=MASS SPECTRUM
##SAMPLE DESCRIPTION=Japan AIST/NIMC Database- Spectrum MS-NW-9977
##NAMES=HP
##CAS NAME=2-(2-Hydroxyethoxy)phenol
##MOLFORM=C8H10O3
##CAS REGISTRY NO=4792-78-3
##MP= -300
##BP= -300
##MW= 154
##$RETENTION INDEX=0
##$CONDENSED SPECTRUM=NO
##NPOINTS= 71
##XYDATA=(XY..XY) 1 
    15          3
    17          2
    18          9
    19          1
    26          6
    27         32
    28          7
    29          9
    31          9
    37          1
    38          7
    39         34
    40          2
    41          3
    42          3
    43         15
    44          2
    45         77
    46          2
    49          1
    50          9
    51         15
    52         21
    53         27
    54         13
    55         10
    56          1
    57          1
    61          1
    62          4
    63         24
    64         68
    65         38
    66          5
    67          5
    68          2
    69          1
    74          1
    75          1
    76          1
    77         26
    78          3
    79          3
    80         11
    81         50
    82         32
    83          2
    91          1
    92         44
    93          9
    94          4
    95         20
    96          1
    97          1
   107          2
   108          3
   109         47
   110        999
   111         66
   112          6
   121         15
   122          1
   123          3
   124          1
   135          3
   136         10
   137          1
   153          1
   154        412
   155         37
   156          4