##TITLE=Library Entry 1142
##JCAMP-DX=Revision 4.10 
##DATA TYPE=MASS SPECTRUM
##SAMPLE DESCRIPTION=Japan AIST/NIMC Database- Spectrum MS-NW-8843
##NAMES=HP
##CAS NAME=2-Furanmethanamine, tetrahydro-
##MOLFORM=C5H11NO
##CAS REGISTRY NO=4795-29-3
##MP= -300
##BP= -300
##MW= 101
##$RETENTION INDEX=0
##$CONDENSED SPECTRUM=NO
##NPOINTS= 53
##XYDATA=(XY..XY) 1 
    14          2
    15         18
    18          2
    26          7
    27        135
    28         98
    29         63
    30        999
    31         28
    32        120
    33          2
    37          2
    38          5
    39         58
    40         12
    41        248
    42         86
    43        651
    44         51
    45          6
    46          2
    50          2
    51          3
    52          2
    53         11
    54         10
    55         19
    56         46
    57          9
    58        146
    59         29
    60          4
    65          1
    66          1
    67          2
    68          4
    69         12
    70         90
    71        788
    72         41
    73          5
    80          1
    81          3
    82          1
    83         10
    84        106
    85         10
    86          1
    98          1
   100          2
   101         10
   102         16
   103          1