##TITLE=Library Entry 23064
##JCAMP-DX=Revision 4.10 
##DATA TYPE=MASS SPECTRUM
##SAMPLE DESCRIPTION=Japan AIST/NIMC Database- Spectrum MS-NW-5336
##NAMES=HP
##CAS NAME=1-Hexen-3-ol
##MOLFORM=C6H12O
##CAS REGISTRY NO=4798-44-1
##MP= -300
##BP= -300
##MW= 100
##$RETENTION INDEX=769
##$CONDENSED SPECTRUM=NO
##NPOINTS= 57
##XYDATA=(XY..XY) 1 
    14          1
    15         10
    17          1
    18          7
    19          3
    26         15
    27        151
    28         29
    29        172
    30          7
    31         67
    32          2
    37          3
    38          8
    39         71
    40         11
    41        109
    42         13
    43         97
    44         28
    45         14
    49          1
    50          6
    51          9
    52          3
    53         34
    54         16
    55         63
    56         21
    57        999
    58         54
    59          6
    60          1
    62          1
    63          1
    65          4
    66          1
    67         41
    68          3
    69          4
    70          3
    71         91
    72        123
    73         11
    74          1
    77          2
    79          3
    81          6
    82         33
    83         15
    84          1
    85         19
    86          1
    95          1
    97          1
    99          4
   101          1