##TITLE=Library Entry 38305
##JCAMP-DX=Revision 4.10 
##DATA TYPE=MASS SPECTRUM
##SAMPLE DESCRIPTION=NIST Mass Spectrometry Data Center, 1990.
##NAMES=HP
##CAS NAME=4-Hexen-3-ol
##MOLFORM=C6H12O
##CAS REGISTRY NO=4798-58-7
##MP= -300
##BP= -300
##MW= 100
##$RETENTION INDEX=0
##$CONDENSED SPECTRUM=NO
##NPOINTS= 27
##XYDATA=(XY..XY) 1 
    14         25
    15         26
    26         32
    27        168
    28        106
    29        141
    31         68
    38         33
    39        213
    40         42
    41        315
    42         54
    43        385
    51         40
    53        161
    54         27
    55         59
    57         83
    65         32
    67        117
    69         60
    71        999
    72         68
    79         25
    82         37
    85        144
   100         50