##TITLE=Library Entry 24972
##JCAMP-DX=Revision 4.10 
##DATA TYPE=MASS SPECTRUM
##SAMPLE DESCRIPTION=Japan AIST/NIMC Database- Spectrum MS-IW-2779
##NAMES=HP
##CAS NAME=1-Penten-3-ol, 4-methyl-
##MOLFORM=C6H12O
##CAS REGISTRY NO=4798-45-2
##MP= -300
##BP= -300
##MW= 100
##$RETENTION INDEX=704
##$CONDENSED SPECTRUM=NO
##NPOINTS= 52
##XYDATA=(XY..XY) 1 
    15          4
    17          1
    18          5
    26          8
    27         87
    28         21
    29        125
    30         13
    31         48
    32          1
    37          3
    38          7
    39         60
    40         17
    41        131
    42         16
    43        209
    44          9
    45         18
    50          3
    51          4
    52          1
    53         10
    54          4
    55         62
    56         51
    57        999
    58        251
    59         69
    60          2
    62          1
    63          1
    65          5
    66          1
    67         32
    68          3
    69          9
    70          3
    71         28
    72         12
    73         38
    74          2
    77          1
    79          2
    81          3
    82          9
    83          5
    85         50
    86          3
    99          3
   100         12
   101          1