##TITLE=Library Entry 38148
##JCAMP-DX=Revision 4.10 
##DATA TYPE=MASS SPECTRUM
##SAMPLE DESCRIPTION=M.C. HAMMING CONTINENTAL OIL CO., PONCA CITY, OKLA, USA
##NAMES=HP
##CAS NAME=2-Octen-4-ol
##MOLFORM=C8H16O
##CAS REGISTRY NO=4798-61-2
##MP= -300
##BP= -300
##MW= 128
##$RETENTION INDEX=866
##$CONDENSED SPECTRUM=NO
##NPOINTS= 80
##XYDATA=(XY..XY) 1 
    25          1
    26         68
    27        528
    28         87
    29        274
    30         12
    31         52
    32          3
    36          2
    37         14
    38         42
    39        404
    40         66
    41        537
    42         69
    43        290
    44         20
    45         39
    46          2
    48          1
    49          4
    50         35
    51         66
    52         36
    53        241
    54        215
    55        167
    56         37
    57        155
    58        112
    59         12
    60          1
    61          4
    62          8
    63         19
    64          4
    65         50
    66         41
    67        242
    68        304
    69        103
    70         23
    71        999
    72         51
    73          4
    74          4
    75          4
    76          2
    77         50
    78         16
    79        102
    80         22
    81        495
    82         45
    83          8
    84          8
    85         38
    86         79
    87          7
    89          1
    91         12
    92          2
    93          8
    94          2
    95         83
    96          6
    97          2
    99          9
   100          2
   103          1
   105          1
   107          1
   109          4
   110        208
   111         24
   112          2
   113         22
   114          2
   127          2
   128          7