##TITLE=Library Entry 83737
##JCAMP-DX=Revision 4.10 
##DATA TYPE=MASS SPECTRUM
##SAMPLE DESCRIPTION=CARL DJERASSI DEPT OF CHEM STANFORD UNIV STANFORD CALIF
 94305
##NAMES=HP
##CAS NAME=1-Propanol, 3-(phenylmethoxy)-
##MOLFORM=C10H14O2
##CAS REGISTRY NO=4799-68-2
##MP= -300
##BP= -300
##MW= 166
##$RETENTION INDEX=0
##$CONDENSED SPECTRUM=NO
##NPOINTS= 29
##XYDATA=(XY..XY) 1 
    41         30
    42         10
    50         10
    51         40
    52         10
    55         10
    56         10
    57         20
    59         10
    63         20
    65         90
    75         10
    77         80
    78         30
    79        150
    80         10
    89         30
    90         20
    91        920
    92        190
    93         10
   105         60
   106         20
   107        999
   108        150
   109         10
   120         10
   147         20
   166         70