##TITLE=Library Entry 17197
##JCAMP-DX=Revision 4.10 
##DATA TYPE=MASS SPECTRUM
##SAMPLE DESCRIPTION=Chemical Concepts
##NAMES=HP
##CAS NAME=1-Pentanol, 5-methoxy-
##MOLFORM=C6H14O2
##CAS REGISTRY NO=4799-62-6
##MP= -300
##BP= -300
##MW= 118
##$RETENTION INDEX=1564
##$CONDENSED SPECTRUM=NO
##NPOINTS= 81
##XYDATA=(XY..XY) 1 
    25          0
    26         16
    27        105
    28         62
    29        102
    30          7
    31        145
    32          7
    33         31
    37          1
    38          5
    39         75
    40         16
    41        207
    42         67
    43         67
    44         58
    45        999
    46         24
    47         16
    48          0
    49          0
    50          4
    51          5
    52          2
    53         25
    54         16
    55        111
    56         84
    57        103
    58        145
    59         16
    60          1
    61          3
    62          0
    63          2
    65          4
    66          5
    67         98
    68        160
    69         58
    70         18
    71        297
    72         27
    73          5
    75          1
    76          1
    77          2
    78          0
    79          2
    80          1
    81          5
    82         16
    83         14
    84         17
    85         42
    86         19
    87          5
    88          7
    89          1
    91          1
    93          1
    95          1
    96          0
    97          5
    98         15
    99          4
   100         36
   101          6
   103          9
   104          1
   105          0
   107          0
   109          0
   110          2
   111          0
   112          0
   113          0
   117          0
   119          0
   120          0