##TITLE=Library Entry 67239
##JCAMP-DX=Revision 4.10 
##DATA TYPE=MASS SPECTRUM
##SAMPLE DESCRIPTION=NIST Mass Spectrometry Data Center, 1998.
##NAMES=HP
##CAS NAME=Seneciphylline
##MOLFORM=C18H23NO5
##CAS REGISTRY NO=480-81-9
##MP= -300
##BP= -300
##MW= 333
##$RETENTION INDEX=2360
##$CONDENSED SPECTRUM=NO
##NPOINTS= 116
##XYDATA=(XY..XY) 1 
    14          1
    26          3
    27         54
    28         22
    29         48
    30          6
    31          7
    37          2
    38          5
    39        108
    40         34
    41        201
    42         55
    43        684
    44         32
    45         18
    46          1
    50         12
    51         47
    52         55
    53        311
    54        104
    55        110
    56         12
    57         33
    58          4
    61          3
    62          3
    63         12
    64          6
    65        103
    66         80
    67        178
    68         67
    69         54
    70         18
    71          8
    72          1
    73          1
    74          1
    75          1
    77        155
    78         64
    79        186
    80        484
    81        154
    82         83
    83         11
    85         13
    86          4
    87          1
    89         10
    90         11
    91        110
    92         97
    93        867
    94        999
    95        625
    96         68
    97          9
   103         19
   104         31
   106        174
   107        120
   108        239
   109        180
   110         26
   113          1
   115          3
   116          4
   117         52
   118        196
   119        569
   120        805
   121        318
   122          1
   123         77
   124         22
   125         11
   127          2
   129          2
   141          5
   142          1
   146         14
   148          9
   154          6
   155          1
   158          7
   159          2
   163          4
   166          4
   177          4
   186          3
   187          2
   192          1
   196          2
   201          2
   205          2
   208          3
   211          1
   216         11
   219          7
   226          2
   229          1
   233          2
   248          2
   259          1
   261          3
   270          3
   272          2
   275          3
   286          1
   315          2
   316          2
   318          1
   333          1