##TITLE=Library Entry 114997
##JCAMP-DX=Revision 4.10 
##DATA TYPE=MASS SPECTRUM
##SAMPLE DESCRIPTION=NIST Mass Spectrometry Data Center, 1990.
##NAMES=HP
##CAS NAME=Acenaphthylene, 1,2,2a,3,4,5-hexahydro-
##MOLFORM=C12H14
##CAS REGISTRY NO=480-72-8
##MP= -300
##BP= -300
##MW= 158
##$RETENTION INDEX=1357
##$CONDENSED SPECTRUM=NO
##NPOINTS= 78
##XYDATA=(XY..XY) 1 
    14          2
    15         14
    26         19
    27         70
    28         30
    29         16
    37          4
    38         24
    39        107
    40         14
    41         30
    42          1
    44          2
    50         49
    51        102
    52         22
    53         19
    54          2
    57         13
    61          8
    62         35
    63         91
    64         51
    65         53
    66          5
    70         24
    74         32
    75         36
    76         55
    77         84
    78         32
    79         10
    85          2
    86         11
    87         15
    88          9
    89         33
    90          7
    91         50
    92          3
    98          7
    99          5
   100          3
   101         12
   102         40
   103         16
   104          4
   105          2
   110          1
   111          1
   113          9
   115        315
   116         62
   117         23
   118          2
   126         25
   127         98
   128        247
   129        464
   130        999
   131        107
   132          6
   139         11
   141         53
   142         29
   143         18
   144          2
   150          4
   151         10
   152         23
   153         22
   154          8
   155         15
   156          2
   157         84
   158        210
   159         25
   160          2