##TITLE=Library Entry 6664
##JCAMP-DX=Revision 4.10 
##DATA TYPE=MASS SPECTRUM
##SAMPLE DESCRIPTION=Japan AIST/NIMC Database- Spectrum MS-NW-4992
##NAMES=HP
##CAS NAME=5-Nitrobarbituric acid
##MOLFORM=C4H3N3O5
##CAS REGISTRY NO=480-68-2
##MP= -300
##BP= -300
##MW= 173
##$RETENTION INDEX=0
##$CONDENSED SPECTRUM=NO
##NPOINTS= 86
##XYDATA=(XY..XY) 1 
    12         28
    13          7
    14         22
    15         43
    16          4
    17          7
    18          3
    24          3
    25          1
    26         42
    27        203
    28        109
    29        127
    30        474
    31          3
    32          3
    35          1
    36          1
    38         10
    39          9
    40         12
    41         31
    42        180
    43        999
    44        773
    45         14
    46        188
    47          2
    48          1
    51          1
    52         17
    53         16
    54         80
    55         24
    56         42
    57          2
    58          2
    59          1
    60          1
    64          1
    65          1
    66          6
    67          7
    68         21
    69         16
    70        296
    71         66
    72          9
    73          1
    78          1
    79          3
    80          1
    81          4
    82          1
    83          2
    84          2
    85        107
    86         11
    87          1
    96          5
    97          2
    98          2
    99          2
   100          3
   112          3
   113         31
   114         49
   115          2
   126          3
   128          2
   130          8
   140         11
   141          4
   142         99
   143         16
   144          2
   154          9
   155          1
   156         43
   157         64
   158          4
   159          1
   172          1
   173        174
   174          9
   175          2