##TITLE=Library Entry 72844
##JCAMP-DX=Revision 4.10 
##DATA TYPE=MASS SPECTRUM
##SAMPLE DESCRIPTION=RADIAN CORP
##NAMES=HP
##CAS NAME=Piperidine, 1-hydroxy-
##MOLFORM=C5H11NO
##CAS REGISTRY NO=4801-58-5
##MP= -300
##BP= -300
##MW= 101
##$RETENTION INDEX=0
##$CONDENSED SPECTRUM=NO
##NPOINTS= 46
##XYDATA=(XY..XY) 1 
    15         26
    16          2
    18         14
    26         25
    27        169
    28        310
    29        148
    30         95
    38          4
    39        180
    40         23
    41        386
    42        524
    43         60
    44         52
    45        483
    46        118
    50          6
    51          7
    52         19
    53         53
    54        108
    55        453
    56        284
    57         73
    58         17
    59        105
    60        238
    61          1
    65          4
    67         36
    68         40
    69          8
    70         11
    72         46
    73         83
    79          5
    80         16
    82         58
    83         77
    84        349
    85         51
    99          6
   100        999
   101        497
   102         28