##TITLE=Library Entry 43849
##JCAMP-DX=Revision 4.10 
##DATA TYPE=MASS SPECTRUM
##SAMPLE DESCRIPTION=NIST Mass Spectrometry Data Center
##NAMES=HP
##CAS NAME=Bilobalide 2TMS
##MOLFORM=C21H34O8Si2
##CAS REGISTRY NO=480427-37-0
##MP= -300
##BP= -300
##MW= 470
##$RETENTION INDEX=2438
##$CONDENSED SPECTRUM=NO
##NPOINTS= 328
##XYDATA=(XY..XY) 1 
    27          3
    29         21
    30          1
    31          1
    38          1
    39          8
    40          1
    41         66
    42          5
    43         30
    44         19
    45         86
    46          6
    47         21
    48          1
    49          1
    50          1
    51          9
    52          4
    53         16
    54          2
    55         31
    56          5
    57        355
    58         21
    59         44
    60          6
    61         23
    62          2
    63          3
    64          1
    65         10
    66          6
    67         11
    68          2
    69         23
    70          7
    71          8
    72         21
    73        999
    74         86
    75        381
    76         26
    77         45
    78         10
    79         24
    80          5
    81         11
    83         33
    84          3
    85         35
    86          4
    87          4
    88          2
    89         11
    90          3
    91         45
    92          5
    93         14
    94          5
    95         19
    96          4
    97         11
    98          2
    99          7
   100          2
   101         16
   102          7
   103         62
   104          9
   105         38
   106          8
   107         19
   108          6
   109         25
   110          4
   111         25
   112          6
   113         33
   114          4
   115         19
   116         14
   118          9
   119         41
   120          7
   121         16
   122          5
   123         16
   124          4
   125         15
   126          5
   127         14
   128         10
   130         10
   131         65
   133         97
   134         19
   135         35
   136          9
   137         15
   138          4
   139          9
   140          5
   141          8
   142          5
   143         17
   144          5
   145         35
   146          7
   147        201
   148         34
   149         62
   150         11
   151         21
   152          5
   153         19
   154          5
   155         13
   156          3
   157         21
   158          5
   159         14
   160          3
   161         23
   162          9
   163         18
   164          5
   165         40
   166         10
   167         21
   168          8
   169         17
   170          4
   171          9
   172          4
   173         10
   174          3
   175         12
   176          3
   177         16
   178          5
   179         73
   180         22
   181         26
   182          9
   183         16
   184          5
   185         17
   186          3
   187          5
   188          1
   189         20
   190          7
   191         32
   192         11
   193         18
   194          9
   195         35
   196         21
   197         24
   198         11
   199          7
   200          2
   201         13
   202          3
   203          6
   204          3
   205         15
   206          9
   207         37
   208         13
   209         35
   210         11
   211         24
   212          5
   213          4
   214          2
   215          8
   216          2
   217          8
   218          8
   219         25
   220          7
   221         19
   222          7
   223        178
   224         45
   225         44
   226         26
   227         18
   228          4
   229          6
   230          2
   231          4
   232          2
   233         21
   234          6
   235         61
   236         17
   237         32
   238          8
   239         37
   240         10
   241         10
   242          6
   243         32
   244          8
   245          8
   246          3
   247         13
   248          8
   249         18
   250          4
   251         33
   252         12
   253         46
   254         16
   255         19
   256          5
   257          6
   258          3
   259          7
   260          1
   261          2
   262          1
   263         22
   264          6
   265         17
   266          5
   267         14
   268          7
   269        182
   270        120
   271         61
   272         16
   273          8
   274          2
   275          4
   277          4
   278          1
   279         20
   280         22
   281         53
   282         21
   283         14
   284          4
   285          6
   286          3
   287          2
   289          1
   291          8
   292          3
   293          6
   294          2
   295         11
   296          6
   297         16
   298         18
   299        967
   300        226
   301         98
   302         16
   303          4
   305          1
   307          6
   308          7
   309        131
   310         29
   311         10
   312          2
   313         59
   314         20
   315          9
   316          2
   318          1
   319          2
   323         16
   324         24
   325         22
   326          8
   327          8
   328          2
   329          2
   336          1
   337          8
   338          6
   339          4
   340          1
   341         12
   342          7
   343          6
   344          1
   345          1
   349          2
   353          5
   354          4
   355          3
   357          5
   358          1
   359          1
   365          2
   366          1
   367          1
   368          1
   371          7
   372          2
   373          1
   381         20
   382          8
   383          6
   397          1
   398         81
   399         29
   400         11
   401          2
   409          1
   411          1
   413          2
   426        135
   427        121
   428         41
   429         13
   430          2
   437          1
   455         77
   456         25
   457         10
   458          2