##TITLE=Library Entry 44457
##JCAMP-DX=Revision 4.10 
##DATA TYPE=MASS SPECTRUM
##SAMPLE DESCRIPTION=NIST Mass Spectrometry Data Center
##NAMES=HP
##CAS NAME=Ginkgolide A 2TMS
##MOLFORM=C26H40O9Si2
##CAS REGISTRY NO=480427-38-1
##MP= -300
##BP= -300
##MW= 552
##$RETENTION INDEX=3140
##$CONDENSED SPECTRUM=NO
##NPOINTS= 422
##XYDATA=(XY..XY) 1 
    27          3
    29         17
    30          1
    31          1
    39          6
    41         68
    42          5
    43         42
    44         14
    45         63
    46          5
    47         12
    48          1
    51          2
    52          1
    53         11
    54          2
    55         54
    56          8
    57        198
    58         15
    59         34
    60          4
    61         20
    62          1
    63          2
    65          9
    66          3
    67         21
    68          2
    69         52
    70         15
    71          9
    72         15
    73        999
    74         84
    75        491
    76         36
    77         49
    78          8
    79         25
    80          4
    81         16
    82          2
    83         29
    84          2
    85         13
    86          6
    87          5
    88          1
    89         10
    90          2
    91         50
    92          6
    93         17
    94          5
    95         65
    96          7
    97         13
    98          3
    99         11
   100          2
   101         17
   102         11
   103         40
   104          9
   105         40
   106          6
   107         23
   108          6
   109         17
   110          4
   111         24
   112          3
   113         50
   114          5
   115         39
   116         12
   117         29
   118          9
   119         45
   120          9
   121         25
   122          5
   123         12
   124          4
   125          9
   126          2
   127         25
   128         23
   129         45
   130         16
   131         66
   132         13
   133         70
   134         12
   135         33
   136          6
   137         11
   138          3
   139          8
   140          3
   141         25
   142         15
   143         67
   144         16
   145         31
   146          8
   147        105
   148         20
   149         50
   150          8
   151         18
   152          6
   153         12
   154          6
   155         42
   156         12
   157         39
   158          9
   159         37
   160          9
   161         28
   162          6
   163         19
   164          9
   165         13
   166          8
   167         21
   168          7
   169         28
   170         10
   171         76
   172         17
   173         22
   174          6
   175         23
   176         17
   177         25
   178          5
   179         39
   180         12
   181         22
   182         10
   183         26
   184          7
   185         32
   186         11
   187         76
   188         15
   189         23
   190          6
   191         14
   192          7
   193         26
   194         10
   195         21
   196          8
   197         24
   198          8
   199         53
   200         10
   201         25
   202          6
   203         24
   204         11
   205         26
   206         16
   207         37
   208         12
   209         35
   210         12
   211         23
   212          6
   213         20
   214          6
   215         48
   216         16
   217         35
   218         11
   219         38
   220         11
   221         24
   222         10
   223         26
   224          8
   225         20
   226          6
   227         33
   228          7
   229         24
   230          9
   231         19
   232          9
   233         32
   234         14
   235         32
   236          8
   237         19
   238          7
   239         13
   240          4
   241         13
   242          5
   243         31
   244         12
   245         34
   246         11
   247         25
   248          8
   249         25
   250          9
   251         18
   252          6
   253         23
   254          7
   255         18
   256          6
   257         19
   258         10
   259         23
   260          8
   261         33
   262         15
   263         27
   264          7
   265         16
   266          5
   267         12
   268          4
   269          7
   270          3
   271         40
   272         13
   273         27
   274         11
   275         19
   276          6
   277         23
   278         10
   279         26
   280          9
   281         13
   282          4
   283         13
   284          5
   285         16
   286          5
   287         16
   288          7
   289         28
   290         12
   291         19
   292          6
   293         12
   294          7
   295          8
   296          4
   297          5
   298          3
   299         17
   300          6
   301         22
   302          8
   303         22
   304          7
   305         16
   306          8
   307         15
   308          5
   309          9
   310          7
   311         10
   312         18
   313         10
   314          4
   315         11
   316          4
   317         27
   318          9
   319         14
   320          5
   321          7
   322          9
   323          9
   324          6
   325          4
   326          2
   327         11
   328          4
   329         11
   330          4
   331          9
   332          2
   333         10
   334          6
   335         15
   336          4
   337          5
   338          2
   339          5
   340          3
   341          5
   343          5
   344          2
   345         14
   346          6
   347         20
   348          5
   349          8
   350          3
   351          8
   352          2
   353          2
   354          4
   355          7
   356          2
   357          7
   358          2
   359          7
   360          2
   361         11
   362         11
   363         13
   364          4
   365          3
   367          5
   368         10
   369          5
   370          3
   371          3
   372          1
   373         14
   374          5
   375          8
   376          3
   377          5
   378          2
   379          7
   380          3
   381          4
   382          2
   383          4
   384          1
   385          2
   387          2
   388          1
   389          5
   390          2
   391         55
   392         16
   393          8
   394          1
   395          9
   399          3
   401          8
   402          2
   403          4
   404          1
   405          3
   406          1
   407          9
   408          3
   409          2
   411          2
   413          2
   417          5
   418          2
   419          8
   420          3
   421          2
   426          1
   427          1
   429          6
   430          2
   431          1
   433          3
   435          9
   436          5
   437          9
   438          3
   439          2
   440          1
   445          2
   446          1
   447          3
   448          1
   451         43
   452         16
   453          8
   454          3
   455          1
   463         13
   464          4
   465          3
   466          1
   473          1
   474          1
   475          3
   476          1
   490          1
   491         10
   492          4
   493         73
   494         27
   495         12
   496          3
   497          1
   501          1
   508         10
   509         18
   510          7
   511          2
   512          1
   519          9
   520          3
   521          2
   537        575
   538        216
   539         85
   540         21
   552          1