##TITLE=Library Entry 4221
##JCAMP-DX=Revision 4.10 
##DATA TYPE=MASS SPECTRUM
##SAMPLE DESCRIPTION=V.G.Zaikin, TIPS, Russian Acad. Sci.
##NAMES=HP
##CAS NAME=2-Chlorocyclododecanone oxime
##MOLFORM=C12H22ClNO
##CAS REGISTRY NO=4806-74-0
##MP= -300
##BP= -300
##MW= 231
##$RETENTION INDEX=0
##$CONDENSED SPECTRUM=NO
##NPOINTS= 73
##XYDATA=(XY..XY) 1 
    39        610
    40        160
    41        999
    42        390
    43        340
    53        410
    54        340
    55        920
    56        200
    57        180
    65        160
    67        580
    68        180
    69        320
    70        180
    73        320
    77        180
    79        230
    80        210
    81        500
    82        210
    83        180
    84        130
    86        340
    93        180
    94        180
    95        320
    96        210
    98        180
    99         26
   107        970
   108        130
   109        320
   110        130
   112        340
   113        580
   120        260
   121        130
   122        130
   123         63
   126        210
   127        180
   132         79
   140        180
   141        160
   149        120
   154        290
   162        160
   163        320
   168        150
   176        160
   178        230
   180         39
   182        230
   188         45
   190         53
   195         39
   196        999
   197        160
   198        110
   199        110
   203        210
   205         79
   214        420
   215         79
   216        210
   217         32
   230         21
   231        470
   232         70
   233        157
   234         21
   235          1