##TITLE=Library Entry 8156
##JCAMP-DX=Revision 4.10 
##DATA TYPE=MASS SPECTRUM
##SAMPLE DESCRIPTION=T. Golob, J. Little, Eastman Chemical Co.
##NAMES=HP
##CAS NAME=2-Butanol, 2,3-dimethyl-, acetate
##MOLFORM=C8H16O2
##CAS REGISTRY NO=4806-33-1
##MP= -300
##BP= -300
##MW= 144
##$RETENTION INDEX=0
##$CONDENSED SPECTRUM=NO
##NPOINTS= 54
##XYDATA=(XY..XY) 1 
    14          3
    15         27
    16          1
    26          3
    27         58
    28          9
    29         27
    30          1
    31         16
    32          1
    37          1
    38          5
    39         81
    40         13
    41        198
    42         36
    43        999
    44         28
    45         27
    50          3
    51          6
    52          2
    53         18
    54          3
    55         32
    56         12
    57         35
    58          8
    59        254
    60         12
    61          8
    62          1
    63          1
    65          3
    66          1
    67         12
    68          2
    69        198
    70         13
    71         13
    72          1
    83          3
    84        126
    85        109
    86         24
    87        197
    88         11
    89          1
   100          1
   101        183
   102         10
   103          1
   129         26
   130          2