##TITLE=Library Entry 21961
##JCAMP-DX=Revision 4.10 
##DATA TYPE=MASS SPECTRUM
##SAMPLE DESCRIPTION=Exported from NIST MS Search
##NAMES=HP
##CAS NAME=Cyclobutane, ethyl-
##MOLFORM=C6H12
##CAS REGISTRY NO=4806-61-5
##MP= -300
##BP= -300
##MW= 84
##$RETENTION INDEX=623
##$CONDENSED SPECTRUM=NO
##NPOINTS= 33
##XYDATA=(XY..XY) 1 
     1          5
    14          5
    15         37
    25          2
    26         43
    27        251
    28        145
    29        126
    37          8
    38         18
    39        181
    40         47
    41        649
    42        157
    43         75
    44          2
    49          3
    50         15
    51         20
    52          8
    53         36
    54         39
    55        245
    56        999
    57         46
    63          2
    65          3
    67          7
    68          5
    69        115
    70          6
    84         28
    85          2