##TITLE=Library Entry 80357
##JCAMP-DX=Revision 4.10 
##DATA TYPE=MASS SPECTRUM
##SAMPLE DESCRIPTION=Chemical Concepts
##NAMES=HP
##CAS NAME=1,3,5-Heptanetrione, 1,7-diphenyl-
##MOLFORM=C19H18O3
##CAS REGISTRY NO=4808-90-6
##MP= -300
##BP= -300
##MW= 294
##$RETENTION INDEX=0
##$CONDENSED SPECTRUM=NO
##NPOINTS= 201
##XYDATA=(XY..XY) 1 
    27         49
    28         13
    29          4
    30          0
    31          3
    32          0
    34          0
    35          1
    36          5
    37          0
    38          3
    39         45
    40          6
    41         13
    42          9
    43         46
    44          1
    45          1
    46          0
    49          0
    50         20
    51         99
    52         14
    53          7
    54          0
    55         36
    56          1
    57          3
    58          1
    59          0
    60          0
    61          0
    62          3
    63         16
    64          5
    65         78
    66          5
    67          2
    68          0
    69        206
    70          6
    71          2
    72          0
    73          1
    74          5
    75          8
    76         13
    77        335
    78         57
    79         48
    80          3
    81          0
    82          0
    83          0
    84         14
    85          7
    86          1
    87          2
    88          1
    89         13
    90          7
    91        498
    92         40
    93          2
    94          0
    95          0
    96          1
    97          4
    98          1
    99          0
   100          0
   101          2
   102         10
   103         48
   104         90
   105        999
   106         80
   107          7
   108          3
   109          0
   110          0
   111          5
   112          0
   113          0
   114          0
   115         12
   116          5
   117          6
   118          3
   119          2
   120         37
   121         10
   122          1
   123          0
   126          0
   127          3
   128          8
   129          8
   130          3
   131         25
   132          8
   133         34
   134          4
   135          0
   139          0
   140          0
   141          0
   143          1
   144          7
   145         21
   146         24
   147        198
   148         28
   149          2
   150          0
   151          0
   152          0
   153          0
   154          0
   155          1
   156         13
   157          4
   158          0
   159          0
   160         17
   161        177
   162        149
   163         19
   164          1
   165          0
   166          0
   167          1
   168          0
   170          0
   171         22
   172         15
   173          6
   174         71
   175         31
   176          4
   177          0
   181          0
   185          1
   186          0
   187          0
   188          1
   189         97
   190         14
   191          2
   192          0
   193          0
   199          0
   202          0
   203          1
   204          0
   209          1
   210          0
   217          0
   234          0
   235          0
   237          1
   238          0
   248          0
   251          1
   252          0
   257          0
   258          2
   259          3
   260          2
   261          2
   262          0
   263          0
   264          0
   265          0
   266          0
   267          0
   268          0
   269          0
   270          0
   271          0
   272          0
   273          0
   274          1
   275          2
   276         66
   277         15
   278          2
   279          1
   280          0
   281          0
   287          0
   288          0
   289          0
   290          0
   291          0
   292          0
   293          1
   294        129
   295         30
   296          4
   297          0