##TITLE=Library Entry 64231
##JCAMP-DX=Revision 4.10 
##DATA TYPE=MASS SPECTRUM
##SAMPLE DESCRIPTION=A.A.Kutin, Moscow, Russia
##NAMES=HP
##CAS NAME=p-Toluenesulfonamide, N-(.alpha.-methylbenzyl)-
##MOLFORM=C15H17NO2S
##CAS REGISTRY NO=4809-56-7
##MP= -300
##BP= -300
##MW= 275
##$RETENTION INDEX=0
##$CONDENSED SPECTRUM=NO
##NPOINTS= 137
##XYDATA=(XY..XY) 1 
    37          1
    38         10
    39        120
    40         10
    41         35
    42        176
    43          3
    44          9
    45          2
    46          0
    48          3
    50         45
    51        141
    52         36
    53         14
    54          2
    57          0
    58          0
    59          1
    60          0
    61          2
    62         17
    63         72
    64         25
    65        293
    66         19
    67          3
    69          1
    70          0
    71          1
    72          0
    73          0
    74          9
    75         10
    76         19
    77        250
    78         88
    79         99
    80          9
    85          0
    86          2
    87          3
    89         65
    91        999
    92        131
    93         20
    94          3
    95          0
    96          0
    97          0
    98          0
   101          0
   102          7
   103         68
   104        195
   105        210
   106         35
   107         10
   108          4
   109          1
   110          0
   111          2
   112          0
   113          0
   114          0
   115          2
   116          1
   117          5
   118         29
   120        655
   121         63
   122          3
   123          1
   124          1
   125          0
   126          0
   127          0
   128          1
   129          0
   130          0
   132          1
   133          0
   134          0
   135          0
   136          0
   137          0
   139         52
   140          5
   141          3
   142          0
   143          0
   150          0
   151          1
   152          7
   153          3
   155        691
   156         63
   157         59
   158          5
   159          1
   163          0
   164          0
   165          7
   166          3
   167          3
   168          1
   169          0
   172          0
   176          0
   177          0
   178          2
   179          2
   180          3
   181          2
   182          0
   184          0
   191          0
   192          1
   193          1
   194          5
   195          2
   196          1
   198         13
   199          1
   200          0
   208          0
   209          4
   210          4
   211          0
   260        850
   261        144
   262         50
   263          6
   264          0
   274          1
   275          2
   276          0