##TITLE=Library Entry 4909
##JCAMP-DX=Revision 4.10 
##DATA TYPE=MASS SPECTRUM
##SAMPLE DESCRIPTION=Exported from NIST MS Search
##NAMES=HP
##CAS NAME=8-Azabicyclo[3.2.1]octane-2-carboxylic acid, 3-hydroxy-8-methyl-,
 [1R-(2-endo,3-exo)]-
##MOLFORM=C9H15NO3
##CAS REGISTRY NO=481-38-9
##MP= -300
##BP= -300
##MW= 185
##$RETENTION INDEX=0
##$CONDENSED SPECTRUM=NO
##NPOINTS= 47
##XYDATA=(XY..XY) 1 
    40        295
    41        300
    42        999
    43        154
    44        109
    45        100
    46         13
    51         31
    52         22
    53         88
    54         75
    55        268
    56        113
    57        143
    58         34
    78         11
    79         11
    80         18
    81         34
    82        540
    83        363
    84         50
    92          6
    93          4
    94        102
    95         15
    96        500
    97        361
    98         22
   109          9
   110         11
   111         15
   112        122
   113          6
   119          9
   120          6
   121          6
   122          9
   139          9
   140         18
   141         47
   142          9
   156          4
   157          9
   168         52
   185         90
   186         15