##TITLE=Library Entry 19380
##JCAMP-DX=Revision 4.10 
##DATA TYPE=MASS SPECTRUM
##SAMPLE DESCRIPTION=CARL DJERASSI DEPT OF CHEM STANFORD UNIV STANFORD CALIF
 94305
##NAMES=HP
##CAS NAME=Pregnane
##MOLFORM=C21H36
##CAS REGISTRY NO=481-26-5
##MP= -300
##BP= -300
##MW= 288
##$RETENTION INDEX=2246
##$CONDENSED SPECTRUM=NO
##NPOINTS= 109
##XYDATA=(XY..XY) 1 
    39        220
    40        580
    41        930
    42        120
    43        570
    44        160
    45         30
    50         10
    51         30
    52         20
    53        260
    54        110
    55        999
    63         10
    65         90
    66         50
    67        750
    68        270
    69        310
    70         40
    71         50
    74         20
    77        190
    79        410
    80        120
    81        790
    82        130
    83        180
    84         20
    85         10
    88         10
    91        230
    92         60
    93        330
    94        130
    95        600
    96        120
    97        110
    98         20
   101         10
   102         10
   103         10
   104         10
   105        130
   106         50
   107        290
   108        400
   109        510
   110         80
   111         40
   115         30
   116         10
   117         30
   118         10
   119         60
   120         30
   121        250
   122        260
   123        260
   124         40
   125         10
   128         10
   129         20
   130         10
   131         20
   133         50
   134         30
   135        180
   136         80
   137         70
   138         10
   145         10
   147         70
   148         80
   149        330
   150        210
   151        350
   152         50
   159         10
   161         60
   162         60
   163        160
   164         50
   165         10
   175         70
   176         50
   177         50
   178         70
   179         30
   189         50
   190         40
   191         20
   192         50
   193         10
   201         10
   203        110
   204         40
   205         10
   217        640
   218        560
   219        140
   231         70
   232        150
   233         30
   259         10
   273        320
   274         70
   288        300
   289         70