##TITLE=Library Entry 51065
##JCAMP-DX=Revision 4.10 
##DATA TYPE=MASS SPECTRUM
##SAMPLE DESCRIPTION=R RYHAGE MS-LAB KAROLINSKA INSTITUTET STOCKHOLM SWEDEN
##NAMES=HP
##CAS NAME=Ecgonine
##MOLFORM=C9H15NO3
##CAS REGISTRY NO=481-37-8
##MP= -300
##BP= -300
##MW= 185
##$RETENTION INDEX=0
##$CONDENSED SPECTRUM=NO
##NPOINTS= 148
##XYDATA=(XY..XY) 1 
    12          3
    13          2
    15        162
    16          3
    17          6
    18         18
    25          3
    26         26
    27        207
    28        119
    29        173
    30        123
    31         72
    32          6
    39        193
    40         43
    41        292
    42        897
    43        149
    44        162
    45         61
    46          7
    47          3
    48          3
    49          2
    50         13
    51         36
    52         33
    53         92
    54         92
    55        321
    56        186
    57        548
    58        211
    59         14
    60         11
    61          4
    62          6
    63          8
    64          3
    65         37
    66         33
    67        139
    68        176
    69         78
    70        150
    71         55
    72         13
    73         12
    74          6
    75          6
    76          8
    77         35
    78         23
    79         37
    80         52
    81         96
    82        999
    83        567
    84        126
    85         18
    86        130
    87         10
    88          4
    89          5
    90          3
    91         30
    92         14
    93         71
    94        339
    95         84
    96        828
    97        513
    98        106
    99         18
   100         19
   101          8
   102         22
   103          4
   104          5
   105          4
   106          7
   107         12
   108         54
   109         17
   110         55
   111         18
   112        162
   113         22
   114         10
   115          6
   116          2
   117          3
   118          4
   119         10
   120         10
   121          8
   122         41
   123         27
   124        330
   125         36
   126         34
   127          6
   128         15
   129          6
   130         12
   131          3
   132          3
   133          1
   134          4
   135          4
   136          7
   137          4
   138         29
   139          9
   140         55
   141        106
   142         33
   143         19
   144          3
   145          1
   147          2
   148          3
   149         12
   150          6
   151          5
   152          5
   153          3
   154          4
   155          1
   156         21
   157         20
   158          2
   159          2
   160          1
   163          3
   164          2
   165          4
   166         13
   167          8
   168         93
   169         11
   170         10
   171          9
   184          4
   185        139
   186         22
   187          1