##TITLE=Library Entry 68533
##JCAMP-DX=Revision 4.10 
##DATA TYPE=MASS SPECTRUM
##SAMPLE DESCRIPTION=NIST Mass Spectrometry Data Center, 2010
##NAMES=HP
##CAS NAME=.alpha.-Cadinol
##MOLFORM=C15H26O
##CAS REGISTRY NO=481-34-5
##MP= -300
##BP= -300
##MW= 222
##$RETENTION INDEX=1653
##$CONDENSED SPECTRUM=NO
##NPOINTS= 149
##XYDATA=(XY..XY) 1 
    26          1
    27         56
    28          9
    29         67
    30          2
    31          8
    37          1
    38          2
    39        103
    40         19
    41        374
    42         28
    43        892
    44         21
    45         39
    46          1
    49          1
    50          4
    51         31
    52         15
    53        115
    54         16
    55        242
    56         31
    57         55
    58        230
    59         32
    60          2
    61          1
    62          2
    63         10
    64          5
    65         78
    66         24
    67        175
    68         27
    69        242
    70         34
    71        369
    72         20
    73          3
    74          1
    75          2
    76          2
    77        225
    78         53
    79        414
    80         67
    81        404
    82         51
    83         40
    84         12
    85         17
    86          2
    87          1
    89          5
    90          2
    91        232
    92         58
    93        281
    94        234
    95        999
    96        130
    97         27
    98          3
    99          4
   100          1
   101          1
   102          4
   103         23
   104         12
   105        335
   106         89
   107        103
   108        162
   109        368
   110         46
   111         19
   112          4
   113         15
   114          1
   115         29
   116         10
   117         33
   118         15
   119        170
   120         51
   121        994
   122        128
   123         66
   124         10
   125         10
   126          8
   127         53
   128         19
   129         14
   130          6
   131         16
   132          6
   133         72
   134         37
   135         88
   136         38
   137        207
   138         26
   139         26
   140          3
   141          4
   142          2
   143          2
   144          1
   145         17
   146          5
   147         33
   148         65
   149         85
   150         31
   151         60
   152         62
   153          8
   154          1
   155          1
   159          5
   160         12
   161        347
   162         54
   163         12
   164        266
   165         36
   166         27
   167          4
   175         10
   176          5
   177          4
   178          1
   179         29
   180          4
   189         62
   190          9
   191          1
   203          1
   204        363
   205         62
   206          3
   207         21
   208          3
   222         41
   223          7
   224          1