##TITLE=Library Entry 20544
##JCAMP-DX=Revision 4.10 
##DATA TYPE=MASS SPECTRUM
##SAMPLE DESCRIPTION=DR GLENN PATTERSON
##NAMES=HP
##CAS NAME=Chondrillasterol
##MOLFORM=C29H48O
##CAS REGISTRY NO=481-17-4
##MP= -300
##BP= -300
##MW= 412
##$RETENTION INDEX=3295
##$CONDENSED SPECTRUM=NO
##NPOINTS= 90
##XYDATA=(XY..XY) 1 
    41        579
    42         50
    43        639
    55        999
    56        110
    57        470
    67        300
    68         90
    69        579
    71        280
    79        300
    81        749
    83        649
    91        300
    93        499
    95        420
    97        250
   105        370
   107        480
   109        270
   117        110
   119        280
   120         80
   121        200
   122         70
   123        180
   129        160
   131        180
   133        250
   134         80
   135        230
   137        110
   143         80
   145        230
   146         70
   147        300
   149        210
   151         70
   157         70
   159        180
   160         50
   161        230
   163         60
   171         70
   173        110
   175         90
   185         60
   187         80
   189         50
   199         80
   201        100
   203         70
   213        160
   214         50
   215         90
   217         50
   218         50
   219         60
   227         80
   228         80
   229        190
   230         80
   231        150
   232         70
   243         50
   245         50
   246        210
   247        100
   253        100
   255        380
   256        110
   257        120
   258         60
   259         60
   269         90
   271        749
   272        210
   273        250
   274         80
   285         50
   299         90
   300        150
   301         80
   351         80
   369        150
   379         50
   394         50
   397        100
   412        290
   413        100