##TITLE=Library Entry 54166
##JCAMP-DX=Revision 4.10 
##DATA TYPE=MASS SPECTRUM
##SAMPLE DESCRIPTION=Humboldt-Universitat zu Berlin, Department of Chemistry
, Analytical Group
##NAMES=HP
##CAS NAME=1-Phenyl-4-piperidin-1-yl-butan-1,4-dione
##MOLFORM=C15H19NO2
##CAS REGISTRY NO=4810-95-1
##MP= -300
##BP= -300
##MW= 245
##$RETENTION INDEX=0
##$CONDENSED SPECTRUM=NO
##NPOINTS= 117
##XYDATA=(XY..XY) 1 
    12          1
    14          2
    15         38
    16          2
    17         12
    18         48
    26         14
    27        135
    28        190
    29         90
    30         55
    31          3
    37          1
    38          5
    39         60
    40         11
    41        216
    42        134
    43         54
    44         43
    45          2
    46          0
    50         43
    51        162
    52         13
    53         19
    54         28
    55        165
    56        150
    57         43
    58          4
    60          0
    62          2
    63          6
    64          1
    65          9
    66          2
    67         14
    68         12
    69        113
    70         31
    71          3
    72          1
    73          1
    74          8
    75          9
    77        419
    78         39
    79         11
    80          5
    81          2
    82         19
    83         83
    84        999
    85        113
    86         30
    87          2
    89          3
    90          1
    91         18
    92          3
    93          0
    94          0
    95          2
    97        252
    98         25
    99          1
   100          2
   101          1
   102          2
   103         16
   105        478
   106         38
   107          3
   110          2
   112         67
   113          7
   115         57
   116          7
   117         23
   118          3
   119          1
   120         15
   121          2
   122          1
   123          1
   125         64
   126         22
   127          2
   131          7
   133        111
   134         14
   135          1
   138          5
   140        217
   141         21
   142          1
   143          2
   144          0
   159          1
   161        211
   162         29
   163          2
   168          9
   169          1
   171          1
   188          1
   190          7
   191          1
   200          2
   201          0
   202          0
   217          4
   218          0
   245         44
   246          8
   247          0