##TITLE=Library Entry 32212
##JCAMP-DX=Revision 4.10 
##DATA TYPE=MASS SPECTRUM
##SAMPLE DESCRIPTION=Div. of Experiment Therapeutics WRAIR, WRAMC, Washingto
n DC 20307
##NAMES=HP
##CAS NAME=4-Pyridinemethanol, 3-hydroxy-2,5-dimethyl-
##MOLFORM=C8H11NO2
##CAS REGISTRY NO=4811-03-4
##MP= -300
##BP= -300
##MW= 153
##$RETENTION INDEX=0
##$CONDENSED SPECTRUM=NO
##NPOINTS= 85
##XYDATA=(XY..XY) 1 
    41        156
    42        252
    43        131
    44         10
    45         10
    46          5
    47          1
    49          9
    50        101
    51        234
    52        174
    53        260
    54         81
    55        103
    56          6
    57          4
    58          0
    59          1
    60          2
    61          8
    62         19
    63         60
    64         26
    65        200
    66        999
    67        112
    68         35
    69         11
    70          2
    71          4
    72          0
    73          2
    74          5
    75          6
    76          1
    77         98
    78         31
    79         85
    80         58
    81         24
    82         11
    83          7
    84          1
    85          0
    86          0
    87          0
    88          0
    89          1
    90          3
    91          5
    92         39
    93          9
    94         20
    95          6
    96          6
    97          1
    98          0
    99          0
   104          5
   106        262
   107        729
   108          8
   109          3
   110          2
   111          0
   116          0
   117          0
   118          0
   120         23
   121          2
   122         18
   123          5
   124          6
   125          0
   132          0
   134         20
   135        440
   136         34
   137          3
   138          0
   151          1
   152         10
   153        379
   154         30
   155          3