##TITLE=Library Entry 15812
##JCAMP-DX=Revision 4.10 
##DATA TYPE=MASS SPECTRUM
##SAMPLE DESCRIPTION=Japan AIST/NIMC Database- Spectrum MS-NW-2628
##NAMES=HP
##CAS NAME=Benzenemethanol, .alpha.-(1-aminoethyl)-
##MOLFORM=C9H13NO
##CAS REGISTRY NO=48115-38-4
##MP= -300
##BP= -300
##MW= 151
##$RETENTION INDEX=0
##$CONDENSED SPECTRUM=NO
##NPOINTS= 46
##XYDATA=(XY..XY) 1 
    15          4
    17          5
    18         23
    27          8
    28          9
    29          4
    30          5
    39          6
    40          1
    41          3
    42         15
    43          8
    44        999
    45         28
    50          5
    51         13
    52          4
    53          2
    55          1
    57          1
    63          3
    65          2
    74          1
    75          1
    76          1
    77         35
    78          9
    79         31
    80          2
    89          2
    90          2
    91          9
    92          4
   103          1
   104          1
   105         10
   106          5
   107         13
   108          2
   115          2
   116          1
   117          6
   118          6
   119          2
   132          6
   133          3