##TITLE=Library Entry 87501
##JCAMP-DX=Revision 4.10 
##DATA TYPE=MASS SPECTRUM
##SAMPLE DESCRIPTION=NIST Mass Spectrometry Data Center
##NAMES=HP
##CAS NAME=2-Isopropoxyphenol
##MOLFORM=C9H12O2
##CAS REGISTRY NO=4812-20-8
##MP= -300
##BP= -300
##MW= 152
##$RETENTION INDEX=1164
##$CONDENSED SPECTRUM=NO
##NPOINTS= 59
##XYDATA=(XY..XY) 1 
    15          3
    26          9
    27         75
    29          7
    31          2
    37          4
    38         15
    39         81
    40          7
    41         79
    42         11
    43         97
    44          2
    45          4
    49          2
    50         22
    51         39
    52         49
    53         74
    54         21
    55         18
    56          1
    59          4
    61          1
    62          7
    63         48
    64         85
    65         31
    66          5
    67          1
    69          1
    74          1
    75          1
    77          4
    79          6
    80          8
    81        114
    82         38
    83          2
    91          5
    92         56
    93         12
    94          3
    95          2
   105          2
   107          1
   108          1
   109         54
   110        999
   111        100
   112          8
   121          5
   123          2
   135          1
   137          9
   151          4
   152        202
   153         20
   154          1