##TITLE=Library Entry 82573
##JCAMP-DX=Revision 4.10 
##DATA TYPE=MASS SPECTRUM
##SAMPLE DESCRIPTION=A.A.Kutin, Moscow, Russia
##NAMES=HP
##CAS NAME=4-Pyridinecarboxylic acid, [(4-nitrophenyl)-methylene]hydrazide
##MOLFORM=C13H10N4O3
##CAS REGISTRY NO=4813-07-4
##MP= -300
##BP= -300
##MW= 270
##$RETENTION INDEX=0
##$CONDENSED SPECTRUM=NO
##NPOINTS= 143
##XYDATA=(XY..XY) 1 
    33          2
    34          0
    37          6
    38         17
    39         53
    40         16
    41         11
    42          5
    43         10
    44         19
    45         40
    46          2
    50        125
    51        334
    52         57
    53          8
    54          2
    55          0
    56          0
    57          0
    58          0
    59          0
    60          1
    61          4
    62         20
    63         58
    64         24
    65         11
    66          3
    67          2
    68          1
    69          0
    70          0
    71          0
    72          0
    73          0
    74          7
    75         16
    76         28
    78        629
    79         81
    80          4
    81          0
    82          0
    83          0
    84          0
    85          0
    86          2
    87          4
    89         50
    90         21
    91         26
    92          7
    93          2
    94          4
    95          1
    96          0
    97          0
    99          0
   100          0
   101          1
   102          5
   103          8
   106        999
   107         63
   108          5
   109          0
   113          0
   114          0
   115          1
   117         14
   118         26
   119          6
   122        599
   123         41
   124          2
   125          0
   126          0
   127          0
   128          0
   129          0
   130          0
   131          0
   132          2
   133          0
   134          0
   135          1
   137          8
   138          0
   139          1
   140          1
   141          0
   146          3
   147          3
   148         17
   149          5
   150         11
   151          9
   152          1
   153          0
   154          0
   156          2
   157          0
   162          1
   163          0
   164          0
   165          0
   166          1
   167          0
   168          0
   172          1
   176          1
   177          1
   178          1
   179          1
   180          0
   181          0
   183          0
   191          0
   192          2
   193          1
   194          2
   195          1
   196          0
   211          0
   222          0
   223          1
   224          2
   225          0
   226          0
   239          0
   241          1
   242          0
   253          0
   254          0
   258          0
   266          0
   267          1
   268          3
   269          9
   270         41
   271          6
   272          0