##TITLE=Library Entry 56108
##JCAMP-DX=Revision 4.10 
##DATA TYPE=MASS SPECTRUM
##SAMPLE DESCRIPTION=Finnigan MAT: Toxicological Library (LIBR-TX)
##NAMES=HP
##CAS NAME=Benzenemethanol, .alpha.-[1-(ethylmethylamino)ethyl]-, [R-(R*,S*)
]-
##MOLFORM=C12H19NO
##CAS REGISTRY NO=48141-64-6
##MP= -300
##BP= -300
##MW= 193
##$RETENTION INDEX=1482
##$CONDENSED SPECTRUM=NO
##NPOINTS= 13
##XYDATA=(XY..XY) 1 
    40          8
    42         28
    43         11
    44         10
    51          9
    56         21
    57         11
    58        153
    70          9
    77         18
    79         10
    86        999
    87         51