##TITLE=Library Entry 21209
##JCAMP-DX=Revision 4.10 
##DATA TYPE=MASS SPECTRUM
##SAMPLE DESCRIPTION=NIST Mass Spectrometry Data Center, 1994
##NAMES=HP
##CAS NAME=.beta.-Phenoxyethyl acrylate
##MOLFORM=C11H12O3
##CAS REGISTRY NO=48145-04-6
##MP= -300
##BP= -300
##MW= 192
##$RETENTION INDEX=0
##$CONDENSED SPECTRUM=NO
##NPOINTS= 63
##XYDATA=(XY..XY) 1 
    12          0
    13          1
    14          0
    15         12
    16          0
    26         80
    27        341
    29         24
    30          3
    31          5
    37          7
    38         33
    39        136
    40          9
    41          6
    42          5
    43         10
    44          3
    45          6
    50         42
    51        132
    52         12
    53         19
    54          3
    55        999
    56         34
    57          3
    61          3
    62         12
    63         37
    64         19
    65        104
    66         31
    67          2
    68          1
    69          3
    73          4
    74          9
    75          8
    76          1
    77        265
    78         24
    79         32
    80          3
    81          0
    89          1
    91         41
    92         10
    93         17
    94         53
    95          3
    99        891
   100         52
   101          5
   103          3
   105          1
   107         29
   108          3
   119         12
   120         28
   121          7
   192         27
   193          2