##TITLE=Library Entry 794
##JCAMP-DX=Revision 4.10 
##DATA TYPE=MASS SPECTRUM
##SAMPLE DESCRIPTION=Humboldt-Universitat zu Berlin, Department of Chemistry
, Analytical Group
##NAMES=HP
##CAS NAME=4H-Cyclopenta[b]thiophene-3-carboxylic acid, 2-amino-5,6-dihydro-
, ethyl ester
##MOLFORM=C10H13NO2S
##CAS REGISTRY NO=4815-29-6
##MP= -300
##BP= -300
##MW= 211
##$RETENTION INDEX=1812
##$CONDENSED SPECTRUM=NO
##NPOINTS= 144
##XYDATA=(XY..XY) 1 
    12          6
    13          6
    14         37
    15        165
    16         12
    17          8
    18         12
    19         21
    26        161
    27        836
    28        330
    29        999
    30         57
    31        100
    32          9
    33          7
    34          5
    35          1
    36          1
    37         14
    38         60
    39        235
    40         32
    41         59
    42         38
    43         86
    44         31
    45        239
    46         16
    47         17
    48          1
    49          6
    50         39
    51        115
    52        114
    53        119
    54         44
    55         13
    56          3
    57         19
    58         70
    59         35
    60         78
    61         12
    62         15
    63         32
    64         21
    65        112
    66        132
    67         48
    68         26
    69         70
    70         25
    71        120
    72         19
    73         13
    74          8
    75         13
    76         40
    77        129
    78        102
    79         30
    80         57
    81         19
    82         30
    83         24
    84         51
    85         19
    86          4
    87          2
    88          1
    89          2
    90          8
    91         11
    92         25
    93         29
    94         20
    95         21
    96         33
    97         47
    98         13
    99          6
   100          2
   102         13
   103         33
   104        201
   105         67
   106         16
   107          9
   108         16
   109        113
   110        103
   111         44
   112          9
   113          3
   114          0
   115          1
   117          1
   118          1
   119          2
   120          8
   121         15
   122         26
   123          9
   124          4
   125          2
   126          2
   127          1
   130          3
   131          6
   132         61
   133          8
   134         10
   136        157
   137        199
   138         60
   139         16
   140          3
   147          2
   148          2
   149          1
   150          2
   151          1
   152          5
   154          3
   155          0
   156          1
   160          0
   165        970
   166        205
   167         58
   168         11
   169          1
   178          1
   179          0
   182         19
   183          9
   184          2
   185          0
   194          1
   211        335
   212         47
   213         20
   214          2