##TITLE=Library Entry 17987
##JCAMP-DX=Revision 4.10 
##DATA TYPE=MASS SPECTRUM
##SAMPLE DESCRIPTION=Chuck Anderson, Aldrich Chemical Co.
##NAMES=HP
##CAS NAME=Methoxyacetaldehyde diethyl acetal
##MOLFORM=C7H16O3
##CAS REGISTRY NO=4819-75-4
##MP= -300
##BP= -300
##MW= 148
##$RETENTION INDEX=0
##$CONDENSED SPECTRUM=NO
##NPOINTS= 50
##XYDATA=(XY..XY) 1 
    14          1
    15         34
    16          1
    17          0
    19         13
    25          0
    26          5
    27         53
    28         15
    29        192
    30          9
    31         45
    32          1
    33          9
    39          1
    40          0
    41          6
    42         14
    43        157
    44         46
    45        436
    47        999
    48         12
    49          4
    55          0
    56          0
    57          2
    58          2
    59        128
    60         11
    61         17
    62          0
    63          1
    69          0
    70          0
    71          0
    72          8
    73          4
    75        671
    76         21
    77          3
    87          0
    88          0
    89          2
    91          0
   103        575
   104         29
   105          3
   119          1
   147          0