##TITLE=Library Entry 54602
##JCAMP-DX=Revision 4.10 
##DATA TYPE=MASS SPECTRUM
##SAMPLE DESCRIPTION=Exported from NIST MS Search
##NAMES=HP
##CAS NAME=2H-Pyran, 2-ethoxytetrahydro-
##MOLFORM=C7H14O2
##CAS REGISTRY NO=4819-83-4
##MP= -300
##BP= -300
##MW= 130
##$RETENTION INDEX=920
##$CONDENSED SPECTRUM=NO
##NPOINTS= 29
##XYDATA=(XY..XY) 1 
    41        981
    42        173
    43        516
    44        509
    45        169
    46         29
    47        848
    48         18
    51         33
    53         51
    54         44
    55        354
    56        645
    57        387
    58         40
    59         40
    67        155
    72        247
    73         48
    75        560
    76         29
    83         44
    84         36
    85        999
    86         81
   101         48
   102         66
   129        147
   130         84