##TITLE=Library Entry 52841
##JCAMP-DX=Revision 4.10 
##DATA TYPE=MASS SPECTRUM
##SAMPLE DESCRIPTION=A.A.Kutin, Moscow, Russia
##NAMES=HP
##CAS NAME=Tripyrido[1,2-a:1,2-c;3,2-E]pyrimidine, perhydro-
##MOLFORM=C15H27N3
##CAS REGISTRY NO=482-59-7
##MP= -300
##BP= -300
##MW= 249
##$RETENTION INDEX=0
##$CONDENSED SPECTRUM=NO
##NPOINTS= 113
##XYDATA=(XY..XY) 1 
    33          2
    34          3
    36          0
    37          6
    38         19
    39        157
    40        111
    41        367
    42        141
    43         53
    44         47
    45          7
    48          1
    49          2
    50         15
    51         29
    52         28
    53         76
    54        220
    55        526
    56        208
    57         29
    58          6
    62          1
    63          1
    64          1
    65         18
    66         13
    67         77
    68        123
    69         35
    70         42
    71          9
    72          3
    77         24
    78         10
    79         25
    80         69
    81         53
    82        276
    83        999
    84        986
    85         58
    86          3
    91          8
    92          5
    93         14
    94         28
    95         22
    96         52
    97         17
    98         10
    99          5
   103          0
   104          1
   105         20
   106         10
   107         11
   108         20
   109         37
   110         50
   111         16
   112         11
   113          1
   118          0
   119          2
   120          9
   121         14
   122         44
   123         55
   124         28
   125          5
   126          1
   133          2
   134         10
   135         19
   136         21
   137         46
   138         24
   139          4
   147          1
   148         10
   149         21
   150         22
   151          6
   152          1
   161          1
   162          3
   163         10
   164         15
   165         95
   166         44
   167          5
   171          0
   176          1
   177          9
   178          3
   179          6
   180          1
   190          9
   192        325
   193         41
   194          2
   205          1
   206         11
   207          4
   220          7
   221          1
   246          0
   247          3
   248         14
   249         84
   250         13