##TITLE=Library Entry 14629
##JCAMP-DX=Revision 4.10 
##DATA TYPE=MASS SPECTRUM
##SAMPLE DESCRIPTION=Exported from NIST MS Search
##NAMES=HP
##CAS NAME=Pregnan-20-one, 3,11-dihydroxy-, (3.beta.,5.beta.,11.beta.)-
##MOLFORM=C21H34O3
##CAS REGISTRY NO=48200-75-5
##MP= -300
##BP= -300
##MW= 334
##$RETENTION INDEX=0
##$CONDENSED SPECTRUM=NO
##NPOINTS= 136
##XYDATA=(XY..XY) 1 
    41        290
    42         30
    43        999
    44         40
    45         35
    53         27
    55        175
    56          5
    57         75
    58         40
    65         20
    66          7
    67        197
    68         20
    69        105
    70         30
    71        195
    77         75
    78         20
    79        192
    80         45
    81        340
    82         32
    83         65
    84         75
    85         95
    91        195
    92         45
    93        255
    94         75
    95        237
    96         45
    97         70
    98         30
   105        175
   106        107
   107        265
   108        142
   109        165
   110         47
   111         37
   118         40
   119         95
   120        175
   121        147
   122         75
   123         72
   124         95
   125         30
   131         80
   132         95
   133        145
   134         57
   135         80
   136         17
   137         35
   138         20
   139          7
   143         30
   144         30
   145         95
   146         40
   147        175
   148         60
   149        112
   150         30
   151         17
   157         37
   158          5
   159         72
   160         37
   161         72
   162         17
   163         30
   164         10
   165         20
   166          7
   171         17
   172         37
   173         57
   174         20
   175         35
   176          5
   177         20
   178         17
   185         20
   186         10
   187         27
   188         25
   189         27
   190         80
   191         27
   192          5
   193          7
   197         10
   199         17
   201          7
   202         20
   203         17
   213        132
   214         20
   215         25
   216         17
   217         17
   227         17
   228         25
   229          5
   231         50
   232         17
   240          7
   241         10
   243         10
   244         10
   245         20
   246         90
   247         12
   255        150
   256         30
   257         20
   258         50
   259         30
   271          5
   272          7
   273         45
   274          7
   276          5
   283        105
   284         20
   298        145
   299         22
   301        217
   302         30
   316        862
   317        195
   318         20
   334          3