##TITLE=Library Entry 66521
##JCAMP-DX=Revision 4.10 
##DATA TYPE=MASS SPECTRUM
##SAMPLE DESCRIPTION=RESEARCH LABORATORY, STATE ALCOHOL MONOPOLY ALKO, HELSI
NKI, FINLAND; IRMA NYKANEN ET AL
##NAMES=HP
##CAS NAME=4-Terpinenyl acetate
##MOLFORM=C12H20O2
##CAS REGISTRY NO=4821-04-9
##MP= -300
##BP= -300
##MW= 196
##$RETENTION INDEX=1301
##$CONDENSED SPECTRUM=NO
##NPOINTS= 67
##XYDATA=(XY..XY) 1 
    26          6
    27         58
    31         41
    39         75
    40         17
    41        134
    42         13
    43        186
    44         51
    45         20
    50          6
    51         44
    52         20
    53         55
    54          6
    55         55
    56          6
    58         13
    59         10
    60         17
    61          6
    63         17
    64          6
    65         68
    66         17
    67         51
    68         31
    69         27
    70          3
    71         34
    77        262
    78         41
    79        217
    80         68
    81         55
    82          6
    86         13
    91        362
    92        193
    93        999
    94        110
    95         17
   102          3
   103         27
   104          3
   105        131
   106         27
   107         96
   108         34
   109          3
   110         13
   111         27
   115         20
   116          3
   117         20
   118          3
   119        106
   120         13
   121        648
   122         68
   134         27
   135          6
   136        455
   137         62
   138          3
   153          3
   154          3