##TITLE=Library Entry 66691
##JCAMP-DX=Revision 4.10 
##DATA TYPE=MASS SPECTRUM
##SAMPLE DESCRIPTION=NIST Mass Spectrometry Data Center, 1994
##NAMES=HP
##CAS NAME=2-Mercaptoacetanilide
##MOLFORM=C8H9NOS
##CAS REGISTRY NO=4822-44-0
##MP= -300
##BP= -300
##MW= 167
##$RETENTION INDEX=0
##$CONDENSED SPECTRUM=NO
##NPOINTS= 88
##XYDATA=(XY..XY) 1 
    12          3
    13          5
    14         22
    15          4
    18          6
    26          6
    27         10
    28         36
    30          6
    32         10
    33         20
    34          7
    35          2
    37         28
    38         89
    39        279
    40         45
    41         28
    42         51
    43         15
    44         10
    45        104
    46         68
    47        317
    48         16
    49         22
    50         65
    51        148
    52         55
    53         10
    54         11
    60          2
    61         13
    62         32
    63         92
    64         99
    65        299
    66        144
    67         17
    69          3
    73          3
    74          9
    75         19
    76          2
    77        310
    78         37
    79         28
    80         16
    81          2
    82          1
    87          4
    88          2
    89          2
    90          8
    91         76
    92        251
    93        999
    94        105
    95          4
    97         14
   102          1
   104         14
   105          6
   106         57
   107          5
   109          2
   111          1
   116          1
   119        189
   120        171
   121         17
   122          2
   123         10
   124         45
   125          9
   126          3
   132          7
   133          5
   134         31
   135         12
   136          3
   138          3
   149          1
   165          3
   167        501
   168         55
   169         27
   170          2