##TITLE=Library Entry 67097
##JCAMP-DX=Revision 4.10 
##DATA TYPE=MASS SPECTRUM
##SAMPLE DESCRIPTION=Zaikin V.G., TIPS RAS, Moscow, Russia
##NAMES=HP
##CAS NAME=Carbonic acid, butyl phenyl ester
##MOLFORM=C11H14O3
##CAS REGISTRY NO=4824-76-4
##MP= -300
##BP= -300
##MW= 194
##$RETENTION INDEX=1447
##$CONDENSED SPECTRUM=NO
##NPOINTS= 30
##XYDATA=(XY..XY) 1 
    26          4
    27         15
    28         22
    29         55
    30          2
    36          3
    39         47
    41         73
    44         11
    50          6
    51         19
    55          4
    56          8
    57         61
    58          2
    62          2
    63          8
    64          4
    65         51
    66         29
    76          2
    77         79
    78          5
    93          8
    94        999
    95         60
   107          5
   121          7
   139          2
   194          5