##TITLE=Library Entry 70687
##JCAMP-DX=Revision 4.10 
##DATA TYPE=MASS SPECTRUM
##SAMPLE DESCRIPTION=CATALOGUE OF MASS SPECTRA OF PESTICIDES, APRIL, 1975; J
. FREUDENTHAL & L. G. GRAMBERG, NAT'L INST. OF PUBLIC HEALTH, THE NETHERLAND
S
##NAMES=HP
##CAS NAME=Bromophos-ethyl
##MOLFORM=C10H12BrCl2O3PS
##CAS REGISTRY NO=4824-78-6
##MP= -300
##BP= -300
##MW= 392
##$RETENTION INDEX=2099
##$CONDENSED SPECTRUM=NO
##NPOINTS= 169
##XYDATA=(XY..XY) 1 
    39         16
    40         27
    41         23
    47         68
    48         10
    55         20
    57         21
    59         11
    60         13
    62         93
    63         50
    65        245
    67         14
    69         16
    71         10
    72         13
    73         19
    74         37
    75         26
    79         55
    80         37
    81        129
    83         23
    84         11
    90         14
    91         56
    93        152
    96         34
    97        999
    98         25
    99        101
   102         13
   107         12
   108         25
   109        385
   110         23
   111         35
   113         16
   114         37
   115         44
   118         18
   121        115
   125        391
   126         54
   127         32
   128         10
   129         22
   131         12
   132         34
   133         68
   134         21
   135         34
   137         31
   141         31
   142         30
   143         41
   144         54
   145         11
   146         53
   147         18
   151         17
   153         53
   154         25
   156         26
   157         31
   158         17
   160         16
   161         34
   162         28
   163         17
   164         25
   170         26
   172         13
   173         13
   174         13
   176         44
   177         23
   178         62
   179         20
   180         19
   190         16
   193         19
   198         67
   204         27
   205         16
   206         25
   207         10
   208         24
   210         10
   211         93
   212         10
   213        120
   215         60
   217         14
   221         13
   222         47
   223         41
   224         23
   225         25
   226         12
   237         23
   239         60
   240        430
   241         86
   242        646
   243         63
   244        312
   245         28
   246         47
   250         18
   251         32
   252         10
   253         33
   255         19
   256         87
   257         42
   258         61
   259         22
   260         20
   268         75
   269         13
   270        111
   271         15
   272         52
   278         14
   279         38
   280         13
   281         14
   283         12
   284         16
   285         22
   286         13
   287         23
   289         17
   291         13
   298         26
   300         19
   301        421
   302         59
   303        591
   304         58
   305        170
   306         16
   313         15
   314         12
   315         16
   316         17
   317         15
   319         33
   320         12
   321         45
   322         10
   323         25
   329        369
   330         56
   331        527
   332         52
   333        159
   334         19
   347         17
   349         13
   351         12
   357        578
   358         62
   359        736
   360         86
   361        205
   362         19
   363         19