##TITLE=Library Entry 37183
##JCAMP-DX=Revision 4.10 
##DATA TYPE=MASS SPECTRUM
##SAMPLE DESCRIPTION=Exported from NIST MS Search
##NAMES=HP
##CAS NAME=2-Dodecenal
##MOLFORM=C12H22O
##CAS REGISTRY NO=4826-62-4
##MP= -300
##BP= -300
##MW= 182
##$RETENTION INDEX=1465
##$CONDENSED SPECTRUM=NO
##NPOINTS= 78
##XYDATA=(XY..XY) 1 
    15         11
    26         26
    27        312
    28         70
    29        550
    30         16
    31         70
    37          7
    38          8
    39        263
    40         49
    41        894
    42        212
    43        941
    44         32
    45         33
    50          8
    51         17
    52         12
    53        105
    54        160
    55        737
    56        283
    57        760
    58         44
    59         32
    65         20
    66         34
    67        250
    68        200
    69        430
    70        999
    71        218
    72         21
    73         10
    74         15
    77         20
    78         13
    79         95
    80         66
    81        220
    82        280
    83        618
    84        285
    85         50
    86         21
    91         14
    93         64
    94         54
    95        125
    96        195
    97        245
    98        190
    99         18
   100         41
   107         39
   108         34
   109         46
   110         40
   111        120
   112         59
   113          6
   114         35
   121         90
   122         24
   123         13
   124          6
   125         26
   126         36
   127         11
   135         42
   136         13
   137          5
   138         53
   139         17
   153          5
   164         21
   182          6