##TITLE=Library Entry 91142
##JCAMP-DX=Revision 4.10 
##DATA TYPE=MASS SPECTRUM
##SAMPLE DESCRIPTION=LAC, NIDDK, NIH, Bethesda, MD 20892
##NAMES=HP
##CAS NAME=15.alpha.-Hydroxy-tomatidine
##MOLFORM=C27H45NO3
##CAS REGISTRY NO=4828-39-1
##MP= -300
##BP= -300
##MW= 431
##$RETENTION INDEX=0
##$CONDENSED SPECTRUM=NO
##NPOINTS= 124
##XYDATA=(XY..XY) 1 
    41        131
    42         40
    43        140
    44         29
    45          9
    49         11
    51          2
    53         25
    54         31
    55        193
    56         35
    57         71
    58         55
    59         12
    60          6
    65         10
    66          7
    67         93
    68         33
    69         83
    70         41
    71         23
    72          6
    73          8
    77         22
    79         71
    80         16
    81         90
    82         36
    83         61
    84         58
    85         12
    86         20
    91         59
    92         11
    93         70
    94         23
    95         67
    96         41
    97         30
    98         36
    99         11
   105         47
   106         14
   107         63
   108         35
   109         39
   110         56
   111         56
   112         21
   113        137
   114        999
   115         74
   116          2
   117         14
   119         30
   120         17
   121         38
   122         20
   123         17
   124         68
   125        351
   126         44
   127         24
   128          7
   129          8
   131         18
   133         20
   134         10
   135         17
   136         11
   137          6
   138        680
   139        102
   140         22
   141          6
   142          6
   143         20
   145         20
   147         17
   148         10
   149         14
   150         21
   151         10
   152         10
   155          9
   156          7
   157         10
   159         15
   161         16
   162         11
   163         10
   164         17
   165          3
   166        486
   167         79
   168         88
   169         14
   170          7
   171          7
   173          8
   175          8
   176          2
   178         14
   179          8
   180          8
   185          2
   187          5
   192         11
   196         18
   197          4
   220          4
   271          6
   289         12
   300          7
   301          2
   388          2
   402         36
   403         31
   404          7
   416         12
   430         11
   431         47
   432         22