##TITLE=Library Entry 82386
##JCAMP-DX=Revision 4.10 
##DATA TYPE=MASS SPECTRUM
##SAMPLE DESCRIPTION=CBDCOM/ERDEC, Edgewood, MD
##NAMES=HP
##CAS NAME=1,3-Dithiolane
##MOLFORM=C3H6S2
##CAS REGISTRY NO=4829-04-3
##MP= -300
##BP= -300
##MW= 106
##$RETENTION INDEX=1014
##$CONDENSED SPECTRUM=NO
##NPOINTS= 21
##XYDATA=(XY..XY) 1 
    41         29
    42         29
    45        309
    46        104
    47         79
    48         19
    53         29
    58         69
    59        199
    60        419
    61        104
    73         79
    76         29
    78        419
    79         29
    80         59
   103         19
   105        109
   106        999
   107         59
   108        109