##TITLE=Library Entry 81368
##JCAMP-DX=Revision 4.10 
##DATA TYPE=MASS SPECTRUM
##SAMPLE DESCRIPTION=TNO Volatile Compounds in Food - Chemical Concepts
##NAMES=HP
##CAS NAME=Naphthalene, 1,2,4a,5,6,8a-hexahydro-4,7-dimethyl-1-(1-methylethy
l)-
##MOLFORM=C15H24
##CAS REGISTRY NO=483-75-0
##MP= -300
##BP= -300
##MW= 204
##$RETENTION INDEX=1485
##$CONDENSED SPECTRUM=NO
##NPOINTS= 98
##XYDATA=(XY..XY) 1 
    26          3
    27        114
    29         63
    30          3
    38          2
    39         95
    41        341
    42         14
    43        157
    44          1
    50          4
    51         34
    52         12
    53         86
    54         10
    55        134
    56         11
    57         27
    58          2
    59          2
    63          9
    64          5
    65         53
    66         15
    67         58
    68         11
    69         83
    70          6
    71          1
    75          2
    76          3
    77        134
    78         35
    79        162
    80         32
    81        237
    82         13
    83          5
    89          5
    91        233
    92         68
    93        343
    94        349
    95         82
    96          6
    97          3
   102          4
   103         20
   104         16
   105        999
   106        160
   107         90
   108         32
   109         17
   110         12
   111          2
   115         35
   116         16
   117         41
   118         18
   119        171
   120         40
   121         90
   122         24
   123         61
   124          4
   127          6
   128         24
   129         20
   130         12
   131         28
   132         11
   133         92
   134         52
   135         31
   136         26
   137          3
   141          8
   142          4
   143          5
   144          4
   145         33
   146          8
   147         78
   148         51
   149         31
   150          3
   159          9
   160         32
   161        475
   162         75
   163          3
   175         16
   176          5
   189         75
   190         12
   204        268
   205         50