##TITLE=Library Entry 36192
##JCAMP-DX=Revision 4.10 
##DATA TYPE=MASS SPECTRUM
##SAMPLE DESCRIPTION=NIST Mass Spectrometry Data Center, 1998.
##NAMES=HP
##CAS NAME=Crotamiton
##MOLFORM=C13H17NO
##CAS REGISTRY NO=483-63-6
##MP= -300
##BP= -300
##MW= 203
##$RETENTION INDEX=1550
##$CONDENSED SPECTRUM=NO
##NPOINTS= 119
##XYDATA=(XY..XY) 1 
    15          3
    26          3
    27         25
    28          9
    29         21
    30          3
    37          2
    38         10
    39        168
    40         18
    41        324
    42         23
    43          2
    44         10
    45          1
    50         14
    51         51
    52         28
    53         18
    54          5
    55          8
    56          2
    57          1
    61          1
    62          6
    63         33
    64         14
    65        156
    66         13
    67          7
    68         80
    69        999
    70         50
    71          4
    72          2
    74          3
    75          5
    76         10
    77         87
    78         40
    79         26
    80          5
    81          1
    85          1
    86          2
    87          5
    88          1
    89         35
    90         17
    91        231
    92         29
    93         11
    94          2
    95          1
    96        193
    97         14
    98          1
   101          1
   102          4
   103          8
   104         27
   105         11
   106         35
   107         58
   108          6
   112          1
   114          1
   115         14
   116         11
   117         47
   118        174
   119         52
   120        514
   121         49
   122          2
   127          2
   128          5
   129          3
   130         18
   131         14
   132         33
   133         11
   134        140
   135        280
   136         28
   137          1
   140          1
   141          1
   142          3
   143          4
   144         10
   145          6
   146         12
   147          3
   148          1
   154          1
   156          2
   157          1
   158          6
   159          4
   160         26
   161          9
   162         14
   163          2
   170          1
   171          1
   172          3
   173          2
   174         16
   175         33
   176          4
   186          4
   188        475
   189         65
   190          5
   202         16
   203        331
   204         52
   205          5