##TITLE=Library Entry 97369
##JCAMP-DX=Revision 4.10 
##DATA TYPE=MASS SPECTRUM
##SAMPLE DESCRIPTION=Exported from NIST MS Search
##NAMES=HP
##CAS NAME=1H-Indene, 1-ethyl-2,3-dihydro-
##MOLFORM=C11H14
##CAS REGISTRY NO=4830-99-3
##MP= -300
##BP= -300
##MW= 146
##$RETENTION INDEX=0
##$CONDENSED SPECTRUM=NO
##NPOINTS= 91
##XYDATA=(XY..XY) 1 
    12          2
    13          2
    14          4
    15         20
    16          1
    25          1
    26         12
    27         64
    28          8
    29         33
    30          1
    37          3
    38          9
    39         69
    40          6
    41         16
    42          1
    43          2
    44          6
    49          1
    50         20
    51         44
    52         11
    53          9
    54          1
    55          2
    56          1
    57          3
    58          6
    61          3
    62         13
    63         42
    64         16
    65         36
    66          3
    67          3
    69          2
    70          2
    71          3
    73          1
    74          8
    75         10
    76          7
    77         26
    78         11
    79          4
    85          1
    86          4
    87          5
    88          1
    89         24
    90          4
    91         94
    92          8
    93          1
    98          2
    99          1
   100          1
   101          3
   102         14
   103         10
   104          5
   105          5
   106          1
   110          1
   111          1
   113          8
   114         11
   115        195
   116         87
   117        999
   118        102
   119          5
   125          1
   126          3
   127         12
   128         28
   129         18
   130          8
   131          7
   132          1
   139          2
   140          1
   141          3
   142          1
   143          2
   144          2
   145          8
   146        154
   147         19
   148          1