##TITLE=Library Entry 60551
##JCAMP-DX=Revision 4.10 
##DATA TYPE=MASS SPECTRUM
##SAMPLE DESCRIPTION=NIST Mass Spectrometry Data Center, 1990.
##NAMES=HP
##CAS NAME=Benzene, (4-chlorobutyl)-
##MOLFORM=C10H13Cl
##CAS REGISTRY NO=4830-93-7
##MP= -300
##BP= -300
##MW= 168
##$RETENTION INDEX=1256
##$CONDENSED SPECTRUM=NO
##NPOINTS= 50
##XYDATA=(XY..XY) 1 
    26          4
    27         25
    38          8
    39         59
    40          6
    41         30
    42          3
    49         19
    50         26
    51         63
    52         16
    53         11
    55          3
    58          3
    61          3
    62         11
    63         43
    64         16
    65        126
    66          7
    74          9
    75          9
    76         10
    77         63
    78         67
    79         25
    89         29
    91        999
    92        176
    93         10
   102          9
   103         30
   104        102
   105         51
   106          6
   115         22
   116          7
   117         24
   118          3
   119          8
   127          4
   128          6
   129          3
   131          6
   132         25
   133         16
   168        110
   169         12
   170         36
   171          3