##TITLE=Library Entry 62002
##JCAMP-DX=Revision 4.10 
##DATA TYPE=MASS SPECTRUM
##SAMPLE DESCRIPTION=CARL DJERASSI DEPT OF CHEM STANFORD UNIV STANFORD CALIF
 94305
##NAMES=HP
##CAS NAME=Benzene, (3-chloro-3-methylbutyl)-
##MOLFORM=C11H15Cl
##CAS REGISTRY NO=4830-95-9
##MP= -300
##BP= -300
##MW= 182
##$RETENTION INDEX=1326
##$CONDENSED SPECTRUM=NO
##NPOINTS= 48
##XYDATA=(XY..XY) 1 
    40         30
    41        110
    42         10
    43         20
    44         20
    46         30
    50         50
    51        130
    52         40
    53         50
    55         30
    56         20
    62         10
    63         70
    64         20
    65        180
    66         20
    67         10
    68         20
    69         10
    74         20
    75         10
    76         10
    77        100
    78         40
    79         20
    89         20
    90         10
    91        999
    92         90
   102         10
   103         40
   104         60
   105         40
   115         60
   116         50
   117         30
   118         10
   127         10
   128         30
   129         40
   130         10
   131        450
   132         40
   145         10
   146        310
   147         40
   182         10