##TITLE=Library Entry 20501
##JCAMP-DX=Revision 4.10 
##DATA TYPE=MASS SPECTRUM
##SAMPLE DESCRIPTION=NIST Mass Spectrometry Data Center, 1990.
##NAMES=HP
##CAS NAME=1-Decalone (cis-trans)
##MOLFORM=C10H16O
##CAS REGISTRY NO=4832-16-0
##MP= -300
##BP= -300
##MW= 152
##$RETENTION INDEX=0
##$CONDENSED SPECTRUM=NO
##NPOINTS= 62
##XYDATA=(XY..XY) 1 
    14          7
    15         35
    18         11
    27        432
    28        180
    29        228
    37         11
    39        641
    40        152
    41        834
    42        172
    43         98
    44         17
    50         33
    51        104
    52         74
    53        354
    54        425
    55        999
    56         86
    57         28
    63         32
    65        119
    66        109
    67        822
    68        347
    69        139
    70        125
    71         86
    77        137
    78         92
    79        405
    80        156
    81        883
    82        347
    83        120
    84         32
    91         83
    92         56
    93        223
    94        362
    95        490
    96        368
    97        236
    98         41
   105         48
   106         37
   108        752
   109        292
   110        165
   111         16
   119         54
   120         10
   121          9
   122          9
   123        117
   124         38
   134         91
   135         11
   137         44
   152        477
   153         48