##TITLE=Library Entry 21315
##JCAMP-DX=Revision 4.10 
##DATA TYPE=MASS SPECTRUM
##SAMPLE DESCRIPTION=Philip Morris R&D
##NAMES=HP
##CAS NAME=2-Decalone,c&t
##MOLFORM=C10H16O
##CAS REGISTRY NO=4832-17-1
##MP= -300
##BP= -300
##MW= 152
##$RETENTION INDEX=1275
##$CONDENSED SPECTRUM=NO
##NPOINTS= 63
##XYDATA=(XY..XY) 1 
    38         14
    39        440
    40         81
    41        660
    42        122
    43         91
    45          2
    50         22
    51         66
    52         36
    53        296
    54        353
    55        999
    56         95
    57         28
    58          8
    63         14
    64          2
    65         63
    66         69
    67        654
    68        366
    69        153
    70        142
    71         92
    77         79
    78         64
    79        282
    80        123
    81        896
    82        360
    83        115
    84         22
    91         47
    92         37
    93        179
    94        452
    95        490
    96        404
    97        299
    98         48
   105         28
   106         22
   107         12
   108        919
   109        324
   110        227
   111         27
   115          1
   119         40
   120          4
   123        150
   124         63
   125          4
   133          3
   134         99
   135          1
   137         44
   138          0
   151         16
   152        900
   153         75
   154          0