##TITLE=Library Entry 56627
##JCAMP-DX=Revision 4.10 
##DATA TYPE=MASS SPECTRUM
##SAMPLE DESCRIPTION=Japan AIST/NIMC Database- Spectrum MS-NW-3935
##NAMES=HP
##CAS NAME=N,N'-di-n-Butyl-1,6-hexanediamine
##MOLFORM=C14H32N2
##CAS REGISTRY NO=4835-11-4
##MP= -300
##BP= -300
##MW= 228
##$RETENTION INDEX=0
##$CONDENSED SPECTRUM=NO
##NPOINTS= 122
##XYDATA=(XY..XY) 1 
    14          1
    15          4
    17          2
    18         13
    26          3
    27         35
    28         45
    29        127
    30        319
    31          7
    32          4
    34          1
    38          1
    39         24
    40          4
    41        157
    42         57
    43         56
    44        256
    45          9
    50          1
    51          1
    52          1
    53          9
    54          9
    55        106
    56         75
    57         85
    58         27
    59          3
    64          1
    65          1
    66          1
    67          7
    68         12
    69         16
    70         56
    71         93
    72         85
    73         58
    74         26
    75          1
    77          2
    78          1
    79          5
    80          4
    81         38
    82         13
    83         11
    84         51
    85          5
    86        999
    87         61
    88          2
    92          2
    93          1
    94          3
    95          3
    96          9
    97          3
    98        155
    99         23
   100        227
   101         19
   106          1
   108          3
   109          1
   110         37
   111          5
   112        428
   113         37
   114         85
   115          8
   120          1
   122          1
   123          1
   124          5
   125          5
   126         23
   127          3
   128         23
   129          7
   130          6
   131          1
   136          1
   138          5
   139          2
   140         12
   141          3
   142        150
   143         62
   144          7
   149          1
   150          1
   151          2
   152          7
   153          9
   154        198
   155         31
   156        105
   157         27
   158          3
   166          2
   167          5
   168          2
   169          3
   170          1
   171         50
   172          7
   173          1
   181          1
   183          6
   184          1
   185        162
   186         22
   187          2
   199          6
   200          1
   213          1
   227          4
   228         18
   229          4