##TITLE=Library Entry 57853
##JCAMP-DX=Revision 4.10 
##DATA TYPE=MASS SPECTRUM
##SAMPLE DESCRIPTION=Japan AIST/NIMC Database- Spectrum MS-NW-8033
##NAMES=HP
##CAS NAME=Hydroxypivalic acid
##MOLFORM=C5H10O3
##CAS REGISTRY NO=4835-90-9
##MP= -300
##BP= -300
##MW= 118
##$RETENTION INDEX=0
##$CONDENSED SPECTRUM=NO
##NPOINTS= 64
##XYDATA=(XY..XY) 1 
    14          2
    15         14
    17          3
    18          9
    19          2
    25          1
    26         15
    27        119
    28         22
    29         92
    30          8
    31        187
    32          3
    33          2
    37          9
    38         20
    39        186
    40         32
    41        264
    42        196
    43        114
    44          7
    45         96
    46          6
    47         16
    49          1
    50          6
    51          6
    52          2
    53         21
    54         10
    55        153
    56         49
    57         65
    58          9
    59         63
    60         38
    61          3
    67          2
    68          4
    69         33
    70        291
    71         27
    72         11
    73        850
    74         28
    75          5
    81          1
    82         25
    83          9
    84          1
    85         61
    86          5
    87         85
    88        999
    89         49
    90          6
    99          8
   100         35
   101         16
   102          1
   103          9
   118          1
   119          5