##TITLE=Library Entry 65510
##JCAMP-DX=Revision 4.10 
##DATA TYPE=MASS SPECTRUM
##SAMPLE DESCRIPTION=Japan AIST/NIMC Database- Spectrum MS-IW- 564
##NAMES=HP
##CAS NAME=Benzene, 1-methoxy-2-methyl-3-nitro-
##MOLFORM=C8H9NO3
##CAS REGISTRY NO=4837-88-1
##MP= -300
##BP= -300
##MW= 167
##$RETENTION INDEX=0
##$CONDENSED SPECTRUM=NO
##NPOINTS= 96
##XYDATA=(XY..XY) 1 
    15          9
    17          1
    18          5
    26          6
    27         21
    28         25
    29          6
    30         10
    31          2
    37          3
    38         14
    39        113
    40         11
    41         28
    42          7
    43         19
    44          1
    45          5
    46          1
    49          1
    50         58
    51        192
    52        152
    53         52
    54          7
    55         15
    56          1
    57          1
    59         13
    60          1
    61          3
    62         22
    63         95
    64         38
    65        298
    66         49
    67         19
    68          5
    69          4
    70          1
    71          1
    73          1
    74         13
    75         18
    76         34
    77        309
    78        301
    79         85
    80         14
    81          9
    82          6
    83          2
    85          1
    86          3
    87          4
    88          2
    89         70
    90        147
    91        565
    92        999
    93         96
    94         45
    95         71
    96          8
    97          4
   102          1
   103          5
   104          6
   105        173
   106        159
   107         76
   108         20
   109          6
   110          4
   118          7
   119          5
   120         18
   121         15
   122         57
   123          8
   124          1
   133          1
   134          1
   135         78
   136          9
   137          8
   138          1
   149          2
   150        775
   151         76
   152          8
   153          1
   166          1
   167        519
   168         50
   169          5