##TITLE=Library Entry 86404
##JCAMP-DX=Revision 4.10 
##DATA TYPE=MASS SPECTRUM
##SAMPLE DESCRIPTION=NIST Mass Spectrometry Data Center
##NAMES=HP
##CAS NAME=Benzene, [(2-bromoethyl)thio]-
##MOLFORM=C8H9BrS
##CAS REGISTRY NO=4837-01-8
##MP= -300
##BP= -300
##MW= 216
##$RETENTION INDEX=0
##$CONDENSED SPECTRUM=NO
##NPOINTS= 91
##XYDATA=(XY..XY) 1 
    25          2
    26         26
    27        105
    32          1
    37          8
    38         23
    39        148
    40          4
    41          1
    45        203
    46          8
    47         10
    49          7
    50         88
    51        178
    52         17
    53          3
    54          1
    56          1
    57         27
    58         41
    59         79
    60         13
    61         11
    62         19
    63         48
    64          9
    65        327
    66         64
    67          7
    68          3
    69        138
    70         10
    71         14
    72          1
    73          6
    74         33
    75         22
    76         16
    77        120
    78         28
    79         40
    80          4
    81         25
    82         45
    83         23
    84         21
    85          2
    86          1
    89          4
    90          2
    91         55
    92          5
    93         14
    94          1
    95          8
    97          5
   102          4
   103         41
   104         38
   105          7
   106          4
   107         54
   108         82
   109        999
   110        176
   111         55
   112          7
   113          1
   121          9
   123        373
   124         30
   125         17
   126          1
   134          7
   135        183
   136         28
   137        998
   138         98
   139         48
   140          4
   188         26
   189          2
   190         26
   191          1
   192          1
   216        181
   217         18
   218        180
   219         16
   220          8