##TITLE=Library Entry 58915
##JCAMP-DX=Revision 4.10 
##DATA TYPE=MASS SPECTRUM
##SAMPLE DESCRIPTION=Chemical Concepts
##NAMES=HP
##CAS NAME=Glycine, N-(phenylacetyl)-, ethyl ester
##MOLFORM=C12H15NO3
##CAS REGISTRY NO=4838-35-1
##MP= -300
##BP= -300
##MW= 221
##$RETENTION INDEX=0
##$CONDENSED SPECTRUM=NO
##NPOINTS= 128
##XYDATA=(XY..XY) 1 
    25          7
    26         45
    27        275
    29        348
    30        565
    31        121
    33         10
    35          4
    36          4
    37         12
    38         53
    39        224
    40         50
    41        184
    42        172
    43        157
    44        154
    45         98
    46         13
    47         52
    48          5
    49          7
    50         63
    51        156
    52         53
    53         28
    54         15
    55         91
    56        237
    57         30
    58         78
    59        136
    60         20
    61         18
    62         57
    63        198
    64         71
    65        335
    66         43
    67         13
    68          9
    69         17
    70         14
    71        141
    72         21
    73         20
    74        307
    75        226
    76         26
    77         40
    78         23
    79         13
    80          7
    81         11
    82          6
    83          9
    84         24
    85         21
    86         17
    87         32
    88        296
    89        200
    90        185
    91        999
    92        421
    93         52
    94          7
    95          8
    96          4
    97         11
    98          7
    99          8
   100         30
   101         38
   102        364
   103         41
   104         20
   105         19
   106         11
   107         12
   108          5
   109          5
   113         38
   114         21
   115         23
   116         40
   117         15
   118        289
   119         50
   120         35
   121          8
   123          4
   124          4
   127          5
   128         16
   129         25
   130        125
   131         17
   132          9
   133         12
   134          5
   135          5
   136          4
   137          3
   138          3
   139          4
   140          4
   141          5
   142          7
   143         15
   144          5
   145         35
   146         25
   147          7
   148         78
   149         17
   150          4
   155          3
   159          5
   171          3
   173          3
   174          5
   175          8
   176         50
   177          9
   221        211
   222         31
   223          5