##TITLE=Library Entry 16436
##JCAMP-DX=Revision 4.10 
##DATA TYPE=MASS SPECTRUM
##SAMPLE DESCRIPTION=A. Brossi, LC, NIDDK, NIH, Bethesda, MD 20892
##NAMES=HP
##CAS NAME=Benzeneethanamine,3,4,5-trimethoxy-N-methyl-
##MOLFORM=C12H19NO3
##CAS REGISTRY NO=4838-96-4
##MP= -300
##BP= -300
##MW= 225
##$RETENTION INDEX=1696
##$CONDENSED SPECTRUM=NO
##NPOINTS= 143
##XYDATA=(XY..XY) 1 
    42         58
    43         11
    44        999
    45         28
    46          0
    47          4
    49          0
    50          7
    51         16
    52         22
    53         18
    54          3
    55          7
    56          5
    57          7
    58         15
    59          2
    60          1
    61          1
    62          2
    63         10
    64         10
    65         22
    66         12
    67          8
    68          3
    69          5
    70          1
    71          1
    72          1
    73          1
    74          2
    75          4
    76          6
    77         25
    78         17
    79         17
    80         14
    81          6
    82          3
    83          2
    84          1
    85          1
    86          1
    87          1
    88          1
    89          8
    90          9
    91         14
    92          9
    93          9
    94          8
    95         13
    96          3
    97          2
    98          0
    99          0
   100          0
   102          1
   103          3
   104          4
   105          9
   106          9
   107         17
   108          6
   109          8
   110          2
   111          1
   115          0
   116          2
   117          1
   118          3
   119          5
   120          7
   121         12
   122          8
   123          9
   124          7
   125          3
   126          0
   127          0
   129          0
   130          0
   131          0
   132          1
   133          4
   134          4
   135          6
   136         20
   137         15
   138          7
   139         18
   140          2
   146          1
   147          1
   148         24
   149          6
   150          3
   151         27
   152          7
   153          6
   154          2
   160          0
   161          1
   162          1
   163          2
   164          3
   165          7
   166          4
   167        103
   168         12
   169          2
   176          1
   177          1
   178          3
   179          6
   180          3
   181         66
   182        551
   183         57
   184          6
   190          1
   192          1
   193          2
   194          9
   195          7
   196          2
   197          1
   198          3
   205          2
   206          1
   207          0
   208          2
   209          1
   211          0
   212          0
   220          0
   222          1
   223          2
   224          2
   225         23
   226          5
   227          0