##TITLE=Library Entry 31095
##JCAMP-DX=Revision 4.10 
##DATA TYPE=MASS SPECTRUM
##SAMPLE DESCRIPTION=A.A.Kutin, Moscow, Russia
##NAMES=HP
##CAS NAME=Indane-1,3-dione, 1-thiosemicarbazone
##MOLFORM=C10H9N3OS
##CAS REGISTRY NO=4839-52-5
##MP= -300
##BP= -300
##MW= 219
##$RETENTION INDEX=0
##$CONDENSED SPECTRUM=NO
##NPOINTS= 127
##XYDATA=(XY..XY) 1 
    33         50
    34         23
    37         24
    38         42
    39        142
    40        163
    41         70
    42         99
    43        384
    44         75
    45         35
    46         26
    47         28
    48         49
    50        309
    51        244
    52         81
    53         26
    54          1
    55         47
    56         12
    57         22
    59        135
    60        999
    62        181
    63        207
    64         78
    65         40
    66         14
    67         13
    68          8
    69         27
    70         13
    71         11
    73         41
    74        230
    75        338
    76        567
    77        405
    78         88
    79         11
    82          9
    83          8
    84         10
    85         12
    86         19
    87         33
    88         52
    89        274
    90         97
    91         38
    92          7
    93          2
    95         14
    97         11
    98         20
    99         22
   100         21
   101        145
   102        770
   103        720
   104        431
   105        146
   106         13
   108          7
   109          8
   111          9
   112          2
   113          7
   114         17
   115         43
   116        132
   117         64
   118         27
   119          3
   120         10
   121         25
   122         11
   124          1
   126          1
   127          5
   128         28
   129         70
   130        196
   131        346
   132        116
   133         25
   134         18
   135         11
   142          2
   143         13
   144         36
   145         57
   146         87
   147         20
   148         51
   149        169
   150         35
   151          1
   154          2
   158          2
   159        107
   160        390
   161         38
   162          9
   163          8
   164          5
   165          6
   173          2
   174         18
   175         22
   176         41
   177        523
   178         60
   179         21
   186          1
   188         15
   189          2
   193         11
   202         44
   203          8
   204         13
   217         23
   218        353
   219        815
   220        115
   221         41