##TITLE=Library Entry 30225
##JCAMP-DX=Revision 4.10 
##DATA TYPE=MASS SPECTRUM
##SAMPLE DESCRIPTION=Japan AIST/NIMC Database- Spectrum MS-NW-3185
##NAMES=HP
##CAS NAME=3,3-Dimethylglutaric acid
##MOLFORM=C7H12O4
##CAS REGISTRY NO=4839-46-7
##MP= -300
##BP= -300
##MW= 160
##$RETENTION INDEX=0
##$CONDENSED SPECTRUM=NO
##NPOINTS= 101
##XYDATA=(XY..XY) 1 
    11          1
    13          1
    14         12
    15         38
    16          3
    17          3
    18         10
    19          1
    26         17
    27        220
    28         52
    29        254
    30          6
    31         66
    32          1
    36          2
    37          9
    38         25
    39        294
    40         43
    41        441
    42        135
    43        344
    44         24
    45        161
    46          3
    47          2
    49          3
    50         21
    51         31
    52         11
    53        104
    54         33
    55        439
    56        236
    57        113
    58         19
    59        999
    60        266
    61         12
    62          3
    63          3
    65          5
    66          3
    67         20
    68         27
    69         53
    70         95
    71        102
    72         47
    73         25
    74          1
    77          1
    79          2
    80          1
    81         51
    82         43
    83        455
    84         26
    85         36
    86          8
    87          3
    91          1
    92          1
    93          1
    94          1
    95          6
    96         19
    97         15
    98         13
    99        147
   100         49
   101        340
   102         18
   103          7
   105          1
   107          1
   108          1
   109         18
   110          2
   111          4
   112          1
   113          3
   114        287
   115         23
   116          4
   121          1
   123          2
   124          1
   125          2
   126          4
   127        176
   128         12
   129          2
   137          1
   139          1
   141          1
   142        131
   143         27
   144          2
   145          1