##TITLE=Library Entry 5107
##JCAMP-DX=Revision 4.10 
##DATA TYPE=MASS SPECTRUM
##SAMPLE DESCRIPTION=Exported from NIST MS Search
##NAMES=HP
##CAS NAME=Tropinone, 6.beta.-methoxy-, (+)-
##MOLFORM=C9H15NO2
##CAS REGISTRY NO=4839-12-7
##MP= -300
##BP= -300
##MW= 169
##$RETENTION INDEX=0
##$CONDENSED SPECTRUM=NO
##NPOINTS= 25
##XYDATA=(XY..XY) 1 
    41        283
    42        999
    43        119
    44         31
    45         52
    53         68
    54         79
    55        132
    56         52
    57         31
    58         31
    79         37
    81         47
    82        439
    83        965
    84         97
    85         31
    94        153
    96         74
    97         37
   110         92
   111        986
   112        190
   169        132
   170         23