##TITLE=Library Entry 68728
##JCAMP-DX=Revision 4.10 
##DATA TYPE=MASS SPECTRUM
##SAMPLE DESCRIPTION=R. Fobbe, Dr. J. Nolte, ISAS, Dortmund, Germany
##NAMES=HP
##CAS NAME=Nitrobenzene, 3-fluoro-2-methoxy-
##MOLFORM=C7H6FNO3
##CAS REGISTRY NO=484-94-6
##MP= -300
##BP= -300
##MW= 171
##$RETENTION INDEX=0
##$CONDENSED SPECTRUM=NO
##NPOINTS= 41
##XYDATA=(XY..XY) 1 
    46         39
    50        119
    51        115
    52         23
    53         63
    56         98
    57        127
    61         68
    62         70
    63        208
    64         21
    65         76
    68        111
    69        100
    70        166
    71         32
    75        495
    76        128
    77        168
    80         31
    81        356
    82        505
    83        408
    84         42
    92         37
    93         47
    94        141
    95        999
    96        236
    97        148
    98         92
   110        509
   111        844
   112        118
   113         44
   124         58
   138          6
   141        893
   142         65
   171        586
   172         47