##TITLE=Library Entry 85620
##JCAMP-DX=Revision 4.10 
##DATA TYPE=MASS SPECTRUM
##SAMPLE DESCRIPTION=T.COHEN UNIV. OF PITTSBURGH, PITTSBURGH, PENNSYLVANIA,
 USA
##NAMES=HP
##CAS NAME=3-Pyridinol, 6-methyl-, acetate (ester)
##MOLFORM=C8H9NO2
##CAS REGISTRY NO=4842-89-1
##MP= -300
##BP= -300
##MW= 151
##$RETENTION INDEX=0
##$CONDENSED SPECTRUM=NO
##NPOINTS= 14
##XYDATA=(XY..XY) 1 
    27        186
    39         78
    43        725
    50         56
    51         84
    52         78
    53        178
    54         67
    80        278
    81         89
   108         86
   109        999
   110        119
   151        217