##TITLE=Library Entry 31187
##JCAMP-DX=Revision 4.10 
##DATA TYPE=MASS SPECTRUM
##SAMPLE DESCRIPTION=Insect Chem. Ecol. Lab., USDA, Beltsville, MD 20705
##NAMES=HP
##CAS NAME=p-Dioxane-2,3-diol
##MOLFORM=C4H8O4
##CAS REGISTRY NO=4845-50-5
##MP= -300
##BP= -300
##MW= 120
##$RETENTION INDEX=0
##$CONDENSED SPECTRUM=NO
##NPOINTS= 49
##XYDATA=(XY..XY) 1 
    41          5
    42         33
    43         58
    44         36
    45        416
    46         10
    47         50
    49         17
    50          3
    51         13
    52          0
    55          1
    56          1
    57          1
    58          5
    59         14
    61        999
    62         38
    63         43
    64          3
    65         23
    69          0
    71          1
    73        152
    74         15
    75         48
    76          2
    77         30
    78          2
    79          7
    80          1
    85          0
    87          1
    88          0
    89          8
    90          4
    91         10
    92          0
    93          9
    94          2
    95          1
   103         12
   104          2
   105         22
   106          2
   118          0
   119          2
   120          4
   121          0