##TITLE=Library Entry 14961
##JCAMP-DX=Revision 4.10 
##DATA TYPE=MASS SPECTRUM
##SAMPLE DESCRIPTION=LAC, NIDDK, NIH, Bethesda, MD 20892
##NAMES=HP
##CAS NAME=N-Nitrotomatidine, 3-acetate
##MOLFORM=C29H46N2O4
##CAS REGISTRY NO=4847-06-7
##MP= -300
##BP= -300
##MW= 486
##$RETENTION INDEX=0
##$CONDENSED SPECTRUM=NO
##NPOINTS= 232
##XYDATA=(XY..XY) 1 
    41        108
    43        999
    44         20
    45          5
    47         14
    49         52
    51         18
    53         29
    54         25
    55        375
    56         44
    57         37
    58          6
    61         98
    63          3
    65         12
    67        105
    68         13
    69         96
    70         18
    71         13
    72          1
    73          2
    77         30
    79         83
    81        138
    83         82
    84         63
    86         33
    88          2
    91         91
    93        183
    95        162
    96         46
    97         19
    98         15
    99         12
   100          2
   101          1
   103          5
   105        112
   107        136
   108         31
   109         43
   110         18
   111         14
   112         23
   113         29
   114         82
   115          7
   117         26
   119         42
   121         88
   122         54
   123         23
   124         32
   125         29
   126         11
   128         12
   129         12
   131         32
   133         68
   135         63
   136          7
   137         11
   138         74
   139          6
   140          2
   141         24
   143         22
   145         54
   147         84
   149         47
   150          5
   151          7
   152         11
   153          3
   154          1
   155         13
   157         17
   159         38
   161         81
   162         32
   164         36
   165         79
   166         23
   167          7
   169         12
   170          8
   171          9
   173         28
   175         20
   176         37
   178         25
   180          4
   181          1
   183          6
   184          3
   185          9
   186          1
   187         19
   189          8
   190          7
   191          4
   192          4
   194          1
   197          4
   198          2
   199         10
   200          1
   201         18
   202          4
   203          2
   204          1
   205          3
   206          1
   209          1
   211          2
   213          7
   214          5
   215         13
   216          7
   217         13
   218          5
   220          2
   225          2
   227          7
   229          7
   230          1
   231          2
   232          2
   234          2
   239          4
   240          2
   241          3
   243          3
   245          3
   246          3
   253         13
   255        118
   256         10
   257          4
   259          1
   260          1
   261          1
   267          2
   269         25
   271          9
   273         14
   274          9
   275          1
   276          2
   282          1
   283          3
   284          5
   285         26
   287         11
   288          5
   298          1
   299          2
   300          1
   301          1
   312          1
   313          5
   315        270
   316         50
   321          2
   327          1
   328          2
   329         15
   337         10
   338          4
   339          3
   340          1
   341          1
   342          3
   343          2
   344         17
   345          2
   351          6
   352          3
   354          1
   355          1
   356          2
   357         23
   358          2
   366          1
   368          1
   369          1
   370          1
   371          9
   372          1
   380         19
   381          6
   383          1
   384          1
   385         16
   386         10
   388          2
   394          1
   395          1
   396          5
   397         15
   399        660
   402          1
   411          3
   413        195
   414         99
   422          2
   423          1
   425          1
   426          3
   427         15
   428         12
   429         11
   430          1
   437          3
   438          2
   439          2
   440         12
   441         15
   442        201
   443         77
   454         13
   456        314
   457        142
   469          2
   470          1
   471          2
   484          1
   486         44
   487         18