##TITLE=Library Entry 78569
##JCAMP-DX=Revision 4.10 
##DATA TYPE=MASS SPECTRUM
##SAMPLE DESCRIPTION=A.A.Kutin, Moscow, Russia
##NAMES=HP
##CAS NAME=N-(1H-Tetrazol-5-yl)benzamide
##MOLFORM=C8H7N5O
##CAS REGISTRY NO=4847-62-5
##MP= -300
##BP= -300
##MW= 189
##$RETENTION INDEX=0
##$CONDENSED SPECTRUM=NO
##NPOINTS= 82
##XYDATA=(XY..XY) 1 
    34          1
    35          3
    36         19
    37         15
    38         40
    39         47
    40         49
    41         33
    42         18
    43         31
    44         29
    45          5
    50        134
    51        285
    52         26
    53         14
    54          9
    55         13
    56          6
    57         10
    58          3
    59          0
    60          4
    61          3
    62          5
    63          9
    64          3
    65          4
    66          1
    67          3
    69         10
    70          5
    71          4
    73         11
    74         33
    75         23
    77        696
    78         58
    79          5
    80          2
    81          3
    82          3
    83          4
    84          1
    85          5
    86          0
    87          1
    90          0
    91          4
    92          0
    93          0
    95          1
    96          0
    97          1
    98          0
    99          2
   100          0
   102          0
   105        999
   106         83
   107          4
   109          0
   110          0
   111          0
   112          1
   113          0
   115          0
   118          8
   119          1
   121          1
   122          0
   129          1
   131          2
   132          0
   133          0
   149          1
   160          0
   161         30
   162          1
   171          1
   189         40
   190          2