##TITLE=Library Entry 27991
##JCAMP-DX=Revision 4.10 
##DATA TYPE=MASS SPECTRUM
##SAMPLE DESCRIPTION=A.S.Moskovkin,I.M.Karnaukh, Russian Center on Disaster
 Medicine
##NAMES=HP
##CAS NAME=4-Hydroxy-3,4,5-trimethylhexahydropyrimidin-2-thione
##MOLFORM=C7H14N2OS
##CAS REGISTRY NO=4848-97-9
##MP= -300
##BP= -300
##MW= 174
##$RETENTION INDEX=0
##$CONDENSED SPECTRUM=NO
##NPOINTS= 79
##XYDATA=(XY..XY) 1 
    39        120
    40         23
    41        260
    42        160
    43        660
    44         78
    45         61
    46         14
    47         51
    51          8
    52          6
    53         20
    54         27
    55         78
    56        110
    57        430
    58        999
    59         53
    60         94
    61         57
    62         37
    65          6
    67         23
    68         20
    69         61
    70         31
    71         55
    72         53
    73         61
    74        490
    75         43
    76         27
    80          8
    81         10
    82         16
    83         23
    84         24
    85         49
    86         37
    87          6
    88          4
    89          8
    90         64
    91         39
    92          4
    94          6
    95          6
    96          4
    97          8
    98         10
    99         37
   100         88
   101         12
   102         16
   103         12
   104         10
   110          6
   115         20
   117          5
   123         23
   124         14
   125         18
   126          8
   127        110
   128         12
   129        110
   130         10
   131        340
   132         29
   133         18
   141         27
   142          4
   143          4
   157         10
   159          4
   174        460
   175         43
   176         22
   177          2