##TITLE=Library Entry 52360
##JCAMP-DX=Revision 4.10 
##DATA TYPE=MASS SPECTRUM
##SAMPLE DESCRIPTION=NIST Mass Spectrometry Data Center, 1998.
##NAMES=HP
##CAS NAME=Binapacryl
##MOLFORM=C15H18N2O6
##CAS REGISTRY NO=485-31-4
##MP= -300
##BP= -300
##MW= 322
##$RETENTION INDEX=2222
##$CONDENSED SPECTRUM=NO
##NPOINTS= 94
##XYDATA=(XY..XY) 1 
    26          1
    27         24
    28          5
    29         58
    30          5
    37          1
    38          3
    39         55
    40          6
    41         11
    42          3
    43          4
    50          6
    51         14
    52          7
    53         49
    54         15
    55        251
    56         13
    57          2
    61          1
    62          4
    63         14
    64          6
    65          9
    66          3
    67          9
    68          2
    69          2
    74          2
    75          5
    76          5
    77         18
    78          7
    79          4
    80          2
    81          1
    82         23
    83        999
    84         83
    85          6
    86          1
    87          1
    88          1
    89         17
    90          6
    91         11
    92          2
    93          1
   100          1
   101          2
   102          4
   103          8
   104          3
   105          3
   106          1
   107          1
   115          6
   116          4
   117          9
   118          5
   119          2
   120          1
   127          1
   128          1
   129          1
   130          2
   131          3
   132          1
   133          1
   134          1
   135          1
   144          1
   145          2
   146          1
   147          3
   148          1
   150          1
   158          1
   159          1
   160          1
   161          1
   163          4
   164          1
   175          1
   176          1
   177          2
   193          1
   205          1
   207          1
   210          1
   211          2
   230          1
   231          1