##TITLE=Library Entry 68199
##JCAMP-DX=Revision 4.10 
##DATA TYPE=MASS SPECTRUM
##SAMPLE DESCRIPTION=Exported from NIST MS Search
##NAMES=HP
##CAS NAME=Iridomyrmecin
##MOLFORM=C10H16O2
##CAS REGISTRY NO=485-43-8
##MP= -300
##BP= -300
##MW= 168
##$RETENTION INDEX=1463
##$CONDENSED SPECTRUM=NO
##NPOINTS= 40
##XYDATA=(XY..XY) 1 
    18          8
    27         80
    29         57
    39        115
    41        248
    42         20
    43         28
    51         26
    52         23
    53        109
    54         40
    55        202
    56        115
    65         28
    66         23
    67        497
    68        317
    69        239
    70         23
    77         52
    78         14
    79         86
    80         52
    81        520
    82        300
    83         34
    91         34
    93         37
    94        161
    95        999
    96        182
   107         17
   108         52
   109        520
   110        115
   123         17
   138         14
   150         17
   168        104
   169         11