##TITLE=Library Entry 16252
##JCAMP-DX=Revision 4.10 
##DATA TYPE=MASS SPECTRUM
##SAMPLE DESCRIPTION=R.E.Ardrey ET AL.Pharmaceutical Mass Spectra,L.,1985
##NAMES=HP
##CAS NAME=Cytisine
##MOLFORM=C11H14N2O
##CAS REGISTRY NO=485-35-8
##MP= -300
##BP= -300
##MW= 190
##$RETENTION INDEX=1990
##$CONDENSED SPECTRUM=NO
##NPOINTS= 86
##XYDATA=(XY..XY) 1 
    26         20
    27        170
    28          2
    29         40
    30         90
    37         10
    38         60
    39        490
    40         60
    41        460
    42        300
    43        200
    44        999
    45         30
    50         30
    51        110
    52         80
    53        140
    54         60
    55         30
    56         30
    58         50
    63         50
    64         40
    65        110
    66         80
    67         60
    68        140
    69         20
    70         40
    75         10
    76         10
    77        100
    78         70
    79         60
    80         70
    81         40
    82        150
    83         20
    89         20
    90         20
    91         60
    92         40
    93        130
    94         40
    95         30
    96         20
   102         10
   103         30
   104         70
   105         30
   106         30
   107         10
   108         20
   109        170
   110         20
   115         20
   116         10
   117        160
   118         90
   119         30
   120         40
   121         30
   122         50
   123         20
   130         40
   131         40
   132         60
   133         90
   134        270
   135         50
   136         10
   142         10
   145         30
   146        770
   147        620
   148        280
   149         40
   158         10
   159         40
   160        220
   161         50
   162         40
   163         30
   190        410
   191         70