##TITLE=Library Entry 5453
##JCAMP-DX=Revision 4.10 
##DATA TYPE=MASS SPECTRUM
##SAMPLE DESCRIPTION=H. Fales, LC, NHLBI, NIH, Bethesda, MD 20892
##NAMES=HP
##CAS NAME=Pancracine, O2-methyl-, (2.beta.)-
##MOLFORM=C17H19NO4
##CAS REGISTRY NO=485-57-4
##MP= -300
##BP= -300
##MW= 301
##$RETENTION INDEX=0
##$CONDENSED SPECTRUM=NO
##NPOINTS= 232
##XYDATA=(XY..XY) 1 
    42        999
    43         79
    44         34
    45        300
    46          6
    47          9
    48          4
    49         45
    50         76
    51        242
    52         75
    53        155
    54         65
    55        199
    56         89
    57         54
    58         37
    59         37
    60          9
    61         26
    62         49
    63        208
    64        121
    65        170
    66         48
    67         57
    68         28
    69         45
    70         47
    71         78
    72         32
    73          8
    74         55
    75         85
    76        146
    77        384
    78        146
    79         65
    80         31
    81         54
    82         61
    83        198
    84        128
    86        100
    87         59
    88         19
    89        194
    90         62
    91        163
    92         82
    93         29
    94         19
    95         19
    96         16
    97         40
    98         40
    99         35
   100         27
   101         55
   102        102
   103        110
   104         37
   105         45
   106         63
   107         55
   108         10
   109         11
   110         10
   111         15
   113        240
   114        104
   115        345
   116         98
   117         49
   118         29
   119         18
   120         24
   121         21
   122         12
   123          4
   124          5
   125         10
   126         65
   127        195
   128        257
   129        126
   130         42
   131         35
   132          8
   133          7
   135         98
   136         19
   137          5
   138          2
   139        137
   140         55
   141        167
   142         51
   143         50
   144         20
   145         14
   146         13
   147         31
   148         33
   149         39
   150         12
   151         29
   152        114
   153        137
   154         85
   155         93
   156         54
   157         37
   158         10
   159         35
   160         31
   161         46
   162         40
   163         55
   164         18
   165        132
   166         42
   167         75
   168         44
   169         63
   170         22
   171         67
   172         73
   173         69
   174        112
   175         72
   176         77
   177         12
   178          5
   179          6
   180         14
   181         65
   182         33
   183         47
   184         26
   185        270
   186         71
   187         31
   188         62
   189         13
   190          5
   191          3
   192          6
   193         80
   194         24
   195         19
   196         16
   197         99
   198        101
   199        166
   200         53
   201         37
   202         14
   203          5
   204          3
   205          1
   206          1
   207          1
   208          2
   209         23
   210         29
   211         88
   212        113
   213         62
   214         55
   215         33
   216         23
   217          6
   218          1
   219          0
   220          1
   221          2
   222         13
   223        296
   224         83
   225         46
   226        121
   227         63
   228         34
   229         57
   230         15
   231          3
   232          0
   235          0
   236          1
   237          6
   238         25
   239         50
   240         50
   241         36
   242         50
   243         15
   244          5
   245          1
   248          0
   249          0
   250         14
   251          6
   252        127
   253         40
   254         27
   255         18
   256         46
   257         78
   258         28
   259          6
   260          1
   266          1
   267          0
   268         56
   269         50
   270        449
   271        101
   272         16
   273          4
   274          0
   282          7
   283          2
   284         14
   286        134
   287         21
   288          3
   300        141
   301        485
   302        129
   303         19
   304          2