##TITLE=Library Entry 76874
##JCAMP-DX=Revision 4.10 
##DATA TYPE=MASS SPECTRUM
##SAMPLE DESCRIPTION=NIST Mass Spectrometry Data Center, 1998.
##NAMES=HP
##CAS NAME=Ninhydrin
##MOLFORM=C9H6O4
##CAS REGISTRY NO=485-47-2
##MP= -300
##BP= -300
##MW= 178
##$RETENTION INDEX=0
##$CONDENSED SPECTRUM=NO
##NPOINTS= 51
##XYDATA=(XY..XY) 1 
    25          2
    26          8
    27          3
    28          5
    29          3
    36          8
    37         68
    38         86
    39         13
    40          1
    41          1
    43          6
    44          1
    48          8
    49         60
    50        443
    51         31
    52         42
    53         20
    54          1
    60         10
    61         31
    62         20
    63          3
    64          1
    65          5
    66         15
    72          4
    73         46
    74        179
    75        101
    76        864
    77         95
    78          5
    84          5
    85         10
    86          9
    87          5
    88          3
    89          1
   101          2
   102          1
   104        999
   105         85
   106          6
   132        295
   133         30
   134          4
   160         53
   161          6
   162          1