##TITLE=Library Entry 37307
##JCAMP-DX=Revision 4.10 
##DATA TYPE=MASS SPECTRUM
##SAMPLE DESCRIPTION=Exported from NIST MS Search
##NAMES=HP
##CAS NAME=Cyclopentane, 1,2,4-trimethyl-, (1.alpha.,2.alpha.,4.beta.)-
##MOLFORM=C8H16
##CAS REGISTRY NO=4850-28-6
##MP= -300
##BP= -300
##MW= 112
##$RETENTION INDEX=775
##$CONDENSED SPECTRUM=NO
##NPOINTS= 66
##XYDATA=(XY..XY) 1 
    13          1
    14          1
    15         29
    16          1
    26          6
    27        150
    28         26
    29        121
    30          3
    34          1
    35          1
    37          2
    38          5
    39        144
    40         27
    41        288
    42        233
    43         70
    44          2
    45          1
    46          1
    47          1
    50          3
    51         11
    52          6
    53         45
    54         22
    55        653
    56        109
    57         34
    58          2
    62          1
    63          2
    64          1
    65          7
    66          4
    67         18
    68         29
    69        171
    70        999
    71         77
    72          3
    75          1
    77          6
    78          2
    79          5
    80          1
    81          6
    82          2
    83         33
    84         27
    85          2
    91          2
    92          1
    93          1
    94          1
    95          5
    96          1
    97         63
    98          5
    99          1
   109          1
   111          3
   112         62
   113          5
   114          1