##TITLE=Library Entry 79348
##JCAMP-DX=Revision 4.10 
##DATA TYPE=MASS SPECTRUM
##SAMPLE DESCRIPTION=NIST Mass Spectrometry Data Center
##NAMES=HP
##CAS NAME=3-Benzoylbenzo[f]coumarin
##MOLFORM=C20H12O3
##CAS REGISTRY NO=4852-81-7
##MP= -300
##BP= -300
##MW= 300
##$RETENTION INDEX=0
##$CONDENSED SPECTRUM=NO
##NPOINTS= 122
##XYDATA=(XY..XY) 1 
    27          5
    38          3
    39         19
    44          1
    50         45
    51        203
    52         13
    53          5
    61          3
    62         27
    63         81
    64          8
    65         16
    69          7
    73          2
    74         29
    75         33
    76         33
    77        987
    78         68
    79          2
    81          2
    85          4
    86         33
    87         48
    88         24
    89         63
    90          6
    93          4
    94         14
    98         13
    99         13
   100          6
   101          8
   102          3
   104          7
   105        999
   106         77
   107         10
   109          2
   110         11
   111         14
   112         12
   113         69
   114         12
   115          4
   121          2
   122         15
   123          2
   125          3
   126         10
   127          5
   129          3
   134          2
   135          2
   136          2
   137         55
   138         70
   139        765
   140         90
   141          5
   149          3
   150         69
   151         25
   152          4
   157         18
   158          2
   161          2
   162          3
   163          8
   164          2
   165          1
   166          3
   167          6
   168          3
   174          2
   176          2
   187         11
   188          6
   189         11
   194          3
   195        199
   196         28
   197          4
   200          3
   202          2
   211          4
   212          3
   213         33
   214          9
   215         54
   216         14
   222          1
   223        200
   224         33
   225          6
   226         11
   227          5
   228         16
   229          3
   231          9
   239          1
   242          5
   243         24
   244         91
   245         16
   246          2
   254         12
   255         50
   256         25
   257          5
   271        408
   272        229
   273         39
   274          5
   282         21
   283         35
   284          6
   299        109
   300        685
   301        148
   302         19