##TITLE=Library Entry 75980
##JCAMP-DX=Revision 4.10 
##DATA TYPE=MASS SPECTRUM
##SAMPLE DESCRIPTION=Japan AIST/NIMC Database- Spectrum MS-IW-6456
##NAMES=HP
##CAS NAME=Butanoic acid, 2-(1-oxobutyl)hydrazide
##MOLFORM=C8H16N2O2
##CAS REGISTRY NO=4853-66-1
##MP= -300
##BP= -300
##MW= 172
##$RETENTION INDEX=0
##$CONDENSED SPECTRUM=NO
##NPOINTS= 86
##XYDATA=(XY..XY) 1 
    15          6
    16          1
    26         10
    27        137
    28         33
    29         65
    30          5
    31         10
    32        443
    33          5
    37          5
    38          9
    39         65
    40         14
    41        300
    42         46
    43        849
    44         39
    45          7
    50          1
    51          3
    52          4
    53          4
    54          9
    55         84
    56         13
    57          9
    58          2
    59         18
    60          9
    63          1
    64          2
    66          2
    67          4
    68          7
    69         20
    70         55
    71        951
    72         48
    73          7
    74         48
    75          2
    82          1
    83         14
    84         19
    85          7
    86          2
    87         13
    88          4
    97          6
    98          9
    99          1
   100          1
   101         11
   102        999
   103        124
   104          7
   110          1
   111          8
   112          6
   113          1
   116          1
   123          1
   124          2
   125          7
   126        355
   127         26
   128          2
   129         29
   130          2
   138          1
   139         57
   140         22
   141          9
   143          1
   144         15
   145          1
   152          2
   153         16
   154          4
   155          8
   157          8
   158          2
   172        412
   173         61
   174          5