##TITLE=Library Entry 53844
##JCAMP-DX=Revision 4.10 
##DATA TYPE=MASS SPECTRUM
##SAMPLE DESCRIPTION=Chemical Concepts
##NAMES=HP
##CAS NAME=1-Butanamine, N-butylidene-
##MOLFORM=C8H17N
##CAS REGISTRY NO=4853-56-9
##MP= -300
##BP= -300
##MW= 127
##$RETENTION INDEX=0
##$CONDENSED SPECTRUM=NO
##NPOINTS= 70
##XYDATA=(XY..XY) 1 
    25          1
    26         31
    27        334
    28        312
    29        485
    30        151
    31          1
    33          0
    37          3
    38         12
    39        167
    40         30
    41        560
    42        639
    43        153
    44         63
    45          1
    46          0
    49          0
    50          5
    51         10
    52          9
    53         28
    54         75
    55        190
    56        443
    57        708
    58         29
    59          0
    63          0
    64          0
    65          1
    66          1
    67         12
    68         26
    69         13
    70        309
    71         28
    72          6
    73          0
    74          0
    79          1
    80          4
    81          4
    82         12
    84        999
    85         67
    86         14
    91          0
    92          0
    93          0
    94          1
    95          1
    96          3
    97          1
    98         39
    99        113
   100          9
   105          0
   107          0
   109          0
   110          1
   112         96
   113          9
   122          0
   126         14
   127          9
   128          2
   129          1
   130          0