##TITLE=Library Entry 73080
##JCAMP-DX=Revision 4.10 
##DATA TYPE=MASS SPECTRUM
##SAMPLE DESCRIPTION=Japan AIST/NIMC Database- Spectrum MS-NW-8919
##NAMES=HP
##CAS NAME=Borane-morpholine complex
##MOLFORM=C4H12BNO
##CAS REGISTRY NO=4856-95-5
##MP= -300
##BP= -300
##MW= 101
##$RETENTION INDEX=0
##$CONDENSED SPECTRUM=NO
##NPOINTS= 77
##XYDATA=(XY..XY) 1 
    11          3
    12         11
    13         40
    14          6
    15         56
    16          2
    17          2
    18         40
    19          3
    24          2
    25          8
    26         52
    27        224
    28        491
    29        646
    30        235
    31         35
    32          5
    35          3
    36          6
    37         13
    38         19
    39        122
    40        402
    41        298
    42        459
    43        134
    44        396
    45         37
    46          4
    47          9
    48          2
    49          1
    50          3
    51         10
    52         23
    53         49
    54        187
    55         59
    56        350
    57        746
    58         67
    59         15
    60          1
    61          4
    62         11
    63          1
    64          5
    65         17
    66         26
    67        117
    68        366
    69        137
    70        478
    71         85
    72         80
    73          3
    78          1
    79          3
    80          8
    81          3
    82          8
    83         11
    84         43
    85          7
    86        236
    87        607
    88         39
    89          2
    95          4
    96         14
    97        113
    98        485
    99        462
   100        999
   101         49
   102          3