##TITLE=Library Entry 63668
##JCAMP-DX=Revision 4.10 
##DATA TYPE=MASS SPECTRUM
##SAMPLE DESCRIPTION=D.H.WILLIAMS CHEMISTRY DEPT., UNIVERSITY OF CAMBRIDGE
##NAMES=HP
##CAS NAME=Morpholine, 4-[2-phenyl-1-(phenylmethyl)ethenyl]-
##MOLFORM=C19H21NO
##CAS REGISTRY NO=4859-69-2
##MP= -300
##BP= -300
##MW= 279
##$RETENTION INDEX=0
##$CONDENSED SPECTRUM=NO
##NPOINTS= 91
##XYDATA=(XY..XY) 1 
    26         10
    27         20
    28        110
    29         40
    30         20
    31         10
    32         30
    38         10
    39         50
    40         10
    41         30
    42         20
    43         10
    44         10
    45         10
    47         10
    50         20
    51         30
    52         10
    53         10
    54         10
    55         10
    56         30
    57         60
    58         10
    62         10
    63         40
    64         20
    65        110
    66         10
    67         10
    71         10
    74         10
    75         10
    76         10
    77         20
    78         10
    83         20
    84         10
    85         20
    86         20
    87         50
    88         10
    89         40
    90         30
    91        999
    92        100
    93         10
   102         10
   103         20
   104         20
   105         10
   112         10
   114         10
   115         30
   116         20
   117         20
   118         70
   119        120
   120         10
   129         10
   130         20
   131         10
   132         10
   136         10
   144         10
   158         10
   165         10
   178         10
   179         20
   180         10
   187         20
   188         50
   189         10
   190         10
   191         10
   192         10
   200          6
   201          8
   202          5
   205          5
   210        140
   211         30
   220         20
   221         12
   248         10
   277         10
   278         50
   279        130
   280         40
   281         10