##TITLE=Library Entry 53257
##JCAMP-DX=Revision 4.10 
##DATA TYPE=MASS SPECTRUM
##SAMPLE DESCRIPTION=NB-266
##NAMES=HP
##CAS NAME=2H-Quinolizine-1-methanol, octahydro-, (1R-trans)-
##MOLFORM=C10H19NO
##CAS REGISTRY NO=486-70-4
##MP= -300
##BP= -300
##MW= 169
##$RETENTION INDEX=1420
##$CONDENSED SPECTRUM=NO
##NPOINTS= 92
##XYDATA=(XY..XY) 1 
    26         50
    27        440
    28        470
    29        320
    30        150
    31        430
    32         30
    37         10
    38         20
    39        340
    40         60
    41        639
    42        320
    43        130
    44        110
    45         10
    50         10
    51         40
    52         40
    53        150
    54        250
    55        609
    56        210
    57        130
    58         30
    63         10
    64         10
    65         40
    66         30
    67        150
    68        150
    69        110
    70         70
    71         10
    77         30
    78         20
    79         40
    80        100
    81         90
    82        370
    83        999
    84        290
    85         30
    91         20
    92         10
    93         30
    94         60
    95         40
    96        400
    97        579
    98        300
    99         30
   105         10
   106         20
   107         10
   108         60
   109         40
   110        440
   111        380
   112         40
   113         70
   114         10
   117         10
   118         10
   120         20
   121         10
   122         60
   123         20
   124        230
   125         80
   126         40
   127         80
   128         30
   134         30
   135         10
   136        160
   137         50
   138        709
   139        170
   140         70
   141         30
   150         50
   151         30
   152        949
   153        120
   154         30
   166         10
   167         20
   168        390
   169        480
   170         60
   171         10