##TITLE=Library Entry 71709
##JCAMP-DX=Revision 4.10 
##DATA TYPE=MASS SPECTRUM
##SAMPLE DESCRIPTION=Exported from NIST MS Search
##NAMES=HP
##CAS NAME=7,14-Methano-4H,6H-dipyrido[1,2-a:1',2'-E][1,5]diazocin-4-one, 7,
7a,8,9,10,11,13,14-octahydro-, [7R-(7.alpha.,7a.alpha.,14.alpha.)]-
##MOLFORM=C15H20N2O
##CAS REGISTRY NO=486-90-8
##MP= -300
##BP= -300
##MW= 244
##$RETENTION INDEX=2310
##$CONDENSED SPECTRUM=NO
##NPOINTS= 83
##XYDATA=(XY..XY) 1 
    50         10
    51         44
    52         36
    53         19
    54         78
    55        126
    56         52
    57         10
    63         14
    64         14
    65         65
    66         40
    67         74
    68         88
    69         58
    70         78
    77         68
    78         43
    79         47
    80         57
    81         25
    82         40
    83         25
    84         56
    91         35
    92         20
    93         49
    94         30
    95         15
    96        150
    97        163
    98        999
    99         93
   104         33
   105         21
   106         26
   107         10
   108         20
   109         24
   110         25
   117         54
   118         43
   119         10
   120         15
   121         16
   122         67
   123         25
   124         13
   130         26
   131         15
   132         28
   133         46
   134         43
   135         15
   136        104
   137         12
   144         11
   145         20
   146        160
   147         55
   148         29
   149         23
   150         20
   159         20
   160        110
   161         90
   162         30
   172         11
   173         10
   174         13
   175         11
   187         10
   188         25
   189         11
   201         16
   202         10
   203         14
   215         17
   229         33
   243        103
   244        440
   245        103
   246         14