##TITLE=Library Entry 28431
##JCAMP-DX=Revision 4.10 
##DATA TYPE=MASS SPECTRUM
##SAMPLE DESCRIPTION=Drug Lab
##NAMES=HP
##CAS NAME=Carbinoxamine
##MOLFORM=C16H19ClN2O
##CAS REGISTRY NO=486-16-8
##MP= -300
##BP= -300
##MW= 290
##$RETENTION INDEX=2077
##$CONDENSED SPECTRUM=NO
##NPOINTS= 95
##XYDATA=(XY..XY) 1 
    40          1
    41          2
    42         68
    43         23
    44         21
    45         24
    50          7
    51         19
    52          9
    53          2
    54          2
    55          2
    56         31
    58        999
    59         35
    62          3
    63         10
    64          2
    65          2
    71        509
    72         56
    73         18
    74          4
    75         14
    76          4
    77          9
    78         26
    79          8
    80          2
    83          1
    84          3
    85          1
    86          8
    87          4
    88         20
    89         17
    90          3
    91          2
    92          1
    93          2
    99          2
   101          3
   102          1
   106          5
   107          1
   108          4
   111         14
   112          2
   113         12
   114          7
   115          5
   116          2
   117          1
   119          1
   123          2
   124          2
   125          5
   126          3
   127          4
   128          2
   137          3
   138          6
   139         52
   140         26
   141          8
   142          1
   149          2
   150          1
   151          1
   152          1
   153          1
   154          3
   155          1
   164          8
   165         14
   166         78
   167        199
   168         31
   169          2
   173          2
   174          1
   180          4
   181          1
   182          1
   190          1
   201         57
   202         35
   203         40
   204         14
   205          7
   216          1
   218          8
   219          5
   220          4
   221          1