##TITLE=Library Entry 3702
##JCAMP-DX=Revision 4.10 
##DATA TYPE=MASS SPECTRUM
##SAMPLE DESCRIPTION=NB-267
##NAMES=HP
##CAS NAME=2H-Quinolizine-1-methanol, octahydro-, (1S-cis)-
##MOLFORM=C10H19NO
##CAS REGISTRY NO=486-71-5
##MP= -300
##BP= -300
##MW= 169
##$RETENTION INDEX=1415
##$CONDENSED SPECTRUM=NO
##NPOINTS= 88
##XYDATA=(XY..XY) 1 
    26         80
    27        719
    28        769
    29        569
    30        210
    31        859
    32         40
    37         10
    38         30
    39        529
    40        100
    41        999
    42        499
    43        180
    44        120
    45         10
    50         20
    51         50
    52         50
    53        200
    54        330
    55        899
    56        270
    57        180
    58         40
    63         10
    64         10
    65         50
    66         30
    67        170
    68        180
    69        130
    70         90
    71         10
    77         40
    78         20
    79         50
    80        110
    81         90
    82        440
    83        999
    84        250
    85         30
    91         20
    92         10
    93         30
    94         60
    95         50
    96         30
    97        539
    98        260
    99         20
   106         20
   107         10
   108         70
   109         50
   110        430
   111        380
   112         40
   113         90
   114         10
   118         10
   120         10
   122         50
   123         10
   124        240
   125         90
   126         30
   127         70
   128         20
   134         20
   135         10
   136        120
   137         40
   138        589
   139         80
   140         60
   141         20
   150         30
   151         10
   152        779
   153        100
   154         30
   166         10
   167         70
   168        300
   169        370
   170         40