##TITLE=Library Entry 71708
##JCAMP-DX=Revision 4.10 
##DATA TYPE=MASS SPECTRUM
##SAMPLE DESCRIPTION=Exported from NIST MS Search
##NAMES=HP
##CAS NAME=Anagyrine
##MOLFORM=C15H20N2O
##CAS REGISTRY NO=486-89-5
##MP= -300
##BP= -300
##MW= 244
##$RETENTION INDEX=2390
##$CONDENSED SPECTRUM=NO
##NPOINTS= 77
##XYDATA=(XY..XY) 1 
    51         20
    52         18
    53         38
    54         30
    55         52
    56         28
    65         30
    66         20
    67         36
    68         51
    69         26
    70         33
    74         10
    77         35
    78         23
    79         26
    80         30
    81         17
    82         20
    83         15
    84         32
    91         20
    92         12
    93         26
    94         23
    95         15
    96         90
    97        125
    98        999
    99         80
   104         20
   105         12
   106         16
   107         10
   108         18
   109         19
   110         20
   117         30
   118         22
   120         13
   121         15
   122         67
   123         30
   124         10
   130         17
   131         12
   132         18
   133         38
   134         38
   135         15
   136         93
   137         10
   144         10
   145         20
   146        116
   147         53
   148         26
   149         23
   150         20
   159         17
   160         80
   161         68
   162         26
   164         10
   174         10
   188         22
   189         10
   190         11
   201         15
   202         10
   203         15
   215         15
   229         27
   243        116
   244        602
   245        111
   246         10