##TITLE=Library Entry 71657
##JCAMP-DX=Revision 4.10 
##DATA TYPE=MASS SPECTRUM
##SAMPLE DESCRIPTION=NIST Mass Spectrometry Data Center
##NAMES=HP
##CAS NAME=Cotinine
##MOLFORM=C10H12N2O
##CAS REGISTRY NO=486-56-6
##MP= -300
##BP= -300
##MW= 176
##$RETENTION INDEX=1721
##$CONDENSED SPECTRUM=NO
##NPOINTS= 101
##XYDATA=(XY..XY) 1 
    15          5
    26          5
    27         16
    28         27
    29          5
    30          6
    31          1
    37          3
    38         11
    39         40
    40          7
    41         55
    42        112
    43          9
    44          8
    45          1
    49          2
    50         31
    51         76
    52         37
    53         12
    54         11
    55         24
    56         14
    57          4
    58          7
    59          2
    61          4
    62         13
    63         45
    64         21
    65         59
    66         18
    67          7
    68         45
    69         60
    70         47
    71          5
    73          3
    74          4
    75          7
    76         13
    77         28
    78         75
    79         47
    80         39
    81          3
    82          1
    83          1
    85          1
    86          1
    87          2
    88          2
    89         17
    90         17
    91         70
    92         49
    93         19
    94          8
    95          1
    96          2
    98        999
    99         79
   100          5
   101          1
   102          2
   103          4
   104         42
   105         35
   106         41
   107          5
   108          1
   115          1
   116          9
   117         72
   118        202
   119        198
   120         42
   121        107
   122          9
   128          1
   130          2
   131          8
   132          7
   133         19
   134          5
   144          1
   145          7
   146         14
   147        100
   148         20
   149          2
   159          1
   160          1
   161          9
   162          1
   173          1
   175        124
   176        459
   177         59
   178          4