##TITLE=Library Entry 29274
##JCAMP-DX=Revision 4.10 
##DATA TYPE=MASS SPECTRUM
##SAMPLE DESCRIPTION=Exported from NIST MS Search
##NAMES=HP
##CAS NAME=Caulophylline
##MOLFORM=C12H16N2O
##CAS REGISTRY NO=486-86-2
##MP= -300
##BP= -300
##MW= 204
##$RETENTION INDEX=1955
##$CONDENSED SPECTRUM=NO
##NPOINTS= 34
##XYDATA=(XY..XY) 1 
    52         18
    54         12
    55          7
    57         33
    58        999
    59         40
    65         30
    66         17
    67         15
    68         11
    77         29
    78         20
    79         18
    80         11
    82         30
    91         15
    93         12
    94         18
    96         20
   104         16
   105         12
   109         10
   117         35
   118         23
   130         13
   132         16
   133         11
   134         13
   146         65
   147         17
   160         54
   161         14
   204        260
   205         43