##TITLE=Library Entry 29171
##JCAMP-DX=Revision 4.10 
##DATA TYPE=MASS SPECTRUM
##SAMPLE DESCRIPTION=MI-0088
##NAMES=HP
##CAS NAME=Captodiamine
##MOLFORM=C21H29NS2
##CAS REGISTRY NO=486-17-9
##MP= -300
##BP= -300
##MW= 359
##$RETENTION INDEX=2774
##$CONDENSED SPECTRUM=NO
##NPOINTS= 34
##XYDATA=(XY..XY) 1 
    41         19
    42         34
    43          9
    44         29
    45         39
    56         19
    57         19
    58        999
    59         39
    71         19
    72         19
    73         74
    74          9
   104          9
   152         14
   153          9
   163          4
   164          9
   165        114
   166         79
   167         34
   168          9
   197         19
   198         14
   199         44
   200          9
   255         99
   256         29
   257          9
   286         14
   287          9
   359         89
   360         34
   361         14