##TITLE=Library Entry 19540
##JCAMP-DX=Revision 4.10 
##DATA TYPE=MASS SPECTRUM
##SAMPLE DESCRIPTION=LAC, NIDDK, NIH, Bethesda, MD 20892
##NAMES=HP
##CAS NAME=N-Nitrososolasodine
##MOLFORM=C27H42N2O3
##CAS REGISTRY NO=4860-12-2
##MP= -300
##BP= -300
##MW= 442
##$RETENTION INDEX=0
##$CONDENSED SPECTRUM=NO
##NPOINTS= 167
##XYDATA=(XY..XY) 1 
    41        590
    42        172
    43        412
    44         46
    45         17
    47          7
    49          4
    51          2
    53        113
    54         69
    55        999
    56        145
    57        307
    58         42
    59          6
    65         49
    66         22
    67        319
    68         80
    69        345
    70         67
    71         47
    72          3
    77        148
    78         30
    79        338
    80         57
    81        324
    82         67
    83        130
    84        116
    85         23
    86         28
    91        354
    92         64
    93        313
    94         87
    95        292
    96         94
    97         71
    98         59
    99         38
   100          4
   103         27
   104         18
   105        306
   106         62
   107        253
   108         78
   109        215
   110         63
   111         45
   112         49
   113         45
   114        103
   115         43
   116         20
   117        103
   118         36
   119        194
   120         70
   121        201
   122         76
   123         55
   124         67
   125         73
   126         38
   127         10
   128         32
   129         58
   130         31
   131        115
   132         34
   133        169
   134         40
   135         55
   136         24
   137         26
   138        104
   139         30
   140         31
   141         28
   142         36
   143         80
   144         30
   145        116
   146         28
   147        115
   148         42
   149        116
   150         33
   151         41
   152         20
   153          3
   154          8
   155         33
   156         33
   157        104
   158         45
   159        109
   160         28
   161         73
   162         41
   163         34
   164         36
   165         95
   166         38
   167         24
   168          6
   169         54
   170          5
   171         53
   172         18
   173         40
   174         17
   175         65
   176         36
   177         28
   178         30
   181          4
   183         33
   184          4
   185         26
   186          4
   187         17
   188          4
   189         22
   190         22
   197         29
   198          4
   199         27
   201          4
   211         19
   212          8
   213         23
   214         16
   215         17
   225         16
   227          4
   230          4
   241         10
   243         13
   253        122
   254         25
   257          4
   258         44
   259          4
   267         44
   268          4
   269          4
   271        425
   272         82
   273          5
   282         16
   283         20
   285         12
   300         11
   355        358
   356         89
   357          9
   369        166
   370         46
   398        116
   399         30
   412        170
   413         45
   442         16