##TITLE=Library Entry 24320
##JCAMP-DX=Revision 4.10 
##DATA TYPE=MASS SPECTRUM
##SAMPLE DESCRIPTION=Japan AIST/NIMC Database- Spectrum MS-NW-3016
##NAMES=HP
##CAS NAME=Hexadecane, 1-chloro-
##MOLFORM=C16H33Cl
##CAS REGISTRY NO=4860-03-1
##MP= -300
##BP= -300
##MW= 260
##$RETENTION INDEX=1861
##$CONDENSED SPECTRUM=NO
##NPOINTS= 146
##XYDATA=(XY..XY) 1 
    15          1
    26          2
    27         69
    28          4
    29        167
    30          3
    35          1
    36         13
    38          4
    39         47
    40          9
    41        337
    42         90
    43        738
    44         23
    49          4
    51          2
    52          1
    53         20
    54         30
    55        385
    56        177
    57        999
    58         43
    59          1
    62          1
    63          9
    65          4
    66          2
    67         31
    68         32
    69        331
    70        149
    71        577
    72         30
    75          2
    76          1
    77         10
    78          1
    79          5
    80          1
    81         16
    82         37
    83        217
    84        101
    85        343
    86         21
    87          1
    89          1
    90          2
    91        414
    92         18
    93        130
    94          6
    95          8
    96         16
    97        159
    98         68
    99         71
   100          6
   104         18
   105        134
   106         12
   107         45
   108          2
   109          4
   110          7
   111         65
   112         43
   113         39
   114          3
   117          1
   118          7
   119         54
   120          6
   121         16
   122          1
   123          2
   124          4
   125         22
   126         26
   127         23
   128          2
   131          2
   132          5
   133         40
   134          5
   135         12
   136          1
   137          1
   138          2
   139          7
   140         16
   141         14
   142          2
   145          2
   146          5
   147         30
   148          4
   149          9
   150          1
   152          1
   153          3
   154          9
   155          9
   156          1
   159          1
   160          4
   161         19
   162          4
   163          7
   167          2
   168          5
   169          6
   170          1
   174          5
   175         15
   176          3
   177          5
   181          1
   182          2
   183          2
   188          5
   189         11
   190          3
   191          4
   196          4
   197          1
   202          5
   203         10
   204          3
   205          4
   216          3
   217          8
   218          2
   219          3
   224         10
   225          2
   230          2
   231          5
   232          2
   233          2
   260         12
   261          2
   262          4
   263          1