##TITLE=Library Entry 11299
##JCAMP-DX=Revision 4.10 
##DATA TYPE=MASS SPECTRUM
##SAMPLE DESCRIPTION=LAC, NIDDK, NIH, Bethesda, MD 20892
##NAMES=HP
##CAS NAME=Spirosol-5-en-3-ol, 28-acetyl-, acetate, (3.beta.,22.alpha.,25R)-
##MOLFORM=C31H47NO4
##CAS REGISTRY NO=4860-15-5
##MP= -300
##BP= -300
##MW= 497
##$RETENTION INDEX=0
##$CONDENSED SPECTRUM=NO
##NPOINTS= 219
##XYDATA=(XY..XY) 1 
    41         81
    42         35
    43        999
    44         31
    45          6
    47          3
    49          9
    50          1
    51          5
    52          1
    53         18
    54         12
    55        110
    56         25
    57         21
    58         14
    59          2
    60         11
    61          5
    65          9
    66          5
    67         62
    68         38
    69         44
    70         35
    71         11
    72         13
    73         11
    74          2
    77         24
    78          7
    79         61
    80         12
    81         64
    82         14
    83         12
    84         20
    85          5
    86         17
    87          0
    91         82
    92         18
    93         62
    94         16
    95         39
    96         22
    97         10
    98         14
    99          4
   100          6
   101          4
   103          5
   104          1
   105         86
   106         17
   107         42
   108         20
   109         31
   110         18
   111          9
   112         14
   113         19
   114        166
   115         18
   116          3
   117         29
   118         10
   119         34
   120         23
   121         29
   122         12
   123          9
   124         18
   125         11
   126         10
   127         19
   128         11
   129         18
   130          9
   131         32
   132          9
   133         31
   134          8
   135          8
   136          4
   137          3
   138         31
   139          8
   140         19
   141          9
   142          8
   143         26
   144         10
   145         39
   146         11
   147         23
   148          8
   149          9
   150          7
   151          3
   152         16
   153          4
   154          2
   155        152
   156         76
   157         35
   158         17
   159         27
   160          8
   161         16
   162         17
   163         14
   164         11
   165          6
   166         29
   167          7
   168         10
   169          8
   170          3
   171         10
   172          6
   173         11
   174          9
   175         11
   176          7
   177          3
   178          4
   179          4
   180         36
   181         11
   182          3
   183          9
   184          3
   185          8
   186          4
   187          4
   188          2
   189          2
   190          1
   192          1
   194          1
   195          2
   196          1
   197          9
   198          5
   199         13
   200          4
   201          2
   204          2
   206          1
   209          2
   210          2
   211          6
   212          9
   213         11
   214         19
   215         10
   216          2
   218          0
   222          6
   223          4
   224          3
   225          5
   226          2
   227          3
   228          1
   229          0
   237          4
   238          2
   239          2
   240          7
   241          2
   251          5
   252          9
   253         34
   254          8
   255          1
   267         16
   268          3
   269          1
   281          7
   282         22
   283         21
   284          4
   308          4
   309          4
   310          2
   313         10
   314          2
   323          0
   324          2
   366          3
   367          4
   386          2
   394          2
   397          7
   398          2
   422          3
   425          1
   426          3
   427          1
   428         29
   429          8
   430          1
   436          1
   437          6
   438          4
   439          0
   440          3
   453          1
   454         12
   455          4
   482         97
   483         31
   484          5
   497         56
   498         18
   499          7
   500          0