##TITLE=Library Entry 7496
##JCAMP-DX=Revision 4.10 
##DATA TYPE=MASS SPECTRUM
##SAMPLE DESCRIPTION=LAC, NIDDK, NIH, Bethesda, MD 20892
##NAMES=HP
##CAS NAME=N-Nitrososolasodine acetate
##MOLFORM=C29H44N2O4
##CAS REGISTRY NO=4860-14-4
##MP= -300
##BP= -300
##MW= 484
##$RETENTION INDEX=0
##$CONDENSED SPECTRUM=NO
##NPOINTS= 179
##XYDATA=(XY..XY) 1 
    41        179
    43        999
    44          4
    45          9
    47          7
    48          1
    49         22
    51         10
    53         32
    54         12
    55        536
    56         14
    57         34
    58          6
    61          4
    65         19
    66          4
    67        135
    69        129
    70         19
    71         11
    73          3
    77         51
    79        110
    81        152
    83         72
    84         36
    85          6
    86         10
    91        155
    93        147
    94         24
    95        116
    96         30
    97         21
    98         10
    99         13
   103          9
   104          3
   105        173
   107        122
   109        105
   110          6
   112         25
   113         11
   114         55
   115         17
   117         58
   119         82
   120         13
   121         70
   122         22
   123         17
   124         33
   125          8
   126         28
   127          4
   128          8
   129         36
   130         11
   131         53
   133        117
   135         21
   136         13
   138         64
   139          4
   140         19
   141         21
   143         68
   145         95
   146         16
   147         70
   149         23
   150          5
   151         12
   152          9
   154          5
   155         22
   157        105
   159         64
   161         71
   163          6
   164          4
   165         55
   166          4
   167         20
   169         53
   171         22
   172          3
   173         20
   174          5
   175         40
   176         13
   178         13
   179          2
   180          3
   181          2
   183         23
   184          3
   185         15
   186          1
   187          9
   188          1
   189          6
   190         11
   192          4
   195          3
   196          1
   197         23
   199         17
   200          2
   201          3
   204          2
   206          1
   209          3
   211          6
   212          9
   213         14
   214         18
   215          4
   217          2
   218          1
   223          1
   225         13
   226          3
   227          5
   228          1
   229          1
   237          6
   238          3
   239          3
   240         30
   241          1
   243          1
   251          9
   252          2
   253        167
   254         14
   255          2
   267         27
   268          2
   269          3
   281          3
   282         26
   283         19
   298          2
   313         47
   314          8
   324          4
   337        136
   338         33
   339          1
   351         95
   352         23
   353          1
   365          6
   378          3
   380        183
   381         43
   382          1
   394          7
   397        120
   398         29
   399          5
   411         29
   412         11
   413          1
   424          2
   425          4
   438          3
   439          6
   440          9
   441          2
   453          1
   454        134
   455         42
   456          8
   484          7
   485          1