##TITLE=Library Entry 70285
##JCAMP-DX=Revision 4.10 
##DATA TYPE=MASS SPECTRUM
##SAMPLE DESCRIPTION=Exported from NIST MS Search
##NAMES=HP
##CAS NAME=Thiophene, 2-isohexyl-
##MOLFORM=C10H16S
##CAS REGISTRY NO=4861-59-0
##MP= -300
##BP= -300
##MW= 168
##$RETENTION INDEX=0
##$CONDENSED SPECTRUM=NO
##NPOINTS= 102
##XYDATA=(XY..XY) 1 
    43        124
    44          6
    45        146
    46          5
    47         13
    48          1
    49          2
    50         14
    51         28
    52         11
    53         23
    54          5
    55         20
    56         11
    57         13
    58         24
    59          8
    60          2
    61          3
    62          6
    63         16
    64          3
    65         17
    66          7
    67         10
    68          2
    69         29
    70         10
    71         25
    72          2
    73          2
    74          2
    75          2
    76          2
    77         14
    78          7
    79         10
    80          1
    81          5
    82          5
    83          2
    84         31
    86         13
    87          4
    88          1
    89          2
    90          1
    91          7
    92          2
    93          4
    94          1
    95         11
    96          9
    97        999
    98        273
    99         72
   100         12
   101          2
   102          1
   103          1
   104          1
   105          1
   106          1
   107          1
   108          3
   109         13
   110         13
   111         38
   112         14
   113          8
   114          2
   115          1
   116          1
   117          1
   119          2
   120          1
   121          3
   122          1
   123          9
   124          3
   125         19
   126          2
   127          1
   134          1
   135          2
   136          3
   137          1
   138          1
   139          1
   140          2
   141          1
   147          1
   151          1
   153          8
   154          5
   155          1
   166          1
   167          2
   168        241
   169         34
   170         11
   171          1