##TITLE=Library Entry 70297
##JCAMP-DX=Revision 4.10 
##DATA TYPE=MASS SPECTRUM
##SAMPLE DESCRIPTION=Exported from NIST MS Search
##NAMES=HP
##CAS NAME=Thiophene, 2-dodecyl-
##MOLFORM=C16H28S
##CAS REGISTRY NO=4861-61-4
##MP= -300
##BP= -300
##MW= 252
##$RETENTION INDEX=0
##$CONDENSED SPECTRUM=NO
##NPOINTS= 143
##XYDATA=(XY..XY) 1 
    55         88
    56         13
    57         53
    58         14
    59          6
    60          1
    61          1
    62          2
    63          7
    64          2
    65         14
    66          7
    67         17
    68          3
    69         21
    70          7
    71         18
    72          2
    73          3
    74          1
    75          1
    76          1
    77         16
    78          7
    79         11
    80          3
    81          7
    82          5
    83          7
    84         39
    85         41
    86          7
    87          9
    88          1
    89          1
    90          1
    91          8
    92          2
    93          4
    94          3
    95          8
    96          8
    97        999
    98        391
    99         77
   100         29
   101          3
   102          1
   103          1
   104          1
   105          3
   106          1
   107          3
   108          2
   109          9
   110         43
   111        131
   112         18
   113         13
   114          2
   115          1
   116          1
   117          1
   118          1
   119          4
   120          2
   121          4
   122          2
   123         17
   124          5
   125          9
   126          3
   127          2
   128          1
   129          1
   133          4
   134          3
   135          3
   136          1
   137          3
   138          2
   139         28
   140          7
   141          4
   142          2
   143          1
   147          2
   148          1
   149          1
   150          1
   151          1
   152          1
   153         15
   154          6
   155          3
   156          1
   157          1
   167         11
   168          5
   169          2
   170          1
   171          2
   172          1
   173          1
   174          1
   175          1
   176          1
   177          1
   178          1
   179          1
   180          1
   181          6
   182          3
   183          1
   184          1
   185          1
   189          1
   190          1
   191          1
   192          2
   193          2
   195          5
   196          1
   197          2
   198          1
   205          5
   209         10
   210          2
   211          2
   218          2
   219          4
   220          1
   223          5
   224          6
   225          1
   237          1
   238          1
   250          1
   251          5
   252        175
   253         42
   254         10
   255          2