##TITLE=Library Entry 59126
##JCAMP-DX=Revision 4.10 
##DATA TYPE=MASS SPECTRUM
##SAMPLE DESCRIPTION=V.Zaikin,Topchiev Inst.Petrochem.Synth.,Moscow
##NAMES=HP
##CAS NAME=Benzeneacetic acid 1-methylethyl ester
##MOLFORM=C11H14O2
##CAS REGISTRY NO=4861-85-2
##MP= -300
##BP= -300
##MW= 178
##$RETENTION INDEX=1266
##$CONDENSED SPECTRUM=NO
##NPOINTS= 54
##XYDATA=(XY..XY) 1 
    26          5
    27         19
    28          1
    29          2
    36          5
    37          2
    38          6
    39         40
    41         50
    42          6
    43        316
    44          9
    45          4
    49          1
    50         10
    51         19
    52          8
    53          2
    56          1
    59          4
    61          2
    62          8
    63         27
    64          9
    65         84
    66          5
    74          2
    75          2
    76          2
    77          8
    78          4
    79          7
    86          2
    87          3
    89         37
    90         30
    91        999
    92        232
    93         16
    94          1
   105          2
   107          2
   117          2
   118         13
   119         46
   120          4
   134          3
   136         54
   137          5
   163          4
   164          1
   178        115
   179         13
   180          1