##TITLE=Library Entry 46119
##JCAMP-DX=Revision 4.10 
##DATA TYPE=MASS SPECTRUM
##SAMPLE DESCRIPTION=NIST Mass Spectrometry Data Center
##NAMES=HP
##CAS NAME=Etiocholanone, TMS derivative
##MOLFORM=C22H38O2Si
##CAS REGISTRY NO=4867-14-5
##MP= -300
##BP= -300
##MW= 362
##$RETENTION INDEX=2566
##$CONDENSED SPECTRUM=NO
##NPOINTS= 266
##XYDATA=(XY..XY) 1 
    15          1
    26          2
    27         16
    28          8
    29         44
    30          1
    31          3
    38          1
    39         38
    40         11
    41        232
    42         19
    43         89
    44         16
    45        105
    46          8
    47         57
    48          3
    49          2
    50          2
    51          9
    52          6
    53         99
    54         30
    55        378
    56         27
    57         33
    58         13
    59         84
    60         19
    61         89
    62          6
    63          5
    64          2
    65         51
    66         22
    67        342
    68         51
    69         87
    70         11
    71         13
    72         17
    73        674
    74         82
    75        999
    76         76
    77        185
    78         34
    79        368
    80         63
    81        354
    82         47
    83         69
    84          8
    85         18
    86          4
    87          9
    88          3
    89         27
    91        371
    92         75
    93        403
    94        139
    95        295
    96         47
    97        161
    98         16
    99         18
   101         73
   102         12
   103         39
   104         24
   105        346
   106        143
   107        345
   108        395
   109        197
   110         56
   111         29
   112          4
   113         17
   115         53
   116         26
   117         96
   118         63
   119        246
   120        101
   121        194
   122         75
   123         82
   124         29
   125         17
   126          3
   127         22
   128         21
   129        261
   130        106
   131        177
   132         48
   133        173
   134        101
   135        130
   136         92
   137         53
   138         82
   140          2
   141         19
   142        121
   143         90
   144         78
   145        260
   146         66
   147        282
   148        109
   149        100
   150         83
   151         37
   153          8
   155        219
   156         43
   157         65
   158         82
   159        184
   160         65
   161        217
   162        119
   163         72
   164         65
   165         22
   166         14
   167         11
   168          4
   169         19
   170          7
   171         53
   172         25
   173        116
   174         92
   175         95
   176        245
   177         69
   178         11
   179          5
   180          2
   181         11
   182          9
   183         28
   184          8
   185         48
   186         42
   187         80
   188         35
   189         52
   190         47
   191         22
   192          3
   193          2
   194          1
   195          5
   196          5
   197         33
   198         13
   199        100
   200         36
   201        149
   202         43
   203         42
   204         19
   205          9
   206          2
   207          2
   208          1
   209          5
   210          2
   211         17
   212         12
   213         83
   214         48
   215        221
   216        139
   217        129
   218        103
   219         18
   220          2
   221          3
   222          1
   223          4
   224          2
   225          9
   226         16
   227         25
   228         58
   229        112
   230         70
   231         36
   232         11
   233         19
   234          3
   235          2
   236          1
   237          3
   238          1
   239         77
   240         15
   241          5
   242          2
   243         26
   244        558
   245        104
   246         12
   247          2
   249          1
   250          1
   251          2
   252          1
   253         27
   254         49
   255        146
   256         32
   257        446
   258         89
   259          9
   260          1
   261          1
   263          2
   264          1
   265          2
   266          1
   270          3
   271         37
   272        695
   273        148
   274         17
   275          2
   276          1
   277          1
   280          1
   287          2
   288          1
   289          1
   291          5
   292          2
   293          2
   294          1
   303          2
   304          1
   305          7
   306          5
   307          2
   311          1
   318          1
   319          1
   329          1
   331          2
   332          1
   333          1
   345          1
   347         95
   348         26
   349          8
   350          1
   361          5
   362         48
   363         14
   364          4
   365          1