##TITLE=Library Entry 52846
##JCAMP-DX=Revision 4.10 
##DATA TYPE=MASS SPECTRUM
##SAMPLE DESCRIPTION=Exported from NIST MS Search
##NAMES=HP
##CAS NAME=Cyclobutanone, 4-isopropylidene-2,2,3,3-tetramethyl-
##MOLFORM=C11H18O
##CAS REGISTRY NO=4868-12-6
##MP= -300
##BP= -300
##MW= 166
##$RETENTION INDEX=0
##$CONDENSED SPECTRUM=NO
##NPOINTS= 41
##XYDATA=(XY..XY) 1 
    41        341
    42         58
    43         42
    44         11
    51         23
    52         11
    53         82
    54         18
    55        169
    56         51
    57         42
    65         23
    66         11
    67         75
    68         11
    69        823
    70         58
    73         18
    77         28
    79         42
    81        188
    82         51
    83        999
    84        941
    85         58
    90         51
    91         35
    93         23
    95         94
    96         42
   105         11
   107         11
   109         11
   123        141
   129         18
   133         11
   138         23
   151        141
   152         11
   166        447
   167         47