##TITLE=Library Entry 71425
##JCAMP-DX=Revision 4.10 
##DATA TYPE=MASS SPECTRUM
##SAMPLE DESCRIPTION=Chemical Concepts
##NAMES=HP
##CAS NAME=2-Cyclohexene-1-carboxylic acid, 2-methyl-4-oxo-, ethyl ester
##MOLFORM=C10H14O3
##CAS REGISTRY NO=487-51-4
##MP= -300
##BP= -300
##MW= 182
##$RETENTION INDEX=0
##$CONDENSED SPECTRUM=NO
##NPOINTS= 121
##XYDATA=(XY..XY) 1 
    25          2
    26         53
    27        431
    28         93
    29        768
    30         31
    31         30
    37         13
    38         58
    39        432
    40        105
    41        403
    42         92
    43        112
    44         50
    45         27
    46          4
    47          2
    49          4
    50         47
    51        106
    52         96
    53        370
    54         48
    55        150
    56         13
    57          9
    58          4
    59          4
    60          6
    61          4
    62         10
    63         28
    64         11
    65         85
    66         88
    67        110
    68         60
    69         76
    70         16
    71          6
    72          1
    73          6
    74          3
    75          7
    76          8
    77        108
    78         33
    79        254
    80        111
    81        476
    82        110
    83         25
    84         13
    85          7
    86          5
    87          3
    88          1
    89          1
    90          2
    91         21
    92          7
    93         13
    94         24
    95        230
    96         31
    97         58
    98        999
    99         67
   100          7
   101          2
   103          6
   105          3
   106          2
   107         20
   108        119
   109        849
   110        145
   111         38
   112         55
   113          7
   114          5
   115          2
   116          2
   117          6
   118          1
   119          3
   120          0
   121          2
   122          4
   123          9
   124         19
   125         78
   126        444
   127         39
   128          5
   134          2
   135          6
   136         18
   137         78
   138          8
   139          6
   140          8
   141          3
   142          1
   143          1
   144          7
   145          1
   149          1
   150          1
   151          0
   152          0
   153          9
   154        405
   155         43
   156          6
   167          1
   181          1
   182        233
   183         32
   184          3