##TITLE=Library Entry 47628
##JCAMP-DX=Revision 4.10 
##DATA TYPE=MASS SPECTRUM
##SAMPLE DESCRIPTION=Japan AIST/NIMC Database- Spectrum MS-NW-2434
##NAMES=HP
##CAS NAME=Nitron
##MOLFORM=C20H16N4
##CAS REGISTRY NO=487-88-7
##MP= -300
##BP= -300
##MW= 312
##$RETENTION INDEX=0
##$CONDENSED SPECTRUM=NO
##NPOINTS= 146
##XYDATA=(XY..XY) 1 
    15          1
    26          9
    27         41
    28         13
    29          2
    36          1
    37         21
    38         47
    39        151
    40         17
    41         28
    42          4
    43          7
    44          3
    45          2
    46          1
    49          5
    50         91
    51        411
    52         56
    53          9
    54          5
    55          1
    57          2
    59          4
    60          1
    61          8
    62         17
    63         72
    64        124
    65        287
    66         94
    67          9
    71          1
    73          3
    74         21
    75         24
    76         72
    77        999
    78         97
    79          9
    80          2
    82          1
    83          1
    84          1
    87          2
    88          4
    89          7
    90         32
    91        464
    92        581
    93        256
    94         16
    97          7
    98          1
    99          1
   101          1
   102          5
   103         87
   104        234
   105         33
   106         11
   107          2
   108          2
   114          1
   115          7
   116          4
   117         30
   118        309
   119         58
   120          4
   121          1
   126          1
   127          3
   128          4
   129          6
   130          2
   131          1
   132          3
   133         62
   134          6
   135          1
   139          5
   140          7
   141          7
   142          3
   143          4
   144          3
   151          3
   152          9
   153          5
   154          6
   155          2
   156         15
   157          1
   164          1
   165          2
   166         20
   167         39
   168         20
   169          8
   170          1
   177          1
   178          5
   179          7
   180        485
   181         84
   182         11
   183          5
   191          2
   192         10
   193         42
   194        912
   195        223
   196         56
   197          7
   205          2
   206          4
   207         12
   208        141
   209         49
   210          8
   211          1
   219          1
   220          6
   221          2
   233          1
   234          1
   235         13
   236          3
   257          2
   259          1
   269          1
   282          1
   283          2
   284          2
   285          1
   296         10
   297          3
   298          1
   309          1
   310          3
   311         87
   312        294
   313         68
   314          7