##TITLE=Library Entry 29102
##JCAMP-DX=Revision 4.10 
##DATA TYPE=MASS SPECTRUM
##SAMPLE DESCRIPTION=Dr. P.K. Shah, NYC Police Laboratory, NY
##NAMES=HP
##CAS NAME=Bufotenine
##MOLFORM=C12H16N2O
##CAS REGISTRY NO=487-93-4
##MP= -300
##BP= -300
##MW= 204
##$RETENTION INDEX=2123
##$CONDENSED SPECTRUM=NO
##NPOINTS= 36
##XYDATA=(XY..XY) 1 
    39          6
    42         29
    43          7
    44          7
    51          8
    52          5
    53          4
    56          5
    57         11
    58        999
    59         38
    63          9
    65         12
    77         13
    78          5
    89         12
    90          8
    91         16
   102          4
   103          7
   105          4
   115          6
   116          4
   117         18
   118         10
   128          4
   130          9
   131          6
   145          5
   146         41
   147          5
   158          5
   159         20
   160         13
   204         37
   205          6