##TITLE=Library Entry 77534
##JCAMP-DX=Revision 4.10 
##DATA TYPE=MASS SPECTRUM
##SAMPLE DESCRIPTION=A.A.Kutin, Moscow, Russia
##NAMES=HP
##CAS NAME=2H-1-Benzopyran-4-ol, 3,4-dihydro-2-phenyl-
##MOLFORM=C15H14O2
##CAS REGISTRY NO=487-25-2
##MP= -300
##BP= -300
##MW= 226
##$RETENTION INDEX=0
##$CONDENSED SPECTRUM=NO
##NPOINTS= 126
##XYDATA=(XY..XY) 1 
    37          4
    38         19
    39        138
    40         28
    41          8
    42          3
    43          8
    44          0
    45          1
    47          1
    49          2
    50         50
    51        132
    52         34
    53         23
    54          2
    55         20
    56          1
    57          0
    61          4
    62         17
    63         63
    64         24
    65        140
    66         42
    67          5
    68          4
    69          1
    70          1
    73          2
    74         15
    75         21
    76         80
    77        208
    78        141
    79         38
    80          2
    81          2
    82          6
    85          1
    86          2
    87          4
    88          6
    89         38
    90          7
    91         66
    92         22
    93         46
    94         38
    95         12
    97          2
    98          2
    99          2
   101          5
   102         28
   103        138
   104        999
   105        184
   106         13
   107         20
   108          2
   111          1
   113          2
   114          1
   115         22
   116          3
   118          2
   119          4
   121        572
   122        342
   123         30
   124          2
   126          2
   127          3
   128          4
   129          2
   130          4
   131         90
   132         10
   133          3
   134          2
   135          3
   138          1
   139          4
   140          1
   141          1
   147          6
   148          1
   150          2
   151          5
   152         13
   153          5
   154          1
   155          4
   163          1
   164          1
   165         12
   166          2
   167          1
   168          3
   169          1
   170          1
   176          4
   177          3
   178         19
   179         12
   180          4
   181          8
   182          1
   183          4
   189          7
   190          1
   191          1
   197          1
   205          1
   207        143
   208        106
   209         17
   210          7
   211          1
   212          2
   223          2
   224          1
   226         72
   227         12
   228          1