##TITLE=Library Entry 64003
##JCAMP-DX=Revision 4.10 
##DATA TYPE=MASS SPECTRUM
##SAMPLE DESCRIPTION=Japan AIST/NIMC Database- Spectrum MS-IW-2732
##NAMES=HP
##CAS NAME=N-(4-Benzyloxy-3-methoxyphenethyl)-2-phenylacetamide
##MOLFORM=C24H25NO3
##CAS REGISTRY NO=4876-01-1
##MP= -300
##BP= -300
##MW= 375
##$RETENTION INDEX=0
##$CONDENSED SPECTRUM=NO
##NPOINTS= 125
##XYDATA=(XY..XY) 1 
    17          1
    27          3
    28          5
    29          1
    30         74
    31          1
    38          1
    39         23
    40          2
    41          9
    42          1
    43          3
    44          1
    45          1
    50          3
    51         12
    52          5
    53          3
    55          4
    56          4
    57          1
    62          2
    63         10
    64          4
    65         75
    66          6
    67          1
    69          1
    71          1
    75          1
    76          1
    77         22
    78         11
    79          7
    80          1
    81          1
    89         16
    90         17
    91        999
    92         94
    93         11
    94          6
    95          2
    97          1
   103         19
   104          5
   105         10
   106          9
   107         12
   108          2
   109          2
   115          1
   117          4
   118          8
   119         10
   120         12
   121         28
   122         11
   123          2
   124          1
   131          2
   132          3
   133          2
   134         37
   135         17
   136         13
   137        217
   138         20
   139          2
   146          1
   147          3
   148         20
   149        215
   150        124
   151         13
   152          2
   153          1
   162          3
   163          1
   164          3
   165          8
   166         13
   167          3
   168          1
   178          1
   179          1
   180          1
   181          4
   192          1
   193          1
   194          1
   195          2
   196          1
   207          1
   208          2
   209          1
   210          2
   211          1
   212          2
   221          1
   222          1
   223          1
   224          1
   225          5
   226          2
   227          7
   228          3
   238          1
   239          2
   240        531
   241         94
   242          9
   243          1
   252          5
   253          1
   256          2
   278          1
   282          1
   283          4
   284         10
   285          7
   286          1
   375        141
   376         37
   377          6