##TITLE=Library Entry 85215
##JCAMP-DX=Revision 4.10 
##DATA TYPE=MASS SPECTRUM
##SAMPLE DESCRIPTION=ASES Database, Dalian Institute, P.R. China
##NAMES=HP
##CAS NAME=Diethyl 4-methylphenyl phosphate
##MOLFORM=C11H17O4P
##CAS REGISTRY NO=4877-08-1
##MP= -300
##BP= -300
##MW= 244
##$RETENTION INDEX=1617
##$CONDENSED SPECTRUM=NO
##NPOINTS= 16
##XYDATA=(XY..XY) 1 
    77        240
    81        223
    91        282
    99        190
   107        433
   108        999
   109        162
   118        691
   119        101
   127        120
   155        111
   188        209
   201        109
   216        211
   229         49
   244        622