##TITLE=Library Entry 26588
##JCAMP-DX=Revision 4.10 
##DATA TYPE=MASS SPECTRUM
##SAMPLE DESCRIPTION=CARL DJERASSI DEPT OF CHEM STANFORD UNIV STANFORD CALIF
 94305
##NAMES=HP
##CAS NAME=5,12-Naphthacenedione, 8-ethyl-7,8,9,10-tetrahydro-1,6,8,11-tetra
hydroxy-
##MOLFORM=C20H18O6
##CAS REGISTRY NO=4877-81-0
##MP= -300
##BP= -300
##MW= 354
##$RETENTION INDEX=0
##$CONDENSED SPECTRUM=NO
##NPOINTS= 217
##XYDATA=(XY..XY) 1 
    41        189
    42         25
    43        405
    44         50
    45         50
    51         75
    52         12
    53        126
    54         12
    55        316
    56         37
    57        999
    58         50
    59         25
    63         88
    64         50
    65        151
    66         37
    67         88
    68         25
    69        126
    70         37
    71         88
    73         25
    74         25
    75         63
    76         75
    77        164
    78         50
    79         75
    80         12
    81         88
    82         63
    83         88
    84         63
    85         63
    87         50
    88         75
    89        177
    90         75
    91        126
    92        101
    93        139
    94         37
    95         75
    96         50
    97         75
    98         50
    99         25
   100         25
   101         63
   102         75
   103         75
   104         50
   105        126
   106         25
   107         63
   108         12
   109         50
   110         12
   111         63
   112         25
   113         37
   114         25
   115        177
   116         50
   117         63
   118        113
   119        101
   120        101
   121        430
   122         50
   123         25
   124         12
   125        101
   126         50
   127        101
   128         75
   129         75
   130         25
   131         75
   132         25
   133         63
   134         25
   135         50
   137         25
   138         25
   139        164
   140        113
   141        126
   142         37
   143         25
   144         25
   145        139
   146         75
   147         88
   148        101
   149         88
   150         37
   151        126
   152        215
   153        139
   154        126
   155         63
   156         12
   157         50
   158         25
   159         37
   160         12
   161         25
   162         88
   163        113
   164         37
   165        189
   166         37
   167         25
   168        139
   169         75
   170         12
   171         25
   172         12
   173        151
   174        101
   175        113
   176        101
   177        164
   178         37
   179         50
   180         37
   181        126
   182         25
   183         25
   184         25
   185         25
   186         12
   187         50
   188         12
   189         88
   190         12
   191         12
   192         12
   193         25
   194         25
   195         37
   196         25
   197        139
   198         75
   199         37
   200         25
   201         63
   202         63
   203        189
   204         37
   205         88
   206         12
   207         12
   208         50
   209         50
   210         25
   211         25
   212         12
   213         37
   221         75
   222         25
   223         63
   224         25
   225        126
   226        101
   227         63
   228         12
   229         37
   233         75
   234         25
   235         12
   236         50
   237        101
   238         25
   239         50
   240         12
   241         88
   242         12
   243         12
   249         88
   250         50
   251         88
   252         50
   253        215
   254        101
   255        215
   256         63
   257         12
   261         37
   262         25
   263         37
   264         63
   265        101
   266        240
   267        139
   268         50
   269        113
   270        139
   281         12
   282        139
   283         37
   284         12
   297         88
   298         75
   307         63
   308         12
   321         12
   325         37
   336         63
   337         12
   338         12
   354        253
   355         50
   356         12