##TITLE=Library Entry 86298
##JCAMP-DX=Revision 4.10 
##DATA TYPE=MASS SPECTRUM
##SAMPLE DESCRIPTION=Mark Whitten, Florida Museum of Natural History, U. of
 Florida
##NAMES=HP
##CAS NAME=Elsholtzia ketone
##MOLFORM=C10H14O2
##CAS REGISTRY NO=488-05-1
##MP= -300
##BP= -300
##MW= 166
##$RETENTION INDEX=1177
##$CONDENSED SPECTRUM=NO
##NPOINTS= 62
##XYDATA=(XY..XY) 1 
    41        173
    42         29
    43         62
    44          3
    45          1
    50         38
    51         76
    52         73
    53        193
    54         31
    55         27
    56         30
    57         22
    58          1
    59          1
    62          3
    63          6
    65         45
    66         13
    67         22
    68          3
    69         33
    70          2
    71          1
    74          1
    75          1
    77         15
    78          5
    79          8
    81         56
    82         83
    83          9
    84          1
    85          2
    91          5
    93          4
    94          2
    95         22
    96          2
   103          1
   105          7
   106          2
   107          8
   109        999
   110         71
   111          9
   115          1
   118          1
   119          1
   121          2
   122          1
   124        474
   125         38
   126          3
   133          4
   135          2
   137          2
   149          1
   151        120
   152         12
   166         63
   167          7