##TITLE=Library Entry 65794
##JCAMP-DX=Revision 4.10 
##DATA TYPE=MASS SPECTRUM
##SAMPLE DESCRIPTION=Exported from NIST MS Search
##NAMES=HP
##CAS NAME=Tricyclo[2.2.1.0(2,6)]heptane, 1,3,3-trimethyl-
##MOLFORM=C10H16
##CAS REGISTRY NO=488-97-1
##MP= -300
##BP= -300
##MW= 136
##$RETENTION INDEX=890
##$CONDENSED SPECTRUM=NO
##NPOINTS= 82
##XYDATA=(XY..XY) 1 
    26          9
    27        189
    28         28
    29        101
    30          2
    37          2
    38          9
    39        201
    40         31
    41        217
    42         13
    43         84
    44          3
    45          1
    46          1
    49          1
    50         11
    51         54
    52         28
    53         99
    54         11
    55         72
    56          4
    57          4
    58          6
    59          2
    60          1
    61          1
    62          2
    63         13
    64          4
    65         48
    66         17
    67         51
    68         20
    69         11
    70          2
    74          1
    75          2
    76          2
    77        165
    78         35
    79        179
    80         95
    81         40
    82          5
    83          1
    87          1
    88          1
    89          3
    90          2
    91        155
    92        215
    93        999
    94        121
    95         20
    96          1
   101          1
   102          1
   103         10
   104          5
   105         72
   106         21
   107        102
   108         19
   109          3
   110          1
   115          4
   116          1
   117          3
   118          1
   119         14
   120          3
   121        186
   122         18
   123          1
   133          1
   134          1
   135          2
   136        123
   137         13
   138          1