##TITLE=Library Entry 100333
##JCAMP-DX=Revision 4.10 
##DATA TYPE=MASS SPECTRUM
##SAMPLE DESCRIPTION=GULF R. D. CO., PITTSBURGH, PA, USA
##NAMES=HP
##CAS NAME=Benzene, 1,2,3,4-tetramethyl-
##MOLFORM=C10H14
##CAS REGISTRY NO=488-23-3
##MP= -300
##BP= -300
##MW= 134
##$RETENTION INDEX=1146
##$CONDENSED SPECTRUM=NO
##NPOINTS= 84
##XYDATA=(XY..XY) 1 
    14          1
    15         29
    26          6
    27         58
    28          3
    29          8
    37          1
    38          7
    39         80
    40          8
    41         55
    42          2
    43          1
    44          0
    45          0
    46          0
    49          1
    50         21
    51         60
    52         20
    53         35
    54          2
    55          6
    56          0
    57          3
    58         11
    59          1
    60          0
    61          5
    62         17
    63         47
    64         21
    65         57
    66         18
    67         10
    68          0
    73          1
    74         12
    75         12
    76          7
    77         85
    78         30
    79         32
    80          3
    81          0
    85          1
    86          3
    87          5
    88          1
    89         13
    90          5
    91        137
    92         16
    93         11
    94          1
    98          1
    99          1
   101          2
   102         12
   103         37
   104         26
   105         38
   106          3
   107          1
   113          2
   114          2
   115         61
   116         25
   117         63
   118         23
   119        999
   120         97
   121          4
   126          1
   127          3
   128          7
   129          4
   130          1
   131          6
   132          8
   133         92
   134        500
   135         55
   136          2