##TITLE=Library Entry 41134
##JCAMP-DX=Revision 4.10 
##DATA TYPE=MASS SPECTRUM
##SAMPLE DESCRIPTION=Exported from NIST MS Search
##NAMES=HP
##CAS NAME=Muco-Inositol
##MOLFORM=C6H12O6
##CAS REGISTRY NO=488-55-1
##MP= -300
##BP= -300
##MW= 180
##$RETENTION INDEX=1978
##$CONDENSED SPECTRUM=NO
##NPOINTS= 46
##XYDATA=(XY..XY) 1 
    39         11
    41         16
    42         47
    43         65
    44         18
    45         35
    47          7
    53          5
    54         12
    55         26
    56         15
    57         31
    58          8
    59          4
    60        153
    61         34
    69         14
    70          6
    71         88
    72         52
    73        999
    74         50
    75          7
    81          5
    83          5
    84          4
    85         13
    89         23
    90          5
    91         25
    97          8
    98          4
   101          5
   102         87
   103          5
   109          5
   115          5
   125          1
   126          2
   127          3
   128          1
   144         28
   145          3
   149          1
   163          1
   181          2