##TITLE=Library Entry 89540
##JCAMP-DX=Revision 4.10 
##DATA TYPE=MASS SPECTRUM
##SAMPLE DESCRIPTION=NIST Mass Spectrometry Data Center, 2010
##NAMES=HP
##CAS NAME=3-Furancarboxylic acid
##MOLFORM=C5H4O3
##CAS REGISTRY NO=488-93-7
##MP= -300
##BP= -300
##MW= 112
##$RETENTION INDEX=1004
##$CONDENSED SPECTRUM=NO
##NPOINTS= 54
##XYDATA=(XY..XY) 1 
    14          1
    17          1
    24          1
    25          5
    26          8
    27         10
    28         12
    29         55
    30          1
    31          2
    33          1
    36         11
    37         70
    38        117
    39        243
    40         14
    41          7
    42         10
    43          1
    44          6
    45         78
    46          1
    47         11
    49          5
    50         13
    51         14
    52          3
    53         19
    54          3
    55         57
    56         12
    58          3
    60          1
    64          1
    65          5
    66         41
    67         64
    68         10
    69         36
    70          1
    77          1
    78          1
    83          6
    84         22
    85          1
    86          2
    93          1
    95        941
    96         51
    97          8
   105          1
   112        999
   113         56
   114          8