##TITLE=Library Entry 44657
##JCAMP-DX=Revision 4.10 
##DATA TYPE=MASS SPECTRUM
##SAMPLE DESCRIPTION=RADIAN CORP
##NAMES=HP
##CAS NAME=Ribitol
##MOLFORM=C5H12O5
##CAS REGISTRY NO=488-81-3
##MP= -300
##BP= -300
##MW= 152
##$RETENTION INDEX=0
##$CONDENSED SPECTRUM=NO
##NPOINTS= 98
##XYDATA=(XY..XY) 1 
    15         20
    17          5
    18         15
    19         41
    26          5
    27         41
    28         90
    29        115
    30         15
    31        185
    32         11
    33          1
    38          1
    39         14
    40          4
    41         35
    42         74
    43        400
    44        269
    45        215
    46         16
    47         16
    49          4
    51          2
    53          7
    54         12
    55        140
    56        392
    57        152
    58         19
    59         26
    60        158
    61        914
    62         50
    63         11
    67         10
    68          9
    69         46
    70         15
    71         61
    72         44
    73        636
    74        999
    75         64
    76          7
    77          3
    79          6
    80          3
    81         19
    82          9
    83         19
    84         12
    85        105
    86         21
    87         11
    88         18
    89         12
    90         19
    91        493
    92         24
    93         11
    94          2
    95         10
    96          8
    97         18
    98         11
    99          7
   100          6
   101         15
   102         10
   103        484
   104         31
   105          7
   107          2
   109          6
   110          4
   111          8
   112          5
   113          4
   115          5
   116          4
   117          1
   119          4
   121         16
   123          5
   124          2
   125          3
   127          5
   128          2
   129         11
   131         16
   133          2
   134          1
   135          2
   136          3
   137          4
   143          2
   149         16