##TITLE=Library Entry 41137
##JCAMP-DX=Revision 4.10 
##DATA TYPE=MASS SPECTRUM
##SAMPLE DESCRIPTION=Exported from NIST MS Search
##NAMES=HP
##CAS NAME=Scyllo-Inositol
##MOLFORM=C6H12O6
##CAS REGISTRY NO=488-59-5
##MP= -300
##BP= -300
##MW= 180
##$RETENTION INDEX=2085
##$CONDENSED SPECTRUM=NO
##NPOINTS= 47
##XYDATA=(XY..XY) 1 
    39         14
    41         26
    42         56
    43         94
    44         26
    45         50
    47         13
    53          5
    54         13
    55         36
    56         21
    57         42
    58          8
    60        211
    61         46
    69         22
    70          8
    71        103
    72         65
    73        999
    74         61
    75          7
    81          7
    83          9
    84          4
    85         17
    89         37
    90          6
    91         29
    97         11
    98          7
   101          6
   102         83
   103          4
   109          3
   115          4
   119          1
   125          1
   126          2
   127          1
   128          1
   144          8
   145          1
   149          1
   162          1
   163          2
   181          1