##TITLE=Library Entry 37878
##JCAMP-DX=Revision 4.10 
##DATA TYPE=MASS SPECTRUM
##SAMPLE DESCRIPTION=NIST Mass Spectrometry Data Center
##NAMES=HP
##CAS NAME=2-Hydroxy-3,5,5-trimethyl-cyclohex-2-enone
##MOLFORM=C9H14O2
##CAS REGISTRY NO=4883-60-7
##MP= -300
##BP= -300
##MW= 154
##$RETENTION INDEX=1172
##$CONDENSED SPECTRUM=NO
##NPOINTS= 47
##XYDATA=(XY..XY) 1 
    27         36
    29         54
    39        143
    41        240
    42         77
    43        208
    51         31
    53         75
    55        295
    56         51
    57        135
    59         60
    65         36
    66         29
    67         78
    69        228
    70        999
    71         89
    77         65
    79         41
    81         25
    83        213
    84         67
    85         73
    91         40
    93         79
    94         40
    95         42
    97         79
    98        438
    99         56
   107         20
   108         57
   110         16
   111        263
   112        221
   113         17
   121         94
   125        117
   126        120
   127         15
   136         10
   139        313
   140         30
   154        619
   155         50
   156          6