##TITLE=Library Entry 53893
##JCAMP-DX=Revision 4.10 
##DATA TYPE=MASS SPECTRUM
##SAMPLE DESCRIPTION=NIST Mass Spectrometry Data Center, 1990.
##NAMES=HP
##CAS NAME=[1,1'-Bicyclopentyl]-2-one
##MOLFORM=C10H16O
##CAS REGISTRY NO=4884-24-6
##MP= -300
##BP= -300
##MW= 152
##$RETENTION INDEX=0
##$CONDENSED SPECTRUM=NO
##NPOINTS= 44
##XYDATA=(XY..XY) 1 
    26         13
    27         81
    28         60
    29         35
    32          6
    39        183
    40         43
    41        209
    42         48
    43         14
    50         12
    51         32
    52         21
    53         98
    54         99
    55        137
    56         36
    57          6
    63         10
    65         46
    66         43
    67        340
    68         86
    69         29
    77         38
    78         13
    79         72
    80         19
    81         89
    82         29
    83        243
    84        999
    85        102
    86          6
    91         25
    92          8
    93         35
    94          6
    95         51
    96         13
   108          6
   109         17
   123          9
   152         38