##TITLE=Library Entry 32427
##JCAMP-DX=Revision 4.10 
##DATA TYPE=MASS SPECTRUM
##SAMPLE DESCRIPTION=NIST Mass Spectrometry Data Center, 1990.
##NAMES=HP
##CAS NAME=[1,1'-Bicyclopentyl]-2-ol
##MOLFORM=C10H18O
##CAS REGISTRY NO=4884-25-7
##MP= -300
##BP= -300
##MW= 154
##$RETENTION INDEX=0
##$CONDENSED SPECTRUM=NO
##NPOINTS= 67
##XYDATA=(XY..XY) 1 
    14          3
    15         21
    16          8
    17          9
    18         26
    26         20
    27        259
    28         97
    29        269
    30         16
    31         61
    32          2
    39        403
    40        103
    41        807
    42        103
    43        144
    44         76
    45         27
    50         22
    51         59
    52         38
    53        174
    54        123
    55        361
    56         50
    57        281
    58         45
    59          8
    63         20
    65        107
    66        338
    67        999
    68        655
    69        323
    70         57
    71         21
    77        116
    78         48
    79        390
    80        282
    81        221
    82        268
    83        135
    84        164
    85         30
    86         12
    91         95
    93        386
    94        422
    95        558
    96         51
    97         62
    98         14
   105         13
   107        223
   108        280
   109         31
   110         14
   111         72
   112         10
   121        211
   122         25
   123         11
   136        221
   137         30
   152          6