##TITLE=Library Entry 84822
##JCAMP-DX=Revision 4.10 
##DATA TYPE=MASS SPECTRUM
##SAMPLE DESCRIPTION=NIST Mass Spectrometry Data Center
##NAMES=HP
##CAS NAME=N-Hydroxymethyl-3,4,5,6-tetrahydrophthalimide
##MOLFORM=C9H11NO3
##CAS REGISTRY NO=4887-42-7
##MP= -300
##BP= -300
##MW= 181
##$RETENTION INDEX=0
##$CONDENSED SPECTRUM=NO
##NPOINTS= 96
##XYDATA=(XY..XY) 1 
    15          2
    16          1
    26         12
    27         45
    29         69
    30         42
    31         14
    37         12
    38         33
    39        125
    40         22
    41         53
    42         11
    43         17
    44         31
    45          2
    49          9
    50        108
    51        200
    52        290
    53        107
    54         25
    55         18
    56          7
    57          1
    61          6
    62         13
    63         37
    64         13
    65         58
    66         52
    67         26
    68          9
    69          3
    70         28
    71          1
    72          2
    73          4
    74         21
    75         13
    76         16
    77        256
    78         92
    79        901
    80        455
    81         56
    82          7
    83          2
    90          2
    91          2
    92          6
    93         17
    94         16
    95          8
    96         12
    97          7
    98          1
   102          2
   103          1
   104         14
   105         24
   106         37
   107         67
   108        999
   109         87
   110          7
   111          4
   112          1
   118          7
   119          1
   120          1
   122         28
   123         18
   124         40
   125         28
   126          2
   130          1
   132          5
   133          9
   134         46
   135          9
   136         37
   137          3
   138          3
   148          1
   150          8
   151        287
   152         90
   153         93
   154          8
   164         15
   165          1
   180         23
   181        116
   182         11
   183          1