##TITLE=Library Entry 11435
##JCAMP-DX=Revision 4.10 
##DATA TYPE=MASS SPECTRUM
##SAMPLE DESCRIPTION=V.G.Zaikin, TIPS RAS, Moscow, Russia
##NAMES=HP
##CAS NAME=Hexanoic acid, octyl ester
##MOLFORM=C14H28O2
##CAS REGISTRY NO=4887-30-3
##MP= -300
##BP= -300
##MW= 228
##$RETENTION INDEX=1570
##$CONDENSED SPECTRUM=NO
##NPOINTS= 74
##XYDATA=(XY..XY) 1 
    25          4
    26         61
    27        349
    28         81
    29        475
    30         21
    31         19
    36          8
    38         16
    39        215
    40         59
    41        738
    42        361
    43        999
    44         85
    45         41
    50          8
    51         19
    52          6
    53         52
    54         59
    55        525
    56        433
    57        425
    58         33
    59         15
    60        171
    61        174
    62          4
    63          4
    65          4
    67         51
    68        105
    69        318
    70        505
    71        499
    72         35
    73        144
    74         19
    75         12
    79         12
    81         26
    82         92
    83        315
    84        323
    85         31
    86          3
    87         75
    88          3
    89         25
    95          7
    96          2
    97         48
    98         29
    99        588
   100         46
   101         19
   102          3
   110          9
   111         12
   112        393
   113         39
   114          9
   115         12
   116         71
   117        808
   118         59
   119          7
   127          9
   129         12
   143          7
   157         18
   158          3
   172          7