##TITLE=Library Entry 66239
##JCAMP-DX=Revision 4.10 
##DATA TYPE=MASS SPECTRUM
##SAMPLE DESCRIPTION=Exported from NIST MS Search
##NAMES=HP
##CAS NAME=Bicyclo[3.1.1]hept-2-ene, 3,6,6-trimethyl-
##MOLFORM=C10H16
##CAS REGISTRY NO=4889-83-2
##MP= -300
##BP= -300
##MW= 136
##$RETENTION INDEX=0
##$CONDENSED SPECTRUM=NO
##NPOINTS= 42
##XYDATA=(XY..XY) 1 
    27         73
    29         49
    31          5
    38          5
    39        108
    40         19
    41        132
    42          8
    43         69
    50         10
    51         37
    52         18
    53         61
    54          7
    55         49
    63         12
    65         41
    66         13
    67         50
    68         22
    69         10
    77        216
    78         36
    79        152
    80         57
    81         25
    89         13
    90          7
    91        215
    92        288
    93        999
    94         87
    95         16
   103         10
   105         69
   106         20
   107         35
   108          5
   119         13
   121         90
   122          9
   136         20