##TITLE=Library Entry 70646
##JCAMP-DX=Revision 4.10 
##DATA TYPE=MASS SPECTRUM
##SAMPLE DESCRIPTION=Benaiche Ghania, Extraction and GC/MS Analysis of major
 Alkaloids found in the Family of Fabaceae, University of Msila, 2007
##NAMES=HP
##CAS NAME=7,14-Methano-2H,6H-dipyrido[1,2-a:1',2'-E][1,5]diazocin-6-one, do
decahydro-, [7R-(7.alpha.,7a.alpha.,14.alpha.,14a.beta.)]-
##MOLFORM=C15H24N2O
##CAS REGISTRY NO=489-72-5
##MP= -300
##BP= -300
##MW= 248
##$RETENTION INDEX=2069
##$CONDENSED SPECTRUM=NO
##NPOINTS= 130
##XYDATA=(XY..XY) 1 
    38         72
    39         25
    40         25
    41        190
    42        112
    43         49
    44         27
    51         25
    52         27
    53         87
    54        110
    55        266
    56        121
    57         32
    58         34
    61         21
    65         49
    66         32
    67        105
    68        126
    69        137
    70         74
    71         23
    72         21
    74         27
    77         61
    78         39
    79         78
    80        119
    81         98
    82        168
    83        126
    84        255
    85         27
    88         25
    89         23
    91         43
    92         29
    93         61
    94        119
    95         70
    96        310
    97        999
    98        904
    99        126
   100         52
   105         27
   106         58
   107         41
   108        105
   109         99
   110        875
   111        322
   112        105
   117         23
   118         23
   119         25
   120         65
   121        107
   122        272
   123        402
   124        241
   125         36
   130         23
   131         21
   132         21
   133         21
   134        255
   135        110
   136        621
   137        324
   138        255
   139         41
   142         21
   147         36
   148        145
   149        145
   150        331
   151         98
   152         94
   153         21
   155         21
   160         23
   161         25
   162         67
   163         67
   164        141
   165         49
   166         29
   174         27
   175         81
   176         52
   177         88
   178         74
   179         25
   184         18
   185         21
   186         21
   188         16
   189         18
   190         27
   191        257
   192        201
   193         49
   203         23
   204         20
   205        107
   206         29
   207         79
   208         14
   211         14
   213         14
   214         21
   215         18
   217         16
   218         16
   219        339
   220        475
   221         76
   229         65
   230         14
   233         52
   235         16
   246         23
   247        359
   248        953
   249        166
   250         23
   282         10
   356          7