##TITLE=Library Entry 4140
##JCAMP-DX=Revision 4.10 
##DATA TYPE=MASS SPECTRUM
##SAMPLE DESCRIPTION=TNO Volatile Compounds in Food - Chemical Concepts
##NAMES=HP
##CAS NAME=Aromandendrene
##MOLFORM=C15H24
##CAS REGISTRY NO=489-39-4
##MP= -300
##BP= -300
##MW= 204
##$RETENTION INDEX=1440
##$CONDENSED SPECTRUM=NO
##NPOINTS= 117
##XYDATA=(XY..XY) 1 
    24          3
    25         14
    26          4
    27        199
    28         70
    29        169
    34          9
    35          1
    37          4
    38         15
    39        306
    40         53
    41        999
    42         57
    43        210
    44          3
    47          4
    48          3
    49          3
    50         17
    51         85
    52         43
    53        259
    54         41
    55        601
    56         31
    57         49
    58          9
    59          4
    62          8
    63         27
    64         16
    65        156
    66         52
    67        593
    68         41
    69        694
    70         38
    71         11
    73          7
    77        473
    78        137
    79        699
    80        144
    81        633
    82        193
    83         83
    84          8
    91        856
    92        218
    93        817
    94        213
    95        280
    96         63
    97         22
   102          9
   103         46
   105        751
   106        254
   107        743
   108        198
   109        166
   110         21
   111         11
   113          8
   115         50
   116         30
   117         91
   118         41
   119        599
   120        229
   121        332
   122        300
   123         66
   124          4
   128         25
   129         25
   130         17
   131         64
   132         30
   133        673
   134        219
   135        232
   136         53
   137         10
   138          5
   139          3
   141          8
   143          9
   145         41
   147        583
   148        432
   149        101
   150         19
   152          4
   157          6
   159         15
   161        921
   162        157
   163         25
   164          3
   173          6
   175         74
   176         46
   177          9
   181          3
   184          4
   187          7
   188          8
   189        252
   190         47
   191         11
   195          4
   200          1
   204        701
   205        112
   206          9