##TITLE=Library Entry 10964
##JCAMP-DX=Revision 4.10 
##DATA TYPE=MASS SPECTRUM
##SAMPLE DESCRIPTION=NIST Mass Spectrometry Data Center, 2010
##NAMES=HP
##CAS NAME=(-)-Globulol
##MOLFORM=C15H26O
##CAS REGISTRY NO=489-41-8
##MP= -300
##BP= -300
##MW= 222
##$RETENTION INDEX=1580
##$CONDENSED SPECTRUM=NO
##NPOINTS= 118
##XYDATA=(XY..XY) 1 
    27         60
    29        100
    38          5
    39        204
    40         43
    41        685
    42         60
    43        999
    45         35
    51         51
    52         30
    53        239
    54         41
    55        535
    56         49
    57        100
    58         58
    59         31
    60          4
    63         21
    65        166
    66         66
    67        696
    68         92
    69        845
    70         78
    71        298
    72         25
    73         27
    74          4
    76         12
    77        369
    78         94
    79        609
    80        133
    81        782
    82        377
    83        257
    84         55
    85         95
    86         15
    87          6
    89         11
    90          5
    91        533
    92        100
    93        699
    94        184
    95        563
    96        215
    97        114
    98        131
    99         24
   103         46
   104         19
   105        678
   106        178
   107        878
   108        444
   109        853
   110        100
   111        211
   112         25
   115         47
   116         21
   117         80
   119        484
   120        150
   121        655
   122        616
   123        301
   124         83
   125        299
   126         58
   127         22
   131         49
   132         20
   133        380
   134        136
   135        378
   136        153
   137         74
   138         33
   139         36
   141          4
   142          6
   145         32
   146         16
   147        318
   148        256
   149        192
   150         39
   151         30
   153          5
   158          2
   160         19
   161        638
   162        167
   163         69
   164         29
   165         45
   166         12
   167          5
   168          2
   175         98
   176         34
   177         14
   178          9
   179         57
   180         10
   189        339
   190         54
   204        307
   205         61
   207         65
   208         11
   222         35
   223          9