##TITLE=Library Entry 21104
##JCAMP-DX=Revision 4.10 
##DATA TYPE=MASS SPECTRUM
##SAMPLE DESCRIPTION=D.HENNEBERG, MAX-PLANCK INSTITUTE, MULHEIM, WEST GERMAN
Y
##NAMES=HP
##CAS NAME=Cyclopentane, 1,2-dimethyl-3-(1-methylethyl)-
##MOLFORM=C10H20
##CAS REGISTRY NO=489-20-3
##MP= -300
##BP= -300
##MW= 140
##$RETENTION INDEX=0
##$CONDENSED SPECTRUM=NO
##NPOINTS= 79
##XYDATA=(XY..XY) 1 
    24          0
    25          1
    26          2
    27         97
    28          7
    29         98
    30          3
    31          2
    32          1
    33          0
    35          2
    36          0
    37          3
    38          3
    39         90
    40         14
    41        305
    42         69
    43        182
    44          5
    45          0
    46          1
    47          0
    48          0
    49          2
    50          2
    51         10
    52          5
    53         43
    54         20
    55        999
    56        290
    57         72
    58          3
    61          0
    62          0
    63          1
    64          0
    65          9
    66          4
    67         36
    68         22
    69        346
    70        231
    71         37
    72          1
    74          0
    75          0
    76          0
    77         10
    78          1
    79         11
    80          3
    81        216
    82         23
    83        104
    84         56
    85         11
    86          0
    88          0
    91          3
    92          0
    93          1
    94          1
    95         15
    96        320
    97        641
    98         57
    99          2
   109          0
   110          1
   111         25
   112          8
   113          0
   123          0
   125         25
   126          2
   140         27
   141          2