##TITLE=Library Entry 17683
##JCAMP-DX=Revision 4.10 
##DATA TYPE=MASS SPECTRUM
##SAMPLE DESCRIPTION=J.E. WILKINSON S-CUBED, SAN DIEGO, CA.
##NAMES=HP
##CAS NAME=Thionodemeton sulfone
##MOLFORM=C8H19O5PS2
##CAS REGISTRY NO=4891-54-7
##MP= -300
##BP= -300
##MW= 290
##$RETENTION INDEX=0
##$CONDENSED SPECTRUM=NO
##NPOINTS= 55
##XYDATA=(XY..XY) 1 
    41         11
    43        191
    44         60
    45        999
    46         11
    47         52
    48         18
    59         37
    60         66
    61         90
    62          1
    63         12
    64         21
    65        259
    66         43
    75         68
    76          1
    77         56
    79          1
    80          0
    81        155
    82          1
    91         38
    92          4
    93        233
    96         16
    97        581
    98          0
    99         35
   109         42
   113         16
   114         71
   115        152
   121        314
   123          5
   125        415
   126         22
   127          5
   139          0
   141        638
   142         26
   143         50
   153        792
   154         16
   155         16
   169        121
   170          7
   171          2
   185         51
   197        773
   198         43
   199         10
   213         14
   217          2
   245          4