##TITLE=Library Entry 89513
##JCAMP-DX=Revision 4.10 
##DATA TYPE=MASS SPECTRUM
##SAMPLE DESCRIPTION=Chuck Anderson, Aldrich Chemical Co.
##NAMES=HP
##CAS NAME=1,4'-Bipiperidine
##MOLFORM=C10H20N2
##CAS REGISTRY NO=4897-50-1
##MP= -300
##BP= -300
##MW= 168
##$RETENTION INDEX=0
##$CONDENSED SPECTRUM=NO
##NPOINTS= 77
##XYDATA=(XY..XY) 1 
    15          3
    26          6
    27         49
    28        118
    29         92
    30         98
    31          1
    38          2
    39         71
    40         13
    41        165
    42        171
    43         49
    44         67
    45          2
    49          0
    50          2
    51          6
    52          7
    53         48
    54         81
    55        238
    56        274
    57        294
    58         27
    63          2
    65          4
    66          2
    67         34
    68        149
    69         77
    70         42
    71          7
    72          3
    77          1
    78          1
    79          5
    80         36
    81         75
    82        303
    83        473
    84        692
    85         94
    86        692
    87         36
    88          1
    93          2
    94         17
    95         18
    96        213
    97        111
    98         86
    99          8
   107          0
   108         10
   109         12
   110        219
   111        255
   112        999
   113         64
   114          2
   121          4
   122         59
   123        108
   124        180
   125         98
   126         21
   127          3
   137          3
   138         25
   139         12
   140          1
   165          0
   166          2
   167         32
   168        112
   169         10