##TITLE=Library Entry 46392
##JCAMP-DX=Revision 4.10 
##DATA TYPE=MASS SPECTRUM
##SAMPLE DESCRIPTION=NIST Mass Spectrometry Data Center, 1990.
##NAMES=HP
##CAS NAME=1H-Imidazole, 5-chloro-1-methyl-4-nitro-
##MOLFORM=C4H4ClN3O2
##CAS REGISTRY NO=4897-25-0
##MP= -300
##BP= -300
##MW= 161
##$RETENTION INDEX=0
##$CONDENSED SPECTRUM=NO
##NPOINTS= 81
##XYDATA=(XY..XY) 1 
    12         11
    13          0
    14         12
    15        184
    16         12
    17          1
    18          6
    26         36
    27         81
    28         86
    29         21
    30        212
    32         13
    35         12
    36         10
    38         70
    39         70
    40         50
    41         63
    42        334
    43         11
    44          2
    45          7
    46         27
    47         53
    48         15
    49        124
    50         22
    51        120
    52        114
    53         83
    54         15
    55         12
    56          7
    57         14
    59         14
    60          7
    61         53
    62         24
    63         29
    64         21
    65         24
    66         11
    67         60
    68          7
    69          9
    73         75
    74        115
    75         96
    76        999
    77         67
    78        293
    79         54
    80        172
    81         10
    82          7
    83        135
    84         12
    85         11
    86         53
    87          9
    88         53
    89         14
    90         11
   100         31
   102         10
   104        273
   106         92
   110         59
   115        130
   116         15
   117         49
   118         10
   131         87
   133         33
   145         32
   147          9
   161        550
   162         47
   163        189
   164         11