##TITLE=Library Entry 39171
##JCAMP-DX=Revision 4.10 
##DATA TYPE=MASS SPECTRUM
##SAMPLE DESCRIPTION=Exported from NIST MS Search
##NAMES=HP
##CAS NAME=Cyclohexanol, 5-methyl-2-(1-methylethyl)-, (1.alpha.,2.beta.,5.be
ta.)-
##MOLFORM=C10H20O
##CAS REGISTRY NO=490-99-3
##MP= -300
##BP= -300
##MW= 156
##$RETENTION INDEX=1183
##$CONDENSED SPECTRUM=NO
##NPOINTS= 66
##XYDATA=(XY..XY) 1 
    15          8
    18         16
    26          6
    27         82
    28         34
    29         82
    30          5
    31         36
    39        148
    40         26
    41        452
    42         70
    43        324
    44         38
    45         24
    51         20
    52         11
    53         90
    54         43
    55        431
    56        202
    57        256
    58         28
    59         15
    65         22
    66         14
    67        257
    68        148
    69        338
    70        135
    71        999
    72         58
    73         14
    77         32
    78          7
    79         50
    80         71
    81        628
    82        317
    83        121
    84         34
    85         91
    86         44
    87          6
    91         18
    93         30
    94         49
    95        723
    96        216
    97         45
    98          7
    99         40
   100          9
   109         94
   110         58
   111         22
   112         54
   113         21
   123        270
   124         28
   125          6
   137          6
   138        243
   139         43
   141          7
   154          8