##TITLE=Library Entry 16504
##JCAMP-DX=Revision 4.10 
##DATA TYPE=MASS SPECTRUM
##SAMPLE DESCRIPTION=H. Fales, LC, NHLBI, NIH, Bethesda, MD 20892
##NAMES=HP
##CAS NAME=Hydrastininic acid
##MOLFORM=C11H9NO6
##CAS REGISTRY NO=490-25-5
##MP= -300
##BP= -300
##MW= 251
##$RETENTION INDEX=0
##$CONDENSED SPECTRUM=NO
##NPOINTS= 91
##XYDATA=(XY..XY) 1 
    41         45
    42         30
    43         72
    44        999
    45         67
    46         17
    49          7
    50         20
    51         16
    53         23
    55         40
    56         20
    57         39
    58          6
    60         23
    61         19
    62         41
    63         25
    64          6
    65         19
    67         14
    68          3
    69         29
    70         12
    71         20
    73         20
    74          6
    75          3
    76          3
    77         24
    78         13
    79          9
    81         17
    82         10
    83         19
    84         11
    85         13
    88         16
    90         11
    91         17
    92          3
    93         12
    95         15
    96          3
    97         20
    98          6
    99         11
   102          3
   103         21
   104          5
   105         15
   106          6
   107          9
   109          9
   111          8
   115          3
   119         28
   120         29
   121         17
   125          3
   129          6
   135         12
   139         13
   147         16
   148         26
   149         44
   150          6
   155          3
   157          3
   160          6
   161         42
   162          8
   163         10
   165          6
   167          3
   174          3
   175          2
   176          4
   177         38
   178         10
   183          6
   190         34
   191         15
   204         34
   205        138
   206        203
   207         38
   209          3
   221         17
   228          3
   251         23