##TITLE=Library Entry 2731
##JCAMP-DX=Revision 4.10 
##DATA TYPE=MASS SPECTRUM
##SAMPLE DESCRIPTION=Japan AIST/NIMC Database- Spectrum MS-NW-4051
##NAMES=HP
##CAS NAME=1,8-Nonadiene
##MOLFORM=C9H16
##CAS REGISTRY NO=4900-30-5
##MP= -300
##BP= -300
##MW= 124
##$RETENTION INDEX=877
##$CONDENSED SPECTRUM=NO
##NPOINTS= 60
##XYDATA=(XY..XY) 1 
    14          1
    15         12
    26         16
    27        216
    28         29
    29        230
    30          6
    32          1
    37          5
    38         15
    39        357
    40         51
    41        999
    42         90
    43         65
    44          8
    49          1
    50         12
    51         25
    52         14
    53        130
    54        874
    55        949
    56         61
    57         19
    58          1
    61          2
    62          3
    63          6
    64          1
    65         21
    66         36
    67        730
    68        294
    69         79
    70         28
    71          2
    74          1
    75          1
    77         11
    78          4
    79         31
    80         13
    81        339
    82        185
    83         74
    84          6
    91          4
    92          1
    93          6
    94          4
    95        149
    96        243
    97         20
    98          2
   104          1
   107          1
   109         17
   110          2
   124          1