##TITLE=Library Entry 18614
##JCAMP-DX=Revision 4.10 
##DATA TYPE=MASS SPECTRUM
##SAMPLE DESCRIPTION=NIST Mass Spectrometry Data Center, 1990.
##NAMES=HP
##CAS NAME=1,5,9-Cyclododecatriene
##MOLFORM=C12H18
##CAS REGISTRY NO=4904-61-4
##MP= -300
##BP= -300
##MW= 162
##$RETENTION INDEX=1256
##$CONDENSED SPECTRUM=NO
##NPOINTS= 47
##XYDATA=(XY..XY) 1 
    26         17
    27        175
    28         80
    29         46
    39        449
    40         58
    41        311
    42         13
    43          5
    50         20
    51         65
    52         44
    53        165
    54        999
    55         68
    62          6
    63         19
    65         97
    66         90
    67        371
    68         20
    77        110
    78         72
    79        316
    80        273
    81         46
    91        163
    92         70
    93        309
    94         66
    95         36
    96         10
   103          6
   105         49
   106         31
   107         22
   108         46
   117          5
   119        126
   120         73
   121         54
   133        135
   134         96
   135          9
   147         16
   161          8
   162         30