##TITLE=Library Entry 82735
##JCAMP-DX=Revision 4.10 
##DATA TYPE=MASS SPECTRUM
##SAMPLE DESCRIPTION=V.A.Korolev, Moscow, Russia
##NAMES=HP
##CAS NAME=N-Benzyl-2-(1,3-dioxoisoindol-2-yl)acetamide
##MOLFORM=C17H14N2O3
##CAS REGISTRY NO=4905-17-3
##MP= -300
##BP= -300
##MW= 294
##$RETENTION INDEX=0
##$CONDENSED SPECTRUM=NO
##NPOINTS= 65
##XYDATA=(XY..XY) 1 
    37          3
    38         14
    39         86
    40          8
    41         24
    42          6
    43         15
    44          5
    50        192
    51        217
    52         49
    53         13
    54          2
    55          2
    56         30
    57          2
    62         13
    63         57
    64         23
    65        263
    66         25
    74         65
    75         96
    76        330
    77        539
    78        120
    79         70
    80          4
    89         47
    91        690
    92         53
   102         24
   104        335
   105        194
   106        999
   107        115
   108          3
   117         76
   118         40
   119         12
   130         27
   132         85
   133        141
   134         13
   136          1
   146         14
   147          3
   148          3
   160        325
   161        197
   162         18
   163          1
   173          1
   188          7
   189          1
   203          9
   204          2
   235          5
   249          4
   266          2
   276          4
   277          3
   294        132
   295         25
   296          3