##TITLE=Library Entry 44672
##JCAMP-DX=Revision 4.10 
##DATA TYPE=MASS SPECTRUM
##SAMPLE DESCRIPTION=NIST Mass Spectrometry Data Center, 2010
##NAMES=HP
##CAS NAME=Methanamine, 1,1-bis(2,2-dimethylpropoxy)-N,N-dimethyl-
##MOLFORM=C13H29NO2
##CAS REGISTRY NO=4909-78-8
##MP= -300
##BP= -300
##MW= 231
##$RETENTION INDEX=0
##$CONDENSED SPECTRUM=NO
##NPOINTS= 42
##XYDATA=(XY..XY) 1 
    27         15
    29         43
    30          9
    31          8
    39         26
    40          7
    41         94
    42         44
    43        281
    44         68
    45         33
    46         28
    53         10
    54          3
    55         71
    56         25
    57         66
    58         18
    60          1
    70         11
    71        757
    72         63
    73         43
    74        999
    75         36
    76          3
    86          5
    87          4
    90          5
   100          7
   101          2
   114          1
   117         26
   118          2
   128          4
   144        308
   145         28
   146          1
   187         73
   188         10
   189          1
   231          1