##TITLE=Library Entry 31624
##JCAMP-DX=Revision 4.10 
##DATA TYPE=MASS SPECTRUM
##SAMPLE DESCRIPTION=A. Brossi, LAC, NIDDK, NIH, Bethesda, MD 20892
##NAMES=HP
##CAS NAME=3-Chloro-4-nitrophenol
##MOLFORM=C6H4ClNO3
##CAS REGISTRY NO=491-11-2
##MP= -300
##BP= -300
##MW= 173
##$RETENTION INDEX=0
##$CONDENSED SPECTRUM=NO
##NPOINTS= 106
##XYDATA=(XY..XY) 1 
    42         51
    43         16
    44          5
    45          8
    46         57
    47         19
    48         16
    49        104
    50        157
    51        430
    52         99
    53        273
    54         30
    55         41
    56          3
    57          5
    59          5
    60         64
    61        222
    62        410
    63        999
    64        153
    65         31
    66         45
    67         14
    68          9
    69         17
    70          1
    71         10
    72         67
    73        684
    74        125
    75        252
    76         21
    77         16
    78         40
    79         52
    80         20
    81          3
    82          4
    83          2
    84         25
    85         20
    86         21
    87        121
    88         15
    89         52
    90         22
    91         29
    92         42
    93          5
    94          1
    95          3
    96         13
    97         33
    98         29
    99        750
   100         56
   101        244
   102         16
   103          1
   104          0
   105          0
   106         10
   107          5
   108          5
   109          7
   110          2
   111          3
   112          1
   113         11
   114          5
   115        388
   116         21
   117        120
   118          5
   120          2
   121          0
   123          0
   124          6
   125          3
   126         28
   127        127
   128         15
   129         42
   130          3
   131          0
   139          1
   141          8
   143        706
   144         48
   145        212
   146         15
   147          1
   149          1
   155          0
   157         44
   158          3
   159         13
   160          0
   172          2
   173        477
   174         44
   175        157
   176         13
   177          1