##TITLE=Library Entry 84307
##JCAMP-DX=Revision 4.10 
##DATA TYPE=MASS SPECTRUM
##SAMPLE DESCRIPTION=NIST Mass Spectrometry Data Center
##NAMES=HP
##CAS NAME=2-Cyclohexen-1-one, 3-methyl-6-(1-methylethylidene)-
##MOLFORM=C10H14O
##CAS REGISTRY NO=491-09-8
##MP= -300
##BP= -300
##MW= 150
##$RETENTION INDEX=1340
##$CONDENSED SPECTRUM=NO
##NPOINTS= 78
##XYDATA=(XY..XY) 1 
    26          5
    27         72
    28         19
    29         30
    31          1
    37          7
    38         30
    39        365
    40         59
    41        233
    42         30
    43         40
    44          2
    45          4
    49          3
    50         54
    51        139
    52         60
    53        203
    54         92
    55         92
    61         10
    62         24
    63         71
    64         17
    65        147
    66         65
    67        176
    68         19
    69         57
    70         12
    74         17
    75         14
    76          9
    77        239
    78         59
    79        320
    80         74
    81         55
    82        191
    83         83
    85          2
    86          5
    87          6
    89         19
    90         10
    91        406
    92         48
    93         96
    94         56
    95         97
    96         22
    98          2
   102         10
   103         37
   104          9
   105        175
   106         28
   107        999
   108        205
   109        291
   110         29
   115         72
   116         23
   117         54
   118          8
   119         20
   120          9
   121        161
   122        125
   123         19
   134          5
   135        401
   136         38
   149         71
   150        991
   151        110
   152          8