##TITLE=Library Entry 69475
##JCAMP-DX=Revision 4.10 
##DATA TYPE=MASS SPECTRUM
##SAMPLE DESCRIPTION=Chemical Concepts
##NAMES=HP
##CAS NAME=9-Azabicyclo[3.3.1]nonane,9-methyl-
##MOLFORM=C9H17N
##CAS REGISTRY NO=491-25-8
##MP= -300
##BP= -300
##MW= 139
##$RETENTION INDEX=0
##$CONDENSED SPECTRUM=NO
##NPOINTS= 56
##XYDATA=(XY..XY) 1 
    27         16
    29         11
    30          3
    39         28
    40          4
    41         45
    42         82
    43         10
    44         10
    51          4
    52          4
    53         15
    54         14
    55         37
    56         21
    57         99
    58          6
    60          7
    65          4
    66          4
    67         18
    68         34
    69         27
    70         26
    71          6
    73         10
    77          6
    78          2
    79         11
    80          7
    81         26
    82        102
    83         30
    84          9
    85          3
    91          3
    93          6
    94         25
    95         12
    96        999
    97        262
    98         25
    99          3
   108          9
   109          5
   110        488
   111         42
   112          5
   123          3
   124         24
   125         10
   137          4
   138         23
   139        306
   140         23
   141          4