##TITLE=Library Entry 38981
##JCAMP-DX=Revision 4.10 
##DATA TYPE=MASS SPECTRUM
##SAMPLE DESCRIPTION=Philip Morris R&D
##NAMES=HP
##CAS NAME=Cyclohexanol, 5-methyl-2-(1-methylethyl)-, (1.alpha.,2.alpha.,5.a
lpha.)-
##MOLFORM=C10H20O
##CAS REGISTRY NO=491-02-1
##MP= -300
##BP= -300
##MW= 156
##$RETENTION INDEX=1188
##$CONDENSED SPECTRUM=NO
##NPOINTS= 79
##XYDATA=(XY..XY) 1 
    35          0
    36          2
    37          4
    38          6
    39        143
    40         20
    41        434
    42         68
    43        345
    44         38
    45         30
    46          1
    49          1
    50          4
    51         18
    52          8
    53         72
    54         43
    55        420
    56        195
    57        250
    58         30
    59         16
    61          0
    62          0
    63          3
    65         19
    66          7
    67        324
    68        128
    69        315
    70        128
    71        999
    72         58
    73         11
    74          0
    77         21
    78          3
    79         47
    80         80
    81        651
    82        340
    83        100
    84         33
    85        110
    86         45
    87          7
    91         12
    92          2
    93         36
    94         70
    95        643
    96        222
    97         40
    98          5
    99         36
   100         11
   101          0
   105          1
   107          1
   108          1
   109        146
   110         64
   111         14
   112         22
   113         20
   114          2
   119          1
   121          2
   123        238
   124         21
   125          3
   137          5
   138        231
   139         28
   140          1
   141          6
   155          1
   156          3