##TITLE=Library Entry 29897
##JCAMP-DX=Revision 4.10 
##DATA TYPE=MASS SPECTRUM
##SAMPLE DESCRIPTION=Japan AIST/NIMC Database- Spectrum MS-IW-3509
##NAMES=HP
##CAS NAME=2-Pentanol, 2,3-dimethyl-
##MOLFORM=C7H16O
##CAS REGISTRY NO=4911-70-0
##MP= -300
##BP= -300
##MW= 116
##$RETENTION INDEX=0
##$CONDENSED SPECTRUM=NO
##NPOINTS= 47
##XYDATA=(XY..XY) 1 
    15          8
    18          1
    26          3
    27         38
    28          9
    29         50
    30          1
    31         87
    32          1
    38          2
    39         37
    40          5
    41        121
    42         10
    43        102
    44          3
    45        163
    46          4
    50          2
    51          4
    52          1
    53          9
    54          2
    55         55
    56          9
    57        103
    58         50
    59        999
    60         48
    61          3
    65          1
    67          4
    68          1
    69         27
    70          7
    71          8
    72          2
    73          1
    83         42
    84          3
    85          5
    87         11
    98          3
    99          2
   101        143
   102          9
   103          1