##TITLE=Library Entry 2542
##JCAMP-DX=Revision 4.10 
##DATA TYPE=MASS SPECTRUM
##SAMPLE DESCRIPTION=Exported from NIST MS Search
##NAMES=HP
##CAS NAME=Propane, 1,3-bis(propylthio)-
##MOLFORM=C9H20S2
##CAS REGISTRY NO=4911-44-8
##MP= -300
##BP= -300
##MW= 192
##$RETENTION INDEX=0
##$CONDENSED SPECTRUM=NO
##NPOINTS= 131
##XYDATA=(XY..XY) 1 
    24          1
    25          4
    26         50
    27        778
    28         60
    29        111
    30          3
    32          9
    33          8
    34         14
    35         24
    36          2
    37         10
    38         21
    39        338
    40         39
    41        999
    42        142
    43        999
    44         33
    45        497
    46        245
    47        447
    48         27
    49         25
    50          5
    51          2
    52          1
    53          9
    54          4
    55         27
    56          3
    57          7
    58         43
    59         86
    60         72
    61        266
    62         12
    63         12
    64         19
    65          3
    66          3
    67          9
    68          2
    69          9
    70          2
    71         33
    72         29
    73        394
    74        473
    75        114
    76         46
    77         23
    78         16
    79         61
    80          3
    81          7
    82          2
    83         10
    84          1
    85          9
    86          2
    87        174
    88         14
    89        219
    90         12
    91         13
    92          2
    93          2
    94          1
    95          1
    97          1
    98          1
    99          2
   100          1
   101          7
   102          2
   103         46
   104          4
   105         16
   106         39
   107        991
   108         57
   109         89
   110          4
   111          2
   113          1
   114          1
   115         16
   116         54
   117         30
   118          6
   119          6
   120          1
   121          5
   122          1
   123          1
   128          1
   133          1
   134          1
   135          1
   138          1
   139          1
   140          1
   141          1
   142          1
   145          1
   146          1
   147          3
   148          6
   149        970
   150         87
   151         88
   152          7
   153          3
   154          1
   163          1
   165          1
   178          1
   179          1
   180          1
   187          1
   188          1
   189          1
   190          1
   191          1
   192        262
   193         32
   194         25
   195          3
   196          1