##TITLE=Library Entry 20736
##JCAMP-DX=Revision 4.10 
##DATA TYPE=MASS SPECTRUM
##SAMPLE DESCRIPTION=Japan AIST/NIMC Database- Spectrum MS-NW-3705
##NAMES=HP
##CAS NAME=2-Pentene, 3,4-dimethyl-, (Z)-
##MOLFORM=C7H14
##CAS REGISTRY NO=4914-91-4
##MP= -300
##BP= -300
##MW= 98
##$RETENTION INDEX=671
##$CONDENSED SPECTRUM=NO
##NPOINTS= 53
##XYDATA=(XY..XY) 1 
    14          1
    15         14
    26          9
    27        156
    28         14
    29        109
    30          2
    36          2
    37          4
    38          9
    39        160
    40         24
    41        456
    42         41
    43        193
    44          7
    45          3
    49          2
    50         17
    51         28
    52         12
    53         68
    54         22
    55        999
    56        100
    57         13
    61          1
    62          3
    63          5
    65         14
    66          7
    67         72
    68         11
    69        119
    70         45
    71         12
    72          1
    74          1
    77          9
    78          2
    79         11
    80          2
    81         24
    82         13
    83        943
    84         65
    85          3
    95          1
    96          1
    97          5
    98        355
    99         31
   100          1