##TITLE=Library Entry 65566
##JCAMP-DX=Revision 4.10 
##DATA TYPE=MASS SPECTRUM
##SAMPLE DESCRIPTION=Chemical Concepts
##NAMES=HP
##CAS NAME=Pyridine, 4,4'-(1,2-ethanediyl)bis-
##MOLFORM=C12H12N2
##CAS REGISTRY NO=4916-57-8
##MP= -300
##BP= -300
##MW= 184
##$RETENTION INDEX=0
##$CONDENSED SPECTRUM=NO
##NPOINTS= 146
##XYDATA=(XY..XY) 1 
    25          0
    26          6
    27         13
    28          7
    29          0
    30          0
    37          2
    38          9
    39        154
    40          7
    41         16
    42          2
    43          6
    44          0
    45          0
    46          0
    49          0
    50         20
    51         68
    52         37
    53          8
    54          5
    55          1
    56          0
    57          0
    59          0
    60          0
    61          0
    62          4
    63         24
    64         17
    65        260
    66         20
    67          4
    68          0
    69          0
    71          0
    72          0
    73          0
    74          2
    75          6
    76          7
    77         31
    78         21
    79         15
    80          7
    81          1
    82          0
    83          0
    84          0
    85          2
    86          0
    87          1
    88          0
    89          5
    90          4
    91         41
    92        999
    93         78
    94          3
    95          1
    96          0
    98          0
    99          1
   100          0
   101          4
   102          6
   103          4
   104         12
   105         18
   106         57
   107          6
   108          0
   109          1
   110          0
   111          0
   113          1
   114          1
   115          5
   116          3
   117          7
   118          2
   119          1
   120          0
   121          1
   122          0
   123          0
   125          0
   126          3
   127         11
   128         12
   129          8
   130          9
   131          3
   132          0
   133          1
   134          0
   135          0
   137          0
   139          0
   140          2
   141          4
   142          7
   143          4
   144          1
   145          3
   146          0
   147          1
   148          0
   149          0
   151          0
   152          0
   153          1
   154         12
   155          7
   156         10
   157          8
   158          1
   159          1
   160          0
   161          0
   162          0
   163          0
   165          0
   166          1
   167          2
   168          8
   169          5
   170          0
   171          0
   172          0
   173          0
   174          0
   175          0
   176          0
   177          0
   178          0
   179          1
   180          0
   181         12
   182          6
   183         39
   184        860
   185        124
   186          7
   187          0