##TITLE=Library Entry 83131
##JCAMP-DX=Revision 4.10 
##DATA TYPE=MASS SPECTRUM
##SAMPLE DESCRIPTION=Chemical Concepts
##NAMES=HP
##CAS NAME=Pyridine, 2,2'-(1,2-ethanediyl)bis-
##MOLFORM=C12H12N2
##CAS REGISTRY NO=4916-40-9
##MP= -300
##BP= -300
##MW= 184
##$RETENTION INDEX=0
##$CONDENSED SPECTRUM=NO
##NPOINTS= 82
##XYDATA=(XY..XY) 1 
    26         12
    27         30
    28         14
    37          4
    38         11
    39         91
    40         11
    41          7
    42          1
    49          1
    50         30
    51         97
    52         75
    53         22
    54          8
    61          1
    62          5
    63         23
    64         15
    65        100
    66         27
    67          5
    75          2
    76          9
    77         43
    78        163
    79         80
    80         47
    81          2
    85          1
    87          1
    89          6
    90          9
    91         53
    92         43
    93         24
    98          1
    99          0
   101          3
   102          5
   103          5
   104         33
   105         30
   106        999
   107         77
   108          4
   109          0
   114          1
   115          3
   116          6
   117         23
   118          4
   120          1
   126          1
   127         10
   128          8
   129          5
   130         16
   131          5
   139          2
   140          3
   141          8
   142          5
   143          2
   152          1
   153          6
   154         38
   155         25
   156         30
   157          7
   166          5
   167         16
   168         61
   169        115
   170         15
   179          1
   181         27
   182         23
   183        319
   184        645
   185         86
   186          5