##TITLE=Library Entry 55
##JCAMP-DX=Revision 4.10 
##DATA TYPE=MASS SPECTRUM
##SAMPLE DESCRIPTION=Japan AIST/NIMC Database- Spectrum MS-NW-6111
##NAMES=HP
##CAS NAME=2,2'-Thiodisuccinic acid
##MOLFORM=C8H10O8S
##CAS REGISTRY NO=4917-76-4
##MP= -300
##BP= -300
##MW= 266
##$RETENTION INDEX=0
##$CONDENSED SPECTRUM=NO
##NPOINTS= 176
##XYDATA=(XY..XY) 1 
    12         24
    13         28
    14         33
    15         32
    16         23
    17        117
    18        407
    24         34
    25        129
    26        999
    27        683
    28        280
    29         97
    30          6
    31         17
    32         49
    33         63
    34         93
    35        131
    36         19
    37         23
    38         11
    39         14
    40         12
    41         58
    42        108
    43        208
    44        502
    45        802
    46         85
    47         67
    48         11
    49          9
    50          7
    51          8
    52         27
    53        162
    54        795
    55        515
    56         50
    57         79
    58        463
    59        526
    60        518
    61        120
    62         36
    63         87
    64         21
    65          9
    66          5
    67          8
    68          9
    69         23
    70         19
    71        118
    72        354
    73        101
    74         21
    75         31
    76         32
    77         13
    78          6
    79          6
    80          8
    81         26
    82         20
    83         16
    84          9
    85         75
    86        314
    87        536
    88        148
    89         51
    90         25
    91         11
    92          4
    94          3
    95          9
    96          8
    97         14
    98        317
    99        230
   100        247
   101         19
   102         12
   103         46
   104        736
   105        156
   106         64
   107         13
   108          7
   109          8
   110          6
   111          9
   112         18
   113        113
   114         56
   115          9
   116         30
   117         14
   118        104
   119          8
   120          5
   121          7
   122          3
   124          5
   125          8
   126          4
   127          4
   128          3
   129          4
   130         50
   131         31
   132        838
   133         60
   134         49
   135         17
   136          5
   137          3
   138          3
   139          4
   140         13
   141         13
   142          7
   144          6
   145          6
   147          5
   149         21
   150          6
   151          4
   152          4
   153          5
   154          3
   155          5
   156          4
   157          3
   158        232
   159         25
   160         17
   161         10
   162          3
   163          5
   164          4
   165          3
   167          3
   168          4
   169          3
   170          3
   174         15
   175          4
   176         17
   177          3
   178          4
   179          3
   181          4
   182          3
   184          5
   185          4
   186         55
   187          9
   188          5
   195          3
   197          3
   202         17
   203          4
   204         51
   205          6
   206          6
   211          3
   220          3
   230         20
   231          4
   236          3
   248         19
   249          3
   250          1