##TITLE=Library Entry 100530
##JCAMP-DX=Revision 4.10 
##DATA TYPE=MASS SPECTRUM
##SAMPLE DESCRIPTION=Exported from NIST MS Search
##NAMES=HP
##CAS NAME=s-Triazolo[4,3-a]pyridine, 3,5,7-trimethyl-
##MOLFORM=C9H11N3
##CAS REGISTRY NO=4919-15-7
##MP= -300
##BP= -300
##MW= 161
##$RETENTION INDEX=0
##$CONDENSED SPECTRUM=NO
##NPOINTS= 23
##XYDATA=(XY..XY) 1 
    50        140
    51        330
    52        370
    53        310
    63        140
    64        160
    66        270
    67        250
    77        210
    78        250
    79        250
    80        150
    92        400
    93        350
    94        100
   105        170
   106         60
   107         80
   119        999
   120        400
   160        180
   161        890
   162        120