##TITLE=Library Entry 84212
##JCAMP-DX=Revision 4.10 
##DATA TYPE=MASS SPECTRUM
##SAMPLE DESCRIPTION=Japan AIST/NIMC Database- Spectrum MS-NW-6615
##NAMES=HP
##CAS NAME=Benzeneacetic acid, 4-ethoxy-
##MOLFORM=C10H12O3
##CAS REGISTRY NO=4919-33-9
##MP= -300
##BP= -300
##MW= 180
##$RETENTION INDEX=0
##$CONDENSED SPECTRUM=NO
##NPOINTS= 104
##XYDATA=(XY..XY) 1 
    14          5
    15          4
    16          3
    17          1
    18          3
    26          9
    27         52
    28          7
    29         46
    30          2
    31          1
    37          3
    38          7
    39         39
    40          5
    41          6
    42          2
    43          8
    44         13
    45         16
    49          1
    50         25
    51         60
    52         32
    53         25
    54          3
    55         10
    57          1
    60          1
    61          3
    62          9
    63         28
    64          9
    65         11
    66          4
    67          4
    68          1
    69          2
    73          2
    74          5
    75          4
    76          6
    77        128
    78         61
    79         35
    80          5
    81          6
    82          1
    84          1
    85          2
    86          2
    87          2
    88          1
    89         25
    90         18
    91         15
    92          4
    93          2
    94          2
    95          5
    96          1
   101          1
   102          1
   103          2
   104          2
   105         20
   106         21
   107        999
   108         86
   109         17
   110          2
   111          1
   115          1
   117          2
   118          1
   119          4
   120          2
   121         64
   122          8
   123          5
   124          1
   128          1
   131          2
   133         16
   134         15
   135        412
   136         45
   137          5
   149          1
   150          3
   151          3
   152         38
   153          4
   154          1
   161          1
   162         27
   163          5
   164          1
   165          2
   178          1
   179          2
   180        374
   181         45
   182          6