##TITLE=Library Entry 81288
##JCAMP-DX=Revision 4.10 
##DATA TYPE=MASS SPECTRUM
##SAMPLE DESCRIPTION=Japan AIST/NIMC Database- Spectrum MS-NW-4702
##NAMES=HP
##CAS NAME=Benzeneacetic acid, .alpha.-methyl-
##MOLFORM=C9H10O2
##CAS REGISTRY NO=492-37-5
##MP= -300
##BP= -300
##MW= 150
##$RETENTION INDEX=1300
##$CONDENSED SPECTRUM=NO
##NPOINTS= 72
##XYDATA=(XY..XY) 1 
    15          2
    17          1
    18          3
    26          3
    27         41
    28         12
    29          3
    37          3
    38          8
    39         39
    40          3
    41          5
    43          9
    44          5
    45         13
    49          3
    50         30
    51         85
    52         21
    53         13
    54          1
    55          2
    60          1
    61          3
    62          9
    63         25
    64          6
    65         16
    66          3
    67          1
    73          2
    74         10
    75          9
    76          9
    77        174
    78         69
    79        144
    80          9
    81          1
    86          1
    87          3
    89         11
    90          5
    91         76
    92          6
    93          1
    94          2
    95          1
    98          1
   101          2
   102         14
   103        108
   104         68
   105        999
   106        105
   107         10
   108          1
   115          1
   116          1
   118          1
   120          1
   121          1
   122          1
   131          1
   132         19
   133          2
   134          1
   135          2
   148          2
   150        198
   151         20
   152          2