##TITLE=Library Entry 15809
##JCAMP-DX=Revision 4.10 
##DATA TYPE=MASS SPECTRUM
##SAMPLE DESCRIPTION=Virginia Division of Forensic Science
##NAMES=HP
##CAS NAME=(-)-Norephedrine
##MOLFORM=C9H13NO
##CAS REGISTRY NO=492-41-1
##MP= -300
##BP= -300
##MW= 151
##$RETENTION INDEX=1331
##$CONDENSED SPECTRUM=NO
##NPOINTS= 97
##XYDATA=(XY..XY) 1 
    15         14
    16          1
    17          2
    18         57
    24          1
    25          1
    26          5
    27         34
    28         17
    29         29
    30         13
    31          2
    37          2
    38          9
    39         38
    40          8
    41         14
    42         61
    44        999
    45         28
    46          1
    47          1
    50         45
    51        112
    52         34
    53         22
    54          3
    55          5
    56          2
    57          2
    58          1
    59          1
    60          1
    61          2
    62         10
    63         24
    64          5
    65         13
    66          2
    67          1
    68          1
    69          1
    70          1
    72          1
    73          2
    74         13
    75          8
    77        245
    78         62
    79        137
    80          9
    81          1
    82          1
    83          1
    85          1
    86          2
    87          1
    89         14
    90          7
    91         27
    92          3
    93          1
    94          1
    98          1
    99          1
   100          1
   101          1
   102          1
   103          4
   105         51
   106         13
   107         34
   108          4
   109          1
   110          1
   111          1
   113          1
   115          8
   116          3
   117         18
   118         15
   119          4
   120          1
   121          1
   122          1
   128          1
   130          2
   131          1
   132          4
   133          2
   134          2
   135          1
   136          1
   148          1
   149          1
   150          1
   152          1