##TITLE=Library Entry 3235
##JCAMP-DX=Revision 4.10 
##DATA TYPE=MASS SPECTRUM
##SAMPLE DESCRIPTION=Japan AIST/NIMC Database- Spectrum MS-NW-1947
##NAMES=HP
##CAS NAME=1,2-Cyclohexanedione dioxime
##MOLFORM=C6H10N2O2
##CAS REGISTRY NO=492-99-9
##MP= -300
##BP= -300
##MW= 142
##$RETENTION INDEX=0
##$CONDENSED SPECTRUM=NO
##NPOINTS= 104
##XYDATA=(XY..XY) 1 
    13          2
    14          5
    15         47
    16          7
    17         14
    18         69
    25          2
    26         59
    27        308
    28        244
    29        176
    30        118
    31         36
    32          3
    33          1
    36          1
    37         26
    38         54
    39        400
    40        127
    41        999
    42        198
    43         81
    44        103
    45         17
    46          8
    48          4
    49          5
    50         31
    51         71
    52        153
    53        317
    54        462
    55        478
    56         70
    57         77
    58         15
    59          8
    60          5
    61          3
    62          7
    63         17
    64         31
    65        125
    66        225
    67        723
    68        264
    69         61
    70        113
    71         11
    72          6
    73          1
    74          3
    75          5
    76          7
    77         60
    78         34
    79        118
    80        266
    81         80
    82         80
    83         31
    84         30
    85          6
    86          1
    87          1
    88          1
    90          5
    91          7
    92         64
    93         89
    94        181
    95        187
    96         56
    97         78
    98         23
    99          4
   104          3
   105         73
   106         18
   107        299
   108         61
   109        158
   110         35
   111         34
   112          4
   113          3
   118          1
   120          2
   121          2
   122         11
   123         17
   124         33
   125        188
   126        105
   127         10
   128          4
   136          2
   138          2
   140         29
   141         26
   142        686
   143         56
   144          5