##TITLE=Library Entry 41128
##JCAMP-DX=Revision 4.10 
##DATA TYPE=MASS SPECTRUM
##SAMPLE DESCRIPTION=W.E. FRANKLIN, SOUTH. REG. RES. CENT., NEW ORLEANS, LA.
, USA
##NAMES=HP
##CAS NAME=.alpha.-D-Glucose
##MOLFORM=C6H12O6
##CAS REGISTRY NO=492-62-6
##MP= -300
##BP= -300
##MW= 180
##$RETENTION INDEX=0
##$CONDENSED SPECTRUM=NO
##NPOINTS= 40
##XYDATA=(XY..XY) 1 
    15         78
    17         21
    18         61
    26         33
    27         99
    28         44
    29        293
    30         63
    31        391
    32         22
    39         53
    41         80
    42        186
    43        500
    44        196
    45        190
    47         57
    54         17
    55        135
    56        163
    57        244
    58         50
    60        826
    61        603
    62          8
    69         93
    70         33
    71        296
    72        149
    73        999
    74        147
    84          3
    85        147
    89         21
    91         75
    97         31
   101         21
   103        128
   130          3
   131         10