##TITLE=Library Entry 41103
##JCAMP-DX=Revision 4.10 
##DATA TYPE=MASS SPECTRUM
##SAMPLE DESCRIPTION=Japan AIST/NIMC Database- Spectrum MS-IW-5616
##NAMES=HP
##CAS NAME=.beta.-D-Glucopyranose
##MOLFORM=C6H12O6
##CAS REGISTRY NO=492-61-5
##MP= -300
##BP= -300
##MW= 180
##$RETENTION INDEX=0
##$CONDENSED SPECTRUM=NO
##NPOINTS= 124
##XYDATA=(XY..XY) 1 
    13          6
    14         46
    15         76
    16          5
    17         74
    18        290
    19         23
    24          4
    25         13
    26         65
    27         75
    28        229
    29        285
    30        108
    31        313
    32         92
    33          7
    34          1
    36          2
    37          7
    38         10
    39         47
    40         20
    41         78
    42        320
    43        374
    44        180
    45         99
    46          6
    47         37
    49          9
    50         11
    51         10
    52         11
    53         27
    54         35
    55        123
    56        149
    57        245
    58         38
    59         17
    60        746
    61        330
    62         18
    63          5
    64          4
    65          3
    66          8
    67          5
    68         26
    69         79
    70         46
    71        226
    72        139
    73        999
    74        129
    75         11
    76          2
    77         12
    78          3
    79          3
    80         12
    81         11
    82          8
    83         11
    84         31
    85         77
    86         40
    87         25
    88          5
    89         32
    90         16
    91         51
    92          5
    93          1
    94          6
    95         23
    96         32
    97         55
    98         45
    99          9
   100          2
   101         60
   102         55
   103         66
   104          4
   105          2
   106          1
   107          2
   108          3
   109          6
   110          9
   111          2
   112          1
   113          9
   114          4
   115         18
   116         10
   117          1
   118          1
   119         30
   120          5
   121          3
   122          1
   123          1
   124          1
   125          2
   126         11
   127         12
   128          2
   129          1
   131         62
   132          5
   133         26
   134          2
   135          1
   143          1
   144          8
   145          5
   149         12
   150          1
   151          1
   152          1
   163          4