##TITLE=Library Entry 15808
##JCAMP-DX=Revision 4.10 
##DATA TYPE=MASS SPECTRUM
##SAMPLE DESCRIPTION=Virginia Division of Forensic Science
##NAMES=HP
##CAS NAME=Cathine
##MOLFORM=C9H13NO
##CAS REGISTRY NO=492-39-7
##MP= -300
##BP= -300
##MW= 151
##$RETENTION INDEX=1361
##$CONDENSED SPECTRUM=NO
##NPOINTS= 31
##XYDATA=(XY..XY) 1 
    41          3
    42         21
    43         12
    44        999
    45         30
    50         11
    51         31
    52          8
    53          6
    59          2
    62          2
    63          7
    65          5
    74          4
    75          2
    76          3
    77         84
    78         20
    79         54
    80          4
    89          5
    90          3
    91         11
   105         19
   106          5
   107         18
   108          2
   115          3
   117          9
   118          8
   119          2