##TITLE=Library Entry 6524
##JCAMP-DX=Revision 4.10 
##DATA TYPE=MASS SPECTRUM
##SAMPLE DESCRIPTION=Asinex Ltd, Moscow, Russia
##NAMES=HP
##CAS NAME=7-Methylxanthopteridine
##MOLFORM=C7H7N5O2
##CAS REGISTRY NO=492-10-4
##MP= -300
##BP= -300
##MW= 193
##$RETENTION INDEX=0
##$CONDENSED SPECTRUM=NO
##NPOINTS= 111
##XYDATA=(XY..XY) 1 
    34          0
    35          6
    36         33
    37          1
    38         21
    39         28
    40         28
    41         71
    42        533
    43        999
    44        352
    45         12
    46         11
    47          0
    48         49
    49          0
    50          5
    51          6
    52         31
    53        278
    54        216
    55         41
    56          7
    59          6
    61          0
    63          0
    64         82
    65          6
    66         19
    67         34
    68         43
    69        166
    70         36
    72         23
    76          0
    77          2
    78          5
    79         11
    80         23
    81         13
    82         44
    86          1
    91          1
    92          2
    93          2
    94          3
    95         11
    96         29
    97         32
   103          0
   104          0
   105          0
   106          1
   107          5
   108          5
   109          3
   110          1
   111          0
   112          0
   117          0
   118          0
   119          3
   120          9
   121          3
   122          6
   123        131
   124        137
   125         18
   126          1
   127          1
   128          2
   132          0
   133          0
   134          1
   135          3
   136          3
   137          0
   138          0
   141          3
   142          0
   146          0
   147          7
   148         41
   149          8
   150          2
   151          7
   152        319
   153         29
   154          0
   161          0
   163          1
   164          9
   165         58
   166          3
   167          4
   168          0
   170          0
   174          0
   175          0
   176          0
   177          1
   178          1
   179          0
   180          1
   181          0
   188          0
   190          0
   192          1
   193        261
   194         34
   195          5