##TITLE=Library Entry 67657
##JCAMP-DX=Revision 4.10 
##DATA TYPE=MASS SPECTRUM
##SAMPLE DESCRIPTION=Japan AIST/NIMC Database- Spectrum MS-NW-2322
##NAMES=HP
##CAS NAME=.alpha.-Furil
##MOLFORM=C10H6O4
##CAS REGISTRY NO=492-94-4
##MP= -300
##BP= -300
##MW= 190
##$RETENTION INDEX=1544
##$CONDENSED SPECTRUM=NO
##NPOINTS= 38
##XYDATA=(XY..XY) 1 
    14          2
    16          1
    26          2
    27          2
    28          3
    29          8
    36          1
    37         13
    38         36
    39        163
    40          5
    41          4
    44          6
    49          2
    50          4
    51         12
    52          1
    53          7
    62          1
    63          1
    65          1
    66          4
    67         23
    68          2
    77          2
    78          3
    79          1
    95        999
    96         54
    97          6
   105          2
   109          2
   158          1
   162         10
   163          1
   190         72
   191          9
   192          1