##TITLE=Library Entry 701
##JCAMP-DX=Revision 4.10 
##DATA TYPE=MASS SPECTRUM
##SAMPLE DESCRIPTION=Chemical Concepts
##NAMES=HP
##CAS NAME=2,8-Decadienedioic acid, diethyl ester
##MOLFORM=C14H22O4
##CAS REGISTRY NO=4921-68-0
##MP= -300
##BP= -300
##MW= 254
##$RETENTION INDEX=0
##$CONDENSED SPECTRUM=NO
##NPOINTS= 178
##XYDATA=(XY..XY) 1 
    24          0
    25          2
    26         49
    27        434
    28        108
    29        999
    30         26
    31         31
    32         14
    33          0
    35          0
    36          0
    37          4
    38         16
    39        365
    40        154
    41        415
    42         72
    43        171
    44         12
    45        118
    46          5
    47          8
    48          0
    49          0
    50         10
    51         38
    52         29
    53        284
    54        132
    55        418
    56         26
    57        148
    58         11
    59          6
    60         29
    61         19
    62          2
    63          9
    64          4
    65         64
    66         90
    67        377
    68        379
    69         88
    70         36
    71         52
    72          4
    73         84
    74          9
    75          5
    76          2
    77         56
    78         35
    79        321
    80        125
    81        375
    82        182
    83         37
    84         51
    85        101
    86        132
    87         14
    88        130
    89         12
    90          3
    91         99
    92         87
    93        162
    94         98
    95        137
    96         17
    97         77
    98         52
    99        117
   100         18
   101         31
   102          8
   103          7
   104          4
   105         62
   106        218
   107        576
   108        102
   109         67
   110         12
   111         36
   112        101
   113         30
   114         89
   115         17
   116          8
   117         67
   118         11
   119         96
   120         37
   121         51
   122         17
   123         22
   124         14
   125         52
   126         20
   127         40
   128         10
   129          4
   130          1
   131          1
   132          3
   133         50
   134        357
   135        457
   136        167
   137        104
   138         17
   139         24
   140        112
   141         19
   142          2
   143          3
   144          3
   145          7
   146          4
   147          3
   148          0
   149          0
   151         56
   152         60
   153         44
   154         13
   155          3
   156          1
   157          1
   158          0
   159          0
   160          0
   161         13
   162        157
   163        229
   164        126
   165         31
   166         40
   167         27
   168          3
   169          3
   170          0
   171          0
   173          0
   174          0
   179         13
   180        261
   181         97
   182         59
   183         51
   184          7
   185          0
   186          3
   187          0
   190          1
   191          0
   192          1
   193          0
   197          6
   198          0
   199          0
   200          0
   207          1
   208         62
   209         62
   210         29
   211         51
   212          6
   213          0
   225          1
   226          1
   227          1
   253          2
   254         16
   255          3