##TITLE=Library Entry 147
##JCAMP-DX=Revision 4.10 
##DATA TYPE=MASS SPECTRUM
##SAMPLE DESCRIPTION=R. G. KOSTYANOVSKY
##NAMES=HP
##CAS NAME=Azetidine, 1-methyl-
##MOLFORM=C4H9N
##CAS REGISTRY NO=4923-79-9
##MP= -300
##BP= -300
##MW= 71
##$RETENTION INDEX=0
##$CONDENSED SPECTRUM=NO
##NPOINTS= 18
##XYDATA=(XY..XY) 1 
    27        150
    28        999
    29        160
    30        750
    31        120
    39         80
    40         50
    41        200
    42        660
    43        400
    44        130
    45         50
    55         20
    56        360
    57         30
    70        100
    71        300
    72         30