##TITLE=Library Entry 69820
##JCAMP-DX=Revision 4.10 
##DATA TYPE=MASS SPECTRUM
##SAMPLE DESCRIPTION=SHELL OIL CO., HOUSTON, TEXAS, USA
##NAMES=HP
##CAS NAME=Cyclohexane, 1-ethyl-2-methyl-, cis-
##MOLFORM=C9H18
##CAS REGISTRY NO=4923-77-7
##MP= -300
##BP= -300
##MW= 126
##$RETENTION INDEX=929
##$CONDENSED SPECTRUM=NO
##NPOINTS= 83
##XYDATA=(XY..XY) 1 
    40         46
    41        495
    42        156
    43        136
    44          4
    45          0
    46          0
    47          0
    48          0
    49          0
    50         12
    51         32
    52         15
    53         89
    54         60
    55        968
    56        198
    57         43
    58          1
    60          0
    61          0
    62          2
    63          7
    64          1
    65         17
    66          8
    67         68
    68         46
    69        213
    70         78
    71         12
    72          0
    73          0
    74          0
    75          0
    76          0
    77         16
    78          4
    79         14
    80          3
    81         35
    82         13
    83         57
    84         32
    85          4
    86          0
    87          0
    88          0
    89          0
    90          0
    91          6
    92          1
    93          1
    94          0
    95          7
    96        118
    97        999
    98         83
    99          3
   100          0
   102          0
   103          0
   104          0
   105          0
   106          0
   107          0
   108          0
   109          0
   110          0
   111         20
   112          2
   113          0
   115          0
   119          0
   120          0
   121          0
   122          0
   123          0
   124          0
   125          1
   126         58
   127          5
   128          0