##TITLE=Library Entry 69823
##JCAMP-DX=Revision 4.10 
##DATA TYPE=MASS SPECTRUM
##SAMPLE DESCRIPTION=NIST Mass Spectrometry Data Center, 1990.
##NAMES=HP
##CAS NAME=Cyclohexane, 1-ethyl-2-methyl-, trans-
##MOLFORM=C9H18
##CAS REGISTRY NO=4923-78-8
##MP= -300
##BP= -300
##MW= 126
##$RETENTION INDEX=913
##$CONDENSED SPECTRUM=NO
##NPOINTS= 47
##XYDATA=(XY..XY) 1 
    15          9
    16          2
    26         12
    27        135
    28         35
    29        144
    30          2
    38         13
    39        158
    40         33
    41        324
    42         91
    43         84
    44          2
    50          9
    51         20
    52         10
    53         60
    54          2
    55        836
    56        139
    57         34
    63          4
    64          3
    65         15
    66          9
    67         60
    68         40
    69        213
    70         55
    71          7
    77         10
    78          4
    79         13
    80          3
    81         56
    82          9
    83         25
    84         17
    91          6
    93          2
    97        999
    98         94
    99          4
   111         20
   126        147
   127         18