##TITLE=Library Entry 69830
##JCAMP-DX=Revision 4.10 
##DATA TYPE=MASS SPECTRUM
##SAMPLE DESCRIPTION=Exported from NIST MS Search
##NAMES=HP
##CAS NAME=Cyclohexane, 1-ethyl-1-methyl-
##MOLFORM=C9H18
##CAS REGISTRY NO=4926-90-3
##MP= -300
##BP= -300
##MW= 126
##$RETENTION INDEX=911
##$CONDENSED SPECTRUM=NO
##NPOINTS= 80
##XYDATA=(XY..XY) 1 
    12          1
    13          1
    14          3
    15         30
    16          1
    25          1
    26         14
    27        191
    28         34
    29        163
    30          4
    31          1
    37          1
    38          7
    39        167
    40         25
    41        332
    42         45
    43         75
    44          3
    45          1
    46          1
    47          1
    48          1
    49          1
    50          8
    51         22
    52         10
    53         67
    54         34
    55        863
    56         78
    57         32
    58          1
    61          1
    62          2
    63          5
    64          1
    65         11
    66          5
    67         47
    68         26
    69        186
    70         73
    71         10
    72          1
    73          1
    74          1
    75          1
    76          1
    77         13
    78          3
    79         11
    80          2
    81         48
    82          8
    83         48
    84          7
    85          1
    86          1
    87          1
    89          1
    90          1
    91          4
    92          1
    93          1
    94          1
    95          5
    96        208
    97        999
    98         79
    99          3
   109          1
   110          2
   111         66
   112          6
   113          1
   125          1
   126          3
   127          1