##TITLE=Library Entry 69211
##JCAMP-DX=Revision 4.10 
##DATA TYPE=MASS SPECTRUM
##SAMPLE DESCRIPTION=Japan AIST/NIMC Database- Spectrum MS-NW-2221
##NAMES=HP
##CAS NAME=Naphthalene, decahydro-, cis-
##MOLFORM=C10H18
##CAS REGISTRY NO=493-01-6
##MP= -300
##BP= -300
##MW= 138
##$RETENTION INDEX=1101
##$CONDENSED SPECTRUM=NO
##NPOINTS= 71
##XYDATA=(XY..XY) 1 
    15          6
    26          6
    27        127
    28          7
    29        110
    30          2
    37          1
    38          6
    39        184
    40         31
    41        437
    42         37
    43         38
    44          1
    48          1
    50          9
    51         26
    52         15
    53        108
    54        191
    55        340
    56         31
    57         10
    58          1
    62          2
    63          8
    64          2
    65         32
    66         63
    67        907
    68        364
    69        186
    70         23
    71          6
    74          1
    75          1
    76          1
    77         42
    78         11
    79         87
    80         62
    81        862
    82        694
    83        116
    84          7
    89          1
    91         21
    92          3
    93         27
    94         29
    95        507
    96        999
    97        109
    98          7
   103          1
   104          2
   105          2
   107          5
   108         10
   109        323
   110         92
   111          8
   115          1
   121          1
   123         11
   124          1
   136          1
   137          7
   138        847
   139         93
   140          4