##TITLE=Library Entry 33161
##JCAMP-DX=Revision 4.10 
##DATA TYPE=MASS SPECTRUM
##SAMPLE DESCRIPTION=NIST Mass Spectrometry Data Center, 1990.
##NAMES=HP
##CAS NAME=Naphthalene, decahydro-, trans-
##MOLFORM=C10H18
##CAS REGISTRY NO=493-02-7
##MP= -300
##BP= -300
##MW= 138
##$RETENTION INDEX=1056
##$CONDENSED SPECTRUM=NO
##NPOINTS= 62
##XYDATA=(XY..XY) 1 
    15         15
    26         18
    27        220
    28         64
    29        174
    30          2
    37          3
    39        345
    40         70
    41        615
    42         67
    43         41
    44          2
    45          2
    50         16
    51         54
    52         34
    53        175
    54        196
    55        335
    56         29
    57          9
    58          2
    62          4
    63         13
    65         78
    66        126
    67        999
    68        752
    69        334
    70         36
    71          5
    74          1
    77         83
    78         29
    79        145
    80         79
    81        620
    82        644
    83        133
    84          6
    89          3
    91         48
    92          9
    93         49
    94         58
    95        547
    96        639
    97         84
    98          3
   103          2
   105          2
   107          6
   109        144
   110         78
   111          7
   115          2
   121          3
   123         15
   138        781
   139         92
   140          4