##TITLE=Library Entry 60255
##JCAMP-DX=Revision 4.10 
##DATA TYPE=MASS SPECTRUM
##SAMPLE DESCRIPTION=NIST Mass Spectrometry Data Center, 1990.
##NAMES=HP
##CAS NAME=Naphthalene, 1,4,5,8-tetrahydro-
##MOLFORM=C10H12
##CAS REGISTRY NO=493-04-9
##MP= -300
##BP= -300
##MW= 132
##$RETENTION INDEX=1189
##$CONDENSED SPECTRUM=NO
##NPOINTS= 69
##XYDATA=(XY..XY) 1 
    14          9
    15         46
    17          8
    18          1
    19          5
    26         64
    27        292
    28         39
    29         13
    37         34
    38        109
    39        507
    40         64
    41         77
    44          7
    50        232
    51        433
    52        142
    53        157
    54        602
    55         43
    56          7
    57         45
    61         24
    62        109
    63        259
    64        200
    65        304
    66         67
    67         43
    73         16
    74        106
    75         88
    76        100
    77        409
    78        924
    79        130
    80          9
    85          8
    86         17
    87         32
    88         13
    89         88
    90          8
    91        999
    92         85
    93          7
    98         19
    99         12
   100          7
   101         34
   102        122
   103        138
   104        368
   105         77
   106          6
   113          8
   115        527
   116        290
   117        706
   118         73
   126         49
   127        110
   128        251
   129        193
   130         96
   131        239
   132        662
   133         67