##TITLE=Library Entry 76727
##JCAMP-DX=Revision 4.10 
##DATA TYPE=MASS SPECTRUM
##SAMPLE DESCRIPTION=Japan AIST/NIMC Database- Spectrum MS-NW-9812
##NAMES=HP
##CAS NAME=1,3,5-Triazine, 2,4,6-triphenyl-
##MOLFORM=C21H15N3
##CAS REGISTRY NO=493-77-6
##MP= -300
##BP= -300
##MW= 309
##$RETENTION INDEX=0
##$CONDENSED SPECTRUM=NO
##NPOINTS= 33
##XYDATA=(XY..XY) 1 
    26          1
    27          1
    28          2
    39          4
    44          3
    50          9
    51         12
    52          6
    53          1
    57          1
    63          3
    64          1
    74          1
    75          9
    76         86
    77         38
    78          3
   102          7
   103        999
   104        107
   105          5
   129          2
   151          1
   154         12
   155          3
   178          1
   205          9
   206         11
   207          1
   308          1
   309        488
   310        117
   311         12