##TITLE=Library Entry 77561
##JCAMP-DX=Revision 4.10 
##DATA TYPE=MASS SPECTRUM
##SAMPLE DESCRIPTION=NIST Mass Spectrometry Data Center
##NAMES=HP
##CAS NAME=5-Phenylcyclohexane-1,3-dione
##MOLFORM=C12H12O2
##CAS REGISTRY NO=493-72-1
##MP= -300
##BP= -300
##MW= 188
##$RETENTION INDEX=0
##$CONDENSED SPECTRUM=NO
##NPOINTS= 102
##XYDATA=(XY..XY) 1 
    15          3
    26          6
    27         30
    29          5
    31          2
    37          2
    38         11
    39         90
    40         13
    41         31
    42         98
    43         29
    44          1
    45          1
    49          1
    50         47
    51        117
    52         34
    53         12
    54          2
    55         12
    56         74
    58         39
    59          7
    61          2
    62         14
    63         49
    64         10
    65         50
    66          5
    67          1
    68          3
    69         41
    70          1
    71          1
    73          8
    74         18
    75         18
    76         24
    77        152
    78        196
    79         15
    80          1
    81          1
    82          5
    83          2
    84        112
    85          6
    86          4
    87          6
    88          2
    89         32
    90          7
    91        110
    92         10
    93          1
    94          1
    97          1
    98          2
    99          1
   101          5
   102         50
   103        290
   104        999
   105        107
   106          5
   107          1
   111          2
   113          2
   114          2
   115        135
   116         32
   117        152
   118         59
   119          6
   126          1
   127         10
   128         22
   129          9
   130          8
   131        724
   132         78
   133          5
   139          1
   141          7
   142         12
   143          3
   144         29
   145        131
   146         31
   147          2
   158          1
   159         13
   160         81
   161         10
   170          3
   171          1
   173          4
   188        323
   189         43
   190          3
   191          2