##TITLE=Library Entry 77598
##JCAMP-DX=Revision 4.10 
##DATA TYPE=MASS SPECTRUM
##SAMPLE DESCRIPTION=Chuck Anderson, Aldrich Chemical Co.
##NAMES=HP
##CAS NAME=Isochroman
##MOLFORM=C9H10O
##CAS REGISTRY NO=493-05-0
##MP= -300
##BP= -300
##MW= 134
##$RETENTION INDEX=1168
##$CONDENSED SPECTRUM=NO
##NPOINTS= 85
##XYDATA=(XY..XY) 1 
    14          0
    15          0
    25          0
    26          6
    27         51
    28          5
    29         18
    30          4
    31          2
    36          0
    37          7
    38         19
    39         97
    40          6
    41          5
    42          1
    43          2
    44          1
    45          0
    48          0
    49          4
    50         53
    51        115
    52         38
    53         17
    54          1
    55         18
    56          0
    57          1
    58          0
    59          0
    60          0
    61          5
    62         17
    63         49
    64          8
    65         26
    66          7
    67          0
    72          0
    73          3
    74         24
    75         19
    76         24
    77        216
    78        199
    79         93
    80          5
    81          0
    84          0
    85          1
    86          3
    87          4
    88          1
    89         24
    90          6
    91         65
    92          5
    93          0
    94          0
    97          1
    98          4
    99          1
   100          0
   101          4
   102         45
   103        266
   104        999
   105        369
   106         82
   107          8
   108          0
   113          0
   114          0
   115         37
   116          4
   117          1
   118          2
   119          3
   131          6
   132          1
   133        236
   134        480
   135         43
   136          3