##TITLE=Library Entry 67368
##JCAMP-DX=Revision 4.10 
##DATA TYPE=MASS SPECTRUM
##SAMPLE DESCRIPTION=CARL DJERASSI DEPT OF CHEM STANFORD UNIV STANFORD CALIF
 94305
##NAMES=HP
##CAS NAME=Carbamic acid, phenyl-, phenyl ester
##MOLFORM=C13H11NO2
##CAS REGISTRY NO=4930-03-4
##MP= -300
##BP= -300
##MW= 213
##$RETENTION INDEX=0
##$CONDENSED SPECTRUM=NO
##NPOINTS= 24
##XYDATA=(XY..XY) 1 
    40         70
    41         40
    43         10
    44         30
    50         70
    51        100
    52         20
    53         10
    55         30
    61         20
    62         30
    63         90
    64        130
    65        160
    66        130
    77         60
    91        220
    92         40
    93         20
    94        999
    95         80
   119        550
   120         50
   213         50