##TITLE=Library Entry 58270
##JCAMP-DX=Revision 4.10 
##DATA TYPE=MASS SPECTRUM
##SAMPLE DESCRIPTION=Chemical Concepts
##NAMES=HP
##CAS NAME=Cyclobutane, 1-bromo-3-chloro-
##MOLFORM=C4H6BrCl
##CAS REGISTRY NO=4935-03-9
##MP= -300
##BP= -300
##MW= 168
##$RETENTION INDEX=0
##$CONDENSED SPECTRUM=NO
##NPOINTS= 73
##XYDATA=(XY..XY) 1 
    25          5
    26         62
    27        525
    29          5
    31          2
    35          2
    36         18
    37          8
    38         11
    39         62
    40          3
    41         24
    42          2
    43         12
    44         11
    45          2
    48          3
    49         18
    50         25
    51         59
    52         13
    53        512
    54         30
    55          8
    57          8
    60          4
    61         18
    62        156
    63         21
    64         40
    65          3
    67          3
    69          8
    70          4
    71          3
    73          3
    75         42
    77         18
    79          7
    80          6
    81          7
    82          4
    83          3
    84          2
    85          2
    87          5
    88         20
    89        999
    90         45
    91        310
    92         11
    93          3
    95          3
   104          2
   105          5
   106        392
   107         16
   108        349
   109          8
   120          9
   121          0
   122          9
   123          0
   134          8
   135          0
   136          8
   137          0
   168         28
   169          1
   170         38
   171          1
   172         12
   173          0