##TITLE=Library Entry 5346
##JCAMP-DX=Revision 4.10 
##DATA TYPE=MASS SPECTRUM
##SAMPLE DESCRIPTION=A.A.Kutin, Moscow, Russia
##NAMES=HP
##CAS NAME=1-Propanol, 2-[(3,5-dichlorosalicylidene)amino]-2-methyl-
##MOLFORM=C11H13Cl2NO2
##CAS REGISTRY NO=4936-83-8
##MP= -300
##BP= -300
##MW= 261
##$RETENTION INDEX=0
##$CONDENSED SPECTRUM=NO
##NPOINTS= 180
##XYDATA=(XY..XY) 1 
    33         14
    34          9
    35         20
    36         96
    37         20
    38         62
    39        208
    40        183
    41        342
    42        999
    43        219
    44        188
    45        119
    46         13
    47          4
    48          1
    49         11
    50         49
    51         41
    52         26
    53         68
    54         30
    55        388
    56         63
    57         90
    58         42
    59          9
    60          9
    61         32
    62         63
    63        105
    64         24
    65         33
    66         24
    67          5
    68         11
    69         14
    70         12
    71         19
    72        107
    73        153
    74         94
    75        189
    76         42
    77         31
    78          6
    79          7
    80          9
    81          4
    83         18
    84         23
    85         30
    86         14
    87         24
    88         32
    89         35
    90         37
    91         39
    92          6
    93          7
    94          7
    95          3
    96          9
    97         85
    98         30
    99        120
   100         46
   101         37
   102         12
   103         11
   104          5
   105          4
   107         12
   109        101
   110         43
   111         91
   112         24
   113         24
   114          7
   115         17
   116         15
   117         12
   118          6
   119          4
   120          5
   122          1
   123         13
   124         32
   125         40
   126         32
   127         61
   128         28
   129         18
   130         15
   131         13
   132         11
   133         37
   134         37
   135         28
   136         25
   137         12
   138         16
   139         39
   140          8
   141         16
   144          7
   145         25
   146         39
   147         20
   148         24
   149         14
   150         12
   151         11
   152         27
   153         18
   154         54
   155         34
   156         17
   157         10
   158          3
   159         16
   160         11
   161         77
   162         35
   163         63
   164         23
   165         21
   166          7
   167          5
   168          1
   171         12
   172          6
   173         26
   174         25
   175         45
   176         17
   177         26
   178         30
   179          9
   180         14
   181          2
   182          2
   185          2
   187         41
   188        156
   189        724
   190        204
   191        459
   192         87
   193         74
   194         21
   195          5
   196          4
   200          6
   201          2
   202          7
   203          2
   212         13
   213        217
   214         59
   215        142
   216         35
   217         26
   218          7
   228          9
   230        639
   231         96
   232        393
   233         49
   234         63
   235          8
   246         11
   248          6
   260         26
   261        331
   262         57
   263        216
   264         28
   265         33
   266          3