##TITLE=Library Entry 78709
##JCAMP-DX=Revision 4.10 
##DATA TYPE=MASS SPECTRUM
##SAMPLE DESCRIPTION=A.A.Kutin, Moscow, Russia
##NAMES=HP
##CAS NAME=Glyoxylohydroximoyl chloride, 2-phenyl-
##MOLFORM=C8H6ClNO2
##CAS REGISTRY NO=4937-87-5
##MP= -300
##BP= -300
##MW= 183
##$RETENTION INDEX=0
##$CONDENSED SPECTRUM=NO
##NPOINTS= 90
##XYDATA=(XY..XY) 1 
    33          4
    35         18
    36         87
    37         16
    38         53
    39         30
    40          4
    42          5
    43          5
    44          2
    45          0
    46          0
    47          0
    50        107
    51        192
    53         18
    54          3
    55          0
    56          0
    57          0
    58          0
    60          1
    61          9
    62         16
    63         22
    64          3
    65          1
    66          0
    69          0
    70          2
    71          0
    73          7
    74         23
    75         22
    77        557
    78         31
    80          4
    81          1
    82          2
    83          0
    84          0
    85          1
    86          2
    87          2
    88          3
    89         12
    90          1
    91          0
    92          0
    93          0
    97          0
    98          0
    99          0
   100          0
   101          0
   102          3
   105        999
   106         61
   107          3
   108          0
   111          0
   114          0
   115          0
   122          0
   123          0
   124          0
   125          0
   126          0
   127          0
   128          0
   130          1
   131          4
   132          0
   138          8
   139          1
   140          2
   141          0
   147         19
   148          2
   149          0
   155          5
   157          1
   166          3
   167          0
   168          0
   176          0
   183         96
   185         38
   186          2
   187          0