##TITLE=Library Entry 23338
##JCAMP-DX=Revision 4.10 
##DATA TYPE=MASS SPECTRUM
##SAMPLE DESCRIPTION=RADIAN CORP
##NAMES=HP
##CAS NAME=Acetic acid, (2,4,5-trichlorophenoxy)-, 2-methylpropyl ester
##MOLFORM=C12H13Cl3O3
##CAS REGISTRY NO=4938-72-1
##MP= -300
##BP= -300
##MW= 310
##$RETENTION INDEX=1957
##$CONDENSED SPECTRUM=NO
##NPOINTS= 115
##XYDATA=(XY..XY) 1 
    27         40
    28         25
    29        174
    30          7
    31          9
    32          6
    37          3
    38          4
    39         59
    40          9
    41        410
    42        123
    43        108
    44          6
    45          3
    49          3
    50          8
    51          4
    53          9
    55         37
    56         54
    57        999
    58         48
    59          5
    60          2
    61         14
    62         29
    63         13
    65          3
    71         13
    72         12
    73         26
    74         53
    75         16
    83         12
    84         20
    85         13
    86          7
    87          7
    96         10
    97         56
    98          6
    99         19
   100          1
   104          2
   107         23
   108         25
   109         67
   110         14
   111         29
   112          1
   113          4
   118          1
   119          4
   131          4
   132          9
   133          8
   134          6
   135          3
   143         50
   144         33
   145         75
   146         55
   147         33
   148         26
   149          7
   150          3
   160          3
   162          5
   167         29
   169         29
   171          9
   173          5
   174          1
   175          5
   177          4
   179         59
   180          7
   181         63
   182          6
   183         27
   185          5
   190          5
   192          3
   195         12
   196         99
   197         17
   198         92
   199         10
   200         29
   201          2
   202          3
   209         92
   210         19
   211         82
   212         18
   213         28
   214          5
   215          3
   218          7
   219         70
   220         11
   221         43
   222          4
   223          7
   254         64
   255          6
   256         61
   257          6
   258         19
   310         48
   311          7
   312         45
   313          6
   314         15