##TITLE=Library Entry 23635
##JCAMP-DX=Revision 4.10 
##DATA TYPE=MASS SPECTRUM
##SAMPLE DESCRIPTION=NIST Mass Spectrometry Data Center, 1990.
##NAMES=HP
##CAS NAME=1-Hepten-3-ol
##MOLFORM=C7H14O
##CAS REGISTRY NO=4938-52-7
##MP= -300
##BP= -300
##MW= 114
##$RETENTION INDEX=883
##$CONDENSED SPECTRUM=NO
##NPOINTS= 38
##XYDATA=(XY..XY) 1 
    26         18
    27        111
    28         15
    29        162
    30         15
    31         40
    38         17
    39        129
    40         28
    41        181
    42         36
    43        134
    44         26
    45         14
    50         11
    51         23
    52         10
    53         51
    54         84
    55        104
    56         10
    57        999
    58         62
    65         20
    66         14
    67         65
    68         44
    69         31
    70         26
    71         46
    72        173
    73         10
    77         11
    79         23
    81        100
    85         63
    86         10
    96         38