##TITLE=Library Entry 54169
##JCAMP-DX=Revision 4.10 
##DATA TYPE=MASS SPECTRUM
##SAMPLE DESCRIPTION=Exported from NIST MS Search
##NAMES=HP
##CAS NAME=Anabasine
##MOLFORM=C10H14N2
##CAS REGISTRY NO=494-52-0
##MP= -300
##BP= -300
##MW= 162
##$RETENTION INDEX=1525
##$CONDENSED SPECTRUM=NO
##NPOINTS= 143
##XYDATA=(XY..XY) 1 
    14          8
    15         32
    16          3
    17         11
    18         37
    19          1
    24          1
    25          2
    26         44
    27        177
    28        361
    29        103
    30         76
    31         10
    32          2
    36          1
    37         10
    38         43
    39        195
    40         28
    41        132
    42         56
    43         34
    44         18
    45          9
    46          2
    47          3
    48          1
    49          5
    50         68
    51        186
    52        145
    53         31
    54         76
    55         73
    56         74
    57         60
    58          8
    59          5
    60          5
    61          4
    62         16
    63         73
    64         43
    65         97
    66         26
    67         28
    68         15
    69         10
    70         13
    71         42
    72          3
    73          6
    74          7
    75         27
    76         24
    77         71
    78        134
    79        139
    80        195
    81         17
    82         23
    83         61
    84        999
    85         60
    86          3
    87          2
    88          2
    89         10
    90         11
    91         37
    92        164
    93         41
    94          5
    95          2
    96          5
    97          7
    98         12
    99          2
   100          1
   101          2
   102          6
   103         15
   104        118
   105        578
   106        454
   107         88
   108          7
   109          2
   110          5
   111          5
   112          2
   113          1
   114          1
   115          4
   116         11
   117         53
   118         86
   119        321
   120        163
   121         45
   122          4
   123          1
   124          3
   125          2
   126          1
   127          2
   128          3
   129          4
   130         26
   131         42
   132         57
   133        423
   134         91
   135          9
   136          2
   137          1
   138         10
   139          2
   140          1
   141          2
   142          2
   143          3
   144          5
   145         10
   146          3
   147         32
   148          5
   149          1
   150          1
   151          1
   152         10
   153          2
   154          1
   155          4
   156          5
   157          3
   158          2
   159         20
   160         25
   161        215
   162        308
   163         70