##TITLE=Library Entry 77092
##JCAMP-DX=Revision 4.10 
##DATA TYPE=MASS SPECTRUM
##SAMPLE DESCRIPTION=CARL DJERASSI DEPT OF CHEM STANFORD UNIV STANFORD CALIF
 94305
##NAMES=HP
##CAS NAME=2H-1-Benzopyran, 3,4-dihydro-2-phenyl-
##MOLFORM=C15H14O
##CAS REGISTRY NO=494-12-2
##MP= -300
##BP= -300
##MW= 210
##$RETENTION INDEX=0
##$CONDENSED SPECTRUM=NO
##NPOINTS= 71
##XYDATA=(XY..XY) 1 
    51        460
    52        250
    53         70
    55         70
    56         10
    57         60
    62         40
    63        170
    64         50
    65        170
    66         10
    69         30
    70         10
    71         30
    74         40
    75         50
    76        100
    77        460
    78        550
    79         70
    81         10
    82         20
    83         30
    85         10
    87         10
    88         10
    89         90
    90         30
    91        800
    92        160
    93         10
    94         20
    95         30
    96         20
    97         20
   101         10
   102         60
   103        270
   104        999
   105        150
   106         40
   107         60
   108         10
   115        180
   116        150
   117         90
   118        140
   119        470
   120         50
   131        130
   132         50
   133         30
   152         30
   165         50
   166         20
   167         40
   177         20
   178         30
   179         10
   181         50
   189         20
   191         40
   192         30
   193        100
   194         40
   195         90
   207         40
   208         40
   209        210
   210        770
   211        120