##TITLE=Library Entry 98952
##JCAMP-DX=Revision 4.10 
##DATA TYPE=MASS SPECTRUM
##SAMPLE DESCRIPTION=Exported from NIST MS Search
##NAMES=HP
##CAS NAME=Nornicotine
##MOLFORM=C9H12N2
##CAS REGISTRY NO=494-97-3
##MP= -300
##BP= -300
##MW= 148
##$RETENTION INDEX=0
##$CONDENSED SPECTRUM=NO
##NPOINTS= 104
##XYDATA=(XY..XY) 1 
    15          3
    16          8
    17         70
    22          1
    26          4
    27         15
    28         65
    29         10
    30          8
    31          5
    37          6
    38         21
    39         75
    40         17
    41         94
    42         31
    43         37
    45          5
    47          1
    49          5
    50         44
    51        110
    52         66
    53         38
    54         13
    55          9
    56          7
    57         18
    58          4
    59          6
    60         11
    61          7
    62         22
    63         83
    64         46
    65         84
    66         26
    67         50
    68         42
    69         22
    70        804
    71         41
    72          3
    73          7
    74          7
    75         16
    76         18
    77         40
    78         94
    79         49
    80        215
    81         14
    82          2
    83          5
    84          7
    85          1
    86          2
    87          3
    88          3
    89         15
    90         15
    91         65
    92         80
    93         97
    94         12
    95          2
    96          1
    97          2
    98          3
   101          2
   102          4
   103         11
   104         39
   105        135
   106         94
   107         20
   108          2
   110          1
   114          1
   115          2
   116          9
   117         47
   118        221
   119        999
   120        325
   121         27
   122          1
   128          3
   129          3
   130         32
   131         14
   132          9
   133         10
   134          3
   138          1
   142          1
   143          3
   144          8
   145         48
   146         51
   147        341
   148        231
   149         41
   150          2