##TITLE=Library Entry 20175
##JCAMP-DX=Revision 4.10 
##DATA TYPE=MASS SPECTRUM
##SAMPLE DESCRIPTION=CARL DJERASSI DEPT OF CHEM STANFORD UNIV STANFORD CALIF
 94305
##NAMES=HP
##CAS NAME=5-Undecene
##MOLFORM=C11H22
##CAS REGISTRY NO=4941-53-1
##MP= -300
##BP= -300
##MW= 154
##$RETENTION INDEX=1092
##$CONDENSED SPECTRUM=NO
##NPOINTS= 39
##XYDATA=(XY..XY) 1 
    41        490
    42        210
    43        370
    44         20
    51         10
    52         10
    53         50
    54        120
    55        999
    56        660
    57        280
    58         10
    65         10
    66         10
    67         90
    68         50
    69        710
    70        550
    71        110
    72         10
    77         10
    79         10
    81         40
    82         60
    83        300
    84        280
    85         60
    95         10
    96         20
    97        230
    98        110
    99         10
   110         10
   111        100
   112         40
   125         30
   126         30
   154        330
   155         40