##TITLE=Library Entry 98153
##JCAMP-DX=Revision 4.10 
##DATA TYPE=MASS SPECTRUM
##SAMPLE DESCRIPTION=A. SAEED, DEP. CHEM., COLL. SCI., BASRAH UNIV., BASRAH,
 IRAQ
##NAMES=HP
##CAS NAME=Ethyl N-(o-tolyl)formimidate
##MOLFORM=C10H13NO
##CAS REGISTRY NO=4943-59-3
##MP= -300
##BP= -300
##MW= 163
##$RETENTION INDEX=0
##$CONDENSED SPECTRUM=NO
##NPOINTS= 27
##XYDATA=(XY..XY) 1 
    39        140
    40         50
    51         90
    52         50
    63         50
    65        200
    77        180
    78         70
    79         70
    80         50
    89         70
    90         80
    91        420
    92         50
   104         50
   106        790
   107        260
   108         50
   117        100
   118        999
   119        140
   120         80
   134        110
   135        230
   148         60
   163        690
   164         80