##TITLE=Library Entry 71343
##JCAMP-DX=Revision 4.10 
##DATA TYPE=MASS SPECTRUM
##SAMPLE DESCRIPTION=Exported from NIST MS Search
##NAMES=HP
##CAS NAME=Piperidine, 1-butyl-
##MOLFORM=C9H19N
##CAS REGISTRY NO=4945-48-6
##MP= -300
##BP= -300
##MW= 141
##$RETENTION INDEX=1026
##$CONDENSED SPECTRUM=NO
##NPOINTS= 69
##XYDATA=(XY..XY) 1 
    26          1
    27         13
    28         20
    29         20
    30         13
    31          1
    32          1
    39          9
    40          1
    41         47
    42         49
    43         12
    44         24
    45          1
    50          1
    51          1
    52          1
    53          4
    54          6
    55         44
    56         19
    57          8
    58          2
    59          1
    65          1
    66          1
    67          4
    68          5
    69         17
    70         30
    71          2
    72          1
    77          1
    78          1
    79          1
    80          2
    81          1
    82          5
    83          6
    84         24
    85          2
    86          2
    93          1
    94          1
    95          1
    96         21
    97          3
    98        999
    99         54
   100          3
   101          1
   110          2
   111          1
   112          5
   113          1
   114          1
   120          1
   121          1
   122          2
   123          1
   124          1
   125          1
   126          1
   138          1
   139          1
   140         15
   141         44
   142          7
   143          1