##TITLE=Library Entry 10619
##JCAMP-DX=Revision 4.10 
##DATA TYPE=MASS SPECTRUM
##SAMPLE DESCRIPTION=Philip Morris R&D
##NAMES=HP
##CAS NAME=trans-2-Pinanol
##MOLFORM=C10H18O
##CAS REGISTRY NO=4948-29-2
##MP= -300
##BP= -300
##MW= 154
##$RETENTION INDEX=1132
##$CONDENSED SPECTRUM=NO
##NPOINTS= 61
##XYDATA=(XY..XY) 1 
    36          6
    39        195
    40         51
    41        593
    42         43
    43        999
    44         39
    45         28
    49         16
    51         43
    52          6
    53        123
    54         34
    55        297
    56         34
    57         39
    58         76
    59        160
    65         12
    66         16
    67         94
    68        100
    69        279
    70         39
    71        722
    72         88
    77         63
    78          4
    79        100
    80        151
    81        386
    82         67
    83        301
    84         37
    85         39
    86         32
    87         14
    91         86
    92        121
    93        501
    94         71
    95         84
    96        145
    97         32
    98         45
    99        730
   100         49
   105         24
   106         10
   107         67
   108         34
   109          8
   110         14
   111        117
   119         16
   121        254
   125          6
   126         18
   136         78
   139         47
   140          4