##TITLE=Library Entry 51710
##JCAMP-DX=Revision 4.10 
##DATA TYPE=MASS SPECTRUM
##SAMPLE DESCRIPTION=NIST Mass Spectrometry Data Center
##NAMES=HP
##CAS NAME=Guvacoline
##MOLFORM=C7H11NO2
##CAS REGISTRY NO=495-19-2
##MP= -300
##BP= -300
##MW= 141
##$RETENTION INDEX=1250
##$CONDENSED SPECTRUM=NO
##NPOINTS= 82
##XYDATA=(XY..XY) 1 
    26          9
    27         82
    28         84
    29         38
    30         55
    31         13
    33          2
    37          4
    38         15
    39         81
    40         17
    41         74
    42        144
    43         47
    44          9
    45         43
    46          2
    49          6
    50         59
    51        106
    52        136
    53        607
    54        153
    55        140
    56         36
    58          9
    59        123
    60          6
    61          2
    62          2
    63          4
    64          3
    65         33
    66         17
    67        100
    68         43
    69         37
    70         10
    71          6
    72          9
    74          2
    75          2
    76          3
    77          4
    78         33
    79         25
    80        528
    81        560
    82        999
    83        107
    84         18
    86          4
    92          2
    93          1
    94         12
    95          3
    96          4
    97         64
    98         23
    99          4
   106          6
   107          2
   108        135
   109         30
   110        321
   111         39
   112         66
   113         17
   114          2
   119          1
   124         29
   125          3
   126        816
   127         57
   128          5
   131          1
   138         29
   139          3
   140         64
   141        420
   142         32
   143          3