##TITLE=Library Entry 35652
##JCAMP-DX=Revision 4.10 
##DATA TYPE=MASS SPECTRUM
##SAMPLE DESCRIPTION=Exported from NIST MS Search
##NAMES=HP
##CAS NAME=.beta.-Bisabolene
##MOLFORM=C15H24
##CAS REGISTRY NO=495-61-4
##MP= -300
##BP= -300
##MW= 204
##$RETENTION INDEX=1509
##$CONDENSED SPECTRUM=NO
##NPOINTS= 79
##XYDATA=(XY..XY) 1 
    26          5
    27         74
    28         14
    29         66
    39        110
    40         24
    41        686
    42         32
    43         67
    51         24
    52         15
    53        117
    54         15
    55        150
    56         21
    57         17
    63          8
    65         47
    66         22
    67        255
    68        100
    69        999
    70         59
    77        118
    78         35
    79        238
    80         76
    81        104
    82         52
    83         16
    84          7
    91        162
    92        110
    93        690
    94        265
    95        110
    96         12
    97         11
   103         10
   104          6
   105        124
   106         55
   107        176
   108         66
   109        238
   110         22
   111          6
   115         12
   117         14
   118          7
   119        169
   120         66
   121        141
   122         42
   123         12
   128          6
   131          9
   132          8
   133         69
   134         83
   135        104
   136         31
   147         41
   148         21
   149          7
   157         11
   159          6
   160          7
   161        173
   162         27
   163          8
   175         11
   176          9
   189         43
   190          7
   202          7
   204        245
   205         43
   206          3