##TITLE=Library Entry 46867
##JCAMP-DX=Revision 4.10 
##DATA TYPE=MASS SPECTRUM
##SAMPLE DESCRIPTION=Japan AIST/NIMC Database- Spectrum MS-NW-4412
##NAMES=HP
##CAS NAME=Azoxybenzene
##MOLFORM=C12H10N2O
##CAS REGISTRY NO=495-48-7
##MP= -300
##BP= -300
##MW= 198
##$RETENTION INDEX=1846
##$CONDENSED SPECTRUM=NO
##NPOINTS= 95
##XYDATA=(XY..XY) 1 
    14          1
    17          2
    18         11
    26          4
    27         26
    28          9
    29          1
    30          3
    37         10
    38         32
    39         72
    40         11
    41         28
    44          1
    49          2
    50         52
    51        246
    52         30
    53          5
    55          1
    61          3
    62          8
    63         49
    64        172
    65        263
    66         19
    67          2
    68          3
    73          1
    74         11
    75         10
    76         17
    77        999
    78         77
    79          5
    80          1
    81          9
    87          1
    88          1
    89          3
    90          9
    91        325
    92         37
    93         76
    94          9
    95          1
   101          1
   102          5
   103          1
   104         10
   105        171
   106         13
   107         21
   108          1
   114          1
   115         36
   116          6
   117          3
   118          2
   119          2
   120          2
   121         12
   122          1
   126          2
   127          3
   128          4
   129          1
   130          1
   139          7
   140          4
   141         87
   142         37
   143          5
   144          4
   145          1
   151          4
   152         12
   153          6
   154          2
   155          1
   157          3
   166          5
   167         11
   168          9
   169        102
   170         63
   171          8
   179          1
   180          1
   182          9
   183          1
   197         28
   198        286
   199         40
   200          3