##TITLE=Library Entry 79386
##JCAMP-DX=Revision 4.10 
##DATA TYPE=MASS SPECTRUM
##SAMPLE DESCRIPTION=Japan AIST/NIMC Database- Spectrum MS-NW-4058
##NAMES=HP
##CAS NAME=1-Butanone, 1-phenyl-
##MOLFORM=C10H12O
##CAS REGISTRY NO=495-40-9
##MP= -300
##BP= -300
##MW= 148
##$RETENTION INDEX=1263
##$CONDENSED SPECTRUM=NO
##NPOINTS= 66
##XYDATA=(XY..XY) 1 
    15          4
    17          1
    18          4
    26          5
    27         50
    28          8
    29          6
    37          4
    38          7
    39         35
    40          3
    41         30
    42          4
    43         25
    44          2
    49          2
    50         41
    51        155
    52         13
    53          2
    55         20
    59          1
    61          1
    62          5
    63          9
    64          3
    65         11
    66          2
    69          3
    70          1
    71          3
    73          2
    74         13
    75         10
    76         19
    77        483
    78         55
    79          5
    86          1
    87          1
    89          3
    90          1
    91         20
    92          3
   102          2
   103          3
   104          3
   105        999
   106         85
   107          6
   115          5
   116          1
   117          1
   119         14
   120        103
   121          9
   128          1
   129          2
   130         10
   131          2
   133         15
   134          2
   147         13
   148        159
   149         16
   150          1