##TITLE=Library Entry 79325
##JCAMP-DX=Revision 4.10 
##DATA TYPE=MASS SPECTRUM
##SAMPLE DESCRIPTION=Japan AIST/NIMC Database- Spectrum MS-NW- 356
##NAMES=HP
##CAS NAME=Hippuric acid
##MOLFORM=C9H9NO3
##CAS REGISTRY NO=495-69-2
##MP= -300
##BP= -300
##MW= 179
##$RETENTION INDEX=0
##$CONDENSED SPECTRUM=NO
##NPOINTS= 61
##XYDATA=(XY..XY) 1 
    17          3
    18         15
    26          2
    27         10
    28         14
    29          3
    30         10
    31          4
    32          2
    37          3
    38          7
    39         10
    41          2
    42          2
    43          1
    44          5
    45          9
    49          3
    50         52
    51        156
    52         11
    53          2
    56          8
    57          2
    62          2
    63          4
    64          2
    65          2
    66          2
    67          3
    73          3
    74         17
    75         13
    76         27
    77        490
    78         36
    79          2
    89          1
    90          2
    91          2
   103          8
   104          8
   105        999
   106         79
   107          5
   116          2
   117         12
   118          2
   122          1
   132          1
   133          4
   134        129
   135        222
   136         19
   137          1
   150          2
   161         31
   162          3
   178          1
   179         43
   180          5