##TITLE=Library Entry 36476
##JCAMP-DX=Revision 4.10 
##DATA TYPE=MASS SPECTRUM
##SAMPLE DESCRIPTION=NIST Mass Spectrometry Data Center, 2010
##NAMES=HP
##CAS NAME=2H-1-Benzopyran-2-one, 7-[(3,7-dimethyl-2,6-octadienyl)oxy]-, (E)
-
##MOLFORM=C19H22O3
##CAS REGISTRY NO=495-02-3
##MP= -300
##BP= -300
##MW= 298
##$RETENTION INDEX=2634
##$CONDENSED SPECTRUM=NO
##NPOINTS= 97
##XYDATA=(XY..XY) 1 
    39         17
    40          8
    41        190
    42         11
    43         14
    50         11
    51         50
    52         10
    53         71
    54          6
    55         43
    61          1
    62          9
    63         33
    64         10
    65         24
    66          9
    67        144
    68         98
    69        999
    70         54
    74          3
    75          3
    76         11
    77        101
    78         36
    79         55
    80         54
    81        380
    82         26
    87          3
    88          3
    89         48
    90          6
    91         44
    92         86
    93        268
    94         32
    95         95
   102          1
   103          5
   104          4
   105         76
   106         13
   107         28
   108          6
   109          6
   115          4
   116          2
   117          7
   118          3
   119          6
   120          2
   121         66
   122          8
   123          3
   127          1
   128          4
   131          6
   132          2
   133         42
   134        210
   135         22
   136        236
   137        138
   138         14
   143          1
   145          6
   146          1
   147          2
   153          1
   155          1
   158          1
   159          5
   160          2
   161         10
   162        584
   163        431
   164         43
   165          4
   171          1
   173          2
   175         11
   176          3
   185          1
   187          8
   188          1
   201          2
   211          1
   213          3
   214          1
   215          2
   227          1
   229          4
   255          1
   298          2
   299          1