##TITLE=Library Entry 79800
##JCAMP-DX=Revision 4.10 
##DATA TYPE=MASS SPECTRUM
##SAMPLE DESCRIPTION=D.HENNEBERG, MAX-PLANCK INSTITUTE, MULHEIM, WEST GERMAN
Y
##NAMES=HP
##CAS NAME=1,4-Butanedione, 1,4-diphenyl-
##MOLFORM=C16H14O2
##CAS REGISTRY NO=495-71-6
##MP= -300
##BP= -300
##MW= 238
##$RETENTION INDEX=0
##$CONDENSED SPECTRUM=NO
##NPOINTS= 80
##XYDATA=(XY..XY) 1 
    26          0
    27          5
    28          0
    29          0
    39          2
    41          0
    43          0
    50          2
    51         52
    52          2
    53          0
    55         25
    56          1
    57          0
    63          0
    64          0
    65          3
    66          0
    71          0
    74          0
    75          1
    76          9
    77        390
    78         25
    79          3
    80          0
    81          0
    85          0
    89          1
    90          1
    91          7
    92          0
   101          3
   102          1
   103          4
   104          3
   105        999
   106         77
   107          4
   108          0
   110          0
   115         10
   116          3
   117          1
   118          3
   119          5
   120          0
   127          0
   131          2
   132          1
   133        108
   134         11
   135          0
   147          0
   151          0
   152          1
   153          0
   160          0
   161          5
   162          0
   165          1
   166          0
   178          0
   180          0
   181          0
   189          0
   190          0
   191          1
   192          0
   207          0
   209          0
   210          1
   219          0
   220          6
   221          1
   236          0
   237          0
   238        148
   239         27
   240          2