##TITLE=Library Entry 73380
##JCAMP-DX=Revision 4.10 
##DATA TYPE=MASS SPECTRUM
##SAMPLE DESCRIPTION=Patti Price, Georgia Bureau of Investigation, Decatur,
 Georgia
##NAMES=HP
##CAS NAME=1-Propanol, 2-methyl-2-(propylamino)-, benzoate
##MOLFORM=C14H21NO2
##CAS REGISTRY NO=495-70-5
##MP= -300
##BP= -300
##MW= 235
##$RETENTION INDEX=0
##$CONDENSED SPECTRUM=NO
##NPOINTS= 81
##XYDATA=(XY..XY) 1 
    41         59
    42         51
    43         30
    44          5
    49          1
    50         17
    51         63
    52          4
    53          4
    54          5
    55         24
    56         34
    57          8
    58        220
    59          8
    62          1
    63          1
    64          1
    65          1
    66          1
    67          1
    68          2
    69          1
    70         33
    71         16
    72          7
    73          1
    74          4
    75          4
    76         12
    77        200
    78         14
    79          4
    80          1
    81          1
    82          2
    83          1
    84         16
    85          2
    86          1
    87          1
    90          1
    91          2
    92          1
    93          1
    94          1
    95          1
    96          1
    97          1
    98         15
   100        999
   101         60
   102          1
   103          1
   104          1
   105        277
   106         19
   107          1
   110          1
   112          2
   113          1
   114          4
   115          1
   117          1
   118          1
   119          1
   121          1
   122          1
   123          1
   131          1
   134          1
   135          1
   177          7
   178          1
   206          5
   207          1
   220         13
   221          1
   222          1
   234          1
   236          1