##TITLE=Library Entry 58462
##JCAMP-DX=Revision 4.10 
##DATA TYPE=MASS SPECTRUM
##SAMPLE DESCRIPTION=A.A.Kutin, Moscow, Russia
##NAMES=HP
##CAS NAME=Furazan, nitrophenyl-, 5-oxide
##MOLFORM=C8H5N3O4
##CAS REGISTRY NO=49558-03-4
##MP= -300
##BP= -300
##MW= 207
##$RETENTION INDEX=0
##$CONDENSED SPECTRUM=NO
##NPOINTS= 73
##XYDATA=(XY..XY) 1 
    33         26
    34          5
    37        106
    38        179
    39        393
    40        133
    41         14
    42          9
    43         20
    44         39
    46         85
    49         73
    50        375
    51        610
    52         94
    53         21
    54          5
    55          2
    61        163
    62        277
    63        452
    64         90
    65         46
    66          3
    73         86
    74        402
    75        828
    76        355
    77        209
    78         18
    79          2
    81          4
    85         18
    86         41
    87         79
    88        250
    89        999
    90         68
    91         14
    92          1
    97         13
    98         50
    99         24
   100         59
   101        465
   102        101
   103        142
   104         31
   105        168
   106          9
   111          5
   114         69
   115         75
   116         31
   117         63
   119          8
   129          5
   130         74
   131        499
   132         55
   133          5
   144          9
   145          2
   146         56
   147        343
   148         31
   149          2
   161         93
   162         13
   177        227
   178         16
   207        179
   208         12