##TITLE=Library Entry 65879
##JCAMP-DX=Revision 4.10 
##DATA TYPE=MASS SPECTRUM
##SAMPLE DESCRIPTION=Exported from NIST MS Search
##NAMES=HP
##CAS NAME=2,6,9,11-Dodecatetraenal, 2,6,10-trimethyl-
##MOLFORM=C15H22O
##CAS REGISTRY NO=4955-32-2
##MP= -300
##BP= -300
##MW= 218
##$RETENTION INDEX=1712
##$CONDENSED SPECTRUM=NO
##NPOINTS= 56
##XYDATA=(XY..XY) 1 
    41        440
    42         20
    43        130
    51         30
    52         20
    53        120
    54         30
    55        550
    56         20
    57         20
    65         60
    66         20
    67        210
    68         50
    69        100
    71         40
    77        140
    78         30
    79        120
    80         30
    81        130
    82         50
    83         50
    84         80
    91        170
    92         50
    93        999
    94        100
    95         70
   105         70
   106         20
   107         80
   108         20
   109         30
   119        110
   120        100
   121         50
   122         40
   123         30
   133        200
   134         70
   135         40
   145         20
   146         20
   147         30
   148         20
   149         20
   159         20
   160         20
   161         30
   162         20
   175         20
   185         20
   190         80
   203         20
   218         20