##TITLE=Library Entry 11355
##JCAMP-DX=Revision 4.10 
##DATA TYPE=MASS SPECTRUM
##SAMPLE DESCRIPTION=D.HENNEBERG, MAX-PLANCK INSTITUTE, MULHEIM, WEST GERMAN
Y
##NAMES=HP
##CAS NAME=1,2,3,4-Butanetetrol, tetraacetate, [s-(R*,R*)]-
##MOLFORM=C12H18O8
##CAS REGISTRY NO=49560-29-4
##MP= -300
##BP= -300
##MW= 290
##$RETENTION INDEX=0
##$CONDENSED SPECTRUM=NO
##NPOINTS= 79
##XYDATA=(XY..XY) 1 
    26          0
    27          2
    28         12
    29          3
    30          0
    31          1
    32          0
    39          2
    40          0
    41          4
    42         14
    43        999
    44         28
    45          4
    50          0
    51          0
    52          0
    53          0
    54          0
    55          9
    56          4
    57          3
    58          0
    59          0
    60          2
    61         10
    62          0
    68          6
    69         13
    70          2
    71          1
    73         20
    74          3
    75          0
    76          0
    82          0
    84          0
    85          5
    86         41
    87          7
    88          0
    91          0
    98          0
    99          1
   100          2
   101          0
   102          1
   103        106
   104          5
   105          0
   110          0
   111          0
   114          0
   115        136
   116         23
   117          2
   127          1
   128         48
   129          9
   130          0
   133          1
   135          0
   141          0
   142          0
   145        105
   146          7
   147          1
   157          6
   158          6
   159          0
   170          6
   171          0
   175         10
   176          0
   187          0
   188          0
   189          0
   217         92
   218          1