##TITLE=Library Entry 6527
##JCAMP-DX=Revision 4.10 
##DATA TYPE=MASS SPECTRUM
##SAMPLE DESCRIPTION=Chemical Concepts
##NAMES=HP
##CAS NAME=aS-Triazine-3,5(2H,4H)-dione, 6-(dimethylamino)-
##MOLFORM=C5H8N4O2
##CAS REGISTRY NO=4956-06-3
##MP= -300
##BP= -300
##MW= 156
##$RETENTION INDEX=0
##$CONDENSED SPECTRUM=NO
##NPOINTS= 47
##XYDATA=(XY..XY) 1 
    38         53
    39        101
    40        312
    41        366
    42        718
    43        999
    44        652
    45         23
    50          1
    51         12
    52         32
    53        100
    54        149
    55         96
    56        168
    57         21
    58         18
    59          2
    66          7
    67         13
    69        265
    70        223
    71         31
    72          9
    73         13
    83          7
    84         29
    85         53
    86         25
    87          3
    95          1
    96          3
    97          2
    98          9
    99          6
   112          4
   113          3
   114          3
   123          1
   126          2
   127         19
   128          1
   141         52
   142          3
   155          9
   156         71
   157          5