##TITLE=Library Entry 6091
##JCAMP-DX=Revision 4.10 
##DATA TYPE=MASS SPECTRUM
##SAMPLE DESCRIPTION=NIST Mass Spectrometry Data Center, 1994
##NAMES=HP
##CAS NAME=p-Octyloxynitrobenzene
##MOLFORM=C14H21NO3
##CAS REGISTRY NO=49562-76-7
##MP= -300
##BP= -300
##MW= 251
##$RETENTION INDEX=0
##$CONDENSED SPECTRUM=NO
##NPOINTS= 100
##XYDATA=(XY..XY) 1 
    12          0
    15          5
    16          2
    17          1
    18          7
    26         15
    27        291
    28         93
    29        598
    30        120
    32          0
    37          5
    38         33
    39        239
    40          0
    41        948
    42        179
    43        999
    44         33
    46          4
    50         67
    51         32
    52         19
    53         67
    54         37
    55        364
    56        199
    57        769
    58         35
    61          2
    62         17
    63         85
    64         76
    65         97
    66         19
    67         30
    68         31
    69        281
    70        243
    71        461
    72         24
    74          5
    75         59
    76         87
    77         26
    78         28
    79         17
    80         10
    81         31
    82         47
    83        159
    84         97
    85          9
    89          1
    90          2
    91         16
    92         38
    93         55
    94         17
    95          3
    96          2
    97         15
   103          2
   104          1
   105          5
   106         26
   107         17
   108          1
   109        143
   110         13
   111         43
   112         92
   113          9
   115          1
   118          2
   119          5
   120          2
   121          1
   122         40
   123        118
   124         62
   125          5
   131          3
   133          6
   134          2
   135          2
   136          2
   139        141
   140         86
   141         52
   142          4
   149          2
   152         30
   153          3
   166          1
   221          3
   235          3
   251        103
   252         20
   253          2