##TITLE=Library Entry 72122
##JCAMP-DX=Revision 4.10 
##DATA TYPE=MASS SPECTRUM
##SAMPLE DESCRIPTION=Exported from NIST MS Search
##NAMES=HP
##CAS NAME=1,3-Butadiene, 1-(ethylthio)-3-methyl-
##MOLFORM=C7H12S
##CAS REGISTRY NO=49563-09-9
##MP= -300
##BP= -300
##MW= 128
##$RETENTION INDEX=0
##$CONDENSED SPECTRUM=NO
##NPOINTS= 13
##XYDATA=(XY..XY) 1 
    39        141
    41        113
    43        141
    52         42
    53         85
    55         85
    65        366
    84         56
    97         62
    99        999
   100         56
   101         37
   128        141