##TITLE=Library Entry 68960
##JCAMP-DX=Revision 4.10 
##DATA TYPE=MASS SPECTRUM
##SAMPLE DESCRIPTION=J.VOTH UNIV. OF CALIF, DAVIS, CALIFORNIA, 95616, USA
##NAMES=HP
##CAS NAME=Cycloheptene, 1-iodo-
##MOLFORM=C7H11I
##CAS REGISTRY NO=49565-03-9
##MP= -300
##BP= -300
##MW= 222
##$RETENTION INDEX=0
##$CONDENSED SPECTRUM=NO
##NPOINTS= 80
##XYDATA=(XY..XY) 1 
    12          1
    13          1
    14          4
    15         42
    16          1
    17          1
    18          5
    25          2
    26         45
    27        306
    28         51
    29         82
    30          2
    36          1
    37         20
    38         57
    39        389
    40         69
    41        466
    42         24
    43         22
    44          2
    45          6
    46          4
    49          5
    50         85
    51        140
    52         89
    53        354
    54         69
    55        364
    56         17
    60          3
    61         19
    62         35
    63         63
    64         16
    65        123
    66        106
    67        472
    68         29
    69          3
    73          3
    74          5
    75          5
    76          2
    77        117
    78         28
    79        104
    80         55
    81          5
    84          1
    85          2
    86          3
    87          1
    89          5
    90          2
    91         55
    92          9
    93         71
    94         12
    95        999
    96         77
    97          3
   127        158
   128         41
   129          6
   139          1
   141          5
   152          3
   153          2
   155          1
   165          2
   167          5
   168          5
   176          1
   180          3
   222        549
   223         42
   224          1