##TITLE=Library Entry 49144
##JCAMP-DX=Revision 4.10 
##DATA TYPE=MASS SPECTRUM
##SAMPLE DESCRIPTION=B. R. ANDERSON
##NAMES=HP
##CAS NAME=Bicyclo[5.1.0]oct-3-ene, 4-iodo-
##MOLFORM=C8H11I
##CAS REGISTRY NO=49565-05-1
##MP= -300
##BP= -300
##MW= 234
##$RETENTION INDEX=0
##$CONDENSED SPECTRUM=NO
##NPOINTS= 80
##XYDATA=(XY..XY) 1 
    13          3
    14          9
    15         44
    25          3
    26         63
    27        451
    28         65
    29        195
    30          4
    36          1
    37         28
    38         81
    39        575
    40         90
    41        405
    42         21
    43          4
    49         10
    50         99
    51        300
    52        156
    53        674
    54        146
    55         74
    56          3
    60          4
    61         25
    62         48
    63         99
    64         24
    65        241
    66        301
    67        264
    68         20
    73          8
    74         30
    75         27
    76         15
    77        324
    78        163
    79        999
    80         75
    81          8
    85          2
    86          3
    87          3
    88          2
    89         11
    90         11
    91        529
    92        119
    93         11
    98          2
   101          3
   102          5
   103         26
   104         10
   105        111
   106         21
   107        837
   108         74
   109          3
   127        210
   128         56
   129          7
   141          7
   142          1
   152          4
   153          4
   165          4
   167          3
   180         62
   181          3
   192          7
   193         69
   194          4
   205          4
   206         17
   234        297
   235         26