##TITLE=Library Entry 36362
##JCAMP-DX=Revision 4.10 
##DATA TYPE=MASS SPECTRUM
##SAMPLE DESCRIPTION=W.A.KONIG TUBINGEN UNIV., TUBINGEN, GERMANY, F.R.G
##NAMES=HP
##CAS NAME=.alpha.-L-Mannopyranose, 6-deoxy-, tetrakis(trifluoroacetate)
##MOLFORM=C14H8F12O9
##CAS REGISTRY NO=49561-09-3
##MP= -300
##BP= -300
##MW= 548
##$RETENTION INDEX=0
##$CONDENSED SPECTRUM=NO
##NPOINTS= 96
##XYDATA=(XY..XY) 1 
    40         15
    41         60
    42         20
    43         95
    44         52
    45        132
    47         45
    49         30
    50         75
    51        110
    52         80
    53         60
    54         16
    55         50
    56          5
    57        120
    58          8
    59         48
    60         10
    63          5
    65         38
    67         21
    69        999
    70         19
    71         11
    73         30
    75          8
    77         42
    78         45
    79        115
    80          5
    81         19
    82         20
    83         55
    84         11
    85         40
    86          9
    87         10
    89          5
    95         23
    97        171
    98          5
    99         35
   103          5
   108          5
   109         25
   111         12
   113         70
   114          5
   115          9
   117          8
   121         10
   125         31
   126          5
   127         16
   130          5
   135          5
   139         20
   141        565
   142         23
   143          5
   151          8
   152          9
   153         62
   154        250
   155         29
   156         10
   167         60
   168          5
   169         11
   179         55
   180         11
   181         38
   183         58
   193          9
   195          5
   196         86
   207        100
   208         10
   209         11
   211          5
   252        156
   253         11
   265        205
   266         20
   277          8
   278          7
   292         68
   293         13
   301         12
   305          6
   319          5
   321         10
   390         32
   391          9
   435         11