##TITLE=Library Entry 37670
##JCAMP-DX=Revision 4.10 
##DATA TYPE=MASS SPECTRUM
##SAMPLE DESCRIPTION=Exported from NIST MS Search
##NAMES=HP
##CAS NAME=3-Buten-2-one, 4-(diethylamino)-4-(dimethylamino)-
##MOLFORM=C10H20N2O
##CAS REGISTRY NO=49582-49-2
##MP= -300
##BP= -300
##MW= 184
##$RETENTION INDEX=0
##$CONDENSED SPECTRUM=NO
##NPOINTS= 34
##XYDATA=(XY..XY) 1 
    41        130
    42        310
    43        330
    44        100
    54         80
    55        130
    56        230
    68        180
    69         80
    70        999
    71        100
    72        330
    82         80
    83         50
    84        150
    96        130
    97         25
    98        589
    99         50
   100         25
   111        250
   112        260
   113        130
   124         25
   125         15
   126         25
   139         25
   140         50
   141         25
   155        150
   156         25
   167         80
   169         50
   184        210