##TITLE=Library Entry 30725
##JCAMP-DX=Revision 4.10 
##DATA TYPE=MASS SPECTRUM
##SAMPLE DESCRIPTION=D.HENNEBERG, MAX-PLANCK INSTITUTE, MULHEIM, WEST GERMAN
Y
##NAMES=HP
##CAS NAME=Trisilane, octamethoxy-
##MOLFORM=C8H24O8Si3
##CAS REGISTRY NO=49582-74-3
##MP= -300
##BP= -300
##MW= 332
##$RETENTION INDEX=0
##$CONDENSED SPECTRUM=NO
##NPOINTS= 213
##XYDATA=(XY..XY) 1 
    26         10
    27          4
    28         95
    29         16
    30          8
    31         16
    32          9
    33          0
    34          0
    36          0
    38          0
    39          2
    40          1
    41          8
    42          2
    43         16
    44          6
    45          5
    46          0
    47          0
    49          0
    50          1
    51          1
    52          0
    53          0
    54          0
    55          6
    56          9
    57         25
    58          1
    59        999
    60         61
    61         51
    62          1
    63          1
    65          1
    66          0
    67          1
    68          0
    69          3
    70          4
    71         10
    72          1
    73          1
    74          1
    75          3
    76          0
    77          4
    78          1
    79          1
    81          1
    82          1
    83          3
    84          2
    85          5
    86          0
    89          1
    90         11
    91        149
    92         10
    93          5
    94          1
    95          2
    96          0
    97          2
    98          1
    99          1
   103          1
   104          2
   105         20
   106          3
   107         10
   108          1
   109          1
   110          1
   111          1
   112          1
   113          1
   116          0
   117          0
   118          0
   119          7
   120          2
   121        264
   122         23
   123         11
   124          1
   125          1
   127          0
   128          0
   129          0
   133          0
   134          1
   135        185
   136         23
   137         52
   138          5
   139          3
   140          0
   142          1
   143          0
   144          0
   147          0
   148          0
   149         10
   150          4
   151         71
   152         23
   153          9
   154          1
   155          0
   156          0
   161          0
   163          2
   164          1
   165        328
   166         53
   167        152
   168         22
   169         13
   170          1
   171          3
   172          1
   173          0
   174          0
   175          0
   178          0
   179          1
   180          8
   181         31
   182          5
   183          5
   184          0
   185          1
   193          1
   194          0
   195         16
   196         13
   197        329
   198         48
   199         27
   200          3
   201          1
   202          0
   205          0
   207          0
   208          0
   209          0
   210          7
   211        296
   212         46
   213         25
   214          2
   215          1
   216          0
   217          0
   223          1
   224          0
   225          9
   226          7
   227        923
   228        152
   229         79
   230          8
   231          2
   232          0
   239          0
   241         15
   242         13
   243          5
   244          1
   245          0
   246          0
   247          0
   248          0
   249          0
   255          2
   256          0
   257         36
   258          7
   259          5
   260          0
   269          1
   270          0
   271          5
   272          1
   273         11
   274          1
   275          1
   276          0
   285          0
   286          0
   287         22
   288          5
   289          3
   290          0
   300          0
   301         22
   302          5
   303          8
   304          1
   305          0
   315          0
   316          2
   317        162
   318         37
   319         23
   320          3
   321          1
   331          0
   332         35
   333         22
   334          8