##TITLE=Library Entry 37671
##JCAMP-DX=Revision 4.10 
##DATA TYPE=MASS SPECTRUM
##SAMPLE DESCRIPTION=Exported from NIST MS Search
##NAMES=HP
##CAS NAME=3-Buten-2-one, 4,4-bis(dimethylamino)-
##MOLFORM=C8H16N2O
##CAS REGISTRY NO=49582-46-9
##MP= -300
##BP= -300
##MW= 156
##$RETENTION INDEX=0
##$CONDENSED SPECTRUM=NO
##NPOINTS= 21
##XYDATA=(XY..XY) 1 
    41         80
    42        320
    43        340
    44        140
    54         60
    55        220
    56        420
    68        100
    69         60
    70        999
    71         80
    72        320
    82         80
    85         60
    96         80
    98        579
   112        260
   113         60
   139        180
   141         60
   156        100