##TITLE=Library Entry 15380
##JCAMP-DX=Revision 4.10 
##DATA TYPE=MASS SPECTRUM
##SAMPLE DESCRIPTION=Exported from NIST MS Search
##NAMES=HP
##CAS NAME=3-Buten-2-one, 4-(dimethylamino)-4-methoxy-
##MOLFORM=C7H13NO2
##CAS REGISTRY NO=49582-68-5
##MP= -300
##BP= -300
##MW= 143
##$RETENTION INDEX=0
##$CONDENSED SPECTRUM=NO
##NPOINTS= 27
##XYDATA=(XY..XY) 1 
    41         70
    42        310
    43        549
    44        999
    45        170
    55         90
    56         70
    57         70
    58         60
    59         50
    68         70
    69        110
    70        130
    71         50
    72        480
    73         60
    85        110
    87        150
    89         60
    98        110
    99         70
   100        170
   105         50
   112         70
   126        120
   128        390
   143        290