##TITLE=Library Entry 4902
##JCAMP-DX=Revision 4.10 
##DATA TYPE=MASS SPECTRUM
##SAMPLE DESCRIPTION=Exported from NIST MS Search
##NAMES=HP
##CAS NAME=2-Propenal, 3,3-bis(dimethylamino)-
##MOLFORM=C7H14N2O
##CAS REGISTRY NO=49582-45-8
##MP= -300
##BP= -300
##MW= 142
##$RETENTION INDEX=0
##$CONDENSED SPECTRUM=NO
##NPOINTS= 38
##XYDATA=(XY..XY) 1 
    39         80
    40        609
    41        220
    42        999
    43        220
    44        529
    45         80
    46         60
    53         60
    54         60
    55         80
    56        200
    57        140
    58        300
    67         60
    68        170
    69        170
    70        470
    71        110
    72        300
    80         30
    81         30
    82        919
    83        440
    84        170
    85         30
    86         60
    97        420
    98        330
    99        170
   100         30
   111         30
   113         30
   114         30
   125        140
   126         30
   127         30
   142        579