##TITLE=Library Entry 4790
##JCAMP-DX=Revision 4.10 
##DATA TYPE=MASS SPECTRUM
##SAMPLE DESCRIPTION=Exported from NIST MS Search
##NAMES=HP
##CAS NAME=3-Buten-2-one, 4-(dimethylamino)-3-(methylamino)-
##MOLFORM=C7H14N2O
##CAS REGISTRY NO=49582-63-0
##MP= -300
##BP= -300
##MW= 142
##$RETENTION INDEX=0
##$CONDENSED SPECTRUM=NO
##NPOINTS= 27
##XYDATA=(XY..XY) 1 
    41        220
    42        999
    43        400
    44        559
    45        120
    54        120
    55        120
    56        340
    57        100
    58        779
    68        100
    69        160
    70        120
    71         60
    72         80
    83        599
    84        400
    85         80
    86        340
    96        160
    98        240
    99        260
   100        180
   112         80
   125        200
   127        120
   142        759