##TITLE=Library Entry 5032
##JCAMP-DX=Revision 4.10 
##DATA TYPE=MASS SPECTRUM
##SAMPLE DESCRIPTION=Exported from NIST MS Search
##NAMES=HP
##CAS NAME=3-Buten-2-one, 4-(dimethylamino)-3-[(1-methylethyl)amino]-
##MOLFORM=C9H18N2O
##CAS REGISTRY NO=49582-65-2
##MP= -300
##BP= -300
##MW= 170
##$RETENTION INDEX=0
##$CONDENSED SPECTRUM=NO
##NPOINTS= 32
##XYDATA=(XY..XY) 1 
    39        150
    40         80
    41        380
    42        999
    43        649
    44        370
    55         80
    56        160
    57        180
    58        509
    68        170
    69        100
    70        260
    71        140
    72        120
    82        270
    83        310
    84        200
    85        170
    86        480
    96        310
    97        100
    98        669
    99        100
   100        330
   112        200
   113        150
   125         70
   127        470
   153         10
   155         40
   170        619