##TITLE=Library Entry 51388
##JCAMP-DX=Revision 4.10 
##DATA TYPE=MASS SPECTRUM
##SAMPLE DESCRIPTION=Exported from NIST MS Search
##NAMES=HP
##CAS NAME=2-Propenal, 2-(diethylamino)-3-(dimethylamino)-
##MOLFORM=C9H18N2O
##CAS REGISTRY NO=49582-61-8
##MP= -300
##BP= -300
##MW= 170
##$RETENTION INDEX=0
##$CONDENSED SPECTRUM=NO
##NPOINTS= 31
##XYDATA=(XY..XY) 1 
    40        160
    41         80
    42        320
    43         80
    44        130
    45         50
    54         50
    55         50
    56        105
    58        130
    68        105
    70        105
    72        450
    82        999
    83        320
    84        105
    86         50
    96         80
    97        105
    98        130
    99        130
   100         50
   110         30
   111         80
   112         50
   113         30
   125         30
   127         30
   170        450
   171         47
   172          2