##TITLE=Library Entry 15468
##JCAMP-DX=Revision 4.10 
##DATA TYPE=MASS SPECTRUM
##SAMPLE DESCRIPTION=Exported from NIST MS Search
##NAMES=HP
##CAS NAME=2-Propenoic acid, 3-(dimethylamino)-3-ethoxy-, ethyl ester
##MOLFORM=C9H17NO3
##CAS REGISTRY NO=49582-72-1
##MP= -300
##BP= -300
##MW= 187
##$RETENTION INDEX=0
##$CONDENSED SPECTRUM=NO
##NPOINTS= 32
##XYDATA=(XY..XY) 1 
    41         40
    42        170
    43        135
    44        999
    45        270
    46        220
    55         60
    56         50
    57         40
    58         40
    68         30
    69        140
    70         65
    71         80
    72        180
    82         30
    85         30
    86         65
    87        130
    98         50
   100         60
   113         25
   114        170
   115         40
   128        180
   131         30
   142        180
   143         50
   157         20
   158        130
   172         25
   187        140