##TITLE=Library Entry 53936
##JCAMP-DX=Revision 4.10 
##DATA TYPE=MASS SPECTRUM
##SAMPLE DESCRIPTION=Exported from NIST MS Search
##NAMES=HP
##CAS NAME=2-Propenal, 3-(dimethylamino)-3-(1-piperidinyl)-
##MOLFORM=C10H18N2O
##CAS REGISTRY NO=49582-39-0
##MP= -300
##BP= -300
##MW= 182
##$RETENTION INDEX=0
##$CONDENSED SPECTRUM=NO
##NPOINTS= 31
##XYDATA=(XY..XY) 1 
    39        120
    41        360
    42        490
    43        250
    44        360
    45         85
    49        300
    51        100
    54        100
    55        250
    56        460
    57        200
    69        140
    70        579
    71        140
    72        120
    82        270
    84        999
    85        120
    86        120
    96         50
    98        270
    99         85
   110         70
   112        150
   113        320
   127        140
   138         85
   153         35
   165        240
   182        250