##TITLE=Library Entry 19709
##JCAMP-DX=Revision 4.10 
##DATA TYPE=MASS SPECTRUM
##SAMPLE DESCRIPTION=NIST Mass Spectrometry Data Center, 1994
##NAMES=HP
##CAS NAME=5-Hydroxy-4-octanone
##MOLFORM=C8H16O2
##CAS REGISTRY NO=496-77-5
##MP= -300
##BP= -300
##MW= 144
##$RETENTION INDEX=1443
##$CONDENSED SPECTRUM=NO
##NPOINTS= 44
##XYDATA=(XY..XY) 1 
    12          1
    14          8
    15         54
    16          3
    17          0
    18          6
    19         30
    27        416
    28         64
    29        241
    30         30
    31        218
    32          3
    36          1
    37          5
    39        161
    41        277
    42         76
    43        824
    44         75
    45         73
    50          3
    51          7
    52          2
    53         19
    54          2
    55        999
    56         54
    57         61
    58         15
    59          3
    67          1
    69          7
    71        299
    72        183
    73        487
    74         42
    75          2
    83          7
    99          2
   102         66
   103          2
   115          3
   144          2