##TITLE=Library Entry 144
##JCAMP-DX=Revision 4.10 
##DATA TYPE=MASS SPECTRUM
##SAMPLE DESCRIPTION=Chemical Concepts
##NAMES=HP
##CAS NAME=2,4,5-Trihydroxypyrimidine
##MOLFORM=C4H4N2O3
##CAS REGISTRY NO=496-76-4
##MP= -300
##BP= -300
##MW= 128
##$RETENTION INDEX=0
##$CONDENSED SPECTRUM=NO
##NPOINTS= 37
##XYDATA=(XY..XY) 1 
    25          0
    26          9
    27        124
    28        999
    29        968
    30         60
    31          1
    36         13
    38         14
    39         18
    40         14
    41         22
    42         73
    43         81
    44        185
    45         30
    52          0
    53          8
    54         24
    55         39
    56         31
    57        470
    58         23
    67          0
    70         29
    71          4
    72          5
    83          5
    84          2
    85         39
    86          0
    99          3
   100          2
   127          7
   128        912
   129         51
   130          5