##TITLE=Library Entry 52040
##JCAMP-DX=Revision 4.10 
##DATA TYPE=MASS SPECTRUM
##SAMPLE DESCRIPTION=Japan AIST/NIMC Database- Spectrum MS-IW-4282
##NAMES=HP
##CAS NAME=Bromisovalum
##MOLFORM=C6H11BrN2O2
##CAS REGISTRY NO=496-67-3
##MP= -300
##BP= -300
##MW= 222
##$RETENTION INDEX=1510
##$CONDENSED SPECTRUM=NO
##NPOINTS= 141
##XYDATA=(XY..XY) 1 
    14          2
    15         13
    16          9
    17         18
    18        102
    21          2
    26         11
    27        127
    28         92
    29        149
    30         12
    31          3
    32          1
    36          2
    37          8
    38         20
    39        196
    40         37
    41        425
    42         91
    43        375
    44        994
    45         37
    46          8
    49          1
    50          8
    51         12
    52         10
    53         49
    54         44
    55        405
    56        100
    57        370
    58         25
    59         48
    60         12
    61        149
    62          3
    63          1
    64          3
    65          3
    66         13
    67          9
    68         27
    69        161
    70         68
    71         17
    72         10
    73          6
    74          1
    75          1
    76          1
    77          1
    78          1
    79         30
    80        110
    81         38
    82        108
    83        999
    84         88
    85         37
    86         12
    87        265
    88          9
    89          1
    91          1
    92          3
    93         14
    94          4
    95          7
    96          1
    97          2
    98          6
    99         28
   100        419
   101        421
   102         89
   103          5
   104          1
   105          1
   107         13
   108          9
   109         17
   110          8
   111          5
   114          1
   115          1
   117          2
   119         21
   120        100
   121         36
   122        100
   123         16
   124          3
   126          3
   127          4
   128          2
   129         16
   130          1
   132          2
   133          2
   134          5
   135         39
   136         23
   137        696
   138         25
   139        650
   140         16
   141          2
   142          9
   143        717
   144         53
   145          6
   146          1
   147         11
   148          1
   149         10
   160          1
   161          1
   162          6
   163         13
   164         34
   165         12
   166         28
   167          1
   178          1
   179          3
   180        933
   181         40
   182        913
   183         38
   184          4
   189          3
   207         27
   208          2
   209         26
   210          2
   223         22
   224          2
   225         22
   226          1