##TITLE=Library Entry 60623
##JCAMP-DX=Revision 4.10 
##DATA TYPE=MASS SPECTRUM
##SAMPLE DESCRIPTION=Japan AIST/NIMC Database- Spectrum MS-NW-8386
##NAMES=HP
##CAS NAME=Phthalan
##MOLFORM=C8H8O
##CAS REGISTRY NO=496-14-0
##MP= -300
##BP= -300
##MW= 120
##$RETENTION INDEX=0
##$CONDENSED SPECTRUM=NO
##NPOINTS= 67
##XYDATA=(XY..XY) 1 
    15          1
    17          2
    18          9
    26          5
    27         15
    28          9
    29         15
    30          1
    31          1
    36          1
    37         13
    38         32
    39        144
    40         12
    41         24
    42          2
    43          7
    44          2
    45          8
    46          2
    49          6
    50         39
    51         65
    52         10
    53          5
    55          2
    56          1
    57          2
    59          9
    60          6
    61         18
    62         51
    63        135
    64         33
    65        225
    66         14
    69          1
    70          1
    71          1
    73          2
    74          9
    75          7
    76          4
    77         13
    78          3
    79          2
    84          1
    85          6
    86         11
    87          9
    88          2
    89        107
    90         49
    91        999
    92        568
    93         40
    94          1
   102          1
   103          3
   104          2
   105         22
   106          2
   118          6
   119        224
   120        249
   121         21
   122          1