##TITLE=Library Entry 53615
##JCAMP-DX=Revision 4.10 
##DATA TYPE=MASS SPECTRUM
##SAMPLE DESCRIPTION=NIST Mass Spectrometry Data Center
##NAMES=HP
##CAS NAME=Hygrine
##MOLFORM=C8H15NO
##CAS REGISTRY NO=496-49-1
##MP= -300
##BP= -300
##MW= 141
##$RETENTION INDEX=1093
##$CONDENSED SPECTRUM=NO
##NPOINTS= 55
##XYDATA=(XY..XY) 1 
    26          1
    27         10
    28         10
    29          6
    30          5
    37          1
    38          2
    39         19
    40          5
    41         31
    42        155
    43         73
    44         19
    45          2
    50          2
    51          3
    52          2
    53          8
    54         16
    55         35
    56         21
    57          9
    58          4
    63          1
    64          1
    65          4
    66          2
    67         16
    68         12
    69         15
    70         73
    71          5
    77          1
    78          1
    79          2
    80          7
    81          6
    82        105
    83         23
    84        999
    85         56
    86          1
    94          5
    96         17
    97          7
    98         38
    99          3
   100          1
   124          6
   125          1
   126         12
   127          1
   140         10
   141         42
   142          4