##TITLE=Library Entry 40577
##JCAMP-DX=Revision 4.10 
##DATA TYPE=MASS SPECTRUM
##SAMPLE DESCRIPTION=Institute of Chemistry, SAS, Bratislava, Slovakia
##NAMES=HP
##CAS NAME=d-Arabinal
##MOLFORM=C5H8O3
##CAS REGISTRY NO=496-61-7
##MP= -300
##BP= -300
##MW= 116
##$RETENTION INDEX=0
##$CONDENSED SPECTRUM=NO
##NPOINTS= 27
##XYDATA=(XY..XY) 1 
    29        145
    30         17
    31         59
    39         79
    40         17
    41         33
    42         55
    43        229
    44        143
    45         73
    46         15
    51         13
    53         19
    54         19
    55         45
    56         11
    57         11
    58         13
    71        139
    72         19
    73        999
    74         79
    75          7
    81          9
    98         11
    99         11
   116         65