##TITLE=Library Entry 69294
##JCAMP-DX=Revision 4.10 
##DATA TYPE=MASS SPECTRUM
##SAMPLE DESCRIPTION=SHELL OIL CO., HOUSTON, TEXAS, USA
##NAMES=HP
##CAS NAME=1H-Indene, octahydro-
##MOLFORM=C9H16
##CAS REGISTRY NO=496-10-6
##MP= -300
##BP= -300
##MW= 124
##$RETENTION INDEX=991
##$CONDENSED SPECTRUM=NO
##NPOINTS= 87
##XYDATA=(XY..XY) 1 
    30          0
    31          0
    36          0
    37          0
    38          0
    39         44
    40          9
    41        396
    42         61
    43        472
    44         14
    45          0
    50          0
    51          2
    52          2
    53         37
    54        141
    55        451
    56         80
    57        257
    58         11
    59          1
    60          0
    61          0
    62          0
    63          0
    64          0
    65          9
    66         34
    67        500
    68        162
    69        205
    70         37
    71         75
    72          4
    73          0
    74          0
    75          0
    76          0
    77         15
    78          4
    79         62
    80         47
    81        578
    82        301
    83        188
    84         21
    85         32
    86          2
    87          0
    89          0
    90          0
    91         13
    92          4
    93         33
    94         31
    95        228
    96        999
    97        371
    98         40
    99          5
   100          0
   101          0
   102          0
   103          0
   104          0
   105          3
   106          1
   107          8
   108         13
   109        105
   110         60
   111         25
   112          4
   113          2
   114          0
   115          0
   116          0
   117          1
   118          0
   119          2
   121          3
   122         87
   123        112
   124        317
   125         48
   126          9