##TITLE=Library Entry 90957
##JCAMP-DX=Revision 4.10 
##DATA TYPE=MASS SPECTRUM
##SAMPLE DESCRIPTION=Humboldt-Universitat zu Berlin, Department of Chemistry
, Analytical Group
##NAMES=HP
##CAS NAME=Pyrrolidine, 1,1'-(dithiodicarbonothioyl)bis-
##MOLFORM=C10H16N2S4
##CAS REGISTRY NO=496-08-2
##MP= -300
##BP= -300
##MW= 292
##$RETENTION INDEX=0
##$CONDENSED SPECTRUM=NO
##NPOINTS= 126
##XYDATA=(XY..XY) 1 
    12          5
    13          1
    14          7
    15         77
    16          2
    17          2
    18         21
    26         45
    27        294
    28        428
    29        175
    30         74
    32         40
    33          7
    34          3
    35          1
    37          5
    38         13
    39        196
    40         52
    41        327
    42        114
    43        201
    44         35
    45         80
    46         14
    47          7
    48          1
    49          0
    50          5
    51         12
    52          9
    53         44
    54         28
    55        521
    56         27
    57          8
    58         47
    59         43
    60         61
    61          4
    62          3
    64         62
    65          8
    66          7
    67          6
    68         58
    69         13
    70        195
    72        789
    73         30
    74         36
    76         36
    77        115
    78         15
    79         10
    80          3
    81          4
    82          3
    83          2
    84          7
    85         28
    86         24
    87          6
    88          2
    89          0
    90          4
    91          1
    92          1
    96          5
    97          2
    98          2
    99          0
   100          0
   101          0
   102         12
   103          1
   104          8
   105          0
   106          1
   108          2
   109          2
   110          0
   112          5
   114        999
   115         68
   116         47
   117          3
   118          0
   125          1
   126          0
   127          0
   128          3
   130          1
   132          0
   136          0
   144          0
   146         96
   147         25
   148         11
   149          2
   150          0
   160          2
   162          0
   163          0
   178         10
   179          1
   180          1
   191          0
   192          1
   194          0
   209          0
   210          1
   211          0
   212          0
   224          0
   237          0
   256          0
   260          7
   261          1
   262          1
   292         33
   293          5
   294          6
   295          0
   296          0