##TITLE=Library Entry 98441
##JCAMP-DX=Revision 4.10 
##DATA TYPE=MASS SPECTRUM
##SAMPLE DESCRIPTION=Chemical Concepts
##NAMES=HP
##CAS NAME=1H-Indole, 2,3-dihydro-
##MOLFORM=C8H9N
##CAS REGISTRY NO=496-15-1
##MP= -300
##BP= -300
##MW= 119
##$RETENTION INDEX=1196
##$CONDENSED SPECTRUM=NO
##NPOINTS= 57
##XYDATA=(XY..XY) 1 
    26          9
    27         31
    28          3
    29          2
    30          5
    34          3
    37         17
    38         44
    39        143
    40          3
    41         35
    42          7
    43          5
    44          2
    45          4
    49          4
    50         44
    51         82
    52         46
    53         10
    54          4
    58         12
    59         54
    60          4
    61         16
    62         50
    63        124
    64         51
    65        116
    66         13
    67          4
    70          5
    73          3
    74         10
    75         12
    76          8
    77         18
    78         16
    79          3
    80          3
    85          4
    86          9
    87          8
    88         10
    89        140
    90        134
    91        295
    92         31
    93          5
   102          4
   104          7
   115          3
   116         32
   117        291
   118        999
   119        629
   120         55