##TITLE=Library Entry 51841
##JCAMP-DX=Revision 4.10 
##DATA TYPE=MASS SPECTRUM
##SAMPLE DESCRIPTION=NIST Mass Spectrometry Data Center
##NAMES=HP
##CAS NAME=2-Bromo-4-fluorophenol
##MOLFORM=C6H4BrFO
##CAS REGISTRY NO=496-69-5
##MP= -300
##BP= -300
##MW= 190
##$RETENTION INDEX=0
##$CONDENSED SPECTRUM=NO
##NPOINTS= 102
##XYDATA=(XY..XY) 1 
    24          1
    25          7
    26         15
    27          6
    29         20
    31         89
    32          2
    33          6
    36         11
    37         51
    38         47
    39         33
    41         25
    42          3
    43          1
    44          5
    45          6
    47          1
    48          6
    49         28
    50         68
    51         31
    52          5
    53         95
    54          6
    55        128
    56        132
    57        371
    58         13
    60         20
    61        113
    62        112
    63        234
    64         18
    65          5
    66          9
    67          2
    68         21
    69          6
    70          2
    71         11
    72          8
    73         16
    74         31
    75          8
    77          4
    79         33
    80         46
    81        343
    82        999
    83        661
    84         41
    85          4
    86          5
    90          4
    91          6
    92         15
    93         16
    94         18
    95         59
    96         57
   104          4
   105          1
   106          4
   107          1
   108          2
   109          4
   110        143
   111        124
   112          8
   113         14
   115          1
   116          3
   117          8
   118          3
   119          7
   128          2
   129          1
   130          2
   131          2
   133          1
   134          5
   135         23
   136          5
   137         23
   140          1
   141          3
   142          2
   143          4
   144          1
   145          1
   159          1
   160          1
   161         58
   162          4
   163         53
   164          3
   190        833
   191         64
   192        801
   193         53
   194          3