##TITLE=Library Entry 98458
##JCAMP-DX=Revision 4.10 
##DATA TYPE=MASS SPECTRUM
##SAMPLE DESCRIPTION=CARL DJERASSI DEPT OF CHEM STANFORD UNIV STANFORD CALIF
 94305
##NAMES=HP
##CAS NAME=1H-Isoindole, 2,3-dihydro-
##MOLFORM=C8H9N
##CAS REGISTRY NO=496-12-8
##MP= -300
##BP= -300
##MW= 119
##$RETENTION INDEX=0
##$CONDENSED SPECTRUM=NO
##NPOINTS= 11
##XYDATA=(XY..XY) 1 
    41         10
    50         10
    51         20
    52         10
    59        120
    60         20
   116         20
   117        230
   118        999
   119        290
   120         30