##TITLE=Library Entry 30798
##JCAMP-DX=Revision 4.10 
##DATA TYPE=MASS SPECTRUM
##SAMPLE DESCRIPTION=R.M.ACHESON DEPT. BIOCHEM., OXFORD UNIV., OXFORD, UK
##NAMES=HP
##CAS NAME=Benzo[f]cyclopenta[a]quinolizine-6,7,7a,8,9,10(8H)-hexacarboxylic
 acid, 6,7,9,10,11,12-hexahydro-, hexamethyl ester
##MOLFORM=C28H31NO12
##CAS REGISTRY NO=49616-75-3
##MP= -300
##BP= -300
##MW= 573
##$RETENTION INDEX=0
##$CONDENSED SPECTRUM=NO
##NPOINTS= 28
##XYDATA=(XY..XY) 1 
    59        999
    85        120
   113        580
   192        100
   193        110
   218        100
   220        100
   252        180
   278        250
   284        280
   310        100
   337        990
   338        670
   362         40
   365         90
   369        930
   397        250
   422        190
   429        280
   444         10
   454        130
   482         90
   500         60
   514        350
   515         90
   541         10
   542         10
   573        350