##TITLE=Library Entry 31942
##JCAMP-DX=Revision 4.10 
##DATA TYPE=MASS SPECTRUM
##SAMPLE DESCRIPTION=Japan AIST/NIMC Database- Spectrum MS-IW-6728
##NAMES=HP
##CAS NAME=o-Nitrobenzoic anhydride
##MOLFORM=C14H8N2O7
##CAS REGISTRY NO=49619-45-6
##MP= -300
##BP= -300
##MW= 316
##$RETENTION INDEX=0
##$CONDENSED SPECTRUM=NO
##NPOINTS= 95
##XYDATA=(XY..XY) 1 
    16          2
    17          3
    25          1
    26          8
    27         41
    28         11
    29          4
    30        200
    31          2
    32          3
    36          2
    37         35
    38         53
    39        378
    40         13
    41          5
    42          1
    43          6
    44         28
    45         42
    46          9
    48          2
    49         21
    50        323
    51        263
    52         29
    53         83
    54          4
    55          7
    57          1
    60          3
    61         13
    62         26
    63         78
    64         61
    65        999
    66         65
    67          9
    68          1
    69          3
    71          1
    72          1
    73         24
    74        132
    75        117
    76        205
    77        340
    78         49
    79          7
    80          1
    81         86
    82          5
    83          1
    86          1
    87          2
    88          2
    89          1
    90          3
    91         12
    92         57
    93        664
    94         48
    95          5
   101          1
   102          1
   103          6
   104         23
   105          5
   106         17
   107          3
   108          1
   109         84
   110          6
   111          1
   119         35
   120          6
   121        208
   122         17
   123        344
   124         23
   125          2
   134         10
   135          2
   137         72
   138          5
   139          1
   148          1
   149          8
   150         84
   151         27
   152          3
   166          3
   167        699
   168         61
   169          8