##TITLE=Library Entry 66983
##JCAMP-DX=Revision 4.10 
##DATA TYPE=MASS SPECTRUM
##SAMPLE DESCRIPTION=Chemical Concepts
##NAMES=HP
##CAS NAME=Allophanic acid, phenyl ester
##MOLFORM=C8H8N2O3
##CAS REGISTRY NO=49615-54-5
##MP= -300
##BP= -300
##MW= 180
##$RETENTION INDEX=0
##$CONDENSED SPECTRUM=NO
##NPOINTS= 47
##XYDATA=(XY..XY) 1 
    26          3
    27          6
    28          2
    29          3
    30          0
    31          2
    37          4
    38         17
    39        100
    40         21
    42          5
    43          2
    44        217
    45          3
    46          0
    47          1
    49          1
    50         13
    51         24
    52          2
    53          4
    54          0
    55         14
    61          1
    62          5
    63         17
    64          8
    65         90
    66         94
    67          4
    70         15
    74          2
    75          1
    76          1
    77         15
    78          0
    79          0
    86          3
    87          4
    92          0
    93         13
    94        999
    95         69
    96          3
   136          0
   180         23
   181          3