##TITLE=Library Entry 83393
##JCAMP-DX=Revision 4.10 
##DATA TYPE=MASS SPECTRUM
##SAMPLE DESCRIPTION=Dmitri Zagorevskii, Scientific Instruments & Applicatio
ns
##NAMES=HP
##CAS NAME=3-Acetoxybenzyl bromide
##MOLFORM=C9H9BrO2
##CAS REGISTRY NO=49617-80-3
##MP= -300
##BP= -300
##MW= 228
##$RETENTION INDEX=0
##$CONDENSED SPECTRUM=NO
##NPOINTS= 63
##XYDATA=(XY..XY) 1 
    40         24
    41         20
    42         71
    43        729
    44         32
    45          9
    49          7
    50        103
    51        202
    52        128
    53         44
    54          4
    55         18
    60          1
    61          7
    62         22
    63         53
    64         15
    65          7
    66          6
    67          5
    68          2
    73          2
    74         13
    75          7
    76         11
    77        281
    78        213
    79         89
    80         17
    81         15
    82         11
    85          1
    86          2
    87          1
    89         22
    90         15
    91          6
    92          2
   105         11
   106         12
   107        999
   108        128
   109          8
   119          1
   121          2
   149        223
   150         21
   151          1
   157          3
   159          3
   169          3
   171          3
   185          3
   186        339
   187         33
   188        323
   189         25
   190          1
   228         93
   229         10
   230         94
   231          9