##TITLE=Library Entry 25143
##JCAMP-DX=Revision 4.10 
##DATA TYPE=MASS SPECTRUM
##SAMPLE DESCRIPTION=MPI,A1139-G0822,17-MAR-66 (ID=4, PURITY=4)
##NAMES=HP
##CAS NAME=2-Undecene, 2,5-dimethyl-
##MOLFORM=C13H26
##CAS REGISTRY NO=49622-16-4
##MP= -300
##BP= -300
##MW= 182
##$RETENTION INDEX=1033
##$CONDENSED SPECTRUM=NO
##NPOINTS= 103
##XYDATA=(XY..XY) 1 
    24          0
    25          1
    26         11
    27        138
    28          9
    29        223
    30          4
    31          1
    33          0
    36          0
    38          3
    39        114
    40         26
    41        713
    42        130
    43        668
    44         16
    45          0
    49          0
    50          2
    51          7
    52          5
    53         68
    54         23
    55        392
    56        349
    57        999
    58         42
    59          0
    60          0
    61          0
    62          0
    63          1
    64          0
    65         11
    66          7
    67         74
    68        179
    69        766
    70        751
    71        567
    72         29
    75          1
    76          0
    77         10
    78          2
    79         15
    80          3
    81         33
    82         26
    83        148
    84         86
    85         23
    86          0
    87          0
    89          0
    91          4
    92          0
    93          2
    94          0
    95         14
    96         18
    97        112
    98         59
    99          5
   100          0
   101          0
   105          0
   106          0
   107          0
   108          0
   109          5
   110         13
   111         84
   112         62
   113         10
   114          0
   115          0
   123          0
   124          2
   125          5
   126         86
   127         20
   128          1
   133          0
   136          0
   137          0
   138          1
   139          6
   140          2
   141          0
   147          0
   153          0
   154          6
   155          0
   166          0
   167          3
   168          0
   180          0
   181          0
   182        138
   183         19
   184          0