##TITLE=Library Entry 37351
##JCAMP-DX=Revision 4.10 
##DATA TYPE=MASS SPECTRUM
##SAMPLE DESCRIPTION=D.HENNEBERG, MAX-PLANCK INSTITUTE, MULHEIM, WEST GERMAN
Y
##NAMES=HP
##CAS NAME=Cyclobutane, 3-hexyl-1,1,2-trimethyl-, cis-
##MOLFORM=C13H26
##CAS REGISTRY NO=49622-21-1
##MP= -300
##BP= -300
##MW= 182
##$RETENTION INDEX=0
##$CONDENSED SPECTRUM=NO
##NPOINTS= 79
##XYDATA=(XY..XY) 1 
    27         18
    29         61
    30          0
    32          1
    39         20
    40          5
    41        213
    42        196
    43        246
    50          0
    51          0
    52          0
    53         12
    54         31
    55        635
    56        570
    57        355
    58         16
    59          0
    65          1
    66          4
    67         47
    68         51
    69        384
    70        999
    71        139
    72          5
    75          0
    77          1
    78          0
    79          4
    80          2
    81         29
    82        138
    83        329
    84        303
    85         36
    86          1
    91          0
    92          0
    93          1
    94          0
    95         17
    96         65
    97        361
    98        163
    99         12
   100          0
   107          0
   108          0
   109          3
   110          2
   111         21
   112          5
   113          0
   121          0
   122          0
   123          2
   124        118
   125         35
   126        495
   127         47
   128          2
   136          0
   137          7
   138          2
   139          3
   140          3
   141          0
   153          2
   154          1
   155          0
   165          0
   167          1
   168          0
   180          0
   181          0
   182         11
   183          1