##TITLE=Library Entry 28210
##JCAMP-DX=Revision 4.10 
##DATA TYPE=MASS SPECTRUM
##SAMPLE DESCRIPTION=Chemical Concepts
##NAMES=HP
##CAS NAME=Butanamide, N-(1,1-dimethylethyl)-3,3-dimethyl-
##MOLFORM=C10H21NO
##CAS REGISTRY NO=49633-54-7
##MP= -300
##BP= -300
##MW= 171
##$RETENTION INDEX=0
##$CONDENSED SPECTRUM=NO
##NPOINTS= 80
##XYDATA=(XY..XY) 1 
    26          8
    27        157
    28         53
    29        317
    30         45
    31          6
    36          0
    37          4
    38         13
    39        275
    40         49
    41        691
    42        313
    43        123
    44         57
    45          1
    50          6
    51         14
    52          7
    53         45
    54         20
    55        139
    56        145
    57        957
    58        999
    59        505
    60        319
    61          8
    63          1
    64          0
    65          1
    66          1
    67          5
    68          4
    69         11
    70         16
    71         85
    72         42
    73          8
    77          1
    79          1
    80          3
    81          1
    82         16
    83         27
    84         15
    85          2
    86          3
    91          3
    92          1
    94          0
    95          0
    96          4
    97          2
    98         11
    99         74
   100        146
   101          8
   107          0
   109          0
   110          4
   111          0
   112         18
   113          1
   114          6
   115        756
   116        248
   117         15
   124          0
   126          0
   128          4
   129          0
   141          1
   155          2
   156         50
   157          4
   170          3
   171         64
   172         14
   173          1