##TITLE=Library Entry 109995
##JCAMP-DX=Revision 4.10 
##DATA TYPE=MASS SPECTRUM
##SAMPLE DESCRIPTION=A.Pleshkova, Nesmeyanov Inst.Org.Elem.Cpds, Moscow
##NAMES=HP
##CAS NAME=1-Phenyl-phosphorinane 1-oxide
##MOLFORM=C11H15OP
##CAS REGISTRY NO=4963-95-5
##MP= -300
##BP= -300
##MW= 194
##$RETENTION INDEX=0
##$CONDENSED SPECTRUM=NO
##NPOINTS= 102
##XYDATA=(XY..XY) 1 
    39        347
    40         11
    41        542
    42         20
    47        547
    48         27
    49         27
    50         98
    51        406
    52         49
    53         56
    54         31
    55        226
    56         69
    57        133
    58         29
    62         15
    63         55
    64         13
    65        107
    66         25
    67         69
    68         23
    69         49
    70         14
    71         29
    73         26
    74         32
    75         44
    76         36
    77        445
    78        142
    79         88
    80         22
    81         12
    82         41
    83         33
    84         13
    85         14
    86         14
    87         12
    88         14
    89         33
    90         26
    91        482
    92         56
    93         27
    94         28
    95         37
    96         49
    97         34
    98         15
   101         32
   102         68
   103         32
   104         49
   105         54
   106          3
   107         61
   108         42
   109         48
   110          2
   111         24
   112          2
   115         53
   116         22
   117         52
   118         29
   119         21
   121         54
   122          3
   123         12
   124         98
   125        999
   126        105
   127         11
   128         13
   129         33
   130         62
   131         18
   132         25
   133         14
   139         32
   140        481
   141        267
   142         25
   147         14
   151         54
   152        106
   153         21
   154         18
   164         32
   165        133
   166        487
   167         67
   179         96
   180         18
   192         43
   193        409
   194        758
   195        112
   196          6