##TITLE=Library Entry 28031
##JCAMP-DX=Revision 4.10 
##DATA TYPE=MASS SPECTRUM
##SAMPLE DESCRIPTION=Japan AIST/NIMC Database- Spectrum MS-IW-7200
##NAMES=HP
##CAS NAME=N,N-Bis(3-aminopropyl)trimethylenediamine
##MOLFORM=C9H24N4
##CAS REGISTRY NO=4963-47-7
##MP= -300
##BP= -300
##MW= 188
##$RETENTION INDEX=0
##$CONDENSED SPECTRUM=NO
##NPOINTS= 135
##XYDATA=(XY..XY) 1 
    14          5
    15         19
    16         27
    17         57
    18         74
    25          2
    26         20
    27         51
    28        194
    29         32
    30        293
    31         18
    32         17
    37          2
    38          5
    39         25
    40         18
    41        107
    42        126
    43         82
    44        331
    45         18
    46          1
    47         18
    48          1
    49          2
    50          2
    51          7
    52         11
    53          9
    54         28
    55         26
    56        128
    57         95
    58        999
    59         61
    60          2
    61          1
    62          1
    63          1
    64          1
    65          3
    66          3
    67          7
    68         26
    69         15
    70        174
    71         54
    72        167
    73         29
    74          2
    75         18
    76          1
    77         10
    78          3
    79         36
    80         10
    81        139
    82         21
    83         15
    84        132
    85         67
    86         15
    87         43
    88          5
    89          9
    91          3
    92          2
    93          5
    94          5
    95          3
    96         26
    97          9
    98         56
    99         42
   100          5
   101        120
   102          9
   103          2
   106          2
   107          2
   108          2
   109          3
   110          4
   111          6
   112          7
   113         91
   114         15
   115         50
   116          5
   117          1
   118          1
   121          1
   122          1
   123          2
   124          2
   125          7
   126          5
   127        178
   128         18
   129          3
   130         37
   131         39
   132         32
   133          2
   134          1
   135          1
   136          1
   137          2
   138          5
   139          6
   140          2
   141         14
   142         12
   143          2
   144        256
   145         33
   146          2
   147          1
   151          2
   152          2
   153          4
   154          5
   155         22
   156          6
   157          2
   158         12
   159          3
   170          7
   171          2
   182          1
   184          1
   188         75
   189         14
   190          1