##TITLE=Library Entry 15059
##JCAMP-DX=Revision 4.10 
##DATA TYPE=MASS SPECTRUM
##SAMPLE DESCRIPTION=Div. of Experiment Therapeutics WRAIR, WRAMC, Washingto
n DC 20307
##NAMES=HP
##CAS NAME=2,4-Diamino-6,7-bis[3-trifluoromethylbenzyl]pteridine
##MOLFORM=C22H16F6N6
##CAS REGISTRY NO=49647-25-8
##MP= -300
##BP= -300
##MW= 478
##$RETENTION INDEX=0
##$CONDENSED SPECTRUM=NO
##NPOINTS= 232
##XYDATA=(XY..XY) 1 
    43        999
    44         11
    45         17
    46          5
    49          7
    51         32
    53         57
    55         28
    57          9
    63         27
    66        152
    67         36
    68         94
    69         68
    70          8
    75         19
    76          5
    77         18
    79         28
    80         31
    81         17
    82          4
    83         13
    88          7
    89         45
    90         14
    91          7
    92         24
    93          2
    95         31
    96         19
    97          2
    99         13
   100          5
   101          2
   102          9
   106         10
   107         23
   109        152
   110          4
   113         16
   114         12
   116         47
   117          5
   119         41
   120          8
   121          9
   122          7
   123          5
   125         19
   126          4
   127         39
   128          2
   129          2
   130          4
   132        101
   134         42
   137          3
   138         11
   139         10
   140         36
   141          4
   143          5
   144          3
   145         25
   146         12
   148         18
   150          6
   151         35
   152          7
   153         11
   154          3
   156         79
   158          3
   159        278
   162          5
   163          8
   166         57
   169         37
   170         12
   171         11
   172         12
   173          3
   174          3
   175          5
   176         21
   177         10
   178         10
   179          5
   180          7
   181          4
   182          5
   183          5
   184         53
   185         12
   186          5
   187          3
   188         16
   189          9
   190          5
   193          4
   194         88
   196         20
   197         22
   198         13
   199          6
   201          3
   202         13
   203         19
   204         13
   205          8
   207         11
   208         20
   209         10
   210          7
   211          7
   212          5
   213          3
   214          3
   215          2
   218          3
   219         29
   220          9
   221         14
   222         11
   223         27
   224         10
   225          5
   227          4
   229         55
   230         10
   231          5
   233         16
   234          4
   236          2
   237          9
   238          4
   240          6
   242          5
   245          3
   246          9
   247          6
   248          9
   249         21
   250         37
   251         19
   252          6
   255          3
   256          5
   257         16
   258          7
   259         14
   260         16
   261          3
   262          6
   263         27
   264         10
   265          4
   267          3
   269          9
   270          5
   271          4
   272          7
   273          4
   275         10
   276         13
   277         19
   278          4
   279          4
   282         16
   283          3
   289          7
   291          6
   292          9
   293          5
   294          5
   295          2
   296          5
   298          4
   299         79
   300         19
   302         47
   303          8
   312          5
   313         12
   314         11
   316          7
   318         33
   319        339
   320         56
   321          7
   323          2
   331         53
   332         17
   333         29
   334          4
   348          3
   350          2
   368          3
   375         14
   376          4
   395          8
   407          4
   408          7
   409         54
   410         14
   417         12
   418          4
   420          3
   435          5
   436          5
   437         13
   438          5
   440          7
   443         11
   444          3
   455          3
   456          2
   457         43
   458         10
   459         55
   460         12
   461          2
   462        100
   463         26
   475          7
   476         15
   477        328
   478        548
   479        180
   480         29
   481          3