##TITLE=Library Entry 12754
##JCAMP-DX=Revision 4.10 
##DATA TYPE=MASS SPECTRUM
##SAMPLE DESCRIPTION=Div. of Experiment Therapeutics WRAIR, WRAMC, Washingto
n DC 20307
##NAMES=HP
##CAS NAME=2,4-Diamino-6,7-bis[3,4-dichlorobenzyl]pteridine
##MOLFORM=C20H14Cl4N6
##CAS REGISTRY NO=49647-22-5
##MP= -300
##BP= -300
##MW= 478
##$RETENTION INDEX=0
##$CONDENSED SPECTRUM=NO
##NPOINTS= 232
##XYDATA=(XY..XY) 1 
    41         41
    43        999
    44         48
    45         37
    46          9
    47         11
    49         33
    50         21
    51         43
    52          6
    53         80
    54         27
    55         53
    56         16
    57         26
    60         12
    62         35
    63         96
    64          5
    65         54
    66        178
    67         19
    68        137
    69         38
    70         13
    71         12
    73         74
    74         12
    75        116
    76         15
    77         20
    78         14
    80         53
    81         11
    82         13
    83          5
    84         42
    85         24
    86         24
    87         28
    89        149
    90         17
    92         64
    93          9
    95         26
    96          5
    97         41
    99         62
   101         41
   102          9
   104          9
   105          8
   106         22
   107         17
   108         10
   109         47
   111         61
   113         42
   114         44
   115         17
   116          8
   117         10
   118          6
   119          8
   120          5
   121         11
   123        268
   124        114
   125        128
   126         68
   127         31
   128          9
   131         21
   133         69
   135         94
   136         34
   137         19
   138         18
   139          7
   140         12
   141          7
   142          6
   145         24
   146         85
   148        236
   149         13
   150        110
   151         28
   152         45
   153         18
   154          9
   155          8
   157         18
   159        285
   161        240
   162         30
   163         69
   164         23
   165         13
   166         56
   167         35
   169         75
   170         11
   171          7
   172         17
   173         17
   174         25
   175         18
   176         31
   177         15
   178          9
   180          8
   181          7
   183          9
   184         29
   185         27
   186         54
   187         40
   188         17
   189         18
   190          6
   191          6
   192          4
   193          7
   194          5
   195          8
   196         15
   197         15
   198         15
   199         10
   200         11
   201          8
   202         10
   203          6
   204         12
   205          9
   206          6
   207         13
   208         11
   210          6
   212          5
   213          9
   214         17
   215         11
   216         10
   217          5
   218          4
   219          4
   220          8
   221          7
   222          7
   223         21
   225         22
   226          7
   227         13
   228          8
   235          5
   236         12
   237          6
   238         10
   239          4
   241          7
   242         11
   243          8
   244          5
   245          5
   246          5
   248          5
   249         34
   250          9
   252          5
   253          6
   254          8
   255          8
   256          7
   257          8
   258          4
   260          6
   261          4
   262         14
   263         12
   264          5
   267         17
   268          5
   269          6
   270          4
   276          5
   277          9
   279          7
   280          6
   283          7
   284         41
   285         11
   286         16
   292          4
   294          4
   296          5
   297         27
   298         11
   299          9
   302         10
   304          7
   318         10
   319         95
   320         18
   321         41
   322          7
   323         10
   331          9
   333         14
   334          4
   335          6
   407          5
   408          7
   409          4
   442          6
   443         14
   444         10
   445         17
   446          6
   447          6
   463          6
   465         11
   467          6
   477         28
   478         56
   479         77
   480         87
   481         43
   482         43
   483         11
   484          8