##TITLE=Library Entry 58649
##JCAMP-DX=Revision 4.10 
##DATA TYPE=MASS SPECTRUM
##SAMPLE DESCRIPTION=Div. of Experiment Therapeutics WRAIR, WRAMC, Washingto
n DC 20307
##NAMES=HP
##CAS NAME=2,5-Bis[4-chlorophenyl]-2,3-dihydrothiophen-4-ol-3-one
##MOLFORM=C16H10Cl2O4S
##CAS REGISTRY NO=49647-63-4
##MP= -300
##BP= -300
##MW= 368
##$RETENTION INDEX=0
##$CONDENSED SPECTRUM=NO
##NPOINTS= 85
##XYDATA=(XY..XY) 1 
    43          5
    44         11
    45         28
    49          5
    50         64
    51         98
    53         54
    61         39
    62        210
    63        524
    64         47
    65          4
    66         19
    69         12
    72          5
    73        140
    74         47
    75        181
    76         19
    77         70
    85         30
    86         50
    87         89
    89        999
    90         91
    93          6
    94          5
    97         43
    99         41
   101         46
   102         33
   103          9
   105          6
   106          5
   108          5
   111         87
   112         23
   113         43
   114          9
   116          7
   117          9
   119          5
   120         11
   121          6
   123        180
   124        409
   125        147
   126        131
   127         25
   136         46
   137          8
   138          5
   139         73
   141         51
   143         12
   152        570
   153         20
   154        258
   155        180
   157         69
   163          7
   164          5
   165         24
   169         40
   171         21
   176         46
   177         18
   178         59
   205         14
   206         11
   212         22
   213          5
   234         86
   235         13
   241         38
   243         17
   269         34
   271          5
   275         10
   277          5
   368        185
   369         33
   370        130
   371         12
   372         20