##TITLE=Library Entry 89263
##JCAMP-DX=Revision 4.10 
##DATA TYPE=MASS SPECTRUM
##SAMPLE DESCRIPTION=Exported from NIST MS Search
##NAMES=HP
##CAS NAME=9-Azabicyclo[3.3.1]nonane-2,6-diol, 9-methyl-, (endo,endo)-
##MOLFORM=C9H17NO2
##CAS REGISTRY NO=49656-40-8
##MP= -300
##BP= -300
##MW= 171
##$RETENTION INDEX=0
##$CONDENSED SPECTRUM=NO
##NPOINTS= 14
##XYDATA=(XY..XY) 1 
    42        899
    57        519
    70        549
    82        559
    83        509
    94        270
    96        340
   112        999
   114        330
   126        230
   127        250
   140        180
   154         80
   171        480