##TITLE=Library Entry 87407
##JCAMP-DX=Revision 4.10 
##DATA TYPE=MASS SPECTRUM
##SAMPLE DESCRIPTION=RADIAN CORP
##NAMES=HP
##CAS NAME=Phenol, 3-(2-hydroxyethoxy)-
##MOLFORM=C8H10O3
##CAS REGISTRY NO=49650-88-6
##MP= -300
##BP= -300
##MW= 154
##$RETENTION INDEX=0
##$CONDENSED SPECTRUM=NO
##NPOINTS= 70
##XYDATA=(XY..XY) 1 
    14          2
    15          7
    17          3
    18          5
    19          3
    26          3
    27         24
    28          6
    29         28
    31         21
    37          3
    38         18
    39         90
    40          9
    41         12
    42         12
    43         38
    44         17
    45         71
    50         24
    51         37
    52         22
    53         77
    54         26
    55         32
    56          2
    57          2
    58          3
    61          6
    62         17
    63         61
    64         43
    65        145
    66         25
    67         15
    68         31
    69         80
    70          3
    71          8
    73         13
    74          8
    75          8
    76          7
    77         35
    78         35
    79         13
    80          6
    81        100
    82        184
    83         11
    91          2
    92         17
    93        143
    94         20
    95         30
    96         29
    97          4
   105         11
   106          1
   107         14
   108          1
   109         19
   110        999
   111        428
   112         29
   121          4
   123         33
   124          4
   154        206
   155         16