##TITLE=Library Entry 66946
##JCAMP-DX=Revision 4.10 
##DATA TYPE=MASS SPECTRUM
##SAMPLE DESCRIPTION=Exported from NIST MS Search
##NAMES=HP
##CAS NAME=9-Azabicyclo[3.3.1]nonane-2,6-diol, 9-methyl-, monoacetate (ester
), (endo,endo)-
##MOLFORM=C11H19NO3
##CAS REGISTRY NO=49656-43-1
##MP= -300
##BP= -300
##MW= 213
##$RETENTION INDEX=0
##$CONDENSED SPECTRUM=NO
##NPOINTS= 15
##XYDATA=(XY..XY) 1 
    42        539
    43        470
    57        300
    70        270
    82        220
    83        210
    94        999
   112        370
   126        150
   140         40
   154        300
   170        330
   182         20
   196         20
   213        310