##TITLE=Library Entry 438
##JCAMP-DX=Revision 4.10 
##DATA TYPE=MASS SPECTRUM
##SAMPLE DESCRIPTION=Japan AIST/NIMC Database- Spectrum MS-NW-8362
##NAMES=HP
##CAS NAME=Acetic acid, ethoxyhydroxy-, ethyl ester
##MOLFORM=C6H12O4
##CAS REGISTRY NO=49653-17-0
##MP= -300
##BP= -300
##MW= 148
##$RETENTION INDEX=0
##$CONDENSED SPECTRUM=NO
##NPOINTS= 59
##XYDATA=(XY..XY) 1 
    12          2
    13          6
    14         17
    15         47
    16          3
    17          1
    18          3
    24          1
    25          7
    26         50
    27        410
    28        143
    29        999
    30        149
    31        780
    32          9
    33          2
    39          1
    40          2
    41         10
    42         22
    43         77
    44         26
    45        369
    46        100
    47         73
    48          1
    55          4
    56          7
    57        152
    58         13
    59         21
    60          2
    61          3
    67          1
    69          2
    70          2
    71          1
    73         18
    74          5
    75         62
    76          7
    77          1
    81          1
    83          1
    86          1
    87          2
    88          4
    91          1
    97          2
    99          1
   102          1
   103         24
   104          3
   105          1
   116          1
   129          3
   131          5
   133          1