##TITLE=Library Entry 56025
##JCAMP-DX=Revision 4.10 
##DATA TYPE=MASS SPECTRUM
##SAMPLE DESCRIPTION=Japan AIST/NIMC Database- Spectrum MS-IW-1175
##NAMES=HP
##CAS NAME=3-(2-(Diethylamino)ethyl)-7-hydroxy-4-methylcoumarin
##MOLFORM=C16H21NO3
##CAS REGISTRY NO=49652-64-4
##MP= -300
##BP= -300
##MW= 275
##$RETENTION INDEX=0
##$CONDENSED SPECTRUM=NO
##NPOINTS= 89
##XYDATA=(XY..XY) 1 
    15          1
    27          5
    28         13
    29         16
    30         70
    31          1
    39          4
    41          5
    42         13
    43          9
    44          3
    51          3
    52          1
    53          2
    54          1
    55          5
    56         12
    57          9
    58         95
    59          3
    63          2
    65          4
    67          1
    69          4
    70          4
    71          5
    72          4
    77          7
    78          2
    79          3
    81          1
    82          1
    83          1
    84          8
    85          3
    86        999
    87         60
    88          1
    89          2
    91          6
    92          1
    93          1
    94          1
    95          1
    97          1
    99          1
   103          3
   104          1
   105          3
   106          1
   107          2
   109          1
   111          1
   114          1
   115          5
   116          1
   117          1
   118          1
   119          1
   127          2
   128          1
   129          1
   130          1
   131          3
   132          1
   133          1
   135          2
   144          1
   145          1
   147          3
   149          2
   157          1
   160          3
   161          4
   162          1
   163          1
   173          2
   174          2
   175          2
   189          4
   190          1
   201          3
   202          3
   203         18
   204          2
   230          1
   273          1
   275          2
   276          1