##TITLE=Library Entry 7286
##JCAMP-DX=Revision 4.10 
##DATA TYPE=MASS SPECTRUM
##SAMPLE DESCRIPTION=Chemical Concepts
##NAMES=HP
##CAS NAME=1,2-Oxathiolane, 3,5-dimethyl-, 2-oxide
##MOLFORM=C5H10O2S
##CAS REGISTRY NO=49675-44-7
##MP= -300
##BP= -300
##MW= 134
##$RETENTION INDEX=0
##$CONDENSED SPECTRUM=NO
##NPOINTS= 73
##XYDATA=(XY..XY) 1 
    26         26
    27        182
    28          5
    29        154
    30          5
    31         21
    33          3
    34          6
    37         11
    38         26
    39        288
    40         52
    41        625
    42        495
    43        999
    44         35
    45         55
    46          9
    47         13
    48         42
    49          8
    50          9
    51         12
    52          4
    53         47
    54         20
    55        895
    56         48
    57         25
    58         13
    59         22
    60         13
    61         10
    62          4
    63          8
    64          9
    65          8
    66          7
    67         24
    68          7
    69        683
    70        204
    71         27
    72         10
    73         79
    74          6
    75          6
    76          3
    77          8
    78          1
    79          3
    81          3
    82          2
    83          7
    84          3
    85          9
    86          3
    87          2
    90        136
    91         26
    92        414
    93         14
    94         21
    95          3
    97          6
   101          7
   117          5
   118          3
   119          9
   133          5
   134        115
   135         25
   136          7