##TITLE=Library Entry 48864
##JCAMP-DX=Revision 4.10 
##DATA TYPE=MASS SPECTRUM
##SAMPLE DESCRIPTION=D.HENNEBERG, MAX-PLANCK INSTITUTE, MULHEIM, WEST GERMAN
Y
##NAMES=HP
##CAS NAME=3-Hexene, 2,3,4,5-tetrabromo-
##MOLFORM=C6H8Br4
##CAS REGISTRY NO=49677-07-8
##MP= -300
##BP= -300
##MW= 396
##$RETENTION INDEX=0
##$CONDENSED SPECTRUM=NO
##NPOINTS= 158
##XYDATA=(XY..XY) 1 
    26        120
    27        403
    28        590
    29         39
    30          4
    31          6
    32         54
    34          0
    36         26
    37         60
    38        160
    39        583
    40         60
    41         73
    42         10
    43         16
    44         16
    45          8
    47          1
    48          2
    49         36
    50        230
    51        424
    52        179
    53        228
    54         20
    55         23
    56          6
    57         20
    59          4
    60          7
    61         30
    62         68
    63        147
    64         32
    65         89
    66         11
    67          6
    68          0
    69          4
    70          4
    71          2
    72          2
    73         39
    74         61
    75         43
    76         13
    77        662
    78        252
    79        999
    80        856
    81         55
    82         64
    83          7
    85          4
    87          6
    88         31
    89          1
    91          1
    92          0
    93         11
    94          4
    95          9
    97          0
   100          2
   101          6
   104          2
   105          7
   107         24
   108          3
   109         12
   111          1
   115          2
   116          6
   117         11
   118          3
   119         30
   120          7
   121         16
   122          3
   127          1
   128          3
   129          2
   130          5
   131         14
   132          2
   133         13
   134          1
   135          3
   141          1
   143         11
   144          8
   145         11
   146          7
   149         12
   150          1
   154          1
   155          2
   156          2
   157         34
   158        147
   159        314
   160        150
   161        292
   162         18
   163          1
   171          1
   173          3
   179          3
   181          1
   185          1
   187          1
   196          0
   197          3
   198          2
   199          3
   201          1
   202          1
   209          0
   211          5
   213          6
   215          2
   223          6
   225         10
   226          1
   227          3
   235          1
   236          1
   237         24
   238        311
   239         73
   240        613
   241         72
   242        297
   243         16
   244          0
   257          0
   277          0
   279          2
   281          1
   291          1
   293          1
   304          1
   317        191
   318         11
   319        594
   320         35
   321        567
   322         37
   323        183
   324         13
   396          5
   398         21
   399          1
   400         35
   402         20
   403          0
   404          4