##TITLE=Library Entry 53445
##JCAMP-DX=Revision 4.10 
##DATA TYPE=MASS SPECTRUM
##SAMPLE DESCRIPTION=D.H. AUE, DEP. CHEM., CALIF. UNIV., SANTA BARBARA, CALI
F., U&
##NAMES=HP
##CAS NAME=2-Methoxy-4,4,5,5-tetramethyl-2-oxazoline
##MOLFORM=C8H15NO2
##CAS REGISTRY NO=49680-47-9
##MP= -300
##BP= -300
##MW= 157
##$RETENTION INDEX=0
##$CONDENSED SPECTRUM=NO
##NPOINTS= 20
##XYDATA=(XY..XY) 1 
    15        240
    18         50
    26         70
    27        100
    28         90
    39        100
    41        220
    42        140
    43         90
    56        160
    69         60
    73         30
    84        999
    85         80
    98        120
    99        120
   110         40
   126         12
   142         44
   157         22