##TITLE=Library Entry 59017
##JCAMP-DX=Revision 4.10 
##DATA TYPE=MASS SPECTRUM
##SAMPLE DESCRIPTION=J.MACMILLAN UNIVERSITY OF BRISTOL, UK
##NAMES=HP
##CAS NAME=4a.alpha.,4b.beta.-Gibbane-1.alpha.,10.beta.-dicarboxylic acid, 2
.beta.-hydroxy-1,4a-dimethyl-8-methylene-, dimethyl ester
##MOLFORM=C22H32O5
##CAS REGISTRY NO=4968-37-0
##MP= -300
##BP= -300
##MW= 376
##$RETENTION INDEX=2541
##$CONDENSED SPECTRUM=NO
##NPOINTS= 261
##XYDATA=(XY..XY) 1 
    27        140
    28         70
    29        330
    30         20
    31         70
    32         20
    33        120
    39        320
    40         60
    41        870
    42         70
    43        560
    44         90
    45        110
    51         60
    52         40
    53        250
    54         50
    55        620
    56         90
    57        300
    58         20
    59        390
    60         10
    61         20
    63         10
    64         10
    65        210
    66         70
    67        370
    68         70
    69        270
    70         30
    71         70
    72         20
    73         40
    74         50
    75         50
    76         20
    77        500
    78        150
    79        660
    80         60
    81        370
    82         80
    83        140
    84         30
    85        190
    86         20
    87         30
    88         40
    89         50
    90         50
    91        999
    92        200
    93        390
    94         80
    95        240
    96         60
    97        100
    98         20
    99         20
   100         10
   101         40
   102         30
   103        130
   104         80
   105        530
   106        100
   107        140
   108         60
   109        130
   110         40
   111         60
   112        140
   113         50
   114         50
   115        260
   116        140
   117        340
   118        240
   119        340
   120        100
   121        120
   122         40
   123         80
   124         30
   125         60
   126         30
   127        100
   128        230
   129        370
   130        150
   131        360
   132        150
   133        210
   134         60
   135        100
   136         30
   137         60
   138         40
   139         40
   140         40
   141        170
   142        150
   143        330
   144        130
   145         80
   146        120
   147         40
   148         60
   149         20
   150         50
   151         50
   152         50
   153         80
   154         50
   155        180
   156        120
   157        290
   158        100
   159        190
   160        110
   161         80
   162         20
   163         40
   164         50
   165         60
   166         30
   167         70
   168         60
   169        160
   170         80
   171        280
   172        100
   173        120
   174         30
   175         50
   176         20
   177         50
   178         30
   179         40
   180         30
   181        100
   182         50
   183        180
   184        100
   185        320
   186        120
   187         60
   188         30
   189         70
   190         50
   191         50
   192        120
   193         40
   194         20
   195        120
   196         50
   197        150
   198         70
   199        180
   200         70
   201         60
   202         20
   203         40
   204         30
   205         30
   206         30
   207         20
   208         10
   209         70
   210         60
   211        160
   212         60
   213         90
   214         40
   215         60
   216         50
   217         90
   218         30
   219         20
   220         10
   221         10
   222         20
   223        180
   224         70
   225         60
   226         30
   227         60
   228         60
   229         70
   230         50
   231         80
   232         30
   233         20
   234         20
   235         10
   236         10
   237         50
   238        150
   239        510
   240        130
   241        100
   242         40
   243        100
   244        110
   245         40
   246         20
   247         40
   248         20
   251         50
   252         20
   253         20
   254         10
   255         80
   256        190
   257        130
   258        100
   259         80
   260         30
   261         20
   265         20
   266         80
   267         90
   268         60
   269        140
   270         80
   271         40
   272         30
   273         20
   282         50
   283        770
   284        340
   285         80
   286         30
   287         20
   288         10
   294         40
   295         20
   296         10
   297         30
   298        510
   299        200
   300         50
   301         80
   302         20
   311         50
   312         30
   313         10
   316        170
   317         70
   318         10
   326         70
   327         20
   329         30
   344        690
   345        230
   346         50
   347         10
   376         20