##TITLE=Library Entry 53828
##JCAMP-DX=Revision 4.10 
##DATA TYPE=MASS SPECTRUM
##SAMPLE DESCRIPTION=D.H. AUE, DEP. CHEM., CALIF. UNIV., SANTA BARBARA, CALI
F., U
##NAMES=HP
##CAS NAME=Triethyl hexahydro-1,3,5-triazine-2,4,6-tripropanoate
##MOLFORM=C18H33N3O6
##CAS REGISTRY NO=49680-40-2
##MP= -300
##BP= -300
##MW= 387
##$RETENTION INDEX=0
##$CONDENSED SPECTRUM=NO
##NPOINTS= 31
##XYDATA=(XY..XY) 1 
    41        420
    45        280
    54        200
    55        280
    56        860
    57        220
    73        200
    74        360
    84        999
    85        420
    94        280
   100        790
   102        200
   122        170
   129         40
   130         40
   150         30
   168        120
   196         60
   212         14
   242         40
   256          8
   269         13
   270          9
   283          9
   297          1
   325          3
   326          1
   343          0
   362          0
   387          0