##TITLE=Library Entry 79515
##JCAMP-DX=Revision 4.10 
##DATA TYPE=MASS SPECTRUM
##SAMPLE DESCRIPTION=Chemical Concepts
##NAMES=HP
##CAS NAME=Benzamide, N-(1,1-dimethylethyl)-N-methyl-
##MOLFORM=C12H17NO
##CAS REGISTRY NO=49690-12-2
##MP= -300
##BP= -300
##MW= 191
##$RETENTION INDEX=1541
##$CONDENSED SPECTRUM=NO
##NPOINTS= 72
##XYDATA=(XY..XY) 1 
    26          2
    27         29
    29         47
    30          8
    31          1
    37          2
    38          5
    39         37
    40          2
    41         77
    42         13
    43          1
    44          0
    49          1
    50         25
    51         89
    52          8
    53          3
    54          4
    55         14
    56         53
    57         50
    58         15
    59          0
    62          1
    63          2
    64          1
    65          2
    66          0
    68          0
    70          3
    71          2
    72          3
    73          0
    74          5
    75          5
    76         14
    77        288
    78         27
    79          5
    86          0
    88          2
    89          0
    90          0
    91          5
    92          0
   102          0
   103          4
   105        999
   106         69
   107          5
   115          0
   116          1
   117          1
   118         16
   119          2
   133          2
   134         66
   135         20
   136         16
   137          1
   148         39
   149          5
   162          0
   174          1
   176        127
   177         15
   178          0
   189          1
   190          4
   191         43
   192          5