##TITLE=Library Entry 23074
##JCAMP-DX=Revision 4.10 
##DATA TYPE=MASS SPECTRUM
##SAMPLE DESCRIPTION=Exported from NIST MS Search
##NAMES=HP
##CAS NAME=3-Butene-1,2-diol
##MOLFORM=C4H8O2
##CAS REGISTRY NO=497-06-3
##MP= -300
##BP= -300
##MW= 88
##$RETENTION INDEX=0
##$CONDENSED SPECTRUM=NO
##NPOINTS= 43
##XYDATA=(XY..XY) 1 
    26         22
    27        108
    28         37
    29        308
    30         24
    31        199
    32          7
    33          2
    36          1
    37          6
    38         12
    39         91
    40         36
    41         43
    42         69
    43         58
    44         10
    45          8
    47          6
    49          2
    50          5
    51          5
    52          2
    53          8
    54          4
    55         34
    56          6
    57        999
    58        173
    59          8
    60         10
    61         10
    66          1
    67          1
    68          1
    69         18
    70         69
    71          7
    72          1
    73          6
    86          1
    87          2
    88          1