##TITLE=Library Entry 8305
##JCAMP-DX=Revision 4.10 
##DATA TYPE=MASS SPECTRUM
##SAMPLE DESCRIPTION=Leung Pu, NIH, Bethesda, Maryland, U.S.
##NAMES=HP
##CAS NAME=Propanal, 2,3-dihydroxy-, (S)-
##MOLFORM=C3H6O3
##CAS REGISTRY NO=497-09-6
##MP= -300
##BP= -300
##MW= 90
##$RETENTION INDEX=0
##$CONDENSED SPECTRUM=NO
##NPOINTS= 33
##XYDATA=(XY..XY) 1 
    42        170
    43        999
    44        230
    45        318
    47        103
    48         11
    52          2
    53          6
    54          5
    55         99
    56        149
    57        218
    58         24
    59         16
    60        150
    61        429
    62         14
    63          3
    65          2
    66          0
    67          2
    68          2
    69          9
    70          7
    71         40
    72         26
    73        325
    74         80
    75          7
    76          1
    89          9
    90         25
    91          5