##TITLE=Library Entry 49089
##JCAMP-DX=Revision 4.10 
##DATA TYPE=MASS SPECTRUM
##SAMPLE DESCRIPTION=NIST Mass Spectrometry Data Center
##NAMES=HP
##CAS NAME=exo-Norbornyl alcohol
##MOLFORM=C7H12O
##CAS REGISTRY NO=497-37-0
##MP= -300
##BP= -300
##MW= 112
##$RETENTION INDEX=1544
##$CONDENSED SPECTRUM=NO
##NPOINTS= 70
##XYDATA=(XY..XY) 1 
    14          2
    15         13
    19          2
    26         19
    27        177
    28         40
    29        173
    30          7
    31         53
    37          8
    38         32
    39        368
    40         87
    41        372
    42         91
    43        177
    44         62
    45         57
    46          2
    47          3
    48          1
    49          3
    50         30
    51         59
    52         25
    53        183
    54         67
    55        276
    56        115
    57        278
    58         68
    59          3
    60          1
    61          3
    62          9
    63         18
    64          2
    65         97
    66        655
    67        822
    68        542
    69        100
    70        136
    71         58
    72          3
    74          3
    75          1
    77         82
    79        999
    80         72
    81        124
    82         20
    83        225
    84         60
    85          3
    86          1
    89          1
    91         33
    92          4
    93         66
    94        839
    95         74
    96          2
    97         72
    98          5
   109          1
   110          6
   111         13
   112         10
   113          1