##TITLE=Library Entry 48700
##JCAMP-DX=Revision 4.10 
##DATA TYPE=MASS SPECTRUM
##SAMPLE DESCRIPTION=Japan AIST/NIMC Database- Spectrum MS-NW-8769
##NAMES=HP
##CAS NAME=Bicyclo[2.2.1]heptan-2-ol, endo-
##MOLFORM=C7H12O
##CAS REGISTRY NO=497-36-9
##MP= -300
##BP= -300
##MW= 112
##$RETENTION INDEX=1558
##$CONDENSED SPECTRUM=NO
##NPOINTS= 67
##XYDATA=(XY..XY) 1 
    15         10
    18          4
    26          9
    27        131
    28         32
    29        126
    30          4
    31         41
    37          3
    38         11
    39        201
    40         62
    41        317
    42         71
    43        121
    44         63
    45         72
    46          2
    47          2
    48          1
    50         10
    51         28
    52         13
    53        144
    54         59
    55        255
    56        123
    57        349
    58         49
    59          2
    61          1
    62          3
    63          8
    64          2
    65         59
    66        611
    67        955
    68        747
    69        101
    70        152
    71         70
    72          4
    74          1
    75          1
    77         71
    78         23
    79        999
    80         75
    81        157
    82         20
    83        205
    84         52
    85          3
    89          1
    91         27
    92          4
    93         71
    94        911
    95        125
    96          7
    97         63
    98          4
   109          1
   110          1
   111         14
   112         14
   113          1