##TITLE=Library Entry 20907
##JCAMP-DX=Revision 4.10 
##DATA TYPE=MASS SPECTRUM
##SAMPLE DESCRIPTION=NIST Mass Spectrometry Data Center, 1990.
##NAMES=HP
##CAS NAME=2-Butenal, 2-methyl-, (E)-
##MOLFORM=C5H8O
##CAS REGISTRY NO=497-03-0
##MP= -300
##BP= -300
##MW= 84
##$RETENTION INDEX=745
##$CONDENSED SPECTRUM=NO
##NPOINTS= 35
##XYDATA=(XY..XY) 1 
    14         16
    15         15
    16          1
    25         16
    26        106
    27        506
    28        177
    29        555
    30         13
    31         14
    32         19
    37         51
    38         76
    39        490
    40         64
    41        383
    42         21
    43         32
    44         53
    49         35
    50        147
    51        145
    52         41
    53        246
    54         76
    55        999
    56        133
    57         18
    65         16
    66          9
    69         32
    82         20
    83        134
    84        892
    85         49