##TITLE=Library Entry 40593
##JCAMP-DX=Revision 4.10 
##DATA TYPE=MASS SPECTRUM
##SAMPLE DESCRIPTION=P.F.DIAMOND SHELL RESEARCH LIMITED THORNTON RESEARCH CE
NTRE
##NAMES=HP
##CAS NAME=1,3-Dioxolane, 2-methyl-
##MOLFORM=C4H8O2
##CAS REGISTRY NO=497-26-7
##MP= -300
##BP= -300
##MW= 88
##$RETENTION INDEX=623
##$CONDENSED SPECTRUM=NO
##NPOINTS= 19
##XYDATA=(XY..XY) 1 
    26         25
    27         72
    29         89
    30         14
    31         50
    41         18
    42         36
    43        454
    44         38
    45        400
    46         10
    55         10
    57          9
    58        220
    59         14
    73        999
    74         36
    87        129
    88          9