##TITLE=Library Entry 1581
##JCAMP-DX=Revision 4.10 
##DATA TYPE=MASS SPECTRUM
##SAMPLE DESCRIPTION=Japan AIST/NIMC Database- Spectrum MS-NW-2999
##NAMES=HP
##CAS NAME=Carbohydrazide
##MOLFORM=CH6N4O
##CAS REGISTRY NO=497-18-7
##MP= -300
##BP= -300
##MW= 90
##$RETENTION INDEX=0
##$CONDENSED SPECTRUM=NO
##NPOINTS= 28
##XYDATA=(XY..XY) 1 
    13          1
    14          2
    15          4
    16         36
    17         62
    18         66
    26          1
    27          5
    28         54
    29         82
    30         62
    31        364
    32        999
    33         15
    36          1
    41          1
    42          8
    43         30
    44        101
    45          3
    58          6
    59         22
    60          5
    72          3
    74         35
    75          1
    90         82
    91          2