##TITLE=Library Entry 86993
##JCAMP-DX=Revision 4.10 
##DATA TYPE=MASS SPECTRUM
##SAMPLE DESCRIPTION=LAC, NIDDK, NIH, Bethesda, MD 20892
##NAMES=HP
##CAS NAME=Arbutin
##MOLFORM=C12H16O7
##CAS REGISTRY NO=497-76-7
##MP= -300
##BP= -300
##MW= 272
##$RETENTION INDEX=0
##$CONDENSED SPECTRUM=NO
##NPOINTS= 86
##XYDATA=(XY..XY) 1 
    41         32
    42         18
    43         94
    44         11
    45         57
    46          0
    47          6
    49          9
    50          3
    51          9
    52          5
    53         31
    54         13
    55         34
    56         10
    57         69
    58          4
    59         11
    60         41
    61         52
    62          3
    63          9
    64          5
    65         33
    66          4
    67          2
    68          0
    69         43
    70          5
    71         34
    72          1
    73         75
    74          8
    75          4
    76          3
    77          9
    78          1
    79          1
    81         39
    82         14
    83          7
    84          8
    85         54
    86          8
    87         27
    88          7
    89         15
    91          8
    92          0
    93         11
    94         18
    95         12
    97         26
    98          3
    99          6
   101          7
   103          3
   107          3
   109         27
   110        999
   111         93
   112          8
   113          2
   115          4
   121          1
   123          4
   126          1
   127         10
   131          2
   135          2
   139          0
   144          1
   145          7
   147          0
   151          2
   152          6
   153          2
   162         25
   163          4
   169          2
   176          2
   177          3
   178         18
   179          2
   271          1
   272          2