##TITLE=Library Entry 20905
##JCAMP-DX=Revision 4.10 
##DATA TYPE=MASS SPECTRUM
##SAMPLE DESCRIPTION=Chuck Anderson, Aldrich Chemical Co.
##NAMES=HP
##CAS NAME=2(5H)-Furanone
##MOLFORM=C4H4O2
##CAS REGISTRY NO=497-23-4
##MP= -300
##BP= -300
##MW= 84
##$RETENTION INDEX=918
##$CONDENSED SPECTRUM=NO
##NPOINTS= 48
##XYDATA=(XY..XY) 1 
    12          3
    13          7
    14         10
    15          3
    16          1
    17          0
    18          0
    19          3
    20          1
    24          9
    25         48
    26        337
    27        569
    28         81
    29        198
    30         25
    31          2
    32          0
    33          1
    34          0
    36         13
    37         56
    38         69
    39        138
    40         12
    41         11
    42          5
    43          0
    44          8
    45          3
    48          0
    49          1
    50          1
    52          5
    53         38
    54        215
    55        999
    56         36
    57          4
    58          0
    66          0
    68          0
    69          0
    82          8
    83         22
    84        690
    85         32
    86          4