##TITLE=Library Entry 51322
##JCAMP-DX=Revision 4.10 
##DATA TYPE=MASS SPECTRUM
##SAMPLE DESCRIPTION=ORMSBG,9(12)1173(1974); WHEELER
##NAMES=HP
##CAS NAME=Bicyclo[4.1.0]heptan-2-one, 3,7,7-trimethyl-
##MOLFORM=C10H16O
##CAS REGISTRY NO=497-62-1
##MP= -300
##BP= -300
##MW= 152
##$RETENTION INDEX=1241
##$CONDENSED SPECTRUM=NO
##NPOINTS= 35
##XYDATA=(XY..XY) 1 
    39        230
    40         60
    41        330
    42         40
    43         60
    51         40
    52         20
    53        120
    54         60
    55        140
    56         20
    65         50
    66         30
    67        770
    68        150
    69         70
    70         90
    77         40
    79         70
    80         20
    81        180
    82        999
    83        110
    91         20
    93         20
    95        510
    96         60
    97         30
   109        110
   110        450
   111         40
   124         70
   137         30
   152        220
   153         20