##TITLE=Library Entry 48894
##JCAMP-DX=Revision 4.10 
##DATA TYPE=MASS SPECTRUM
##SAMPLE DESCRIPTION=NIST Mass Spectrometry Data Center
##NAMES=HP
##CAS NAME=Bicyclo[2.2.1]heptane, 2,2-dimethyl-5-methylene-
##MOLFORM=C10H16
##CAS REGISTRY NO=497-32-5
##MP= -300
##BP= -300
##MW= 136
##$RETENTION INDEX=940
##$CONDENSED SPECTRUM=NO
##NPOINTS= 65
##XYDATA=(XY..XY) 1 
    26          3
    27         41
    29         18
    37          3
    38          7
    39        129
    40         25
    41        188
    42         12
    43         30
    50         17
    51         75
    52         34
    53        108
    54         14
    55         73
    56         17
    57         43
    58         10
    61          2
    62          6
    63         17
    64          4
    65         64
    66         45
    67         92
    68         32
    69         82
    70          8
    71          2
    74          4
    75          6
    76          4
    77        326
    78        104
    79        999
    80        616
    81        177
    82         18
    83          5
    89          5
    90          2
    91        170
    92         51
    93        442
    94        317
    95         92
    96          7
    98          2
   103          9
   104          4
   105         48
   106         17
   107        186
   108         69
   109          5
   110          3
   115          8
   117          6
   119         14
   121        389
   122         34
   135          7
   136        253
   137         24