##TITLE=Library Entry 56999
##JCAMP-DX=Revision 4.10 
##DATA TYPE=MASS SPECTRUM
##SAMPLE DESCRIPTION=Japan AIST/NIMC Database- Spectrum MS-NW-6308
##NAMES=HP
##CAS NAME=Oxazolidin-2-one
##MOLFORM=C3H5NO2
##CAS REGISTRY NO=497-25-6
##MP= -300
##BP= -300
##MW= 87
##$RETENTION INDEX=0
##$CONDENSED SPECTRUM=NO
##NPOINTS= 39
##XYDATA=(XY..XY) 1 
    12          4
    13          6
    14         25
    15        207
    16          8
    17          1
    18          3
    25          4
    26         24
    27         50
    28        653
    29        427
    30        140
    31        102
    32          6
    38          8
    39         10
    40         28
    41         46
    42        296
    43        100
    44         48
    45          8
    54          3
    55          3
    56         32
    57         40
    58         19
    59        582
    60         17
    61          2
    68          1
    69          2
    70          1
    85          8
    86         40
    87        999
    88         44
    89          6