##TITLE=Library Entry 49445
##JCAMP-DX=Revision 4.10 
##DATA TYPE=MASS SPECTRUM
##SAMPLE DESCRIPTION=Chemical Concepts
##NAMES=HP
##CAS NAME=Tricyclo[4.2.1.1(2,5)]decane
##MOLFORM=C10H16
##CAS REGISTRY NO=49700-70-1
##MP= -300
##BP= -300
##MW= 136
##$RETENTION INDEX=0
##$CONDENSED SPECTRUM=NO
##NPOINTS= 76
##XYDATA=(XY..XY) 1 
    26          5
    27         65
    28          0
    29         31
    30          2
    37          2
    38          8
    39        145
    40         30
    41        203
    42         17
    43         11
    44          7
    45          2
    50         10
    51         33
    52         22
    53         75
    54         59
    55         48
    56          6
    57          5
    58          3
    59          3
    60          3
    62          3
    63         13
    64          4
    65         50
    66        233
    67        443
    68        138
    69         41
    70          4
    71          3
    75          4
    76          2
    77         92
    78         58
    79        353
    80        999
    81        145
    82         59
    83          5
    84          3
    85          3
    89          3
    90          3
    91         66
    92         14
    93        165
    94        138
    95        252
    96         20
    97          2
    98          2
    99          2
   103          3
   104          3
   105         11
   106          7
   107        197
   108        266
   109         25
   110          2
   115          3
   117          2
   119          2
   120          2
   121         78
   122          9
   123          2
   135          5
   136        130
   137         16
   138          2