##TITLE=Library Entry 84847
##JCAMP-DX=Revision 4.10 
##DATA TYPE=MASS SPECTRUM
##SAMPLE DESCRIPTION=Chemical Concepts
##NAMES=HP
##CAS NAME=Tricyclo[4.2.2.0(1,5)]decane
##MOLFORM=C10H16
##CAS REGISTRY NO=49700-63-2
##MP= -300
##BP= -300
##MW= 136
##$RETENTION INDEX=0
##$CONDENSED SPECTRUM=NO
##NPOINTS= 85
##XYDATA=(XY..XY) 1 
    26         10
    27        113
    28         16
    29         59
    30          1
    31          3
    37          2
    38          8
    39        181
    40         33
    41        213
    42         15
    43         19
    44          5
    45          4
    50         16
    51         54
    52         37
    53        112
    54         65
    55         75
    56          8
    57         12
    58          4
    59          2
    61          2
    62          4
    63         16
    64          5
    65         66
    66         65
    67        378
    68         57
    69         20
    70          5
    71          6
    73          1
    74          2
    75          3
    76          3
    77        147
    78         59
    79        599
    80        760
    81        148
    82         74
    83         10
    84          2
    85          4
    89          3
    90          1
    91        122
    92         22
    93        272
    94        161
    95        128
    96         11
    97          4
    98          1
    99          1
   102          2
   103          7
   104          2
   105         22
   106         20
   107        490
   108        999
   110          4
   111          2
   112          1
   113          0
   114          0
   115          4
   116          1
   117          1
   119          2
   120          1
   121        113
   122         12
   123          1
   134          0
   135          7
   136         76
   137          9
   138          0