##TITLE=Library Entry 53806
##JCAMP-DX=Revision 4.10 
##DATA TYPE=MASS SPECTRUM
##SAMPLE DESCRIPTION=Exported from NIST MS Search
##NAMES=HP
##CAS NAME=Cyclopentanone, 2-ethyl-
##MOLFORM=C7H12O
##CAS REGISTRY NO=4971-18-0
##MP= -300
##BP= -300
##MW= 112
##$RETENTION INDEX=1314
##$CONDENSED SPECTRUM=NO
##NPOINTS= 69
##XYDATA=(XY..XY) 1 
    25          1
    26         30
    27        220
    29        120
    30          4
    31          3
    33          2
    34          2
    37          5
    38         15
    39         20
    40         60
    41        600
    42        310
    43        120
    44         25
    45          2
    48          1
    49          2
    50         15
    51         20
    52         10
    53         50
    54         35
    55        630
    56        750
    57         60
    58         13
    59          1
    61          1
    62          3
    63          4
    64          1
    65         10
    66         10
    67         60
    68        370
    69        200
    70         80
    71         10
    72          1
    74          1
    75          1
    77          7
    78          2
    79         25
    80          2
    81         11
    82         11
    83        370
    84        999
    85         55
    86          3
    91          2
    92          1
    93          3
    94          4
    95          4
    96          1
    97         45
    98          3
   108          1
   109          1
   110          5
   111          7
   112        280
   113         27
   114          3
   116          1