##TITLE=Library Entry 47303
##JCAMP-DX=Revision 4.10 
##DATA TYPE=MASS SPECTRUM
##SAMPLE DESCRIPTION=A.A.Kutin, Moscow, Russia
##NAMES=HP
##CAS NAME=Furoxan, 3-methyl-4-phenoxy-
##MOLFORM=C9H8N2O3
##CAS REGISTRY NO=49739-29-9
##MP= -300
##BP= -300
##MW= 192
##$RETENTION INDEX=0
##$CONDENSED SPECTRUM=NO
##NPOINTS= 41
##XYDATA=(XY..XY) 1 
    33         30
    39        562
    40        143
    41         31
    42         15
    44         51
    50        116
    51        606
    52         79
    53         47
    54          3
    55         93
    57         67
    62         24
    63         69
    65        222
    66         97
    67         29
    74         15
    75         34
    77        999
    78        391
    81        231
    82          9
    93        229
    94         34
   103        288
   104        412
   105         22
   108          6
   109         18
   118          5
   121        104
   122          2
   132        686
   133         32
   134         13
   135          5
   162         23
   192        218
   193         10