##TITLE=Library Entry 99187
##JCAMP-DX=Revision 4.10 
##DATA TYPE=MASS SPECTRUM
##SAMPLE DESCRIPTION=Chemical Concepts
##NAMES=HP
##CAS NAME=Ethanone, 2,2-dichloro-1-(4-methylphenyl)-
##MOLFORM=C9H8Cl2O
##CAS REGISTRY NO=4974-59-8
##MP= -300
##BP= -300
##MW= 202
##$RETENTION INDEX=0
##$CONDENSED SPECTRUM=NO
##NPOINTS= 101
##XYDATA=(XY..XY) 1 
    25          0
    26          3
    27         11
    28          3
    29          0
    35          1
    36          4
    37          4
    38         10
    39         63
    40          5
    41         16
    42          0
    43          1
    44          0
    45          1
    47          2
    48          5
    49          3
    50         26
    51         43
    52         11
    53          5
    54          0
    57          0
    59          0
    60          0
    61          6
    62         18
    63         46
    64         11
    65        126
    66          7
    68          0
    69          1
    70          0
    73          3
    74          8
    75          9
    76          7
    77         28
    78          8
    79          0
    82          0
    83          5
    84          1
    85          5
    86          4
    87          5
    88          2
    89         35
    90         19
    91        440
    92         41
    93          1
    97          0
    98          0
    99          1
   100          0
   101          2
   102          5
   103         23
   104         12
   105          1
   110          0
   111          0
   112          0
   113          0
   114          0
   115          2
   116          1
   117          0
   118          6
   119        999
   120         89
   121          5
   122          0
   123          0
   125          0
   126          0
   131          0
   136          0
   137          0
   138          1
   139         23
   140          2
   141          8
   142          0
   165          0
   166          0
   167          0
   168          0
   173          0
   175          0
   180          0
   200          0
   202         11
   203          1
   204          7
   205          0
   206          1