##TITLE=Library Entry 4195
##JCAMP-DX=Revision 4.10 
##DATA TYPE=MASS SPECTRUM
##SAMPLE DESCRIPTION=A.A.Kutin, Moscow, Russia
##NAMES=HP
##CAS NAME=Benzoxazole-3-carboxylic acid, 2,3-dihydro-6-chloro-2-thioxo-, bu
tyl ester
##MOLFORM=C12H12ClNO3S
##CAS REGISTRY NO=49740-32-1
##MP= -300
##BP= -300
##MW= 285
##$RETENTION INDEX=0
##$CONDENSED SPECTRUM=NO
##NPOINTS= 171
##XYDATA=(XY..XY) 1 
    33         57
    34         54
    35         21
    36         90
    37         46
    38         91
    39        325
    40        529
    41        999
    43        347
    44        269
    45         79
    46         14
    47          9
    48         16
    49         24
    50        101
    51         91
    52         43
    53         56
    55        273
    56        151
    57        513
    58         27
    59         11
    60         34
    61         31
    62         62
    63        147
    64         31
    65         27
    66         24
    67         38
    68         26
    69         88
    70         95
    71         58
    72         21
    73         52
    74         28
    75         41
    76         75
    77         76
    78         46
    79         36
    80          8
    81         28
    82         22
    83         52
    84         37
    85         20
    86          7
    87         14
    88         13
    89         17
    90         25
    91         27
    92          8
    93         18
    94         16
    95         32
    96         24
    97         28
    98         31
    99         14
   100          9
   101          6
   102          8
   103         17
   104         39
   105         27
   106         18
   107          8
   108          7
   109         10
   110         16
   111         17
   112         40
   113         26
   114          7
   115         13
   116          4
   117          5
   118          5
   119          9
   120         15
   121         15
   122         14
   124         54
   125         58
   126         23
   127         23
   128          7
   129         17
   130         18
   131          7
   132         10
   133          9
   134          3
   135          8
   136          3
   137          5
   138         13
   139          8
   140         12
   141          3
   142          5
   143          3
   145          3
   146          2
   147         12
   148          2
   149         10
   150          6
   151          9
   152         13
   153         36
   154          8
   155         13
   156         70
   157          9
   158         24
   159          5
   160          6
   161          2
   164          1
   165         19
   166         10
   167         24
   168         13
   169         34
   170          5
   171         30
   172          3
   173          8
   174         28
   175          8
   176          1
   179          1
   180         11
   181          7
   182          8
   183          7
   185        531
   186         62
   187        174
   188         16
   189          8
   193          1
   194          3
   195          0
   196          0
   199          2
   200          0
   201          0
   208          2
   209          5
   210          2
   211          1
   212          0
   213          2
   225          0
   227          0
   241          2
   255          0
   269          1
   283          3
   285         61
   286          9
   287         21
   288          2