##TITLE=Library Entry 83
##JCAMP-DX=Revision 4.10 
##DATA TYPE=MASS SPECTRUM
##SAMPLE DESCRIPTION=A.E.FONTAINE DYESTUFFS DIV., I.C.I., MANCHESTER
##NAMES=HP
##CAS NAME=Furazan, dimethyl-
##MOLFORM=C4H6N2O
##CAS REGISTRY NO=4975-21-7
##MP= -300
##BP= -300
##MW= 98
##$RETENTION INDEX=0
##$CONDENSED SPECTRUM=NO
##NPOINTS= 69
##XYDATA=(XY..XY) 1 
    12          4
    13          5
    14         26
    15        145
    16          2
    17          2
    18          8
    20          0
    24          1
    25          7
    26        101
    27        999
    28        120
    29          4
    30        134
    31          2
    32          0
    35          0
    36          2
    37         20
    38         45
    39         83
    40         95
    41        109
    42        419
    43         20
    44          2
    45          0
    46          0
    48          0
    49          1
    50          5
    51         24
    52         40
    53          7
    54          1
    55          2
    56          2
    57        665
    58         19
    59          1
    60          0
    62          0
    63          2
    64          5
    65          2
    66         21
    67         18
    68         24
    69          1
    70          0
    71          0
    72          0
    73          0
    74          0
    76          0
    77          0
    78          0
    79          0
    80          0
    81          1
    82          0
    83          1
    84          0
    85          0
    97          0
    98        254
    99         23
   100          2