##TITLE=Library Entry 79547
##JCAMP-DX=Revision 4.10 
##DATA TYPE=MASS SPECTRUM
##SAMPLE DESCRIPTION=Chemical Concepts
##NAMES=HP
##CAS NAME=Phenyl-1-myrtenone
##MOLFORM=C16H18O
##CAS REGISTRY NO=49752-09-2
##MP= -300
##BP= -300
##MW= 226
##$RETENTION INDEX=0
##$CONDENSED SPECTRUM=NO
##NPOINTS= 131
##XYDATA=(XY..XY) 1 
    27         53
    29         26
    38          2
    39         62
    40         15
    41        106
    42          5
    43         37
    44          1
    50         13
    51         86
    52         12
    53         29
    54          3
    55         20
    56          2
    57          2
    58          1
    59          3
    62          1
    63          9
    64          2
    65         27
    66          4
    67         17
    68          6
    69         13
    70          2
    74          2
    75          3
    76         15
    77        461
    78         52
    79         48
    80          6
    81         13
    82          4
    83         10
    85          1
    89          4
    91         66
    92          7
    93         35
    94          5
    95          3
    97          3
    98          2
   102          5
   103         13
   104          7
   105        999
   106         77
   107         11
   108          1
   109          2
   115         20
   116          5
   117          6
   118          1
   119         10
   120          7
   121         40
   122          3
   127          6
   128         12
   129         14
   130          3
   131          5
   132          3
   133          8
   134          1
   135          5
   137          2
   139          2
   140          1
   141         12
   142          9
   143          5
   144         12
   145         12
   146          6
   147          3
   148          2
   149          3
   151          2
   152          7
   153         11
   154          5
   155         12
   156          4
   157         18
   158         13
   159          2
   161          1
   165         11
   166          6
   167         11
   168          5
   169          9
   170         15
   171          9
   172          2
   173          7
   174          1
   178          5
   179          2
   180          1
   181         14
   182        102
   183        230
   184         61
   185         11
   186          2
   192          1
   193         11
   194          2
   195          3
   196          4
   197         10
   198          8
   199          3
   207          2
   208          3
   209          3
   210          2
   211         44
   212          7
   225         18
   226        196
   227         33
   228          4