##TITLE=Library Entry 66339
##JCAMP-DX=Revision 4.10 
##DATA TYPE=MASS SPECTRUM
##SAMPLE DESCRIPTION=A.A.Kutin, Moscow, Russia
##NAMES=HP
##CAS NAME=Benzamide, N-[2-(2-pyridyl)ethyl]-
##MOLFORM=C14H14N2O
##CAS REGISTRY NO=4976-05-0
##MP= -300
##BP= -300
##MW= 226
##$RETENTION INDEX=0
##$CONDENSED SPECTRUM=NO
##NPOINTS= 45
##XYDATA=(XY..XY) 1 
    57         26
    58         38
    59          7
    63         22
    64          8
    65        101
    66         68
    67         31
    73          6
    75         36
    76        732
    77        150
    78        106
    79         14
    84          6
    89          4
    91         15
    92         63
    93        999
    94        228
   102          4
   104         94
   105        986
   106        570
   107          6
   115          5
   119         28
   120         17
   121        764
   122         84
   123          6
   131          8
   134         10
   135          7
   148         33
   168          8
   169          9
   180          3
   196          6
   208          7
   225          4
   226        169
   227         30
   228          4
   238          3