##TITLE=Library Entry 23384
##JCAMP-DX=Revision 4.10 
##DATA TYPE=MASS SPECTRUM
##SAMPLE DESCRIPTION=MUS15 A. Mujsce, AT&T Bell Labs., Murray Hill, N.J., US
A
##NAMES=HP
##CAS NAME=N-tert-Butoxycarbonylimidazole
##MOLFORM=C8H12N2O2
##CAS REGISTRY NO=49761-82-2
##MP= -300
##BP= -300
##MW= 168
##$RETENTION INDEX=0
##$CONDENSED SPECTRUM=NO
##NPOINTS= 66
##XYDATA=(XY..XY) 1 
    37          3
    38         25
    39        168
    40        300
    41        318
    42         30
    43        139
    44          4
    45          6
    49          1
    50          6
    51         10
    52          6
    53         14
    54          5
    55         25
    57        999
    58         45
    59         23
    60          1
    61          0
    62          0
    64          0
    65          1
    66          6
    67         29
    68        143
    69         84
    70          3
    71          0
    72          0
    73          1
    76          0
    79          0
    81          0
    82          1
    83          0
    84          0
    85          0
    91          0
    93          0
    95        222
    96         10
    97          1
   101          1
   107          0
   108          0
   109         10
   110          1
   113         29
   114          1
   116          0
   121          0
   123          0
   124          0
   125          0
   128          0
   133          0
   136          0
   149          0
   153          8
   154          0
   155          0
   168         29
   169          4
   170          0