##TITLE=Library Entry 9039
##JCAMP-DX=Revision 4.10 
##DATA TYPE=MASS SPECTRUM
##SAMPLE DESCRIPTION=J. PFORDT, PHARM. INST. UNIV. HEIDELBERG, HEIDELBERG, W
. GER
##NAMES=HP
##CAS NAME=Heptanoic acid, 4-oxo-, methyl ester
##MOLFORM=C8H14O3
##CAS REGISTRY NO=49770-81-2
##MP= -300
##BP= -300
##MW= 158
##$RETENTION INDEX=0
##$CONDENSED SPECTRUM=NO
##NPOINTS= 8
##XYDATA=(XY..XY) 1 
    43        999
    55        440
    59        230
    71        780
    98         50
   115        520
   127        210
   130        260