##TITLE=Library Entry 12346
##JCAMP-DX=Revision 4.10 
##DATA TYPE=MASS SPECTRUM
##SAMPLE DESCRIPTION=NIST Mass Spectrometry Data Center
##NAMES=HP
##CAS NAME=Ethyl acetamidocyanoacetate
##MOLFORM=C7H10N2O3
##CAS REGISTRY NO=4977-62-2
##MP= -300
##BP= -300
##MW= 170
##$RETENTION INDEX=0
##$CONDENSED SPECTRUM=NO
##NPOINTS= 47
##XYDATA=(XY..XY) 1 
    18          2
    26         32
    27        121
    29        119
    39         11
    40          7
    41         25
    42        162
    43        999
    44        199
    45         80
    46         11
    51         22
    52         76
    53        112
    54        163
    55         44
    56        136
    57         29
    68         17
    69        189
    70         36
    71        313
    72        355
    73         44
    81         24
    82         48
    83         12
    85         22
    96         50
    97         37
    98         82
    99         34
   100        200
   114         51
   123         11
   124        380
   125        607
   126         68
   127         12
   128         15
   141         26
   142        878
   143         53
   155         11
   170        497
   171         43