##TITLE=Library Entry 79118
##JCAMP-DX=Revision 4.10 
##DATA TYPE=MASS SPECTRUM
##SAMPLE DESCRIPTION=Organic Synthesis Lab, MSU, Moscow.TRC 1122
##NAMES=HP
##CAS NAME=2,2,3-Trimethyl-1-phenyl-3-buten-1-one
##MOLFORM=C13H16O
##CAS REGISTRY NO=49784-69-2
##MP= -300
##BP= -300
##MW= 188
##$RETENTION INDEX=0
##$CONDENSED SPECTRUM=NO
##NPOINTS= 97
##XYDATA=(XY..XY) 1 
    37          0
    38          2
    39         51
    40          6
    41         86
    42          7
    43         31
    44          1
    45          0
    47          1
    49          1
    50         18
    51         78
    52          6
    53         14
    54          3
    55         76
    56          3
    57          1
    58          1
    62          1
    63          4
    64          1
    65          8
    66          1
    67         19
    68          2
    69          1
    70          0
    73          0
    74          3
    75          4
    76         11
    77        332
    78         24
    79          3
    81          2
    82          4
    83         34
    84         10
    85          0
    86          0
    87          0
    88          0
    89          1
    90          0
    91         17
    92          1
    95          0
    97          0
   101          0
   102          1
   103          4
   104          2
   105        999
   106        108
   107          5
   108          0
   113          0
   115          7
   116          1
   117          5
   118          0
   119          0
   120          0
   127          2
   128          6
   129          6
   130          4
   131          4
   132          0
   133          0
   141          1
   142          0
   143          0
   144          0
   145         12
   146          2
   147          0
   148          1
   152          0
   153          0
   155          0
   157          0
   158          1
   159          0
   160          0
   170          0
   171          0
   172          0
   173         35
   174          4
   175          0
   187          1
   188         41
   189          5
   190          0