##TITLE=Library Entry 78919
##JCAMP-DX=Revision 4.10 
##DATA TYPE=MASS SPECTRUM
##SAMPLE DESCRIPTION=Chemical Concepts
##NAMES=HP
##CAS NAME=Benzoic acid, 1,3-dioxan-5-yl ester
##MOLFORM=C11H12O4
##CAS REGISTRY NO=49784-60-3
##MP= -300
##BP= -300
##MW= 208
##$RETENTION INDEX=0
##$CONDENSED SPECTRUM=NO
##NPOINTS= 59
##XYDATA=(XY..XY) 1 
    26          5
    27         33
    28         13
    29         40
    30          9
    31         44
    38          4
    39         16
    40          2
    41          4
    42          7
    43         24
    44         16
    45         42
    49          2
    50         47
    51        133
    52          9
    53          3
    55         53
    56          8
    57         43
    58         10
    62          2
    63          3
    65          5
    66          2
    72          2
    73         19
    74         14
    75         15
    76         29
    77        404
    78         35
    79         10
    86        335
    87         18
    88          2
    91          5
    92          2
    94          2
   103         21
   104          8
   105        999
   106         89
   107          6
   119          3
   120         29
   121          4
   122         15
   123        140
   124         12
   135          3
   136          2
   148         36
   149          7
   178          3
   207         14
   208          4