##TITLE=Library Entry 89211
##JCAMP-DX=Revision 4.10 
##DATA TYPE=MASS SPECTRUM
##SAMPLE DESCRIPTION=NIST Mass Spectrometry Data Center, 1994
##NAMES=HP
##CAS NAME=2-Butenedioic acid, 2-methyl-, (E)-
##MOLFORM=C5H6O4
##CAS REGISTRY NO=498-24-8
##MP= -300
##BP= -300
##MW= 130
##$RETENTION INDEX=0
##$CONDENSED SPECTRUM=NO
##NPOINTS= 60
##XYDATA=(XY..XY) 1 
     4          2
    12          3
    13          4
    14          7
    15         20
    16          2
    17          8
    18         10
    19          8
    24          2
    25         14
    26         29
    27         52
    28         70
    29        129
    30          5
    31         30
    32          0
    33          3
    34          3
    36         16
    37         99
    38        201
    39        924
    40        291
    41        231
    42         66
    43        246
    44          0
    45        377
    46         15
    47          3
    48          2
    49          5
    50          6
    51          1
    52          8
    53         53
    54          6
    55         50
    56         38
    57         21
    58          3
    60          1
    63          3
    66         34
    67        143
    68         51
    69        123
    70          8
    71         11
    73          3
    77          1
    84        732
    85        100
    86          9
    87          3
   112        999
   113        100
   114         10