##TITLE=Library Entry 29925
##JCAMP-DX=Revision 4.10 
##DATA TYPE=MASS SPECTRUM
##SAMPLE DESCRIPTION=Chemical Concepts
##NAMES=HP
##CAS NAME=Cyclohexanemethanol, .alpha.,.alpha.,4-trimethyl-
##MOLFORM=C10H20O
##CAS REGISTRY NO=498-81-7
##MP= -300
##BP= -300
##MW= 156
##$RETENTION INDEX=1161
##$CONDENSED SPECTRUM=NO
##NPOINTS= 67
##XYDATA=(XY..XY) 1 
    24          1
    26          3
    27         50
    28         13
    29         54
    31         59
    32          6
    34          1
    37          1
    38          3
    39         71
    40         14
    41        143
    42         23
    43        150
    44          3
    45         28
    48          2
    50          4
    51          7
    52          1
    53         41
    54         21
    55        157
    56         19
    57         19
    58         93
    59        999
    60         31
    61          1
    63          2
    65         12
    66          5
    67         63
    68         13
    69         30
    70          9
    71         13
    73          5
    77         14
    78          3
    79         21
    81        100
    82         23
    83         35
    84          3
    85          2
    88          1
    89          3
    91         12
    93          6
    94          2
    95         59
    96         36
    97         28
    98          5
   100          1
   110          1
   113          1
   114          1
   123         56
   124          4
   132          1
   137          3
   138          7
   141         25
   142          2