##TITLE=Library Entry 24812
##JCAMP-DX=Revision 4.10 
##DATA TYPE=MASS SPECTRUM
##SAMPLE DESCRIPTION=Japan AIST/NIMC Database- Spectrum MS-NW-1558
##NAMES=HP
##CAS NAME=Nipecotic acid
##MOLFORM=C6H11NO2
##CAS REGISTRY NO=498-95-3
##MP= -300
##BP= -300
##MW= 129
##$RETENTION INDEX=0
##$CONDENSED SPECTRUM=NO
##NPOINTS= 76
##XYDATA=(XY..XY) 1 
    14          2
    15         19
    17          2
    18          7
    25          1
    26         23
    27        141
    28        233
    29        225
    30        327
    31          8
    32          1
    37          4
    38          9
    39         97
    40         18
    41         92
    42        201
    43        141
    44        159
    45         43
    46          6
    49          2
    50         11
    51         18
    52         16
    53         47
    54         60
    55        226
    56        818
    57        999
    58         37
    59          3
    60          5
    65          5
    66          2
    67         20
    68         58
    69         26
    70         70
    71          7
    72          4
    73        262
    74         11
    75          1
    78          3
    79          4
    80         24
    81         12
    82        129
    83        135
    84        323
    85         26
    86          3
    87          4
    88          2
    93          1
    94          1
    96          3
    97          2
    98          5
    99          6
   100         69
   101        110
   102          5
   109          1
   110         32
   111          8
   112         12
   113          1
   114          3
   127          1
   128        111
   129        251
   130         18
   131          1