##TITLE=Library Entry 32013
##JCAMP-DX=Revision 4.10 
##DATA TYPE=MASS SPECTRUM
##SAMPLE DESCRIPTION=Japan AIST/NIMC Database- Spectrum MS-NW-3601
##NAMES=HP
##CAS NAME=2-Norbornene
##MOLFORM=C7H10
##CAS REGISTRY NO=498-66-8
##MP= -300
##BP= -300
##MW= 94
##$RETENTION INDEX=716
##$CONDENSED SPECTRUM=NO
##NPOINTS= 39
##XYDATA=(XY..XY) 1 
    15          2
    26          8
    27         48
    28          8
    29          4
    37          6
    38         14
    39        105
    40         43
    41         32
    42          2
    45          2
    49          2
    50         13
    51         27
    52         10
    53         24
    54          6
    55          2
    61          3
    62          6
    63         12
    64          3
    65         57
    66        999
    67         66
    68          3
    74          1
    75          1
    77         64
    78         13
    79        103
    80          6
    89          1
    91         30
    92          3
    93         16
    94         80
    95          6