##TITLE=Library Entry 66211
##JCAMP-DX=Revision 4.10 
##DATA TYPE=MASS SPECTRUM
##SAMPLE DESCRIPTION=Japan AIST/NIMC Database- Spectrum MS-NW-3994
##NAMES=HP
##CAS NAME=(+)-3-Carene
##MOLFORM=C10H16
##CAS REGISTRY NO=498-15-7
##MP= -300
##BP= -300
##MW= 136
##$RETENTION INDEX=1010
##$CONDENSED SPECTRUM=NO
##NPOINTS= 84
##XYDATA=(XY..XY) 1 
    15          5
    26          3
    27         75
    28          6
    29         51
    30          1
    37          2
    38          8
    39        106
    40         18
    41        167
    42         10
    43        130
    44          4
    50         10
    51         37
    52         15
    53         66
    54          8
    55         58
    56          4
    57          3
    58          4
    59          3
    60          1
    61          1
    62          4
    63         12
    64          4
    65         42
    66         11
    67         67
    68         38
    69         44
    70          3
    71          3
    74          2
    75          2
    76          1
    77        216
    78         34
    79        214
    80        183
    81         50
    82          8
    83          2
    84          1
    86          1
    87          1
    89          5
    90          2
    91        234
    92        224
    93        999
    94        104
    95         22
    96          4
    97          1
   102          1
   103         12
   104          5
   105         92
   106         27
   107         67
   108         14
   109          6
   110          1
   111          4
   115          6
   116          2
   117          6
   118          2
   119         44
   120          8
   121        209
   122         22
   123          2
   132          1
   133          1
   134          8
   135          4
   136        197
   137         22
   138          2