##TITLE=Library Entry 31740
##JCAMP-DX=Revision 4.10 
##DATA TYPE=MASS SPECTRUM
##SAMPLE DESCRIPTION=Japan AIST/NIMC Database- Spectrum MS-NW- 383
##NAMES=HP
##CAS NAME=L-Alanine, 3-sulfo-
##MOLFORM=C3H7NO5S
##CAS REGISTRY NO=498-40-8
##MP= -300
##BP= -300
##MW= 169
##$RETENTION INDEX=0
##$CONDENSED SPECTRUM=NO
##NPOINTS= 90
##XYDATA=(XY..XY) 1 
    12          3
    15          6
    16         80
    17          9
    18         37
    24          4
    26          5
    27         14
    28        246
    29          6
    30          8
    32         35
    34          4
    36          2
    38          3
    39         10
    40          8
    41         23
    42         28
    43         20
    44        348
    45          5
    46          2
    48        413
    49          3
    50         17
    51          5
    52          3
    53          3
    54          8
    55          9
    56          5
    57          6
    58          1
    59          3
    60          2
    63          2
    64        999
    65          9
    66         49
    67          5
    68          5
    69          8
    70          3
    71          3
    73          2
    77          4
    78          3
    79          4
    80          4
    81          3
    82          3
    83          3
    84          2
    85          2
    89          1
    91          4
    92          4
    93          9
    94          4
    95          3
    96          3
    97          3
    98          2
   103          1
   105          2
   106          3
   107          2
   109          1
   110          2
   111          2
   112          2
   113          1
   115          3
   116          1
   117          1
   118          2
   119          2
   121          1
   122          1
   130          1
   131          1
   138          2
   140          3
   141          1
   142          1
   143          5
   167          1
   168          1
   169          3