##TITLE=Library Entry 7108
##JCAMP-DX=Revision 4.10 
##DATA TYPE=MASS SPECTRUM
##SAMPLE DESCRIPTION=HCACAV,61(3)984(1978); P. DUBS AND H-P. SCHENK
##NAMES=HP
##CAS NAME=2-Heptanone, 6-methyl-5-methylene-
##MOLFORM=C9H16O
##CAS REGISTRY NO=498-51-1
##MP= -300
##BP= -300
##MW= 140
##$RETENTION INDEX=0
##$CONDENSED SPECTRUM=NO
##NPOINTS= 11
##XYDATA=(XY..XY) 1 
    39        270
    41        390
    43        999
    53        110
    55        490
    67        150
    69        120
    83         90
    97         90
   122         90
   140         10