##TITLE=Library Entry 34517
##JCAMP-DX=Revision 4.10 
##DATA TYPE=MASS SPECTRUM
##SAMPLE DESCRIPTION=Japan AIST/NIMC Database- Spectrum MS-IW-2193
##NAMES=HP
##CAS NAME=4-Hexen-1-ol, 5-methyl-2-(1-methylethenyl)-, (R)-
##MOLFORM=C10H18O
##CAS REGISTRY NO=498-16-8
##MP= -300
##BP= -300
##MW= 154
##$RETENTION INDEX=1170
##$CONDENSED SPECTRUM=NO
##NPOINTS= 82
##XYDATA=(XY..XY) 1 
    15          2
    18          2
    26          2
    27         55
    28         11
    29         75
    30          3
    31         23
    32          1
    37          1
    38          3
    39         95
    40         21
    41        619
    42         35
    43         79
    44          4
    45          4
    50          4
    51         14
    52          8
    53         75
    54          9
    55         83
    56         17
    57         33
    58          3
    59          9
    62          1
    63          4
    64          1
    65         20
    66          9
    67        123
    68        234
    69        999
    70         87
    71         63
    72          5
    73          1
    77         36
    78          7
    79         49
    80         20
    81        105
    82         15
    83         30
    84         42
    85         34
    86          8
    91         40
    92         15
    93        154
    94         20
    95         21
    96          5
    97         10
    98          5
    99          1
   103          2
   105         15
   106          3
   107         27
   108          9
   109         18
   110         26
   111        295
   112         25
   113          1
   119          3
   120          1
   121         63
   122         10
   123        114
   124         18
   125          2
   135          2
   136         19
   137          3
   139          8
   140          1
   154          4