##TITLE=Library Entry 40817
##JCAMP-DX=Revision 4.10 
##DATA TYPE=MASS SPECTRUM
##SAMPLE DESCRIPTION=NIST Mass Spectrometry Data Center, 1998.
##NAMES=HP
##CAS NAME=Butanedioic acid, methyl-
##MOLFORM=C5H8O4
##CAS REGISTRY NO=498-21-5
##MP= -300
##BP= -300
##MW= 132
##$RETENTION INDEX=0
##$CONDENSED SPECTRUM=NO
##NPOINTS= 92
##XYDATA=(XY..XY) 1 
    13          1
    14          3
    15         15
    18          2
    19          3
    25          4
    26         36
    27        237
    28         15
    29         86
    30          4
    31         52
    34          2
    35          2
    36          3
    37         24
    38         53
    39        395
    40         85
    41        742
    42        616
    43        427
    44         40
    45        941
    46         43
    47         18
    48          1
    49          3
    50          3
    51          3
    52          3
    53         35
    54         10
    55        512
    56         26
    57         37
    58        174
    59         60
    60        255
    61          8
    62          2
    63         61
    64          2
    65          3
    66          3
    67          9
    68         88
    69        287
    70         47
    71         35
    72          2
    73        999
    74         39
    75          6
    77          3
    78          1
    79          3
    80          3
    81          8
    82          3
    83         16
    84         23
    85         45
    86        911
    87        175
    88        114
    89          6
    90          1
    91          1
    92          1
    93          1
    94          2
    95          4
    96          5
    97         16
    98         45
    99         23
   100          3
   101          3
   102          1
   104          4
   105          1
   107          3
   109          2
   110          4
   111          3
   112          6
   113          5
   114        496
   115        113
   116          9
   117          2