##TITLE=Library Entry 68326
##JCAMP-DX=Revision 4.10 
##DATA TYPE=MASS SPECTRUM
##SAMPLE DESCRIPTION=Chuck Anderson, Aldrich Chemical Co.
##NAMES=HP
##CAS NAME=3-Furaldehyde
##MOLFORM=C5H4O2
##CAS REGISTRY NO=498-60-2
##MP= -300
##BP= -300
##MW= 96
##$RETENTION INDEX=832
##$CONDENSED SPECTRUM=NO
##NPOINTS= 26
##XYDATA=(XY..XY) 1 
    14          4
    25          8
    26         11
    28          6
    29        117
    36         11
    37         74
    38        123
    39        419
    40         29
    41         12
    42         13
    48         10
    49         15
    50         28
    51         13
    53         15
    55          9
    66         16
    67        120
    68         14
    69          5
    95        999
    96        907
    97         64
    98          5