##TITLE=Library Entry 30923
##JCAMP-DX=Revision 4.10 
##DATA TYPE=MASS SPECTRUM
##SAMPLE DESCRIPTION=W.E. FRANKLIN, SOUTH. REG. RES. CENT., NEW ORLEANS, LA.
, USA
##NAMES=HP
##CAS NAME=.beta.-D-Glucopyranose, 1,6-anhydro-
##MOLFORM=C6H10O5
##CAS REGISTRY NO=498-07-7
##MP= -300
##BP= -300
##MW= 162
##$RETENTION INDEX=1487
##$CONDENSED SPECTRUM=NO
##NPOINTS= 33
##XYDATA=(XY..XY) 1 
    15         34
    19         43
    27         49
    29        199
    30          8
    31        109
    39         22
    41         47
    42        118
    43        126
    44         59
    45         75
    47         67
    53          0
    55         88
    56        150
    57        441
    58          5
    60        999
    61         52
    69         86
    70        141
    71         83
    72         59
    73        358
    74         54
    85         23
    87          0
    89          7
    97         26
    98         67
    99          1
   102          4