##TITLE=Library Entry 88440
##JCAMP-DX=Revision 4.10 
##DATA TYPE=MASS SPECTRUM
##SAMPLE DESCRIPTION=Japan AIST/NIMC Database- Spectrum MS-NW-4642
##NAMES=HP
##CAS NAME=3-Thiophenecarboxaldehyde
##MOLFORM=C5H4OS
##CAS REGISTRY NO=498-62-4
##MP= -300
##BP= -300
##MW= 112
##$RETENTION INDEX=1003
##$CONDENSED SPECTRUM=NO
##NPOINTS= 65
##XYDATA=(XY..XY) 1 
    12          3
    13          2
    14          1
    24          2
    25          8
    26         12
    27          7
    28         15
    29         53
    30          1
    31          1
    32          8
    33          3
    34          2
    36          9
    37         41
    38         64
    39        374
    40         16
    41          4
    42         14
    44         13
    45        229
    46          7
    47         10
    48          5
    49         18
    50         52
    51         34
    52          2
    53         11
    55          4
    56         10
    57         81
    58        101
    59          6
    60          6
    61          4
    62          3
    63          1
    66          1
    67          2
    68          7
    69         28
    70          3
    71          1
    76          6
    77          1
    80          5
    81         44
    82         54
    83        297
    84         36
    85         17
    86          3
    92          1
    93          3
    95          2
    96          2
   110          2
   111        999
   112        949
   113        105
   114         46
   115          3