##TITLE=Library Entry 32067
##JCAMP-DX=Revision 4.10 
##DATA TYPE=MASS SPECTRUM
##SAMPLE DESCRIPTION=NIST Mass Spectrometry Data Center
##NAMES=HP
##CAS NAME=(.+/-.)-2-Azabicyclo[2.2.1]hept-5-en-3-one
##MOLFORM=C6H7NO
##CAS REGISTRY NO=49805-30-3
##MP= -300
##BP= -300
##MW= 109
##$RETENTION INDEX=0
##$CONDENSED SPECTRUM=NO
##NPOINTS= 35
##XYDATA=(XY..XY) 1 
    25          1
    26          9
    27         26
    29          2
    37         11
    38         27
    39         94
    40         71
    41         10
    42          4
    43          8
    44          2
    49          4
    50         24
    51         36
    52         33
    53         60
    54         29
    55         40
    56          4
    60          1
    61          6
    62         11
    63         19
    64          6
    65        162
    66        999
    67         55
    68          1
    78          5
    79          2
    80         71
    81          5
    82          1
    83          7