##TITLE=Library Entry 5179
##JCAMP-DX=Revision 4.10 
##DATA TYPE=MASS SPECTRUM
##SAMPLE DESCRIPTION=J. PALECEK,DEP. ORG. CHEM.,INST. CHEM. TECHNOL.,PRAGUE,
CZECH.
##NAMES=HP
##CAS NAME=4-(Chloromethyl)-1-azabicyclo[2.2.2]octane
##MOLFORM=C8H14ClN
##CAS REGISTRY NO=49805-71-2
##MP= -300
##BP= -300
##MW= 159
##$RETENTION INDEX=0
##$CONDENSED SPECTRUM=NO
##NPOINTS= 21
##XYDATA=(XY..XY) 1 
    27        221
    28        195
    29         65
    30         91
    39        182
    41        325
    42        999
    44         65
    53        117
    54         65
    55        104
    56        143
    67        104
    69         91
    81         56
    96        325
   110        571
   124        921
   125         91
   159        156
   161         45