##TITLE=Library Entry 86958
##JCAMP-DX=Revision 4.10 
##DATA TYPE=MASS SPECTRUM
##SAMPLE DESCRIPTION=J. PALECEK,DEP. ORG. CHEM.,INST. CHEM. TECHNOL.,PRAGUE,
CZECH.
##NAMES=HP
##CAS NAME=4-(Acetoxymethyl)-1-azabicyclo[2.2.2]octane
##MOLFORM=C10H17NO2
##CAS REGISTRY NO=49805-69-8
##MP= -300
##BP= -300
##MW= 183
##$RETENTION INDEX=0
##$CONDENSED SPECTRUM=NO
##NPOINTS= 21
##XYDATA=(XY..XY) 1 
    27        120
    28        133
    29         73
    39         98
    41        266
    42        946
    43        573
    44         62
    53         97
    55        128
    56         89
    67         73
    69        128
    81         63
    96        346
   108         58
   110        999
   111         93
   124        746
   140         77
   183        253