##TITLE=Library Entry 25408
##JCAMP-DX=Revision 4.10 
##DATA TYPE=MASS SPECTRUM
##SAMPLE DESCRIPTION=NIST Mass Spectrometry Data Center
##NAMES=HP
##CAS NAME=Hentriacontane, 3-methyl-
##MOLFORM=C32H66
##CAS REGISTRY NO=4981-99-1
##MP= -300
##BP= -300
##MW= 450
##$RETENTION INDEX=3172
##$CONDENSED SPECTRUM=NO
##NPOINTS= 169
##XYDATA=(XY..XY) 1 
    26          1
    27          8
    28          3
    29         43
    30          1
    38          1
    39         14
    40          3
    41        181
    42         38
    43        459
    44         15
    51          1
    53         10
    54         21
    55        260
    56        403
    57        999
    58         43
    59          1
    60          1
    65          3
    66          3
    67         41
    68         36
    69        222
    70        156
    71        681
    72         36
    77          3
    79          6
    80          2
    81         25
    82         39
    83        188
    84         59
    85        437
    86         28
    87          1
    91          4
    93          8
    94          2
    95         14
    96         23
    97        144
    98         33
    99        140
   100         10
   105          3
   107          3
   109          5
   110         11
   111         84
   112         21
   113         96
   114          9
   116          1
   117          1
   119          3
   121         27
   122          4
   123          5
   124          8
   125         38
   126         13
   127         62
   128          7
   138          4
   139         14
   140          7
   141         45
   142          5
   152          3
   153          7
   154          5
   155         29
   156          3
   166          2
   167          4
   168          3
   169         21
   170          4
   180          1
   181          2
   182          2
   183         16
   184          3
   194          2
   195          1
   196          2
   197         13
   198          2
   209          1
   210          1
   211         13
   212          2
   222          1
   223          1
   224          1
   225         10
   226          2
   227          1
   235          1
   236          2
   237          1
   238          1
   239          8
   240          1
   250          2
   251          1
   252          1
   253          5
   254          1
   264          1
   265          1
   266          1
   267          7
   268          2
   278          2
   279          1
   280          2
   281          5
   282          2
   292          1
   294          1
   295          6
   296          1
   299          1
   306          1
   309          5
   310          1
   315          1
   320          1
   321          1
   322          1
   323          4
   324          1
   335          1
   337          5
   338          1
   341          1
   350          1
   351          4
   352          1
   364          2
   365          3
   366          1
   376          1
   377          1
   378          2
   379          3
   380          1
   392         12
   393         25
   394          9
   395          2
   405          1
   406          2
   407          3
   408          1
   420         89
   421        308
   422         85
   424         10
   425          1
   434          1
   435          7
   436          5
   450          1