##TITLE=Library Entry 15660
##JCAMP-DX=Revision 4.10 
##DATA TYPE=MASS SPECTRUM
##SAMPLE DESCRIPTION=Div. of Experiment Therapeutics WRAIR, WRAMC, Washingto
n DC 20307
##NAMES=HP
##CAS NAME=N,N'-Dicarbethoxy-N-[2,4-diamino-6-hydroxy-5-pyrimidinyl]hydrazin
e
##MOLFORM=C10H16N6O5
##CAS REGISTRY NO=49810-02-8
##MP= -300
##BP= -300
##MW= 300
##$RETENTION INDEX=0
##$CONDENSED SPECTRUM=NO
##NPOINTS= 48
##XYDATA=(XY..XY) 1 
    41         22
    42         96
    43        360
    44        999
    45        812
    46        186
    47         27
    55         11
    56         15
    61         80
    62        821
    63         10
    67          6
    68         36
    69         27
    70         24
    71         20
    74        163
    84          9
    85         12
    86         25
    89         53
    90        120
    97          6
    98         51
    99          5
   110          4
   111         17
   112         33
   113          4
   123          5
   126        233
   127         28
   138         30
   139         29
   140         44
   153         38
   155         26
   167         39
   168          4
   181         75
   182          8
   212         15
   213          5
   227         62
   228          7
   300         21
   301          2