##TITLE=Library Entry 49190
##JCAMP-DX=Revision 4.10 
##DATA TYPE=MASS SPECTRUM
##SAMPLE DESCRIPTION=B. R. ANDERSON
##NAMES=HP
##CAS NAME=Bicyclo[3.2.1]oct-2-ene, 3-iodo-
##MOLFORM=C8H11I
##CAS REGISTRY NO=49826-43-9
##MP= -300
##BP= -300
##MW= 234
##$RETENTION INDEX=0
##$CONDENSED SPECTRUM=NO
##NPOINTS= 78
##XYDATA=(XY..XY) 1 
    14          5
    15         33
    25          2
    26         41
    27        241
    28         35
    29        125
    30          3
    37         21
    38         61
    39        394
    40         66
    41        199
    42          9
    43          2
    49          8
    50        134
    51        226
    52        111
    53        155
    54         19
    55         28
    56          1
    60          2
    61         17
    62         34
    63         77
    64         19
    65        149
    66        131
    67        154
    68         10
    73          6
    74         25
    75         24
    76         16
    77        347
    78        430
    79        999
    80         69
    81          5
    85          1
    86          2
    87          2
    89          8
    90          7
    91        367
    92         73
    93          5
    98          1
   102          3
   103         19
   104          8
   105         85
   106         17
   107        822
   108         71
   109          3
   127        152
   128         40
   129          4
   152          4
   153          3
   157          3
   159          3
   165          4
   167          2
   180          3
   186          1
   188          1
   192         11
   193          1
   204          8
   205         58
   206          8
   234        512
   235         45
   236          2