##TITLE=Library Entry 62089
##JCAMP-DX=Revision 4.10 
##DATA TYPE=MASS SPECTRUM
##SAMPLE DESCRIPTION=B. R. ANDERSON
##NAMES=HP
##CAS NAME=Bicyclo[3.2.1]octane, 2,3-bis(methylene)-
##MOLFORM=C10H14
##CAS REGISTRY NO=49826-54-2
##MP= -300
##BP= -300
##MW= 134
##$RETENTION INDEX=1265
##$CONDENSED SPECTRUM=NO
##NPOINTS= 83
##XYDATA=(XY..XY) 1 
    14         10
    15         74
    17          2
    18          6
    26         56
    27        448
    28         74
    29         82
    37         18
    38         62
    39        614
    40        109
    41        366
    42         19
    43          9
    49          6
    50         89
    51        238
    52        126
    53        176
    54         29
    55         46
    56         21
    57          6
    58         14
    59          2
    61          3
    62         25
    63         81
    64         33
    65        184
    66        301
    67        182
    68         34
    69         11
    73          2
    74         12
    75         16
    76         12
    77        324
    78        241
    79        377
    80        141
    81         35
    82          4
    85          2
    86          3
    87          4
    89         20
    90         21
    91        999
    92        371
    93        294
    94         27
    95          6
   101          4
   102         12
   103         66
   104         44
   105        586
   106        405
   107         53
   108          5
   109          2
   113          3
   114          7
   115         27
   116         13
   117         40
   118         12
   119        442
   120         44
   121          3
   124          2
   127          2
   128          3
   129          2
   131          4
   132          2
   133         44
   134        618
   135         68
   136          5