##TITLE=Library Entry 66089
##JCAMP-DX=Revision 4.10 
##DATA TYPE=MASS SPECTRUM
##SAMPLE DESCRIPTION=Exported from NIST MS Search
##NAMES=HP
##CAS NAME=Cyclohexane, 1,4-bis(methylene)-
##MOLFORM=C8H12
##CAS REGISTRY NO=4982-20-1
##MP= -300
##BP= -300
##MW= 108
##$RETENTION INDEX=803
##$CONDENSED SPECTRUM=NO
##NPOINTS= 43
##XYDATA=(XY..XY) 1 
    15         52
    26         61
    27        505
    29         97
    37         26
    38         64
    39        663
    40        142
    41        492
    42         38
    43         15
    45         13
    49         10
    50         81
    51        172
    52        100
    53        238
    54        168
    55         63
    56         10
    62         14
    63         27
    65        155
    66        102
    67        304
    68         66
    69         10
    77        583
    78        127
    79        861
    80        324
    81         66
    82         10
    91        442
    92         71
    93        999
    94         90
    95         33
   105         27
   107         63
   108        652
   109         58
   110          8