##TITLE=Library Entry 26085
##JCAMP-DX=Revision 4.10 
##DATA TYPE=MASS SPECTRUM
##SAMPLE DESCRIPTION=D.HENNEBERG, MAX-PLANCK INSTITUTE, MULHEIM, WEST GERMAN
Y
##NAMES=HP
##CAS NAME=Benzene, (2-methyloctyl)-
##MOLFORM=C15H24
##CAS REGISTRY NO=49826-80-4
##MP= -300
##BP= -300
##MW= 204
##$RETENTION INDEX=0
##$CONDENSED SPECTRUM=NO
##NPOINTS= 70
##XYDATA=(XY..XY) 1 
    25          2
    26          9
    27        162
    29        294
    30          7
    33          0
    37          3
    38          3
    39        132
    40         15
    41        455
    42         79
    43        774
    44          4
    45          0
    47          1
    50          8
    51         38
    52         11
    53         26
    54          9
    55        145
    56         93
    57        999
    58         47
    62          4
    63         22
    64          7
    65        142
    66          9
    67         10
    68          9
    69         44
    70        106
    71        634
    72         33
    75          1
    76          3
    77         37
    78         21
    79         15
    81          2
    82         20
    83         74
    84         45
    85          8
    87          1
    88          0
    89         19
    90         18
    91        687
    92        891
    93         73
    94          1
    97          5
   102          3
   103         11
   104          9
   105         30
   106          2
   111          1
   112        117
   113         17
   128          3
   129          2
   131          1
   133          1
   147          2
   204         87
   205         13