##TITLE=Library Entry 49369
##JCAMP-DX=Revision 4.10 
##DATA TYPE=MASS SPECTRUM
##SAMPLE DESCRIPTION=B. R. ANDERSON
##NAMES=HP
##CAS NAME=Bicyclo[3.2.1]oct-2-ene, 2-iodo-
##MOLFORM=C8H11I
##CAS REGISTRY NO=49826-40-6
##MP= -300
##BP= -300
##MW= 234
##$RETENTION INDEX=0
##$CONDENSED SPECTRUM=NO
##NPOINTS= 94
##XYDATA=(XY..XY) 1 
    13          1
    14          4
    15         24
    18          2
    25          1
    26         29
    27        168
    28         28
    29         76
    30          1
    36          1
    37         13
    38         37
    39        240
    40         39
    41        114
    42          5
    43          5
    45          3
    49          5
    50         54
    51        209
    52         90
    53        137
    54         32
    55         29
    56          1
    60          2
    61         12
    62         24
    63         53
    64         13
    65        101
    66        108
    67         86
    68          6
    69          0
    72          1
    73          7
    74         17
    75         16
    76         10
    77        215
    78        210
    79        999
    80         71
    81          6
    82          1
    85          1
    86          1
    87          1
    89          5
    90          4
    91        188
    92         43
    93         11
    94          1
    98          1
   101          1
   102          2
   103         12
   104          4
   105         43
   106         11
   107        196
   108         17
   109          2
   115          1
   121          4
   122          1
   127         92
   128         24
   129          3
   135          3
   139          1
   141          3
   150          1
   152          2
   153          1
   165          3
   167          2
   180         22
   181          1
   192         16
   193         26
   194          1
   204          4
   205         22
   206         30
   207          2
   220          1
   234        439
   235         39
   236          1