##TITLE=Library Entry 23348
##JCAMP-DX=Revision 4.10 
##DATA TYPE=MASS SPECTRUM
##SAMPLE DESCRIPTION=TNO Volatile Compounds in Food - Chemical Concepts
##NAMES=HP
##CAS NAME=Acetic acid, [(1,1-dimethylethyl)thio]-, methyl ester
##MOLFORM=C7H14O2S
##CAS REGISTRY NO=49827-06-7
##MP= -300
##BP= -300
##MW= 162
##$RETENTION INDEX=0
##$CONDENSED SPECTRUM=NO
##NPOINTS= 45
##XYDATA=(XY..XY) 1 
    26          3
    27         33
    28        107
    29        145
    30          5
    31         10
    32          4
    33          7
    34         19
    38          3
    39         58
    40          9
    41        482
    42         28
    43         26
    44         10
    45         34
    46         24
    47         34
    48          3
    49          9
    50          2
    51          2
    53          7
    55         29
    56         97
    57        999
    58         27
    59         39
    61          2
    73          4
    74         66
    75         13
    76          3
    87         25
    89          3
   103         21
   106         74
   107         42
   108          3
   115          7
   147          2
   162         92
   163          5
   164          3