##TITLE=Library Entry 38191
##JCAMP-DX=Revision 4.10 
##DATA TYPE=MASS SPECTRUM
##SAMPLE DESCRIPTION=Exported from NIST MS Search
##NAMES=HP
##CAS NAME=5-Hepten-3-one, 5-ethyl-2-methyl-
##MOLFORM=C10H18O
##CAS REGISTRY NO=49833-97-8
##MP= -300
##BP= -300
##MW= 154
##$RETENTION INDEX=0
##$CONDENSED SPECTRUM=NO
##NPOINTS= 13
##XYDATA=(XY..XY) 1 
    39        220
    41        430
    42         70
    43        120
    53         90
    55        430
    67        100
    69         90
    70         60
    71        999
    83        190
   111        250
   154        100