##TITLE=Library Entry 76267
##JCAMP-DX=Revision 4.10 
##DATA TYPE=MASS SPECTRUM
##SAMPLE DESCRIPTION=A.A.Kutin, Moscow, Russia
##NAMES=HP
##CAS NAME=Tetrazole-5-thiol, 1-cyclohexyl-
##MOLFORM=C7H12N4S
##CAS REGISTRY NO=49847-44-1
##MP= -300
##BP= -300
##MW= 184
##$RETENTION INDEX=0
##$CONDENSED SPECTRUM=NO
##NPOINTS= 79
##XYDATA=(XY..XY) 1 
    33         11
    34          3
    36          1
    39        173
    41        428
    42         35
    43         40
    44         36
    45         20
    46          9
    47         12
    48          3
    50          7
    51         14
    53         84
    54        173
    55        320
    56         12
    59         47
    60         90
    62          8
    63          3
    64          4
    65         12
    67        253
    69         31
    70          3
    71          6
    72          7
    73          3
    74          3
    75          1
    77         21
    79         39
    81        104
    82         67
    83         52
    85          7
    86          2
    87          1
    88          0
    91          0
    93          0
    94          1
    95          5
    96          7
    97          7
    98          4
    99          1
   103        999
   105         39
   107          1
   108          0
   109          0
   110          0
   112          3
   114          8
   116          2
   123         31
   124          2
   125          0
   127          8
   128          8
   129          1
   130          0
   139          0
   140          0
   141          1
   142          0
   143          0
   155          2
   156          1
   157          1
   158          2
   159          0
   184        227
   185         18
   186          9
   187          0