##TITLE=Library Entry 29594
##JCAMP-DX=Revision 4.10 
##DATA TYPE=MASS SPECTRUM
##SAMPLE DESCRIPTION=Japan AIST/NIMC Database- Spectrum MS-NW-6628
##NAMES=HP
##CAS NAME=4-Hydroxy-3-hexanone
##MOLFORM=C6H12O2
##CAS REGISTRY NO=4984-85-4
##MP= -300
##BP= -300
##MW= 116
##$RETENTION INDEX=846
##$CONDENSED SPECTRUM=NO
##NPOINTS= 62
##XYDATA=(XY..XY) 1 
    14          3
    15         11
    17          3
    18         10
    25          1
    26         19
    27        108
    28         35
    29        278
    30         12
    31        425
    32          4
    33          1
    37          3
    38          5
    39         36
    40          6
    41        205
    42         13
    43         30
    44          4
    45         18
    50          2
    51          3
    52          1
    53          4
    54          1
    55         20
    56         17
    57        417
    58        230
    59        999
    60         34
    61          2
    65          1
    67          2
    68          1
    69         23
    70          9
    71          4
    73         15
    74         10
    75          1
    77          2
    78          1
    79          2
    80          3
    81          1
    82          1
    83          2
    85          2
    86          2
    87         14
    88          9
    97          1
    98          4
    99          2
   101          2
   114          5
   115          3
   116         22
   117          3