##TITLE=Library Entry 20349
##JCAMP-DX=Revision 4.10 
##DATA TYPE=MASS SPECTRUM
##SAMPLE DESCRIPTION=NIST Mass Spectrometry Data Center, 1990.
##NAMES=HP
##CAS NAME=1-Octene, 3,7-dimethyl-
##MOLFORM=C10H20
##CAS REGISTRY NO=4984-01-4
##MP= -300
##BP= -300
##MW= 140
##$RETENTION INDEX=963
##$CONDENSED SPECTRUM=NO
##NPOINTS= 42
##XYDATA=(XY..XY) 1 
    15         12
    27        252
    28         83
    29        237
    32         12
    39        370
    40         86
    41        849
    42        184
    43        736
    44         31
    50         16
    51         39
    52         24
    53        159
    54        139
    55        999
    56        887
    57        283
    58         13
    65         29
    66         12
    67        120
    68         79
    69        699
    70        919
    71        148
    77         20
    79         22
    81         38
    82         27
    83        189
    84        172
    85         47
    95         10
    96         10
    97         60
    98         10
   111        123
   112         46
   125         29
   140         22