##TITLE=Library Entry 107676
##JCAMP-DX=Revision 4.10 
##DATA TYPE=MASS SPECTRUM
##SAMPLE DESCRIPTION=D.H.WILLIAMS CHEMISTRY DEPT., UNIVERSITY OF CAMBRIDGE
##NAMES=HP
##CAS NAME=Piperidine, 1-(1-pentenyl)-
##MOLFORM=C10H19N
##CAS REGISTRY NO=49845-25-2
##MP= -300
##BP= -300
##MW= 153
##$RETENTION INDEX=0
##$CONDENSED SPECTRUM=NO
##NPOINTS= 78
##XYDATA=(XY..XY) 1 
    26         10
    27         40
    28        185
    29         40
    30         20
    31         47
    38         10
    39         40
    40         15
    41        140
    42         60
    43         35
    44         30
    45          5
    50         10
    51         10
    52         10
    53         15
    54         25
    55         65
    56         45
    57         40
    58         10
    65         10
    66         10
    67         45
    68         50
    69         50
    70         20
    71         20
    72         10
    77         10
    78         10
    79         20
    80         20
    81         30
    82         25
    83         25
    84         80
    85         50
    86         10
    91         10
    93         10
    94         25
    95         20
    96         40
    97         20
    98         20
    99         10
   106          5
   107          7
   108         10
   109         19
   110         35
   111         20
   112          5
   113          8
   120          5
   121          8
   122         50
   123         15
   124        999
   125        110
   126         14
   127          8
   134         10
   135          5
   136         10
   137          5
   138         20
   148         10
   149         10
   150         10
   151         28
   152         40
   153        180
   154         30
   155          5