##TITLE=Library Entry 23591
##JCAMP-DX=Revision 4.10 
##DATA TYPE=MASS SPECTRUM
##SAMPLE DESCRIPTION=Chemical Concepts
##NAMES=HP
##CAS NAME=Propanoic acid, 2,3-dibromo-, 1,1-dimethylethyl ester
##MOLFORM=C7H12Br2O2
##CAS REGISTRY NO=49855-41-6
##MP= -300
##BP= -300
##MW= 286
##$RETENTION INDEX=0
##$CONDENSED SPECTRUM=NO
##NPOINTS= 68
##XYDATA=(XY..XY) 1 
    25          4
    26         32
    27        147
    28         17
    29        137
    30          4
    31         10
    38          6
    39         72
    40         13
    41        253
    42         25
    43         48
    44         25
    45         18
    50          3
    51          4
    53         15
    54          5
    55        117
    56         97
    57        999
    58         56
    59        199
    60          7
    71          4
    72          5
    73          8
    79          5
    80          4
    81          4
    82          6
    83          3
    93          3
    96          3
    97          3
   103          5
   105         28
   106         25
   107         31
   108         23
   109          3
   113          3
   120          4
   122          3
   133         34
   135         35
   137         10
   139          4
   149          6
   150          5
   151          5
   152          5
   153          3
   167          3
   185         49
   187        109
   188          3
   189         52
   191          9
   193          9
   213         37
   215         75
   217         43
   271         25
   273         46
   274          3
   275         27