##TITLE=Library Entry 57864
##JCAMP-DX=Revision 4.10 
##DATA TYPE=MASS SPECTRUM
##SAMPLE DESCRIPTION=Japan AIST/NIMC Database- Spectrum MS-NW-8597
##NAMES=HP
##CAS NAME=N,N-Bis[(hydroxyethyl)trimethylene]diamine
##MOLFORM=C7H18N2O2
##CAS REGISTRY NO=4985-85-7
##MP= -300
##BP= -300
##MW= 162
##$RETENTION INDEX=0
##$CONDENSED SPECTRUM=NO
##NPOINTS= 88
##XYDATA=(XY..XY) 1 
    15         10
    17          9
    18         41
    26          1
    27         21
    28         48
    29         18
    30        166
    31         11
    39          6
    40          2
    41         39
    42         88
    43         34
    44        172
    45         89
    46          2
    51          1
    53          1
    54          6
    55          5
    56        132
    57         39
    58        124
    59          6
    60          3
    65          2
    68          3
    69         10
    70         44
    71         31
    72         17
    73          3
    74        181
    75          7
    76          2
    77          2
    79          1
    81          1
    82          3
    83         13
    84          9
    85          6
    86          9
    87          5
    88        999
    89         50
    90          3
    91         12
    92          5
    96          2
    97          3
    98          2
    99          7
   100         11
   101         56
   102         17
   103          2
   104          3
   105          4
   106         14
   107          1
   108          1
   109          1
   110          1
   111          3
   112          1
   113        144
   114         41
   115          4
   116          2
   117          1
   118        117
   119          8
   126         52
   127          5
   128          2
   129          5
   131         75
   132         11
   133          1
   135          1
   137          3
   143          2
   144          3
   162          1
   163          8
   164          1