##TITLE=Library Entry 34395
##JCAMP-DX=Revision 4.10 
##DATA TYPE=MASS SPECTRUM
##SAMPLE DESCRIPTION=C. Vandervoort, Center for Integrated Plant Systems Mic
higan State University
##NAMES=HP
##CAS NAME=2-Hepten-4-one, 6-methyl-
##MOLFORM=C8H14O
##CAS REGISTRY NO=49852-35-9
##MP= -300
##BP= -300
##MW= 126
##$RETENTION INDEX=0
##$CONDENSED SPECTRUM=NO
##NPOINTS= 46
##XYDATA=(XY..XY) 1 
    26          1
    27         23
    28          4
    29         35
    30          1
    39        110
    40         20
    41        294
    42         27
    43         42
    44          1
    45          1
    51          1
    53          7
    54          2
    55         24
    56         12
    57         44
    58          2
    65          3
    66          5
    67          5
    69        999
    70         49
    71          4
    77          5
    79          1
    81          1
    82          1
    83         10
    84        247
    85         22
    86          1
    91          4
    93          4
    95          2
    96          1
    97          1
    98          1
   108          1
   111        232
   112         19
   113          1
   125          1
   126          3
   127          1