##TITLE=Library Entry 57199
##JCAMP-DX=Revision 4.10 
##DATA TYPE=MASS SPECTRUM
##SAMPLE DESCRIPTION=ATLAS OF MASS SPECTRA OF ORGANIC COMPOUNDS, V. A. KOPTY
UG, ED.
##NAMES=HP
##CAS NAME=Hydrazine, 1,1-dipropyl-
##MOLFORM=C6H16N2
##CAS REGISTRY NO=4986-50-9
##MP= -300
##BP= -300
##MW= 116
##$RETENTION INDEX=859
##$CONDENSED SPECTRUM=NO
##NPOINTS= 22
##XYDATA=(XY..XY) 1 
    27         99
    28         54
    29         29
    30         44
    31         23
    39         38
    41        115
    42         40
    43        225
    44         42
    45        784
    46         17
    56         32
    58         30
    59         24
    70         19
    72          9
    73         13
    87        999
    88         56
   116        221
   117         26