##TITLE=Library Entry 13497
##JCAMP-DX=Revision 4.10 
##DATA TYPE=MASS SPECTRUM
##SAMPLE DESCRIPTION=Chemical Concepts
##NAMES=HP
##CAS NAME=1-(4-Butoxy-3-chlorobenzyl)guanidine
##MOLFORM=C12H18ClN3O
##CAS REGISTRY NO=49872-12-0
##MP= -300
##BP= -300
##MW= 255
##$RETENTION INDEX=0
##$CONDENSED SPECTRUM=NO
##NPOINTS= 110
##XYDATA=(XY..XY) 1 
    34         21
    36        133
    38         95
    39        255
    41        607
    43        999
    44        606
    45         26
    48         34
    50         43
    51        104
    52         45
    53         48
    54         18
    55        101
    56         90
    57        122
    59        165
    60         26
    62         49
    63         63
    65        158
    66         28
    71        318
    72        135
    73         23
    74         17
    75         43
    76         20
    77        212
    78         61
    79         30
    80         36
    81         39
    89         45
    90         21
    91         52
    92         37
    93         82
    94         36
    95         24
    98         39
    99         23
   100         13
   102         16
   104         27
   105         59
   106         43
   107         67
   108         19
   109         13
   111         20
   112         36
   118         17
   119         36
   121        155
   122        146
   123         36
   124         15
   125         26
   126         13
   127         35
   128         53
   129         66
   130         18
   131         21
   133         14
   134         25
   135         22
   136         34
   138         32
   139         16
   140         79
   141        388
   142         73
   143        132
   144         15
   147         24
   148         15
   153         18
   154         76
   155         83
   156        469
   157         63
   158        147
   163         12
   164         51
   165         51
   166         18
   178         36
   181         85
   182        101
   183         35
   184         37
   196         28
   198        906
   199         83
   200        221
   201         17
   212        137
   213         19
   214         42
   220        148
   221         44
   238         27
   252         16
   254         74
   255        347
   256         56
   257         74