##TITLE=Library Entry 88033
##JCAMP-DX=Revision 4.10 
##DATA TYPE=MASS SPECTRUM
##SAMPLE DESCRIPTION=Exported from NIST MS Search
##NAMES=HP
##CAS NAME=Tetrahydrocarvone
##MOLFORM=C10H18O
##CAS REGISTRY NO=499-70-7
##MP= -300
##BP= -300
##MW= 154
##$RETENTION INDEX=1208
##$CONDENSED SPECTRUM=NO
##NPOINTS= 52
##XYDATA=(XY..XY) 1 
    15          7
    26          8
    27        127
    28         47
    29         98
    39        128
    40         32
    41        390
    42        107
    43        149
    51         14
    52          7
    53         56
    54         33
    55        630
    56        107
    57         23
    65         11
    66          6
    67         49
    68         33
    69        228
    70         53
    71         16
    72         24
    77         12
    79         20
    80          6
    81         77
    82        104
    83        206
    84         66
    85          7
    91          6
    93         14
    95        123
    96         70
    97        136
    98         14
   107          6
   109         14
   110        131
   111        999
   112         95
   113          6
   121          8
   125         25
   126         22
   139          6
   152         16
   154        250
   155         27