##TITLE=Library Entry 81291
##JCAMP-DX=Revision 4.10 
##DATA TYPE=MASS SPECTRUM
##SAMPLE DESCRIPTION=Chuck Anderson, Aldrich Chemical Co.
##NAMES=HP
##CAS NAME=Benzoic acid, 3,5-dimethyl-
##MOLFORM=C9H10O2
##CAS REGISTRY NO=499-06-9
##MP= -300
##BP= -300
##MW= 150
##$RETENTION INDEX=0
##$CONDENSED SPECTRUM=NO
##NPOINTS= 66
##XYDATA=(XY..XY) 1 
    26          7
    27         85
    28          9
    29         11
    35          7
    36         31
    37          9
    38         37
    39        134
    40         14
    41         23
    43         18
    44          9
    45         39
    49          4
    50         47
    51        142
    52         38
    53         56
    54          4
    55         11
    59         12
    61         13
    62         42
    63        112
    64         23
    65         82
    66         35
    67         10
    73          5
    74         41
    75         24
    76         17
    77        326
    78        106
    79        180
    80         12
    85          4
    86          9
    87          9
    89         34
    90          9
    91        406
    92         30
    93          6
    98          4
   101          3
   102         24
   103        158
   104         94
   105        999
   106         98
   107         26
   119          9
   121         14
   122          3
   131          5
   132         48
   133        354
   134         24
   135        111
   136         11
   149         49
   150        972
   151         80
   152          7