##TITLE=Library Entry 1842
##JCAMP-DX=Revision 4.10 
##DATA TYPE=MASS SPECTRUM
##SAMPLE DESCRIPTION=Chemical Concepts
##NAMES=HP
##CAS NAME=1-Propene-1,2,3-tricarboxylic acid
##MOLFORM=C6H6O6
##CAS REGISTRY NO=499-12-7
##MP= -300
##BP= -300
##MW= 174
##$RETENTION INDEX=0
##$CONDENSED SPECTRUM=NO
##NPOINTS= 98
##XYDATA=(XY..XY) 1 
    25         24
    26         39
    27         71
    28         98
    29        105
    30          4
    31         14
    33         10
    34          7
    35          2
    36         22
    37        118
    38        221
    39        999
    40        584
    41        107
    42         80
    43        178
    44        556
    45        377
    46         10
    47          7
    48          5
    49         50
    50          9
    51         14
    52          8
    53         70
    54          9
    55         60
    56         24
    57         40
    58         42
    59          3
    60         19
    61          2
    65          7
    66         48
    67        167
    68        320
    69         77
    70          9
    71         16
    72          1
    73          7
    74          1
    76          2
    77          5
    78          1
    79          3
    80          1
    81          8
    82          4
    83         15
    84        967
    85         61
    86         29
    87          4
    88          1
    91          5
    92          1
    93          4
    94         13
    95          6
    96          3
    97          7
    98          2
    99          2
   101          2
   103          1
   104          3
   105          3
   107          2
   108          2
   109          3
   110          2
   111         91
   112        629
   113         46
   114          6
   115          2
   121          2
   122          1
   123          2
   125          2
   128         14
   129          8
   130          9
   131          1
   137          2
   138         79
   139         65
   140          5
   141          2
   156         19
   157          9
   158          1
   159          3