##TITLE=Library Entry 69154
##JCAMP-DX=Revision 4.10 
##DATA TYPE=MASS SPECTRUM
##SAMPLE DESCRIPTION=LAC, NIDDK, NIH, Bethesda, MD 20892
##NAMES=HP
##CAS NAME=Arecaidine
##MOLFORM=C7H11NO2
##CAS REGISTRY NO=499-04-7
##MP= -300
##BP= -300
##MW= 141
##$RETENTION INDEX=0
##$CONDENSED SPECTRUM=NO
##NPOINTS= 58
##XYDATA=(XY..XY) 1 
    41        131
    42        863
    43        598
    44        336
    45        147
    46          4
    47          1
    49          6
    50         32
    51         61
    52         46
    53        174
    54         35
    55         48
    56         16
    57         11
    58          7
    60          4
    62          7
    63         11
    64          4
    65         24
    66         36
    67         42
    68         51
    69         33
    70         17
    71          4
    74          1
    77          3
    78         14
    79         12
    80         48
    81         79
    82         53
    83          6
    84         10
    92         10
    93         13
    94        232
    95         56
    96        999
    97         73
    98         22
    99         11
   106          1
   108          6
   112          5
   123         22
   124         70
   125          5
   138         80
   139         47
   140        352
   141        669
   142         74
   143         16
   144          1