##TITLE=Library Entry 56503
##JCAMP-DX=Revision 4.10 
##DATA TYPE=MASS SPECTRUM
##SAMPLE DESCRIPTION=Patti Price, Georgia Bureau of Investigation, Decatur,
 Georgia
##NAMES=HP
##CAS NAME=Benzoic acid, 3-amino-4-propoxy-, 2-(diethylamino)ethyl ester
##MOLFORM=C16H26N2O3
##CAS REGISTRY NO=499-67-2
##MP= -300
##BP= -300
##MW= 294
##$RETENTION INDEX=2327
##$CONDENSED SPECTRUM=NO
##NPOINTS= 81
##XYDATA=(XY..XY) 1 
    41         44
    42         41
    43         40
    44         38
    45          2
    51          8
    52         24
    53         25
    54          7
    55          5
    56         47
    57         10
    58         80
    59          2
    63          4
    64          2
    65          3
    67          1
    68          1
    69          1
    70         22
    71         66
    72         15
    73          1
    77          1
    78          7
    79         18
    80         40
    81          3
    82          1
    84         37
    86        999
    87         62
    88          1
    90          2
    91          4
    92          2
    93          1
    94          1
    96          1
    97          1
    98          2
    99        314
   100         44
   101          1
   104          1
   105          1
   106          5
   107         29
   108         38
   109          4
   116          1
   118          7
   120          1
   121          1
   122          1
   124          1
   134          2
   135         14
   136         83
   137          6
   148          4
   149          1
   150          4
   151          2
   152          1
   153         15
   154          1
   162          1
   176          3
   178         51
   179         15
   180         11
   181          1
   192          1
   195          7
   196          1
   222         19
   223          2
   236          1
   279          1