##TITLE=Library Entry 67894
##JCAMP-DX=Revision 4.10 
##DATA TYPE=MASS SPECTRUM
##SAMPLE DESCRIPTION=B.WILLHALM FIRMENICH & CIE, GENEVA, SWITZERLAND
##NAMES=HP
##CAS NAME=Cyclohexanol, 2-methyl-5-(1-methylethyl)-, (1.alpha.,2.beta.,5.al
pha.)-
##MOLFORM=C10H20O
##CAS REGISTRY NO=499-69-4
##MP= -300
##BP= -300
##MW= 156
##$RETENTION INDEX=1225
##$CONDENSED SPECTRUM=NO
##NPOINTS= 48
##XYDATA=(XY..XY) 1 
    27        140
    29        160
    31         40
    39        110
    40         20
    41        380
    42         70
    43        460
    45         90
    53         60
    54         30
    55        480
    56         90
    57        550
    58         80
    59         10
    67        140
    68        100
    69        270
    70        100
    71        140
    72         10
    77         10
    79         20
    80         40
    81        210
    82        230
    83        240
    84         50
    85         10
    93         10
    94         50
    95        999
    96        170
    97         30
    99         30
   100         10
   109         80
   110         50
   111         10
   112         30
   113        450
   114         40
   123        120
   124         10
   138        190
   139         20
   156         18