##TITLE=Library Entry 66090
##JCAMP-DX=Revision 4.10 
##DATA TYPE=MASS SPECTRUM
##SAMPLE DESCRIPTION=Chemical Concepts
##NAMES=HP
##CAS NAME=Cyclohexane, 1-methylene-4-(1-methylethenyl)-
##MOLFORM=C10H16
##CAS REGISTRY NO=499-97-8
##MP= -300
##BP= -300
##MW= 136
##$RETENTION INDEX=1004
##$CONDENSED SPECTRUM=NO
##NPOINTS= 69
##XYDATA=(XY..XY) 1 
    26          6
    27         82
    28         13
    29         57
    36          3
    37          3
    38          9
    39        156
    40         47
    41        249
    42         23
    43         45
    44         11
    45          5
    50         13
    51         38
    52         22
    53        123
    54         26
    55         97
    56         15
    57         22
    58          6
    63         15
    64          6
    65         48
    66         31
    67        171
    68        116
    69        229
    70         21
    71         11
    75          6
    76          5
    77        132
    78         33
    79        351
    80        176
    81        105
    82         32
    83         13
    84          2
    91        146
    92        117
    93        999
    94        182
    95         50
    96          9
    97          9
    98          4
    99          4
   101          3
   102          4
   103          9
   104          6
   105         46
   106         13
   107        134
   108         43
   109          9
   110          3
   119         17
   120         13
   121        119
   122         16
   123          5
   135          6
   136        248
   137         31