##TITLE=Library Entry 70248
##JCAMP-DX=Revision 4.10 
##DATA TYPE=MASS SPECTRUM
##SAMPLE DESCRIPTION=Japan AIST/NIMC Database- Spectrum MS-IW-1503
##NAMES=HP
##CAS NAME=3-Methylenecyclopropane-trans-1,2-dicarboxylic acid
##MOLFORM=C6H6O4
##CAS REGISTRY NO=499-02-5
##MP= -300
##BP= -300
##MW= 142
##$RETENTION INDEX=0
##$CONDENSED SPECTRUM=NO
##NPOINTS= 103
##XYDATA=(XY..XY) 1 
    12          1
    13          2
    14          5
    15         12
    16          2
    17          5
    18         20
    19          1
    24          1
    25          7
    26         69
    27        287
    28         56
    29         62
    30          3
    31         13
    32          1
    36          5
    37         30
    38         51
    39        248
    40         57
    41        325
    42         72
    43         95
    44         70
    45        233
    46         10
    47          6
    48          4
    49         29
    50        162
    51        304
    52        138
    53        138
    54         23
    55         99
    56          7
    57         10
    58          6
    59          2
    60          7
    61          2
    62          2
    63          2
    65          2
    66         12
    67         81
    68        373
    69        252
    70         32
    71         23
    72          6
    73          7
    74          1
    76          1
    77          5
    78          3
    79        162
    80         13
    81         11
    82          7
    83         21
    84          9
    85         28
    86         18
    87          5
    88          1
    91          2
    93          5
    94          1
    95         22
    96        717
    97        999
    98         91
    99         22
   100          7
   101          1
   105          1
   107          4
   108          2
   109          2
   110          1
   111          6
   112          1
   113         25
   114        504
   115         30
   116          4
   121          1
   122          1
   123          3
   124        146
   125        107
   126         13
   127          2
   137          1
   138          2
   139          1
   140          1
   141          5
   142         40
   143          5