##TITLE=Library Entry 77699
##JCAMP-DX=Revision 4.10 
##DATA TYPE=MASS SPECTRUM
##SAMPLE DESCRIPTION=NIST Mass Spectrometry Data Center, 1990.
##NAMES=HP
##CAS NAME=Benzene, 3-cyclohexen-1-yl-
##MOLFORM=C12H14
##CAS REGISTRY NO=4994-16-5
##MP= -300
##BP= -300
##MW= 158
##$RETENTION INDEX=1345
##$CONDENSED SPECTRUM=NO
##NPOINTS= 59
##XYDATA=(XY..XY) 1 
    26          3
    27         21
    29          3
    32          0
    38          5
    39         54
    40          5
    41         15
    50         25
    51         66
    52         19
    53         19
    54          8
    58          3
    62          9
    63         35
    64         13
    65         46
    66          4
    67          5
    71          8
    74         10
    75         12
    76         21
    77         94
    78        126
    79         35
    80         20
    87          3
    88          2
    89         21
    90          2
    91         94
    92          7
   101          5
   102         29
   103        109
   104        999
   105         83
   106          2
   115         84
   116         17
   117         17
   126          4
   127         19
   128         54
   129         58
   130         16
   139          3
   141         14
   142          5
   143          9
   151          2
   152          8
   153          7
   154          7
   155          3
   158        183
   159         23