##TITLE=Library Entry 67637
##JCAMP-DX=Revision 4.10 
##DATA TYPE=MASS SPECTRUM
##SAMPLE DESCRIPTION=V.G. Zaikin, TIPS RAS, Moscow, Russia
##NAMES=HP
##CAS NAME=2-Furoic acid, pentyl ester
##MOLFORM=C10H14O3
##CAS REGISTRY NO=4996-48-9
##MP= -300
##BP= -300
##MW= 182
##$RETENTION INDEX=0
##$CONDENSED SPECTRUM=NO
##NPOINTS= 57
##XYDATA=(XY..XY) 1 
    25          9
    26         25
    27        197
    28         45
    29        239
    30          8
    31          7
    36          9
    37         75
    38        158
    39        546
    40         35
    41        203
    42        158
    43        138
    44         47
    45         16
    47          4
    49          6
    50          9
    51         22
    52         16
    53         21
    54         16
    55        195
    56         21
    57         18
    62          3
    63          6
    65         14
    66         25
    67         52
    68         52
    69         44
    70        118
    71         12
    74          3
    77          3
    78          3
    79          8
    81          6
    82          3
    83          3
    84         16
    85          3
    87          6
    91          3
    93          6
    95        999
    96         72
    97         11
   110          7
   112        455
   113        407
   114         25
   182         47
   183          7