##TITLE=Library Entry 11659
##JCAMP-DX=Revision 4.10 
##DATA TYPE=MASS SPECTRUM
##SAMPLE DESCRIPTION=Patti Price, Georgia Bureau of Investigation, Decatur,
 Georgia
##NAMES=HP
##CAS NAME=Cortisone Acetate
##MOLFORM=C23H30O6
##CAS REGISTRY NO=50-04-4
##MP= -300
##BP= -300
##MW= 402
##$RETENTION INDEX=0
##$CONDENSED SPECTRUM=NO
##NPOINTS= 179
##XYDATA=(XY..XY) 1 
    41         85
    43        999
    44         29
    45         61
    51         12
    52          4
    53         58
    55        242
    56          7
    57         29
    58          2
    60         57
    64          3
    65         51
    66         16
    67        127
    68          7
    69         81
    70          6
    71         35
    73          9
    74          9
    75          4
    77        149
    78         35
    79        191
    80         10
    81         78
    83         13
    87          2
    91        308
    92         35
    93         95
    94          9
    95         55
    96         22
    97         50
    98          7
   100          3
   102          1
   103         36
   104          3
   105        165
   106         30
   107        159
   108         36
   109         80
   110          6
   115         35
   116         11
   117         60
   118         15
   119         93
   120         37
   121        386
   122        649
   123        187
   124         44
   125         16
   128         27
   129         33
   130          9
   131         72
   132         17
   133        111
   134         90
   135        156
   136        203
   137         52
   138         11
   139          2
   141         10
   142          7
   143         30
   144         21
   145         73
   146         30
   147        183
   148         76
   149         67
   150          2
   151         18
   155          8
   157          7
   158         12
   159         63
   160         52
   161        110
   162         39
   163        116
   164         20
   165         13
   166          3
   167          3
   171         19
   173         54
   174         32
   175         63
   176          4
   177         53
   178          3
   179         18
   182          2
   183          5
   184          1
   185          8
   186         21
   187         51
   188         13
   189         70
   190          3
   191         40
   192          2
   193          4
   194          2
   195         12
   197         16
   198          4
   199         15
   200          5
   201         23
   202          8
   203         10
   204          8
   206          3
   207         24
   208          5
   209          5
   211         15
   212          5
   213         17
   215         27
   216          3
   221         12
   223          8
   225         17
   227         13
   229         16
   230         11
   231          5
   237          2
   238          6
   239         30
   241         31
   242          3
   243         39
   244         64
   245         14
   249          5
   251          9
   255         63
   256         43
   257         85
   258         34
   259          6
   264          1
   267          3
   272         95
   273         12
   281          3
   282          3
   297          6
   300         17
   301         27
   302          6
   308          3
   309          8
   312          9
   313          6
   314          4
   315          4
   326         21
   327          8
   330         15
   342         92
   343          9
   372         28
   402         76
   403         13