##TITLE=Library Entry 11700
##JCAMP-DX=Revision 4.10 
##DATA TYPE=MASS SPECTRUM
##SAMPLE DESCRIPTION=Japan AIST/NIMC Database- Spectrum MS-NW-2340
##NAMES=HP
##CAS NAME=Hydrocortisone Acetate
##MOLFORM=C23H32O6
##CAS REGISTRY NO=50-03-3
##MP= -300
##BP= -300
##MW= 404
##$RETENTION INDEX=0
##$CONDENSED SPECTRUM=NO
##NPOINTS= 345
##XYDATA=(XY..XY) 1 
    15         63
    16          6
    17         38
    18         94
    19          1
    25          2
    26          9
    27         64
    28        100
    29        127
    30         91
    31         33
    32          7
    36          3
    38          3
    39         87
    40         21
    41        249
    42         95
    43        999
    44         28
    45         80
    46          1
    47          1
    50          6
    51         26
    52         16
    53        101
    54         16
    55        194
    56         17
    57         47
    58          7
    59          5
    60         68
    61          9
    62          3
    63         10
    64          7
    65         61
    66         25
    67        133
    68         26
    69         78
    70         23
    71         36
    72          6
    73         29
    74         13
    75          5
    76          7
    77        157
    78         43
    79        205
    80         37
    81        128
    82         24
    83         64
    84         16
    85         21
    86          8
    87         30
    88          7
    89          9
    90          7
    91        254
    92         45
    93        159
    94         52
    95        146
    96         42
    97        112
    98         18
    99         26
   100          9
   101         15
   102         10
   103         38
   104         21
   105        216
   106         67
   107        161
   108         64
   109        154
   110         65
   111         58
   112         11
   113          9
   114          6
   115         55
   116         29
   117         83
   118         43
   119        215
   120         77
   121        229
   122        209
   123        384
   124        304
   125         76
   126         14
   127         22
   128         44
   129         80
   130         35
   131        128
   132         52
   133        136
   134         80
   135        110
   136        150
   137        174
   138         54
   139         20
   140          8
   141         38
   142         34
   143        103
   144         57
   145        128
   146         59
   147        144
   148        111
   149        105
   150         34
   151         22
   152         20
   153         21
   154         12
   155         54
   156         41
   157         89
   158         45
   159        115
   160         68
   161        158
   162         81
   163        202
   164         39
   165         28
   166         16
   167         21
   168         14
   169         51
   170         29
   171         74
   172         58
   173        116
   174         79
   175         91
   176         44
   177         38
   178         18
   179         21
   180          9
   181         25
   182         17
   183         48
   184         35
   185         78
   186         49
   187         77
   188         49
   189         75
   190         30
   191         41
   192         24
   193         24
   194         12
   195         29
   196         18
   197         51
   198         46
   199         72
   200         44
   201         40
   202         30
   203         43
   204         24
   205         24
   206         12
   207         29
   208         15
   209         54
   210         22
   211         64
   212         40
   213         73
   214         43
   215         60
   216         23
   217         20
   218          9
   219         11
   220          9
   221         19
   222         20
   223         40
   224         26
   225        146
   226         44
   227        191
   228         64
   229         62
   230         30
   231         20
   232         12
   233         12
   234          9
   235         17
   236         10
   237         23
   238         24
   239         51
   240        164
   241         95
   242        118
   243         62
   244         20
   245         29
   246         15
   247         24
   248         10
   249         18
   250         15
   251         29
   252         18
   253         45
   254         22
   255         36
   256         44
   257         29
   258         42
   259         24
   260         36
   261         25
   262         10
   263         16
   264          8
   265         37
   266         23
   267         75
   268         41
   269         35
   270         24
   271         25
   272         14
   273         19
   274        115
   275         30
   276         16
   277         10
   278         20
   279         15
   280         20
   281         31
   282         19
   283         49
   284         34
   285        137
   286         47
   287         14
   288         18
   289          7
   290          9
   291          5
   292          7
   293         30
   294         13
   295         26
   296         40
   297         21
   298         46
   299         38
   300         14
   301         22
   302         25
   303         41
   304         13
   305          3
   306          3
   307          2
   308         34
   309         12
   310         23
   311         65
   312         23
   313         20
   314         48
   315         20
   316         31
   317          9
   318          3
   319          1
   320          1
   321          1
   322          1
   323          2
   324          3
   325          3
   326         90
   327         25
   328         29
   329         28
   330         14
   331          8
   332         61
   333         15
   334          7
   335          2
   338          2
   339          3
   340          2
   341          9
   342          5
   343          6
   344         69
   345         19
   346          7
   347          2
   353          1
   354          3
   355          1
   356         21
   357          6
   358          7
   359          3
   360          1
   362          4
   363          1
   368          2
   369          1
   370          1
   371          6
   372          4
   373          2
   374         33
   375          9
   376          3
   386          7
   387          2
   402          1
   404         35
   405          9
   406          2