##TITLE=Library Entry 16558
##JCAMP-DX=Revision 4.10 
##DATA TYPE=MASS SPECTRUM
##SAMPLE DESCRIPTION=Exported from NIST MS Search
##NAMES=HP
##CAS NAME=Mitomycin
##MOLFORM=C15H18N4O5
##CAS REGISTRY NO=50-07-7
##MP= -300
##BP= -300
##MW= 334
##$RETENTION INDEX=0
##$CONDENSED SPECTRUM=NO
##NPOINTS= 175
##XYDATA=(XY..XY) 1 
    41         30
    42         41
    43         84
    44        999
    45         21
    51         21
    52         26
    53         23
    54        113
    55         60
    56         45
    57          4
    58          4
    59          2
    61         13
    62          4
    63         13
    64         10
    65         34
    66         23
    67         34
    68         21
    69         13
    70          4
    71          2
    72          4
    73         63
    74          6
    75          2
    76         10
    77         28
    78         28
    79         28
    80         26
    81         19
    82         41
    83         10
    84         13
    85          6
    86         10
    87          4
    89         10
    90         10
    91         21
    92         26
    93         21
    94         23
    95         10
    96          4
    97         10
    98         10
   101          2
   102         17
   103         17
   104         23
   105         21
   106         23
   107         21
   108         21
   109         10
   110          8
   111          2
   113          2
   114         17
   115         10
   116         21
   117         21
   118         28
   119         26
   120         21
   121         21
   122         10
   123          4
   124         13
   128          2
   129          4
   130         19
   131         28
   132         34
   133         21
   134         28
   135         21
   136         19
   137          8
   142          6
   143         15
   144         10
   145         23
   146         19
   147         21
   148         17
   149         17
   150         13
   151          2
   155         10
   156         21
   157         21
   158         19
   159         41
   160         17
   161         21
   162         21
   163         23
   164         15
   165          8
   169         10
   170         17
   171         15
   172         10
   173         19
   174         15
   175         21
   176         21
   177         39
   178          6
   184         19
   185         21
   186         15
   187         19
   188         19
   189         43
   190         21
   191         17
   192         21
   193          4
   196          4
   197          6
   198         13
   199         13
   200         23
   201         26
   202         23
   203         56
   204         21
   205         21
   206         10
   207         65
   208          6
   212         17
   213         23
   214         43
   215         50
   216         28
   217         41
   218         23
   219         63
   220         19
   226         17
   227         17
   228        104
   229         76
   230        113
   231         41
   232         10
   233         10
   240         32
   241        217
   242        999
   243        347
   244         63
   245         28
   257         10
   258        217
   259        152
   260         54
   261         39
   272         19
   273        749
   274        141
   291        110
   302        997
   303        193
   304         50
   334        121
   335         32