##TITLE=Library Entry 51816
##JCAMP-DX=Revision 4.10 
##DATA TYPE=MASS SPECTRUM
##SAMPLE DESCRIPTION=NIST Mass Spectrometry Data Center, 1990.
##NAMES=HP
##CAS NAME=Cocaine
##MOLFORM=C17H21NO4
##CAS REGISTRY NO=50-36-2
##MP= -300
##BP= -300
##MW= 303
##$RETENTION INDEX=2198
##$CONDENSED SPECTRUM=NO
##NPOINTS= 87
##XYDATA=(XY..XY) 1 
    14          8
    15         15
    27         18
    28         15
    29         15
    30         11
    32         19
    39         32
    40         12
    41         68
    42        234
    43         16
    44         41
    45         10
    50         30
    51        121
    52         12
    53         41
    54         27
    55         78
    56         36
    57         43
    58         12
    59         50
    65         29
    66         15
    67         58
    68         63
    69         17
    70         30
    71          9
    74          6
    75          8
    77        355
    78         39
    79         40
    80         36
    81        125
    82        999
    83        367
    84         36
    91         47
    92         11
    93         51
    94        366
    95         50
    96        249
    97        111
    98         10
   100         11
   105        296
   106         30
   107         18
   108         54
   109         12
   110         18
   114          4
   118          9
   119         36
   120         22
   121         10
   122         88
   123         15
   124         11
   135          6
   138          7
   140         10
   150         27
   151          4
   152         38
   153          7
   154         14
   155         23
   166         32
   179          4
   180         19
   181         59
   182        716
   183         83
   184          8
   198         95
   199         12
   272         69
   273         14
   303        172
   304         37
   305          5