##TITLE=Library Entry 28221
##JCAMP-DX=Revision 4.10 
##DATA TYPE=MASS SPECTRUM
##SAMPLE DESCRIPTION=R RYHAGE MS-LAB KAROLINSKA INSTITUTET STOCKHOLM SWEDEN
##NAMES=HP
##CAS NAME=Amitriptyline
##MOLFORM=C20H23N
##CAS REGISTRY NO=50-48-6
##MP= -300
##BP= -300
##MW= 277
##$RETENTION INDEX=2188
##$CONDENSED SPECTRUM=NO
##NPOINTS= 108
##XYDATA=(XY..XY) 1 
    13          1
    15          7
    18          6
    28         24
    30         39
    31         13
    32          2
    40          4
    41          7
    42         20
    43         12
    44          6
    51          9
    53          4
    54          1
    55          2
    57         25
    58        999
    59         46
    65          3
    70          1
    71          4
    72          1
    75          1
    76          5
    77          1
    82          3
    83          4
    84         13
    87          2
    88         15
    89          4
    91         15
   100          3
   101         15
   103         11
   105          2
   107          4
   110          4
   114         11
   115         13
   116          3
   117          4
   127          9
   128         10
   129          9
   130          3
   132          2
   137          2
   139         12
   141          1
   151         12
   152          6
   153          3
   155          2
   160          1
   162          6
   163          5
   165          9
   166          1
   167          4
   174          5
   175          2
   176          9
   178         17
   179          4
   180          1
   182          3
   184          5
   186          2
   188          5
   189         12
   190         10
   191          8
   192         15
   193          6
   195          1
   198          3
   199          5
   200          3
   201         11
   202         23
   203         16
   204          7
   205         10
   210          7
   213          4
   214          9
   215         13
   216         11
   217         18
   218          9
   219         12
   226         16
   227          2
   228          4
   229         16
   230          6
   232          9
   233          2
   240          6
   258          4
   259          2
   273          8
   275         20
   276          3
   277          3
   278          2