##TITLE=Library Entry 29344
##JCAMP-DX=Revision 4.10 
##DATA TYPE=MASS SPECTRUM
##SAMPLE DESCRIPTION=Virginia Division of Forensic Science
##NAMES=HP
##CAS NAME=Imipramine
##MOLFORM=C19H24N2
##CAS REGISTRY NO=50-49-7
##MP= -300
##BP= -300
##MW= 280
##$RETENTION INDEX=2217
##$CONDENSED SPECTRUM=NO
##NPOINTS= 152
##XYDATA=(XY..XY) 1 
    15          7
    16          1
    18          7
    20          1
    26          3
    27         13
    28         42
    29         19
    30         54
    31          2
    32          5
    38          2
    39         30
    40          7
    41         29
    42        136
    43         47
    44         78
    45          5
    46          2
    50          5
    51         28
    52         10
    53          6
    54          3
    55          4
    56         32
    57         50
    58        999
    59         46
    60          2
    62          5
    63         26
    64          9
    65         39
    66          4
    67          2
    68          4
    69          2
    70        119
    71         28
    72         28
    74          3
    75          7
    76         13
    77         50
    78         22
    79          6
    80          2
    81          2
    82          5
    84        103
    85        476
    86         64
    87          7
    88          6
    89         61
    90         24
    91         96
    92          9
    93          2
    95          7
    97         11
   101          9
   102         18
   103         21
   104         12
   105         13
   106         63
   107         25
   108          2
   113          6
   114          3
   115         41
   116         34
   117         65
   118         45
   119         16
   120          2
   125          2
   126          7
   127         13
   128         32
   129         41
   130        207
   131         34
   132          6
   138          2
   139         22
   140         30
   141         11
   142          8
   143          9
   144         13
   145          2
   150          7
   151         20
   152         50
   153         17
   154         10
   155          3
   156          2
   158          2
   163         16
   164         20
   165        103
   166         45
   167         74
   168         15
   176         21
   177         24
   178        111
   179        113
   180         72
   181         13
   182          2
   189          9
   190         34
   191         90
   192        183
   193        443
   194        322
   195        363
   196         57
   197          2
   202          4
   203          6
   204         75
   205         47
   206        156
   207         53
   208        226
   209         58
   210          5
   216          3
   217         21
   218         51
   219         31
   220        193
   221         59
   222         57
   223          9
   230          2
   232         15
   234        961
   235        795
   236        143
   237         11
   265          3
   280        203
   281         43
   282          4