##TITLE=Library Entry 71748
##JCAMP-DX=Revision 4.10 
##DATA TYPE=MASS SPECTRUM
##SAMPLE DESCRIPTION=Patti Price, Georgia Bureau of Investigation, Decatur,
 Georgia
##NAMES=HP
##CAS NAME=Thioridazine
##MOLFORM=C21H26N2S2
##CAS REGISTRY NO=50-52-2
##MP= -300
##BP= -300
##MW= 370
##$RETENTION INDEX=3099
##$CONDENSED SPECTRUM=NO
##NPOINTS= 177
##XYDATA=(XY..XY) 1 
    41         18
    42         79
    43          9
    44         20
    45          7
    47          3
    52          1
    53          3
    54          5
    55         20
    56          9
    57          6
    58         14
    62          1
    63          4
    65          3
    67          8
    68         22
    69         16
    70        199
    71         12
    75          1
    77          5
    79          2
    80          3
    81          5
    82         20
    83          8
    84         16
    85          1
    87          1
    89          1
    91          4
    94          8
    95          8
    96         37
    97         14
    98        999
    99         79
   100          3
   101          2
   105          2
   106          1
   107          2
   108          7
   109          4
   110          8
   111          9
   112         15
   113          2
   114          3
   115          5
   116          1
   120          3
   121          4
   122          3
   124         17
   125         50
   126        157
   127         17
   128          5
   134          3
   137          1
   138          1
   139         13
   140         17
   141          8
   142          1
   143          1
   145          3
   148          1
   150          2
   151          5
   152         12
   154         12
   155          2
   158          6
   159          3
   160          1
   161          1
   164          5
   165          3
   166         12
   167         37
   168          6
   169          6
   170          5
   171         12
   172          4
   176          1
   177          5
   178         19
   179         37
   180         13
   181          2
   182          2
   183          7
   184         17
   185        135
   186         29
   187          7
   190          3
   191         10
   192          8
   193          3
   194          4
   196         35
   197         26
   198         53
   199         30
   200          6
   201          2
   202          1
   203          1
   204          3
   207          1
   208          1
   209         13
   210         46
   211         96
   212         41
   213         12
   214          5
   215          3
   221          1
   222          5
   223         28
   224         27
   225         48
   226         74
   227         13
   228         20
   229         58
   230         18
   231          6
   232          1
   236          7
   237          3
   238          3
   239          2
   240          1
   241          2
   242         15
   243         24
   244        103
   245         48
   246         14
   247          4
   250          1
   254          1
   255          2
   256          7
   257          8
   258         94
   259         51
   260         16
   261          6
   262          1
   269          1
   270          3
   271         15
   272          6
   273          2
   274          1
   283          1
   284          5
   285          1
   286          1
   298          1
   323          2
   355          5
   369          1
   370        338
   371         79
   372         36
   373          8
   374          1