##TITLE=Library Entry 80157
##JCAMP-DX=Revision 4.10 
##DATA TYPE=MASS SPECTRUM
##SAMPLE DESCRIPTION=Patti Price, Georgia Bureau of Investigation, Decatur,
 Georgia
##NAMES=HP
##CAS NAME=Estradiol Benzoate
##MOLFORM=C25H28O3
##CAS REGISTRY NO=50-50-0
##MP= -300
##BP= -300
##MW= 376
##$RETENTION INDEX=0
##$CONDENSED SPECTRUM=NO
##NPOINTS= 82
##XYDATA=(XY..XY) 1 
    41          1
    44          2
    51         19
    52          1
    53          2
    55          7
    64          1
    67          6
    69          1
    76          6
    77        150
    78         12
    79          7
    80          1
    81          3
    84          1
    85          1
    91         16
    93          4
    94          1
    95          3
   103          2
   104          4
   105        999
   106         77
   107         15
   108          1
   109          1
   115         15
   116          6
   121          2
   127          5
   128         11
   129         10
   130          4
   131          7
   132          2
   133          5
   134          1
   139          1
   141          6
   142          3
   143          3
   144          4
   146          3
   153          1
   155          3
   156          1
   157          6
   158          6
   159          7
   160          4
   165          2
   169          2
   170          2
   172          2
   173          1
   179          1
   181          1
   183          3
   184          1
   197          1
   198          1
   199          1
   202          1
   207          1
   213          1
   218          1
   221          1
   223          1
   225          1
   236          1
   254          2
   261          1
   264          1
   277          1
   343          1
   358          1
   374          2
   375          1
   376         80
   377         20