##TITLE=Library Entry 41100
##JCAMP-DX=Revision 4.10 
##DATA TYPE=MASS SPECTRUM
##SAMPLE DESCRIPTION=RY-48-9
##NAMES=HP
##CAS NAME=D-Ribose
##MOLFORM=C5H10O5
##CAS REGISTRY NO=50-69-1
##MP= -300
##BP= -300
##MW= 150
##$RETENTION INDEX=0
##$CONDENSED SPECTRUM=NO
##NPOINTS= 45
##XYDATA=(XY..XY) 1 
    26         21
    27         73
    28        105
    29        194
    30         44
    31        157
    32         26
    39         21
    40         26
    41         47
    42        136
    43        210
    44        110
    45         86
    46         13
    47         47
    54         21
    55         47
    56         68
    57        205
    58         63
    59         18
    60        499
    61         94
    68         26
    69         26
    71        163
    72         50
    73        999
    74         84
    85         23
    86        113
    87         26
    88         13
    89         34
    91         47
   101         52
   102         31
   103         23
   104         15
   114         21
   119         47
   120         26
   132         26
   150          2