##TITLE=Library Entry 41153
##JCAMP-DX=Revision 4.10 
##DATA TYPE=MASS SPECTRUM
##SAMPLE DESCRIPTION=Japan AIST/NIMC Database- Spectrum MS-NW-1785
##NAMES=HP
##CAS NAME=Sorbitol
##MOLFORM=C6H14O6
##CAS REGISTRY NO=50-70-4
##MP= -300
##BP= -300
##MW= 182
##$RETENTION INDEX=0
##$CONDENSED SPECTRUM=NO
##NPOINTS= 96
##XYDATA=(XY..XY) 1 
    15        116
    17         13
    18         68
    19        179
    25          1
    26         14
    27        106
    28        137
    29        183
    30         31
    31        347
    32         19
    33          3
    36          1
    37          2
    38          4
    39         35
    40          9
    41         79
    42         92
    43        485
    44        319
    45        319
    46         15
    47         19
    49          7
    50          2
    51          3
    52          2
    53          9
    54          9
    55        114
    56        315
    57        252
    58         17
    59         17
    60        180
    61        836
    62         31
    63          4
    65          1
    66          1
    67          4
    68          7
    69         44
    70          5
    71         70
    72         16
    73        999
    74        461
    75         34
    76          3
    77          3
    79          2
    80          1
    81          6
    82          3
    83          5
    84          4
    85        108
    86         18
    87         15
    88          2
    89         10
    90          2
    91         77
    92          4
    93          1
    94          1
    95          2
    96          2
    97         19
    98          4
    99          2
   101          2
   102          4
   103        414
   104         45
   105          5
   109          1
   110          2
   111          2
   112          1
   115         39
   116          9
   117          2
   121          6
   128          1
   129          1
   133        122
   134          8
   135          1
   137          1
   146          9
   147          1
   154          1