##TITLE=Library Entry 6782
##JCAMP-DX=Revision 4.10 
##DATA TYPE=MASS SPECTRUM
##SAMPLE DESCRIPTION=Chemical Concepts
##NAMES=HP
##CAS NAME=Alloxan
##MOLFORM=C4H2N2O4
##CAS REGISTRY NO=50-71-5
##MP= -300
##BP= -300
##MW= 142
##$RETENTION INDEX=0
##$CONDENSED SPECTRUM=NO
##NPOINTS= 75
##XYDATA=(XY..XY) 1 
    27         56
    28         30
    29         64
    30         14
    31          1
    35          1
    36          3
    37          0
    38          9
    39          7
    40          9
    41         11
    42        100
    43        999
    44        665
    45         13
    46          4
    48          0
    50          1
    51          1
    52          1
    53          1
    54         16
    55          3
    56         35
    57          1
    58          9
    60          0
    61          0
    63          0
    64          0
    65          2
    66          2
    67          2
    68          4
    69          3
    70         63
    71        107
    72          3
    73          1
    74          0
    77          1
    78          2
    79          1
    80          0
    81          1
    82          0
    83          0
    85          0
    86        182
    87          6
    88          1
    89          1
    91          1
    92          1
    93          1
    94          0
    95          0
    98          0
    99          2
   101          3
   102          0
   103          0
   104          0
   105          0
   106          0
   108          0
   109          0
   113          1
   114         28
   115          2
   116          0
   142        185
   143         10
   144          2