##TITLE=Library Entry 96910
##JCAMP-DX=Revision 4.10 
##DATA TYPE=MASS SPECTRUM
##SAMPLE DESCRIPTION=Japan AIST/NIMC Database- Spectrum MS-NW-8319
##NAMES=HP
##CAS NAME=Thymidine
##MOLFORM=C10H14N2O5
##CAS REGISTRY NO=50-89-5
##MP= -300
##BP= -300
##MW= 242
##$RETENTION INDEX=0
##$CONDENSED SPECTRUM=NO
##NPOINTS= 116
##XYDATA=(XY..XY) 1 
    14          3
    15         31
    16          2
    17         10
    18         55
    19         73
    25          2
    26         23
    27        127
    28        192
    29        113
    30         14
    31        109
    32          3
    36          3
    37          4
    38         14
    39        117
    40         80
    41        140
    42         90
    43        417
    44        110
    45        517
    46         11
    47         25
    50          2
    51          8
    52         22
    53         54
    54        136
    55        359
    56         51
    57        102
    58         12
    59          6
    60          9
    61          9
    65          4
    66          9
    67         24
    68         51
    69        165
    70         63
    71        223
    72         14
    73        502
    74         18
    75         15
    77          1
    78          1
    79          2
    80         51
    81         73
    82         63
    83        106
    84         31
    85         32
    86          9
    87         17
    88          1
    92          2
    93          3
    94         11
    95          6
    96         21
    97         65
    98        121
    99        313
   100         18
   101          2
   108          7
   109         21
   110        143
   111         10
   112          6
   115          2
   116         22
   117        999
   118         57
   119          7
   122         22
   123          3
   124          3
   125          4
   126        405
   127        280
   128         20
   129          2
   138          5
   139          5
   140          3
   141          1
   150         31
   151          5
   152          6
   153         45
   154         22
   155          3
   156          8
   157          1
   165          3
   168          8
   169          2
   170          2
   181          4
   182          4
   193          7
   194          2
   199          2
   206         12
   207          1
   211          8
   212          3
   242         41
   243          4