##TITLE=Library Entry 69389
##JCAMP-DX=Revision 4.10 
##DATA TYPE=MASS SPECTRUM
##SAMPLE DESCRIPTION=NIST Mass Spectrometry Data Center, 2010
##NAMES=HP
##CAS NAME=2-Cyclohexen-1-one, 4-(1-methylethyl)-
##MOLFORM=C9H14O
##CAS REGISTRY NO=500-02-7
##MP= -300
##BP= -300
##MW= 138
##$RETENTION INDEX=1184
##$CONDENSED SPECTRUM=NO
##NPOINTS= 54
##XYDATA=(XY..XY) 1 
    26          5
    27         51
    28         12
    29         10
    33          1
    37          4
    38         17
    39        191
    40         47
    41        288
    42         25
    43        279
    44          8
    46          1
    50         20
    51         40
    52         25
    53         73
    54         40
    55        115
    56         23
    57          3
    61          2
    62          8
    63         25
    64          7
    65         98
    66        122
    67        356
    68        162
    69         45
    70         23
    74          2
    77         53
    78         27
    79         68
    80         12
    81        221
    82         64
    83         57
    84          5
    94         23
    95        788
    96        999
    97        172
    98         11
   105         12
   109         47
   110         41
   120         43
   123         84
   124          8
   138        175
   139         14