##TITLE=Library Entry 65162
##JCAMP-DX=Revision 4.10 
##DATA TYPE=MASS SPECTRUM
##SAMPLE DESCRIPTION=Japan AIST/NIMC Database- Spectrum MS-NW- 740
##NAMES=HP
##CAS NAME=N-(Phenylacetyl)glycine
##MOLFORM=C10H11NO3
##CAS REGISTRY NO=500-98-1
##MP= -300
##BP= -300
##MW= 193
##$RETENTION INDEX=0
##$CONDENSED SPECTRUM=NO
##NPOINTS= 79
##XYDATA=(XY..XY) 1 
    15          1
    17          1
    18          3
    26          2
    27          9
    28         41
    29         11
    30        156
    31         12
    32          6
    37          3
    38         11
    39         86
    40          8
    41         23
    42          5
    43          3
    44         11
    45         13
    46          2
    49          1
    50         17
    51         41
    52         12
    53          4
    54          1
    55          2
    56        123
    57          7
    58          6
    59          5
    60          2
    61          4
    62         16
    63         53
    64         18
    65        173
    66         10
    69          1
    71          1
    73          2
    74        226
    75         10
    76          5
    77          9
    78          4
    79          2
    84         11
    85          2
    86          3
    87          3
    88          1
    89         53
    90         53
    91        811
    92        999
    93         74
    94          3
   102         24
   103          2
   104          4
   105          3
   106          6
   107          5
   116          1
   117          3
   118        151
   119         19
   120          5
   146          3
   147          4
   148         10
   149         80
   150          8
   175          7
   176          1
   193        155
   194         18
   195          2