##TITLE=Library Entry 87444
##JCAMP-DX=Revision 4.10 
##DATA TYPE=MASS SPECTRUM
##SAMPLE DESCRIPTION=R.E.Ardrey ET AL.Pharmaceutical Mass Spectra,L.,1985
##NAMES=HP
##CAS NAME=.beta.-Eucaine
##MOLFORM=C15H21NO2
##CAS REGISTRY NO=500-34-5
##MP= -300
##BP= -300
##MW= 247
##$RETENTION INDEX=1818
##$CONDENSED SPECTRUM=NO
##NPOINTS= 43
##XYDATA=(XY..XY) 1 
    39         30
    41        130
    42        120
    43         20
    44        270
    50         10
    51         50
    53         10
    55         50
    56         20
    57         20
    58        130
    67         20
    68         20
    69         40
    70         20
    76         10
    77        160
    78         10
    81         10
    82         20
    83         20
    84         80
    85         60
    93         10
    94         20
    95         10
    96         10
    98         20
   105        110
   106         10
   108         10
   110        999
   111         70
   122         10
   124         20
   125         20
   126        380
   127         30
   142         10
   232         50
   233         10
   247         10