##TITLE=Library Entry 86333
##JCAMP-DX=Revision 4.10 
##DATA TYPE=MASS SPECTRUM
##SAMPLE DESCRIPTION=CATALOGUE OF MASS SPECTRA OF PESTICIDES, APRIL, 1975; J
. FREUDENTHAL & L. G. GRAMBERG, NAT'L INST. OF PUBLIC HEALTH, THE NETHERLAND
S
##NAMES=HP
##CAS NAME=Chlorthion
##MOLFORM=C8H9ClNO5PS
##CAS REGISTRY NO=500-28-7
##MP= -300
##BP= -300
##MW= 297
##$RETENTION INDEX=1981
##$CONDENSED SPECTRUM=NO
##NPOINTS= 95
##XYDATA=(XY..XY) 1 
    37         10
    38         13
    40         27
    41         43
    42         29
    43         56
    44         21
    45         36
    46         14
    47        274
    48         15
    49         13
    50         25
    51         23
    55         29
    56         12
    57         67
    61         12
    62        116
    63        225
    64         21
    65         11
    69         27
    70         25
    71         35
    72         19
    74         33
    75         62
    77         20
    79        434
    80         18
    83         12
    84         21
    85         27
    87         18
    93        200
    94         22
    95         68
    96         43
    97         18
    98         20
    99         14
   107         13
   109        999
   110         68
   111         32
   112         35
   113         12
   115         28
   123         14
   124         10
   125        972
   126         74
   127         80
   128        342
   129         31
   130         16
   140         25
   141         32
   142         23
   143         33
   156         27
   157         28
   158         18
   159         13
   170         20
   171         35
   172         40
   173         41
   174         11
   186         12
   187         24
   188         23
   189         26
   190         11
   191         10
   201         10
   202         13
   206         10
   232         13
   234         28
   236         17
   239         11
   250         21
   252         20
   266         17
   267         30
   280         32
   281         11
   282         25
   297        401
   298         44
   299        155
   300         17
   301         11