##TITLE=Library Entry 89212
##JCAMP-DX=Revision 4.10 
##DATA TYPE=MASS SPECTRUM
##SAMPLE DESCRIPTION=Japan AIST/NIMC Database- Spectrum MS-NW-1641
##NAMES=HP
##CAS NAME=2H-Pyran-5-carboxylic acid, 2-oxo-
##MOLFORM=C6H4O4
##CAS REGISTRY NO=500-05-0
##MP= -300
##BP= -300
##MW= 140
##$RETENTION INDEX=0
##$CONDENSED SPECTRUM=NO
##NPOINTS= 92
##XYDATA=(XY..XY) 1 
    12          5
    13          7
    14          7
    15          5
    16          3
    17          4
    18         14
    24          5
    25         19
    26         39
    27         38
    28         37
    29        145
    30          4
    31         10
    32          3
    33         31
    36         30
    37        182
    38        389
    39        675
    40        117
    41         28
    42        160
    43         30
    44         60
    45        116
    46          3
    47          5
    48          8
    49         33
    50         61
    51         21
    52          5
    53        101
    54         13
    55        146
    56         50
    57          3
    58          2
    59          2
    60          2
    61          3
    63          2
    64          5
    65         24
    66        235
    67         72
    68         52
    69         32
    70          5
    71         32
    72          2
    73          1
    74          1
    75          1
    77          6
    78          1
    79          3
    81          2
    82          2
    83         25
    84        661
    85         31
    86         15
    87          1
    91          3
    92          1
    93         15
    94        378
    95        251
    96         20
    97          2
    98          2
    99          2
   103          1
   105          4
   106          2
   107          1
   111         31
   112        999
   113         57
   114          8
   121          3
   122         37
   123         93
   124          7
   125          1
   139         19
   140        621
   141         40
   142          6