##TITLE=Library Entry 11891
##JCAMP-DX=Revision 4.10 
##DATA TYPE=MASS SPECTRUM
##SAMPLE DESCRIPTION=R.E.Ardrey ET AL.Pharmaceutical Mass Spectra,L.,1985
##NAMES=HP
##CAS NAME=Chlorguanide
##MOLFORM=C11H16ClN5
##CAS REGISTRY NO=500-92-5
##MP= -300
##BP= -300
##MW= 253
##$RETENTION INDEX=0
##$CONDENSED SPECTRUM=NO
##NPOINTS= 97
##XYDATA=(XY..XY) 1 
    35         50
    36        280
    37         20
    38         90
    39         90
    40        190
    41        170
    42        120
    43        999
    44        390
    45         40
    50         40
    51         40
    52         20
    53         10
    55         10
    56         10
    57         40
    58        210
    59         90
    60         50
    61         10
    62         20
    63         90
    64         40
    65         50
    66         10
    67         10
    68        110
    69         70
    70         20
    71         10
    73         40
    74         20
    75        120
    76         40
    77         10
    78         10
    83         20
    84         30
    85        390
    86        180
    87         10
    88         20
    89         10
    90         70
    91         30
    92         40
    93         10
    99         70
   100         40
   101         20
   102         20
   105         10
   111        180
   112         20
   113         50
   114         10
   117         20
   118         20
   119         10
   125         50
   126         50
   127        990
   128         80
   129        140
   130         20
   133         30
   134         10
   138         40
   140         10
   151         10
   152        210
   153        170
   154         70
   155         50
   158         10
   168         30
   169         50
   170         30
   171         20
   178         30
   179         10
   180         20
   193         10
   194         30
   195        460
   196         90
   197        170
   198         30
   210         10
   211         10
   238         40
   240         10
   253        180
   254         20
   255         50