##TITLE=Library Entry 11148
##JCAMP-DX=Revision 4.10 
##DATA TYPE=MASS SPECTRUM
##SAMPLE DESCRIPTION=NIST Mass Spectrometry Data Center, 1994
##NAMES=HP
##CAS NAME=4-Chlorophenylsulfonylacetone
##MOLFORM=C9H9ClO3S
##CAS REGISTRY NO=5000-48-6
##MP= -300
##BP= -300
##MW= 232
##$RETENTION INDEX=0
##$CONDENSED SPECTRUM=NO
##NPOINTS= 102
##XYDATA=(XY..XY) 1 
    13          4
    14          3
    15         73
    25          2
    26         30
    27        111
    28          4
    29         79
    30          3
    37         10
    38         19
    39         41
    40          4
    41         15
    42        102
    43        999
    44         29
    45         21
    47          3
    48          8
    49         11
    50        177
    51         78
    52          4
    53          3
    55          2
    57         16
    58          4
    60          2
    61         18
    62         13
    63         46
    64         10
    65         15
    69         14
    70          3
    71          2
    72          3
    73         37
    74         86
    75        376
    76         70
    77         18
    79          6
    81          5
    82          6
    84         12
    85         46
    86          8
    87         20
    89         23
    90          8
    91          3
    93          3
    95          8
    96          5
    99         28
   100          6
   101          9
   102          3
   103          2
   105          4
   107          4
   108         12
   109          5
   110          2
   111        527
   112         46
   113        161
   114         14
   115          4
   121          2
   125        117
   126         12
   127         53
   128         44
   129          8
   130         12
   131         25
   133         14
   142          3
   143          2
   159         27
   160          4
   161          9
   168        188
   169         21
   170         66
   171          6
   175        193
   176         15
   177         77
   178          5
   179          3
   190         44
   191          3
   192         14
   217          2
   232         27
   233          3
   234         10
   235          1