##TITLE=Library Entry 46487
##JCAMP-DX=Revision 4.10 
##DATA TYPE=MASS SPECTRUM
##SAMPLE DESCRIPTION=NIST Mass Spectrometry Data Center
##NAMES=HP
##CAS NAME=Phenyl sulfonyl acetone
##MOLFORM=C9H10O3S
##CAS REGISTRY NO=5000-44-2
##MP= -300
##BP= -300
##MW= 198
##$RETENTION INDEX=0
##$CONDENSED SPECTRUM=NO
##NPOINTS= 71
##XYDATA=(XY..XY) 1 
    14         11
    15         36
    18          5
    26         20
    27        109
    28         15
    29         51
    32          2
    37          8
    38         18
    39         73
    40          6
    41         17
    42         85
    43        623
    44         13
    45         19
    46          2
    47          3
    48          7
    50        150
    51        424
    52         25
    53         16
    55          4
    57         13
    58          4
    61          4
    62          8
    63         23
    64         10
    65         64
    66         21
    69         12
    71          2
    73          6
    74         34
    75         30
    77        999
    78         83
    79          5
    81          7
    82          4
    84          2
    89          6
    91        166
    92         19
    93         16
    94         97
    95          8
    97         32
    98          2
   105          5
   108          3
   109          5
   110          3
   119          7
   123          2
   125         33
   126          7
   134        298
   135         29
   141        251
   142         23
   143         14
   156        150
   157         14
   158          8
   183          5
   198         12
   199          2