##TITLE=Library Entry 87925
##JCAMP-DX=Revision 4.10 
##DATA TYPE=MASS SPECTRUM
##SAMPLE DESCRIPTION=B. Derendyaev, Novosibirsk Institute of Organic Chemist
ry
##NAMES=HP
##CAS NAME=Adamantane-1,3-diol
##MOLFORM=C10H16O2
##CAS REGISTRY NO=5001-18-3
##MP= -300
##BP= -300
##MW= 168
##$RETENTION INDEX=1479
##$CONDENSED SPECTRUM=NO
##NPOINTS= 37
##XYDATA=(XY..XY) 1 
    40         60
    41        171
    42         89
    43        261
    51         28
    53         54
    54         25
    55        107
    56         35
    57         37
    58         27
    65         35
    66         29
    67         55
    68         50
    69         53
    77         42
    79         41
    80         19
    81         88
    82         26
    83         28
    84         21
    85         21
    91         27
    92         20
    93         39
    94         47
    96        108
   108         31
   109         43
   110         87
   111        999
   112        144
   150         22
   168        141
   169         22