##TITLE=Library Entry 77591
##JCAMP-DX=Revision 4.10 
##DATA TYPE=MASS SPECTRUM
##SAMPLE DESCRIPTION=Exported from NIST MS Search
##NAMES=HP
##CAS NAME=Cinnoline, 4-methyl-, 1,2-dioxide
##MOLFORM=C9H8N2O2
##CAS REGISTRY NO=5004-33-1
##MP= -300
##BP= -300
##MW= 176
##$RETENTION INDEX=0
##$CONDENSED SPECTRUM=NO
##NPOINTS= 70
##XYDATA=(XY..XY) 1 
    38         90
    39        370
    40        340
    41         40
    43        490
    44         20
    50        270
    51        400
    52        170
    53         40
    55         60
    61         90
    62        260
    63        610
    64        250
    65        460
    66         40
    73         20
    74        250
    75        360
    76        250
    77        600
    78        480
    79        220
    80         20
    85         20
    86         90
    87        180
    88         20
    89        620
    90        510
    91        560
    92         80
    98         30
    99         30
   100         30
   101        150
   102        370
   103        880
   104        999
   105        250
   106         30
   112         20
   113         90
   114        490
   115        610
   116        240
   117        270
   118         40
   128         60
   129        130
   130         60
   131         50
   132         70
   133        999
   134        100
   135         10
   141        300
   142        190
   143         40
   144         40
   145        230
   146        190
   147         30
   157         20
   158        400
   159         70
   161         60
   176        580
   177         60