##TITLE=Library Entry 79292
##JCAMP-DX=Revision 4.10 
##DATA TYPE=MASS SPECTRUM
##SAMPLE DESCRIPTION=Japan AIST/NIMC Database- Spectrum MS-IW-4829
##NAMES=HP
##CAS NAME=6-Methoxy-2-phenacyloxy-3(2H)-pyridazinone
##MOLFORM=C13H12N2O4
##CAS REGISTRY NO=5004-19-3
##MP= -300
##BP= -300
##MW= 260
##$RETENTION INDEX=0
##$CONDENSED SPECTRUM=NO
##NPOINTS= 85
##XYDATA=(XY..XY) 1 
    13          1
    14          1
    15         20
    16          1
    17          3
    25          4
    26         37
    27         29
    28         18
    29         32
    30          8
    31          2
    36          1
    37         13
    38         27
    39         25
    40          9
    41         19
    42          5
    43         24
    44          4
    45          3
    49          7
    50         71
    51        208
    52         28
    53         30
    54         84
    55         34
    56          3
    57          1
    58          9
    60          1
    61          5
    62          7
    63          5
    64          1
    66          2
    67          6
    68         30
    69        117
    70          9
    71          1
    73          7
    74         25
    75         14
    76         22
    77        733
    78         51
    79         10
    80         35
    81          3
    82         85
    83          8
    84          1
    85          1
    86          1
    87          1
    89          2
    90          1
    91          1
    95          2
    96         54
    97         95
    98          9
   104          3
   105        999
   106         85
   107         16
   108          1
   110         23
   111          3
   112          1
   121          1
   122          2
   125        134
   126        431
   127         50
   128          4
   134          2
   135          1
   136          1
   149          1
   152          1
   155          5