##TITLE=Library Entry 18868
##JCAMP-DX=Revision 4.10 
##DATA TYPE=MASS SPECTRUM
##SAMPLE DESCRIPTION=NIST Mass Spectrometry Data Center, 1992
##NAMES=HP
##CAS NAME=Cyclobutanecarboxylic acid chloride
##MOLFORM=C5H7ClO
##CAS REGISTRY NO=5006-22-4
##MP= -300
##BP= -300
##MW= 118
##$RETENTION INDEX=0
##$CONDENSED SPECTRUM=NO
##NPOINTS= 74
##XYDATA=(XY..XY) 1 
    12          1
    13          4
    14          4
    15          7
    16          0
    17          1
    18          8
    24          1
    25         14
    26        111
    27        321
    28        121
    29        160
    30          3
    31          0
    32          1
    35          8
    36          6
    37         20
    38         28
    39        136
    40         13
    41         12
    42          8
    43          3
    44          1
    45          0
    47          2
    48          2
    49         12
    50         32
    51         31
    52         14
    53         86
    54          0
    55        999
    56         45
    57          1
    58          0
    59          0
    60          2
    61          5
    62         22
    63         21
    64          6
    65          7
    66          0
    67          1
    68          2
    69          0
    71          0
    72          1
    73          2
    74          0
    75          3
    76          3
    77          1
    78          1
    80          0
    81          3
    83        261
    84         13
    85          1
    89          1
    90          8
    91          2
    92          2
    93          0
    99          0
   100          0
   117          0
   118          1
   119          0
   120          0