##TITLE=Library Entry 58272
##JCAMP-DX=Revision 4.10 
##DATA TYPE=MASS SPECTRUM
##SAMPLE DESCRIPTION=Exported from NIST MS Search
##NAMES=HP
##CAS NAME=Butane, 2-(ethylthio)-
##MOLFORM=C6H14S
##CAS REGISTRY NO=5008-72-0
##MP= -300
##BP= -300
##MW= 118
##$RETENTION INDEX=850
##$CONDENSED SPECTRUM=NO
##NPOINTS= 79
##XYDATA=(XY..XY) 1 
    25          4
    26         70
    27        506
    28        104
    29        586
    30         14
    31          1
    32         18
    33          7
    34         16
    35        117
    36          2
    37          8
    38         12
    39        156
    40         18
    41        478
    42         23
    43          9
    44          8
    45        142
    46         53
    47        134
    48          6
    49          8
    50          9
    51         12
    52          4
    53         27
    54          7
    55        120
    56        306
    57        256
    58         41
    59        105
    60         60
    61        411
    62        136
    63        101
    64          8
    65          3
    66          1
    67          1
    68          1
    69          9
    70          1
    71          8
    72          2
    73         12
    74          4
    75         50
    76          3
    77          3
    78          1
    79          1
    81          1
    82          1
    83          1
    84          1
    85          1
    86          1
    87          2
    88          3
    89        999
    90         54
    91         45
    92          2
    93          1
    95          1
   101          1
   102          1
   103         69
   104          4
   105          3
   117          2
   118        333
   119         26
   120         16
   121          1