##TITLE=Library Entry 8111
##JCAMP-DX=Revision 4.10 
##DATA TYPE=MASS SPECTRUM
##SAMPLE DESCRIPTION=CARL DJERASSI DEPT OF CHEM STANFORD UNIV STANFORD CALIF
 94305
##NAMES=HP
##CAS NAME=8-Nonen-2-one
##MOLFORM=C9H16O
##CAS REGISTRY NO=5009-32-5
##MP= -300
##BP= -300
##MW= 140
##$RETENTION INDEX=1085
##$CONDENSED SPECTRUM=NO
##NPOINTS= 33
##XYDATA=(XY..XY) 1 
    41        180
    42         30
    43        999
    44         30
    45         10
    53         30
    54         40
    55        310
    56         30
    57         20
    58        600
    59        110
    67        130
    68         10
    69         20
    71        330
    72         50
    79         20
    80         50
    81         50
    82        280
    83         40
    84         40
    85         90
    93         30
    97         80
    98         20
    99         20
   107         10
   111         50
   122         10
   125         30
   140         10