##TITLE=Library Entry 61124
##JCAMP-DX=Revision 4.10 
##DATA TYPE=MASS SPECTRUM
##SAMPLE DESCRIPTION=R.E.Ardrey ET AL.Pharmaceutical Mass Spectra,L.,1985
##NAMES=HP
##CAS NAME=Beclamide
##MOLFORM=C10H12ClNO
##CAS REGISTRY NO=501-68-8
##MP= -300
##BP= -300
##MW= 197
##$RETENTION INDEX=1691
##$CONDENSED SPECTRUM=NO
##NPOINTS= 64
##XYDATA=(XY..XY) 1 
    26         30
    27        230
    29         10
    30         80
    36         20
    38         20
    39         80
    40         10
    41         20
    42         40
    43         10
    44         30
    49         10
    50         50
    51        130
    52         40
    53         10
    54         10
    55         90
    56         20
    57         10
    62         20
    63        180
    64         20
    65        170
    66         10
    74         10
    75         10
    76         20
    77        140
    78         70
    79        150
    80         10
    84         30
    89         40
    90         30
    91        999
    92         80
    93         20
   103         20
   104         80
   105        110
   106        660
   107        290
   108         30
   116         10
   117         50
   118         20
   130         10
   131         10
   132         20
   133         20
   134         20
   144         10
   148        230
   149         30
   160         30
   161         90
   162        310
   163         40
   197        590
   198         70
   199        160
   200         30