##TITLE=Library Entry 85492
##JCAMP-DX=Revision 4.10 
##DATA TYPE=MASS SPECTRUM
##SAMPLE DESCRIPTION=Japan AIST/NIMC Database- Spectrum MS-NW-9503
##NAMES=HP
##CAS NAME=Phenol, 3-pentadecyl-
##MOLFORM=C21H36O
##CAS REGISTRY NO=501-24-6
##MP= -300
##BP= -300
##MW= 304
##$RETENTION INDEX=2500
##$CONDENSED SPECTRUM=NO
##NPOINTS= 99
##XYDATA=(XY..XY) 1 
    27          4
    28          1
    29         12
    39          4
    41         29
    42          4
    43         36
    44          1
    51          1
    53          3
    54          1
    55         23
    56          3
    57         17
    65          3
    66          1
    67          4
    68          1
    69          9
    70          1
    71          6
    77         23
    78          6
    79         12
    80          4
    81          3
    82          1
    83          4
    85          3
    90          3
    91         10
    92          2
    93          4
    94          7
    95         10
    96          1
    97          2
   103          7
   104          1
   105          4
   106          1
   107        240
   108        999
   109         79
   110          8
   111          1
   115          1
   117          1
   119          2
   120         37
   121         76
   122         13
   123          3
   124          7
   131          2
   133          9
   134          6
   135          8
   136          7
   137          2
   138          1
   147          5
   148          2
   149         70
   150         53
   151          6
   161          2
   162          1
   163          6
   164          9
   165          1
   175          1
   177          3
   178          5
   191          4
   192         10
   193          1
   205          2
   206          6
   207          1
   219          3
   220          9
   221          2
   233          1
   234          4
   246          3
   247          3
   248          4
   261          9
   262         15
   263          3
   275          1
   276          1
   302          7
   303          4
   304        441
   305        102
   306         11
   307          1