##TITLE=Library Entry 83546
##JCAMP-DX=Revision 4.10 
##DATA TYPE=MASS SPECTRUM
##SAMPLE DESCRIPTION=Chemical Concepts
##NAMES=HP
##CAS NAME=Diazene, bis(4-methoxyphenyl)-
##MOLFORM=C14H14N2O2
##CAS REGISTRY NO=501-58-6
##MP= -300
##BP= -300
##MW= 242
##$RETENTION INDEX=0
##$CONDENSED SPECTRUM=NO
##NPOINTS= 172
##XYDATA=(XY..XY) 1 
    26          9
    27         17
    28          5
    29          5
    30          0
    31          2
    37          4
    38         26
    39         29
    40          2
    41          7
    42          1
    43          2
    45          1
    49          0
    50         35
    51         46
    52         44
    53         20
    54          4
    55          3
    56          1
    57          2
    58          0
    59          1
    61          2
    62         12
    63         90
    64        198
    65         22
    66          7
    67          1
    68          0
    69          1
    70          0
    71          0
    73          3
    74          6
    75         12
    76         32
    77        467
    78         64
    79         34
    80         25
    81          2
    82          0
    83          0
    84          0
    85          2
    86          0
    87          0
    88          1
    89          2
    90          2
    91          9
    92        336
    93         22
    94          2
    95          2
    96          0
    97          0
    98          0
    99          0
   101          1
   102          5
   103          2
   104          1
   105          3
   107        999
   108         71
   109          4
   110          0
   111          0
   112          0
   113          0
   114          1
   115          5
   116          0
   117          0
   118          0
   119          0
   120          1
   121         22
   122          5
   123          3
   124          0
   125          0
   126          1
   127          5
   128         25
   129          4
   130          1
   131          1
   132          1
   133          1
   135        303
   136         25
   137          1
   138          1
   139          6
   140          2
   141          2
   142          1
   143          0
   144          0
   145          1
   146          1
   147          1
   148          0
   149          0
   150          0
   151          0
   152          1
   153          0
   154          0
   155          4
   156         11
   157          1
   158          0
   160          0
   161          0
   165          0
   166          0
   167          0
   168          2
   169          1
   170          0
   171         15
   172          1
   173          0
   174          0
   176          0
   177          0
   178          0
   179          0
   180          0
   181          0
   182          0
   183          1
   184          2
   185          0
   186          0
   195          0
   196          0
   197          0
   198          1
   199          4
   200          0
   201          0
   203          0
   205          1
   206          0
   207          0
   210          0
   211          1
   212          0
   213          0
   214          0
   215          0
   220          0
   221          1
   222          0
   225          0
   226          0
   227          4
   228          0
   239          0
   240          0
   242        423
   243         63
   244          7
   245          0