##TITLE=Library Entry 69260
##JCAMP-DX=Revision 4.10 
##DATA TYPE=MASS SPECTRUM
##SAMPLE DESCRIPTION=W.T.RAINEY OAK RIDGE NATIONAL LABORATORY,OAK RIDGE,TN.U
SA
##NAMES=HP
##CAS NAME=1H-Imidazole-4-ethanamine, 1-methyl-
##MOLFORM=C6H11N3
##CAS REGISTRY NO=501-75-7
##MP= -300
##BP= -300
##MW= 125
##$RETENTION INDEX=0
##$CONDENSED SPECTRUM=NO
##NPOINTS= 27
##XYDATA=(XY..XY) 1 
    15         37
    27         20
    28         74
    30        139
    39         35
    41         55
    42        141
    54         44
    55         19
    56         16
    58         16
    66         15
    67         15
    68         66
    69         14
    81        399
    82         33
    83         16
    95        115
    96        999
    97         65
    98          3
   107          9
   108          9
   109          8
   124         18
   125         12