##TITLE=Library Entry 84246
##JCAMP-DX=Revision 4.10 
##DATA TYPE=MASS SPECTRUM
##SAMPLE DESCRIPTION=Japan AIST/NIMC Database- Spectrum MS-IW-2150
##NAMES=HP
##CAS NAME=Benzeneethanol, 4-hydroxy-
##MOLFORM=C8H10O2
##CAS REGISTRY NO=501-94-0
##MP= -300
##BP= -300
##MW= 138
##$RETENTION INDEX=1444
##$CONDENSED SPECTRUM=NO
##NPOINTS= 82
##XYDATA=(XY..XY) 1 
    14          1
    15          1
    18          2
    26          2
    27         15
    28          4
    29          7
    30          1
    31         13
    32          1
    37          2
    38          5
    39         28
    40          4
    41          6
    42          1
    43          6
    44          3
    45          2
    49          1
    50         11
    51         29
    52         14
    53         24
    54          2
    55         11
    56          1
    57          1
    59          2
    60          1
    61          2
    62          6
    63         12
    64          4
    65         15
    66          4
    67          3
    68          2
    69          3
    74          5
    75          4
    76          3
    77        106
    78         26
    79         22
    80          5
    81          8
    82          1
    83          1
    86          1
    87          1
    89          6
    90          5
    91         25
    92          3
    93          5
    94          8
    95          2
    96          1
   101          1
   102          1
   103          3
   104          1
   105          6
   106          5
   107        999
   108         94
   109          7
   115          2
   117          3
   118          3
   119          9
   120          9
   121         30
   122         18
   123          2
   135          2
   136          2
   137          1
   138        198
   139         16
   140          1