##TITLE=Library Entry 84379
##JCAMP-DX=Revision 4.10 
##DATA TYPE=MASS SPECTRUM
##SAMPLE DESCRIPTION=NIST Mass Spectrometry Data Center
##NAMES=HP
##CAS NAME=Benzenepropanoic acid, 4-hydroxy-
##MOLFORM=C9H10O3
##CAS REGISTRY NO=501-97-3
##MP= -300
##BP= -300
##MW= 166
##$RETENTION INDEX=1654
##$CONDENSED SPECTRUM=NO
##NPOINTS= 85
##XYDATA=(XY..XY) 1 
    26          2
    27         13
    28          1
    29          4
    31          3
    36          2
    37          2
    38          8
    39         47
    40          6
    41          9
    42          6
    43          5
    44          2
    45         23
    46          3
    47          1
    49          1
    50         16
    51         41
    52         17
    53         33
    54          3
    55         21
    56          1
    57          1
    59          4
    60          5
    61          4
    62         12
    63         27
    64          8
    65         49
    66         12
    67          5
    68          1
    69          1
    73          1
    74          5
    75          5
    76          3
    77        130
    78         27
    79         16
    80          1
    81          5
    82          1
    83          1
    85          1
    86          1
    87          1
    89          9
    90          3
    91         63
    92          7
    93          5
    94         20
    95          7
    96          1
    98          1
   101          2
   102          3
   103         16
   104          2
   105          7
   107        999
   108         79
   109          5
   110          1
   118          3
   119         25
   120         68
   121         15
   122          2
   123         11
   124          1
   127          2
   128          3
   147          2
   148          1
   149          1
   163          1
   166        199
   167         20
   168          2