##TITLE=Library Entry 85127
##JCAMP-DX=Revision 4.10 
##DATA TYPE=MASS SPECTRUM
##SAMPLE DESCRIPTION=NIST Mass Spectrometry Data Center
##NAMES=HP
##CAS NAME=(Z)-3-(pentadec-8-en-1-yl)phenol
##MOLFORM=C21H34O
##CAS REGISTRY NO=501-26-8
##MP= -300
##BP= -300
##MW= 302
##$RETENTION INDEX=2479
##$CONDENSED SPECTRUM=NO
##NPOINTS= 128
##XYDATA=(XY..XY) 1 
    27          6
    28          1
    29         16
    39         15
    40          2
    41         82
    42         13
    43         51
    44          2
    50          1
    51          4
    52          3
    53         16
    54         15
    55        106
    56         14
    57         13
    63          2
    64          1
    65         13
    66          5
    67         37
    68          8
    69         61
    70          7
    71          4
    76          1
    77         66
    78         15
    79         30
    80          9
    81         19
    82          5
    83         23
    84          2
    85          1
    89          2
    90          4
    91         26
    92          4
    93          6
    94         12
    95         21
    96          4
    97         12
    98          1
   102          1
   103         14
   104          2
   105         10
   106          2
   107        425
   108        999
   109         81
   110         10
   111          5
   115          4
   116          2
   117          2
   118          1
   119          6
   120        261
   121        116
   122         19
   123          4
   124          1
   125          1
   127          1
   128          1
   129          1
   131          2
   132          2
   133         67
   134         26
   135          9
   136          6
   137          1
   144          1
   145          2
   146          2
   147         62
   148         14
   149         20
   150         13
   151          2
   159          1
   160          1
   161         30
   162          9
   163          3
   164          3
   165          1
   171          1
   174          1
   175         17
   176          5
   177          2
   178          1
   189          6
   190          4
   191          1
   192          4
   193          1
   203          7
   204          3
   205          1
   206         21
   207          3
   208          1
   217          2
   218          2
   219          2
   220          9
   221          2
   231          1
   232          1
   233          1
   234          1
   245          1
   246          1
   247          1
   259          2
   260          1
   261          1
   273          1
   302         80
   303         18
   304          2