##TITLE=Library Entry 15801
##JCAMP-DX=Revision 4.10 
##DATA TYPE=MASS SPECTRUM
##SAMPLE DESCRIPTION=Patti Price, Georgia Bureau of Investigation, Decatur,
 Georgia
##NAMES=HP
##CAS NAME=1,2-Benzenediol, 4-[2-(methylamino)ethyl]-
##MOLFORM=C9H13NO2
##CAS REGISTRY NO=501-15-5
##MP= -300
##BP= -300
##MW= 167
##$RETENTION INDEX=0
##$CONDENSED SPECTRUM=NO
##NPOINTS= 92
##XYDATA=(XY..XY) 1 
    41         12
    42         58
    43         29
    44        999
    45         45
    46          1
    47          1
    48          1
    49          1
    50         23
    51        126
    52         21
    53         31
    54          5
    55         21
    56          7
    57          3
    58          1
    60          1
    61          2
    62         10
    63         31
    64         12
    65         38
    66         22
    67         12
    68          3
    69          1
    74          4
    75          6
    76          7
    77        129
    78         30
    79         16
    80          2
    81          6
    84          1
    86          1
    87          1
    88          1
    89         18
    90          5
    91         26
    92          5
    93          3
    94         11
    95          3
    96          1
   101          1
   102          1
   103          1
   104          4
   105         12
   106          8
   107         10
   108          2
   109          1
   110          5
   111          1
   116          1
   117          1
   118          1
   119          4
   120          2
   121          1
   122          1
   123         91
   124         81
   125          6
   126          1
   127          1
   131          1
   132          1
   133          1
   134          1
   135          1
   136          6
   137          6
   138          1
   141          1
   142          1
   145          1
   146          1
   147          1
   148          2
   150          1
   151          2
   164          3
   165          4
   166          3
   167          7
   168          1