##TITLE=Library Entry 60858
##JCAMP-DX=Revision 4.10 
##DATA TYPE=MASS SPECTRUM
##SAMPLE DESCRIPTION=NIST Mass Spectrometry Data Center
##NAMES=HP
##CAS NAME=Hydrocinnamic acid
##MOLFORM=C9H10O2
##CAS REGISTRY NO=501-52-0
##MP= -300
##BP= -300
##MW= 150
##$RETENTION INDEX=1359
##$CONDENSED SPECTRUM=NO
##NPOINTS= 75
##XYDATA=(XY..XY) 1 
    26          3
    27         20
    28          2
    29          3
    31          3
    37          3
    38          9
    39         54
    40          4
    41         10
    42          6
    43          3
    44          1
    45         31
    46          1
    47          1
    49          3
    50         52
    51        137
    52         33
    53         15
    54          1
    55         10
    56          1
    57          1
    60          3
    61          6
    62         17
    63         51
    64         11
    65        115
    66         11
    69          1
    71          1
    73          6
    74         20
    75         15
    76         16
    77        173
    78        155
    79         93
    80          6
    81          1
    85          1
    86          3
    87          3
    88          1
    89         28
    91        999
    92         81
    93          3
    94          2
    95          1
    97          1
    98          2
    99          1
   101          3
   102         20
   103        115
   104        601
   105        187
   106         14
   107         12
   108          2
   115          2
   129          1
   131         19
   132          8
   133          7
   134          1
   135          1
   147          1
   150        364
   151         36
   152          3