##TITLE=Library Entry 33142
##JCAMP-DX=Revision 4.10 
##DATA TYPE=MASS SPECTRUM
##SAMPLE DESCRIPTION=N.Klyuev, Institute of Ecology & Evolution, RAS, Moscow
##NAMES=HP
##CAS NAME=Reumycin
##MOLFORM=C6H5N5O2
##CAS REGISTRY NO=5016-18-2
##MP= -300
##BP= -300
##MW= 179
##$RETENTION INDEX=0
##$CONDENSED SPECTRUM=NO
##NPOINTS= 32
##XYDATA=(XY..XY) 1 
    40         72
    41         82
    42        530
    43        146
    44         46
    45        161
    52         46
    53        178
    54        148
    55         39
    56        137
    57         30
    58        162
    65        127
    66        228
    67        999
    68        394
    69         59
    70         34
    80         32
    93         54
    94        153
    95        194
    96         45
   107         74
   122         55
   123        764
   124         37
   151        580
   152         39
   179        665
   180         54