##TITLE=Library Entry 64055
##JCAMP-DX=Revision 4.10 
##DATA TYPE=MASS SPECTRUM
##SAMPLE DESCRIPTION=Div. of Experiment Therapeutics WRAIR, WRAMC, Washingto
n DC 20307
##NAMES=HP
##CAS NAME=Carbazic acid, 3-(5-nitrofurfurylidene)dithio-, methyl ester
##MOLFORM=C7H7N3O3S2
##CAS REGISTRY NO=5016-62-6
##MP= -300
##BP= -300
##MW= 245
##$RETENTION INDEX=0
##$CONDENSED SPECTRUM=NO
##NPOINTS= 135
##XYDATA=(XY..XY) 1 
    41         13
    42         13
    43          6
    44         16
    45        189
    46        104
    47        145
    48        147
    49         23
    50         94
    51        256
    52         72
    53         28
    54        156
    55         32
    56          4
    57          8
    58         23
    59        113
    60        194
    61         11
    62         11
    63         11
    64         75
    65         95
    66         24
    67         20
    68         35
    69         20
    70         17
    71         11
    72          6
    73         14
    74        119
    75         11
    76         62
    77         48
    78         13
    79        181
    80         61
    81         22
    82        133
    83         15
    84          6
    85         14
    86          5
    87          4
    88         27
    90         22
    91        999
    93        263
    94         16
    95         13
    96         35
    97         16
    98         11
    99          5
   100          2
   101          2
   105         14
   106         15
   107          7
   108         31
   109          4
   110         13
   111          7
   112          8
   113          4
   114          1
   115          1
   117          0
   118          1
   120          3
   121          1
   122         11
   123         15
   124         88
   125         22
   126         35
   127          5
   128          2
   129          1
   132          1
   133         23
   134          1
   135          2
   137          3
   138          4
   139         28
   140         37
   141         25
   142          4
   143          1
   144          1
   145          2
   151         12
   152         35
   153         26
   154          6
   155          3
   156          3
   157          1
   158          1
   159          2
   161          1
   166          0
   167          1
   168          1
   169          2
   170          2
   171          2
   172         19
   173          1
   174          1
   181          2
   182          3
   184         12
   185          1
   186          1
   187          1
   197         68
   198        393
   199        194
   200         34
   201         17
   202          1
   212          3
   229          1
   243          7
   244          1
   245        729
   246         77
   247         68
   248          6
   249          2