##TITLE=Library Entry 14172
##JCAMP-DX=Revision 4.10 
##DATA TYPE=MASS SPECTRUM
##SAMPLE DESCRIPTION=J.MACMILLAN UNIVERSITY OF BRISTOL, UK
##NAMES=HP
##CAS NAME=4a.alpha.,4b.beta.-Gibbane-1.alpha.,10.beta.-dicarboxylic acid, 4
a,8.alpha.-dihydroxy-1,8-dimethyl-, 1,4a-lactone, methyl ester
##MOLFORM=C20H28O5
##CAS REGISTRY NO=5016-73-9
##MP= -300
##BP= -300
##MW= 348
##$RETENTION INDEX=0
##$CONDENSED SPECTRUM=NO
##NPOINTS= 235
##XYDATA=(XY..XY) 1 
    27         80
    28        190
    29        120
    30         10
    31         40
    32         30
    33         20
    39        100
    40         30
    41        340
    42         40
    43        999
    44         60
    45         90
    51         20
    52         20
    53        110
    54         20
    55        300
    56         20
    57         50
    58         60
    59        150
    60         10
    61         10
    63         10
    64         10
    65         70
    66         20
    67         90
    68         20
    69        100
    70         20
    71         30
    72         20
    73         30
    74         10
    75         20
    76         10
    77        160
    78         50
    79        190
    80         50
    81        120
    82         40
    83         30
    84         20
    85         50
    86         10
    87         20
    89         20
    90         10
    91        310
    92         60
    93        140
    94         40
    95        150
    96         20
    97         40
    98         20
    99         10
   101         10
   102         10
   103         30
   104         30
   105        210
   106         40
   107         70
   108         30
   109         40
   110         10
   111         30
   112         10
   113         10
   115         80
   116         40
   117        120
   118         30
   119        100
   120         20
   121         60
   122         20
   123         20
   124         10
   125         20
   127         30
   128         70
   129        130
   130         60
   131        140
   132         40
   133         40
   134         20
   135         50
   136         20
   137         70
   138         20
   139         10
   141         60
   142         50
   143        130
   144         50
   145        160
   146         40
   147         60
   148         20
   149         50
   150         20
   151         20
   152         10
   153         10
   154         10
   155         50
   156         30
   157         80
   158         50
   159        160
   160         30
   161         30
   162         30
   163         10
   164         20
   165         20
   166         20
   167         20
   168         20
   169         50
   170         20
   171         90
   172         40
   173         60
   174         20
   175        100
   176         20
   177         20
   178         10
   179         10
   180         10
   181         20
   182         20
   183        120
   184         50
   185        200
   186        110
   187        190
   188         50
   189         50
   190         20
   191         20
   192         10
   193         10
   195         10
   196         10
   197         40
   198         30
   199        170
   200         40
   201         80
   202         30
   203         50
   204         30
   205         40
   206         10
   207         10
   209         10
   210         10
   211         30
   212         20
   213         30
   214         20
   215         30
   216         20
   217         90
   218         60
   219         40
   220         10
   221         10
   223         10
   224         10
   225         40
   226         70
   227        140
   228         60
   229         90
   230        110
   231         50
   232         20
   236         10
   241         20
   242         70
   243        260
   244        190
   245        240
   246        150
   247         40
   255         30
   256         30
   257         30
   258        130
   259        400
   260         80
   261         20
   262         20
   269         10
   270        170
   271         80
   272        110
   273         70
   274         30
   275         10
   284         20
   285         10
   286        130
   287         50
   288        120
   289         60
   290         50
   291        200
   292         40
   293         10
   298         50
   299         20
   300         10
   301         10
   302         30
   303         10
   305         20
   316        150
   317         90
   318         20
   319         10
   330         40
   331         10
   333         10
   348         10