##TITLE=Library Entry 41742
##JCAMP-DX=Revision 4.10 
##DATA TYPE=MASS SPECTRUM
##SAMPLE DESCRIPTION=C.R.ENZELL SWEDISH TOBACCO CO., STOCKHOLM, SWEDEN
##NAMES=HP
##CAS NAME=.psi.,.psi.-Carotene, 3,4-didehydro-1,1',2,2'-tetrahydro-1'-hydro
xy-1-methoxy-
##MOLFORM=C41H60O2
##CAS REGISTRY NO=5017-53-8
##MP= -300
##BP= -300
##MW= 584
##$RETENTION INDEX=0
##$CONDENSED SPECTRUM=NO
##NPOINTS= 413
##XYDATA=(XY..XY) 1 
    12          1
    14          2
    15          8
    16          2
    17          5
    18         26
    24          1
    25          2
    26          5
    27         25
    28         21
    29         17
    30          2
    31         29
    32          4
    33          1
    36          2
    37          4
    38         11
    39         60
    40         89
    41         55
    42          7
    43         44
    44         21
    45          8
    49          2
    50         27
    51         49
    52         24
    53         24
    54          3
    55         48
    56          5
    57         11
    58          2
    59         20
    60          2
    61          4
    62         13
    63         31
    64          5
    65         42
    66          6
    67         21
    68          3
    69         54
    70          4
    71          5
    72          1
    73        999
    74         59
    75          7
    76          6
    77         69
    78         32
    79         60
    80          9
    81         60
    82          4
    83         10
    84          2
    85          5
    86          2
    87          2
    89         13
    90          2
    91        500
    92         58
    93         42
    94          6
    95          3
    96          3
    97          2
    98          1
    99         17
   100          2
   101          6
   102         31
   103         13
   104         39
   105        181
   106        263
   107         53
   108          5
   109         19
   110          2
   111          5
   112          2
   113          2
   115         13
   116          6
   117         19
   118          5
   119         53
   120          9
   121         25
   122          3
   123          7
   124          1
   125          1
   126          1
   127          4
   128         16
   129         23
   130         11
   131         28
   132         11
   133         25
   134          6
   135          7
   136          2
   137          3
   139          1
   140          1
   141         12
   142         14
   143         33
   144         14
   145         43
   146          8
   147         19
   148          4
   149          3
   150          1
   151          2
   152          4
   153          6
   154          5
   155         16
   156         16
   157         37
   158         11
   159         21
   160          5
   161          5
   162          1
   163          2
   165          8
   166          5
   167          8
   168          6
   169         21
   170          9
   171         23
   172          6
   173         13
   174          3
   175          4
   176          1
   177          3
   178          4
   179          7
   180          6
   181         11
   182          6
   183         21
   184          6
   185         15
   186          4
   187          7
   188          3
   189          3
   190          2
   191          3
   192          4
   193          8
   194          6
   195         14
   196          6
   197         18
   198          6
   199          7
   200          3
   201          3
   202          3
   203          3
   204          2
   205          3
   206          4
   207         11
   208          5
   209         21
   210          6
   211         14
   212          4
   213          5
   214          2
   215          2
   216          1
   217          2
   218          2
   219          3
   220          3
   221          8
   222          4
   223          8
   224          4
   225          6
   226          2
   227          2
   228          1
   229          2
   230          1
   231          2
   232          1
   233          4
   234          2
   235          7
   236          3
   237          5
   238          3
   239          4
   240          2
   241          2
   242          1
   243          2
   244          1
   245          2
   246          2
   247          4
   248          2
   249          4
   250          2
   251          2
   252          2
   253          2
   254          1
   255          2
   256          1
   257          1
   258          1
   259          2
   260          1
   261          4
   262          2
   263          4
   264          2
   265          2
   266          1
   267          3
   268          1
   269          2
   270          1
   271          1
   272          1
   273          3
   274          2
   275          3
   276          2
   277          3
   278          2
   279          2
   280          1
   281          2
   282          1
   283          1
   284          1
   285          2
   286          1
   287          3
   288          1
   289          2
   290          1
   291          2
   292          1
   293          1
   295          2
   296          1
   298          1
   299          2
   300          1
   301          2
   302          1
   303          2
   304          1
   305          1
   306          1
   307          1
   308          1
   309          1
   313          3
   314          1
   315          1
   316          1
   317          1
   318          1
   319          1
   320          1
   321          1
   322          1
   323          1
   325          1
   326          1
   327          1
   328          1
   329          1
   330          1
   331          2
   332          1
   333          1
   334          1
   335          1
   336          1
   337          1
   338          1
   339          1
   340          1
   341          1
   342          1
   343          1
   344          1
   345          1
   346          2
   347          2
   348          1
   349          1
   350          1
   351          1
   353          1
   354          2
   355          1
   356          1
   357          1
   358          1
   359          7
   360          1
   361          1
   363          1
   364          1
   365          1
   368          2
   369          1
   370          1
   371          1
   372          3
   373          2
   374          1
   375          1
   376          1
   377          1
   383          1
   385          1
   386          4
   387          6
   388          2
   389          1
   390          1
   391          1
   397          1
   398          1
   399          1
   400          1
   401          1
   402          1
   404          1
   405          1
   406          5
   407          1
   408          1
   409          1
   410          1
   411          1
   412          1
   413          1
   415          1
   419          1
   420          1
   423          1
   426          2
   427          1
   428          7
   429          3
   430          2
   431          1
   432          1
   446          3
   447          1
   448          1
   451          1
   458          1
   460         21
   461          7
   462          4
   463          2
   464          1
   465          1
   474          2
   475          1
   476          1
   477          1
   478         53
   479         19
   480          7
   481          1
   492          3
   493          2
   494          2
   496          1
   511          1
   534          4
   535          2
   536          1
   537          1
   552          2
   553          1
   566          8
   567          3
   568          3
   569          1
   582          1
   583          1
   584         13