##TITLE=Library Entry 76502
##JCAMP-DX=Revision 4.10 
##DATA TYPE=MASS SPECTRUM
##SAMPLE DESCRIPTION=Japan AIST/NIMC Database- Spectrum MS-IW-4264
##NAMES=HP
##CAS NAME=Dimethyl methoxymalonate
##MOLFORM=C6H10O5
##CAS REGISTRY NO=5018-30-4
##MP= -300
##BP= -300
##MW= 162
##$RETENTION INDEX=0
##$CONDENSED SPECTRUM=NO
##NPOINTS= 52
##XYDATA=(XY..XY) 1 
    13          1
    14          4
    15        128
    16          4
    26          2
    27          5
    28         25
    29        161
    30         11
    31        131
    32          7
    33          9
    40          2
    41         22
    42         14
    43         25
    44         66
    45         61
    46          2
    47        204
    48          4
    55          1
    56          2
    57          2
    58          2
    59        144
    60          4
    61          1
    68          2
    69        125
    70          9
    71          4
    72         87
    73          3
    74         21
    75        608
    76         20
    77          3
    85          1
    89          5
   100        111
   101         21
   102          3
   103        999
   104         52
   105          9
   117          4
   118          7
   130          1
   132        418
   133         26
   134          4