##TITLE=Library Entry 649
##JCAMP-DX=Revision 4.10 
##DATA TYPE=MASS SPECTRUM
##SAMPLE DESCRIPTION=D.HENNEBERG, MAX-PLANCK INSTITUTE, MULHEIM, WEST GERMAN
Y
##NAMES=HP
##CAS NAME=Formamide, N-(cyanomethyl)-
##MOLFORM=C3H4N2O
##CAS REGISTRY NO=5018-27-9
##MP= -300
##BP= -300
##MW= 84
##$RETENTION INDEX=0
##$CONDENSED SPECTRUM=NO
##NPOINTS= 24
##XYDATA=(XY..XY) 1 
    29        999
    30        175
    31         27
    36         66
    38         59
    39         53
    40        213
    41         56
    42         14
    43         98
    44         50
    45         64
    53         60
    54         16
    55        507
    56        195
    57         40
    58         20
    60         17
    61         30
    66         12
    83         18
    84        576
    85         27