##TITLE=Library Entry 11398
##JCAMP-DX=Revision 4.10 
##DATA TYPE=MASS SPECTRUM
##SAMPLE DESCRIPTION=J.N.C.WHYTE FISHERIES RESEARCH BOARD, VANCOUVER CANADA
##NAMES=HP
##CAS NAME=.alpha.-D-Mannopyranoside, methyl, tetraacetate
##MOLFORM=C15H22O10
##CAS REGISTRY NO=5019-24-9
##MP= -300
##BP= -300
##MW= 362
##$RETENTION INDEX=0
##$CONDENSED SPECTRUM=NO
##NPOINTS= 110
##XYDATA=(XY..XY) 1 
    13          4
    14          4
    15         55
    17          4
    18         15
    19          1
    26          1
    27         10
    28         56
    29         10
    39          7
    40          2
    41         20
    42         14
    43        999
    44         31
    45         22
    47         30
    48         15
    49         10
    50          5
    53          5
    54          3
    55         20
    56         79
    57         33
    58          3
    59          6
    60          8
    61         17
    67          4
    68          5
    69         59
    70         57
    71         27
    72          2
    73         23
    74         73
    75          7
    80          8
    81         89
    82          8
    83          2
    84          8
    85         67
    86          8
    87         46
    88          3
    95          5
    96          4
    97         30
    98         75
    99         66
   100          8
   101          6
   102         68
   103         78
   104          7
   105          3
   109         26
   110          4
   111          8
   112         59
   113          9
   114          3
   115        100
   116         39
   117          8
   125          4
   126          9
   127         33
   128          9
   129         14
   139         11
   140         45
   141         34
   142          4
   144         34
   145         54
   157         93
   158         23
   159          5
   168          3
   169         37
   170          6
   171          5
   182          9
   183          6
   187          5
   197          4
   199          9
   200         34
   201          7
   203          2
   211          5
   215          2
   217          2
   229          2
   242         13
   243         16
   244          3
   259          2
   271          1
   289          4
   290          1
   303          2
   311          1
   312          1
   331          8
   332          2