##TITLE=Library Entry 9525
##JCAMP-DX=Revision 4.10 
##DATA TYPE=MASS SPECTRUM
##SAMPLE DESCRIPTION=J.N.C.WHYTE FISHERIES RESEARCH BOARD, VANCOUVER CANADA
##NAMES=HP
##CAS NAME=.beta.-D-Mannopyranoside, methyl, tetraacetate
##MOLFORM=C15H22O10
##CAS REGISTRY NO=5019-25-0
##MP= -300
##BP= -300
##MW= 362
##$RETENTION INDEX=0
##$CONDENSED SPECTRUM=NO
##NPOINTS= 118
##XYDATA=(XY..XY) 1 
    13          5
    14          2
    15         50
    17          7
    18         23
    27         10
    28         45
    29         12
    31         12
    32         10
    33          6
    35         12
    39          7
    41         25
    42         11
    43        999
    44         32
    45         30
    47         39
    48         19
    49         13
    50          7
    53          5
    54          3
    55         22
    56         10
    57         40
    58          5
    59          7
    60         10
    61         20
    67          5
    68          5
    69         64
    70         61
    71         32
    72          2
    73         23
    74         64
    75         17
    80         12
    81        100
    82         10
    83          1
    84          8
    85         67
    86         13
    87         34
    88          4
    89          2
    95          7
    96          3
    97         31
    98         85
    99         60
   100         12
   101          7
   102         75
   103         70
   104          6
   105          2
   109         11
   111          8
   112         62
   113         16
   114          3
   115         78
   116         37
   117          9
   123          3
   125          5
   126          7
   127         46
   128         12
   129         15
   130          4
   131          2
   139         11
   140         38
   141         40
   142          4
   143          2
   144         32
   145         53
   146          5
   155          4
   157         55
   158         18
   159          5
   160          2
   167          1
   168          2
   169         21
   170          4
   171          6
   172          2
   173          1
   182          7
   183          5
   187          5
   197          1
   199          8
   200         28
   201          6
   202          1
   211          2
   215          6
   242         11
   243         16
   244          2
   253          1
   259          1
   289          7
   290          1
   303          0
   311          1
   312          2
   331          2