##TITLE=Library Entry 49452
##JCAMP-DX=Revision 4.10 
##DATA TYPE=MASS SPECTRUM
##SAMPLE DESCRIPTION=Japan AIST/NIMC Database- Spectrum MS-NW-6207
##NAMES=HP
##CAS NAME=Bicyclo[3.2.1]octan-2-one
##MOLFORM=C8H12O
##CAS REGISTRY NO=5019-82-9
##MP= -300
##BP= -300
##MW= 124
##$RETENTION INDEX=0
##$CONDENSED SPECTRUM=NO
##NPOINTS= 77
##XYDATA=(XY..XY) 1 
    14          4
    15         14
    18          1
    25          1
    26         21
    27        190
    28         25
    29         74
    30          2
    31          2
    32          1
    33          1
    34          3
    37          7
    38         22
    39        243
    40         58
    41        219
    42         26
    43         18
    44          2
    45          3
    46          3
    47          1
    49          2
    50         15
    51         30
    52         16
    53        102
    54        152
    55        178
    56         21
    57         17
    58          6
    59          5
    61          3
    62          5
    63          9
    64          2
    65         33
    66         59
    67        662
    68        242
    69         45
    70          9
    71          4
    73          1
    74          2
    75          1
    77         23
    78         29
    79         85
    80        999
    81        169
    82         52
    83         32
    84          4
    85          1
    91         29
    92          3
    93         16
    94          6
    95         86
    96         33
    97          7
    98          1
   105          5
   106         21
   107          3
   108          5
   109         13
   110          1
   122          2
   123          5
   124        281
   125         27
   126          3