##TITLE=Library Entry 4405
##JCAMP-DX=Revision 4.10 
##DATA TYPE=MASS SPECTRUM
##SAMPLE DESCRIPTION=Exported from NIST MS Search
##NAMES=HP
##CAS NAME=1,4-Dioxane-2,5-dione
##MOLFORM=C4H4O4
##CAS REGISTRY NO=502-97-6
##MP= -300
##BP= -300
##MW= 116
##$RETENTION INDEX=0
##$CONDENSED SPECTRUM=NO
##NPOINTS= 12
##XYDATA=(XY..XY) 1 
    28        800
    29        960
    30        820
    31        950
    32         30
    41        100
    42        999
    43        200
    44        150
    72         50
   116        880
   117         20