##TITLE=Library Entry 19339
##JCAMP-DX=Revision 4.10 
##DATA TYPE=MASS SPECTRUM
##SAMPLE DESCRIPTION=NIST Mass Spectrometry Data Center, 1990.
##NAMES=HP
##CAS NAME=Cyclopentadecanone
##MOLFORM=C15H28O
##CAS REGISTRY NO=502-72-7
##MP= -300
##BP= -300
##MW= 224
##$RETENTION INDEX=1861
##$CONDENSED SPECTRUM=NO
##NPOINTS= 86
##XYDATA=(XY..XY) 1 
    27        123
    28         91
    29        207
    39        178
    41        835
    42        273
    43        414
    44         14
    51         11
    53        104
    54        141
    55        999
    56        210
    57        194
    58        572
    59        245
    60         10
    65         25
    66         26
    67        224
    68        148
    69        348
    70        186
    71        691
    72         64
    77         19
    78         17
    79         85
    80        115
    81        227
    82        253
    83        266
    84        177
    85        121
    86         19
    91         13
    92          8
    93         57
    94        113
    95        153
    96        248
    97        209
    98        198
    99         42
   100         32
   107         47
   108         67
   109         72
   110        107
   111        153
   112         40
   113         33
   114         22
   121         75
   122         45
   123         36
   124         77
   125        164
   126         24
   127         30
   128         21
   135         81
   136         32
   137         22
   138         35
   139         25
   141         13
   142         22
   149         52
   150         20
   153         13
   154          8
   156         13
   163         24
   164         30
   166         42
   167         14
   169          9
   177         16
   181         13
   191          8
   195          8
   206         14
   209          9
   224         97
   225         18