##TITLE=Library Entry 32973
##JCAMP-DX=Revision 4.10 
##DATA TYPE=MASS SPECTRUM
##SAMPLE DESCRIPTION=Chemical Concepts
##NAMES=HP
##CAS NAME=13-(2-Cyclopenten-1-yl)tridecanoic acid
##MOLFORM=C18H32O2
##CAS REGISTRY NO=502-30-7
##MP= -300
##BP= -300
##MW= 280
##$RETENTION INDEX=0
##$CONDENSED SPECTRUM=NO
##NPOINTS= 157
##XYDATA=(XY..XY) 1 
    26          0
    27         18
    28          2
    29         36
    30          1
    31          2
    39         19
    40         21
    41        127
    42         14
    43         49
    44          1
    45          9
    50          0
    51          2
    52          1
    53         18
    54         21
    55        103
    56         14
    57         21
    58          1
    59          5
    60         34
    61          5
    65         18
    66        120
    67        999
    68         91
    69         59
    70          8
    71          7
    73         23
    74          2
    77         13
    78          3
    79         37
    80         82
    81         97
    82        772
    83        130
    84         14
    85          5
    86          0
    87          5
    88          0
    91          6
    92          1
    93         18
    94         20
    95        105
    96         98
    97         28
    98         10
    99          2
   100          1
   101          4
   102          0
   105          1
   106          0
   107          5
   108          7
   109         29
   110         31
   111         12
   112          2
   113          1
   114          3
   115          4
   116          1
   119          2
   120          1
   121         12
   122         12
   123         37
   124         42
   125         10
   126          1
   127          2
   128          0
   129          5
   130          0
   131          0
   133          1
   134          2
   135          4
   136          8
   137         28
   138         25
   139          6
   140          0
   141          0
   143          2
   147          0
   148          0
   149          2
   150          2
   151          3
   152          5
   153          2
   155          0
   157          1
   161          0
   162          2
   163          5
   164          1
   165          1
   166          0
   167          1
   168          1
   171          1
   175          1
   176          0
   177          2
   178          0
   179          1
   180          2
   181          7
   182          1
   183          0
   185          0
   187          1
   193          2
   194          1
   195          2
   196          1
   197          0
   198          0
   199          1
   201          0
   205          2
   206          1
   209          0
   210          1
   211          0
   213          2
   215          1
   219          0
   220          0
   223          8
   224          9
   225          1
   234          3
   237          3
   238          3
   239          0
   251          1
   252          5
   253          1
   262         31
   263          8
   264          1
   278          0
   279          0
   280         80
   281         14
   282          2