##TITLE=Library Entry 33373
##JCAMP-DX=Revision 4.10 
##DATA TYPE=MASS SPECTRUM
##SAMPLE DESCRIPTION=Japan AIST/NIMC Database- Spectrum MS-NW- 952
##NAMES=HP
##CAS NAME=Cycloheptanone
##MOLFORM=C7H12O
##CAS REGISTRY NO=502-42-1
##MP= -300
##BP= -300
##MW= 112
##$RETENTION INDEX=1015
##$CONDENSED SPECTRUM=NO
##NPOINTS= 65
##XYDATA=(XY..XY) 1 
    14          6
    15         25
    17          5
    18         19
    25          1
    26         46
    27        343
    28        109
    29        156
    30          3
    31          4
    36          1
    37          9
    38         25
    39        329
    40         81
    41        889
    42        406
    43        160
    44          8
    45          2
    49          3
    50         19
    51         27
    52         10
    53         59
    54         46
    55        951
    56        582
    57         46
    58         35
    59          2
    61          2
    62          3
    63          6
    65          9
    66          6
    67         65
    68        999
    69        350
    70        125
    71         17
    72          1
    74          1
    77          6
    78          2
    79         33
    80          3
    81         10
    82          5
    83        154
    84        322
    85         20
    86          2
    91          3
    93          3
    94         38
    95          5
    96          1
    97         61
    98          5
   111          6
   112        428
   113         35
   114          2