##TITLE=Library Entry 34123
##JCAMP-DX=Revision 4.10 
##DATA TYPE=MASS SPECTRUM
##SAMPLE DESCRIPTION=S.KUSHWAHA DEPT. BIOCHEM., UNIV. OF OTTAWA, OTTAWA, CAN
ADA
##NAMES=HP
##CAS NAME=.psi.,.psi.-Carotene, 7,7',8,8',11,11',12,12',15,15'-decahydro-
##MOLFORM=C40H66
##CAS REGISTRY NO=502-62-5
##MP= -300
##BP= -300
##MW= 546
##$RETENTION INDEX=0
##$CONDENSED SPECTRUM=NO
##NPOINTS= 139
##XYDATA=(XY..XY) 1 
    35         67
    37         23
    39        113
    40         30
    41        600
    42         53
    43        440
    44         23
    45         23
    47        162
    48         63
    49         63
    50         23
    51         20
    53        130
    54         30
    55        300
    56         57
    57        160
    58         30
    59         33
    65         30
    66         20
    67        205
    68        210
    69        999
    70         95
    71        110
    72         35
    77         60
    78         16
    79        100
    80         40
    81        150
    82         95
    83        320
    84         67
    85        255
    86         67
    87         40
    91         70
    92         30
    93        195
    94         50
    95        200
    96         38
    97         55
    99         20
   105         46
   107        100
   108         33
   109        113
   110         20
   111         38
   119         40
   120         16
   121        106
   122         36
   123         85
   124         20
   125         25
   133         30
   134         23
   135         80
   136         95
   137        105
   138         16
   147         33
   148         16
   149         66
   150         20
   151         15
   161         33
   162         10
   163         28
   175         25
   177         30
   189         40
   190         16
   191         43
   192         20
   203         33
   204         60
   205         35
   217         25
   231         10
   245         10
   257         10
   259         16
   260         16
   271         20
   272         10
   273         23
   274         10
   285          6
   286          6
   287          5
   297         10
   299         20
   300          6
   301          5
   313          5
   325          8
   326          5
   327         10
   328         10
   339          8
   340          8
   341         40
   342         10
   353          5
   354         10
   367         15
   395         10
   396         20
   397         10
   408         10
   409         58
   410         20
   422         10
   435         16
   436         10
   463         10
   464         20
   465         10
   466         10
   477        160
   478         90
   479         33
   503         27
   504         10
   531         10
   532          5
   544         10
   545         15
   546        420
   547        200
   548         67
   549         17