##TITLE=Library Entry 25089
##JCAMP-DX=Revision 4.10 
##DATA TYPE=MASS SPECTRUM
##SAMPLE DESCRIPTION=Japan AIST/NIMC Database- Spectrum MS-NW-3107
##NAMES=HP
##CAS NAME=Cycloheptanol
##MOLFORM=C7H14O
##CAS REGISTRY NO=502-41-0
##MP= -300
##BP= -300
##MW= 114
##$RETENTION INDEX=1022
##$CONDENSED SPECTRUM=NO
##NPOINTS= 66
##XYDATA=(XY..XY) 1 
    14          1
    15         12
    17          2
    18         13
    19          3
    26          9
    27        118
    28         27
    29        119
    30         10
    31         53
    32          3
    37          3
    38          8
    39        126
    40         27
    41        249
    42        147
    43        102
    44        224
    45         52
    46          2
    50          6
    51         10
    52          5
    53         47
    54        158
    55        230
    56         43
    57        999
    58         90
    59          7
    62          2
    63          3
    65          8
    66         19
    67        197
    68        385
    69         39
    70        129
    71        148
    72         62
    73          7
    77          7
    78          2
    79          9
    80          4
    81        341
    82         24
    83         13
    84          6
    85         55
    86         40
    87          2
    91          3
    93          4
    94          1
    95         28
    96        225
    97         19
    98          1
    99          7
   112          3
   113         10
   114         20
   115          1