##TITLE=Library Entry 54865
##JCAMP-DX=Revision 4.10 
##DATA TYPE=MASS SPECTRUM
##SAMPLE DESCRIPTION=Exported from NIST MS Search
##NAMES=HP
##CAS NAME=2(3H)-Furanone, dihydro-5-tetradecyl-
##MOLFORM=C18H34O2
##CAS REGISTRY NO=502-26-1
##MP= -300
##BP= -300
##MW= 282
##$RETENTION INDEX=0
##$CONDENSED SPECTRUM=NO
##NPOINTS= 203
##XYDATA=(XY..XY) 1 
    15          1
    17          2
    18          4
    27         58
    28         59
    29        223
    30          8
    31          3
    38          1
    39         42
    40          8
    41        387
    42         81
    43        449
    44         27
    45          6
    50          1
    51          1
    52          2
    53         30
    54         52
    55        454
    56        240
    57        313
    58         24
    59         10
    60         21
    61          6
    62          1
    65          5
    66          6
    67         96
    68         94
    69        349
    70        145
    71        129
    72         26
    73         58
    74          5
    75          1
    77          4
    78          2
    79         16
    80         13
    81        102
    82        126
    83        277
    84        187
    85        999
    86         64
    87         26
    88          5
    89          1
    91          6
    92          2
    93         14
    94         17
    95         95
    96        141
    97        284
    98        125
    99         32
   100        120
   101         57
   102          7
   105          4
   107         11
   108         14
   109         53
   110         88
   111        164
   112         53
   113         35
   114         96
   115         29
   116          6
   117          1
   118          5
   119         23
   120          6
   121         12
   122         10
   123         50
   124         55
   125         79
   126         43
   127         39
   128         90
   129         29
   130          5
   131          1
   132          1
   133         17
   134         23
   135         16
   136         11
   137         55
   138         41
   139         47
   140         24
   141         30
   142         11
   143          9
   144          3
   145          1
   147         15
   148         16
   149         11
   150          6
   151         40
   152         30
   153         29
   154         17
   155         15
   156          6
   157          7
   158          2
   161          6
   162          5
   163          5
   164          5
   165         21
   166         20
   167         16
   168         10
   169         12
   170          4
   171          5
   172          4
   173          2
   175          7
   176          3
   177          3
   178          2
   179         20
   180         27
   181         15
   182         28
   183         12
   184          3
   185          5
   186          6
   189          3
   190          2
   191          3
   192          2
   193         12
   194         13
   195          8
   196          2
   197          6
   198          3
   199          4
   200          3
   203          2
   204          1
   205          1
   206          2
   207          9
   208         10
   209          5
   210          8
   211          5
   212          2
   213          3
   214          2
   215          1
   217          1
   218          2
   220         93
   221         35
   222         52
   223         26
   224          7
   225          9
   226          2
   227          2
   229          6
   230          3
   233          1
   235          9
   236          9
   237          2
   239          5
   240          3
   245          1
   246         56
   247         14
   248          4
   249          2
   253          4
   254          3
   255          1
   263          3
   264        164
   265         42
   266          7
   267          2
   280          2
   281          7
   282         23
   283          9
   284          1