##TITLE=Library Entry 34212
##JCAMP-DX=Revision 4.10 
##DATA TYPE=MASS SPECTRUM
##SAMPLE DESCRIPTION=NIST Mass Spectrometry Data Center
##NAMES=HP
##CAS NAME=6-Octenoic acid, 3,7-dimethyl-
##MOLFORM=C10H18O2
##CAS REGISTRY NO=502-47-6
##MP= -300
##BP= -300
##MW= 170
##$RETENTION INDEX=1314
##$CONDENSED SPECTRUM=NO
##NPOINTS= 105
##XYDATA=(XY..XY) 1 
    15          2
    26          3
    27         68
    28         12
    29         58
    30          1
    31          8
    37          2
    38          7
    39        181
    40         40
    41        688
    42         85
    43        110
    44          5
    45        100
    46          3
    47          2
    50         10
    51         32
    52         16
    53        143
    54         43
    55        565
    56        316
    57         71
    58         10
    59        104
    60         75
    61          6
    62          3
    63          8
    64          2
    65         35
    66         14
    67        205
    68        131
    69        999
    70        221
    71         54
    72         31
    73         73
    74          5
    75          1
    77         30
    78          6
    79         38
    80         11
    81         85
    82        152
    83        107
    84         19
    85         35
    86          8
    87         48
    88          6
    89          1
    91         17
    92          4
    93         24
    94         99
    95        557
    96         76
    97         39
    98          6
    99         10
   100         22
   101         25
   102          3
   103          1
   105          3
   106          1
   107          5
   108         10
   109        117
   110        496
   111         59
   112          4
   113         19
   114         42
   115         58
   116          4
   117          1
   119         13
   120          1
   121          5
   122          1
   123         14
   124          6
   125          1
   126          1
   127         29
   128          6
   129          1
   134          7
   135          2
   137         23
   138          2
   152        136
   153         18
   154          1
   155          2
   170        150
   171         17
   172          2