##TITLE=Library Entry 8109
##JCAMP-DX=Revision 4.10 
##DATA TYPE=MASS SPECTRUM
##SAMPLE DESCRIPTION=STC 0011
##NAMES=HP
##CAS NAME=2-Pentadecanone, 6,10,14-trimethyl-
##MOLFORM=C18H36O
##CAS REGISTRY NO=502-69-2
##MP= -300
##BP= -300
##MW= 268
##$RETENTION INDEX=1844
##$CONDENSED SPECTRUM=NO
##NPOINTS= 87
##XYDATA=(XY..XY) 1 
    27         89
    29        121
    39         71
    40          2
    41        373
    42        109
    43        999
    44         29
    45         18
    51          5
    53         36
    54         17
    55        345
    56        195
    57        426
    58        898
    59        407
    60         22
    65          6
    66          4
    67         57
    68         77
    69        245
    70        147
    71        450
    72         44
    73          5
    77          5
    79         14
    80         10
    81        130
    82        105
    83        173
    84         55
    85        229
    86         27
    91          6
    93         11
    94         11
    95        203
    96         84
    97        101
    98         20
    99         37
   101          5
   107          5
   108          7
   109        182
   110        130
   111         72
   112         23
   113         76
   114         10
   122          5
   123         96
   124        110
   125         55
   126         50
   127         24
   128          6
   136          5
   137         44
   138         41
   139         13
   140         28
   141         14
   151         16
   152         10
   153          5
   154          5
   155          8
   165         45
   166         10
   179         30
   180         14
   193          5
   194         14
   207          5
   208          9
   210         38
   211          7
   225         12
   235          9
   250         88
   251         19
   253         12
   268          9