##TITLE=Library Entry 3790
##JCAMP-DX=Revision 4.10 
##DATA TYPE=MASS SPECTRUM
##SAMPLE DESCRIPTION=Exported from NIST MS Search
##NAMES=HP
##CAS NAME=.alpha.-Farnesene
##MOLFORM=C15H24
##CAS REGISTRY NO=502-61-4
##MP= -300
##BP= -300
##MW= 204
##$RETENTION INDEX=1508
##$CONDENSED SPECTRUM=NO
##NPOINTS= 66
##XYDATA=(XY..XY) 1 
    27        166
    29        225
    39        231
    40         32
    41        999
    42         32
    43        311
    51         53
    52         16
    53        215
    54         10
    55        596
    56         26
    57         48
    63         26
    65         91
    66         10
    67        129
    68         10
    69        618
    70         26
    77        268
    78         53
    79        440
    80        215
    81        295
    82         26
    83         10
    90          5
    91        370
    92         69
    93        822
    94        112
    95         64
   103         16
   104         10
   105        258
   106         64
   107        483
   108         64
   109         64
   115         16
   117         32
   119        306
   120         69
   121         86
   122         32
   123        198
   124         32
   129         10
   131         32
   132         10
   133         80
   134         32
   135        177
   136         32
   145         26
   147         32
   148         10
   157         10
   159         26
   161         43
   189         10
   202         10
   204         48
   205          8