##TITLE=Library Entry 34392
##JCAMP-DX=Revision 4.10 
##DATA TYPE=MASS SPECTRUM
##SAMPLE DESCRIPTION=NIST Mass Spectrometry Data Center, 1994
##NAMES=HP
##CAS NAME=2,6,10-Dodecatrienal, 3,7,11-trimethyl-, (E,E)-
##MOLFORM=C15H24O
##CAS REGISTRY NO=502-67-0
##MP= -300
##BP= -300
##MW= 220
##$RETENTION INDEX=1735
##$CONDENSED SPECTRUM=NO
##NPOINTS= 112
##XYDATA=(XY..XY) 1 
    14          1
    15         11
    16          1
    17          2
    18          8
    27        184
    28         33
    29        224
    30          4
    31          4
    37          1
    39        262
    41        914
    42         49
    43        100
    44          5
    45          3
    50          8
    51         34
    53        176
    54         32
    55        175
    56         29
    57         22
    58          2
    59          4
    62          1
    63          6
    65         42
    66         17
    67        151
    68          1
    69        999
    70         57
    71         22
    72          1
    77         56
    78         13
    79         73
    80         41
    81        197
    82         56
    83          1
    84        469
    85         29
    86          1
    89          2
    91         58
    92         20
    93         78
    94         25
    95         80
    96         15
    97         19
    98          4
   103          5
   105         29
   106         10
   107         46
   108         30
   109         40
   110         11
   111          3
   115          4
   116          1
   117          5
   118          2
   119          9
   120          1
   121         44
   122         11
   123         40
   124         16
   125          3
   128          1
   129          1
   131          5
   132          3
   133         13
   134         10
   135         17
   136         49
   137         31
   138         13
   139         19
   140          3
   145          4
   146          3
   147          7
   148          3
   149         17
   150          6
   151         11
   152          4
   159         10
   160          2
   161          2
   162          3
   163          2
   164          3
   165          1
   175          2
   176          4
   177         13
   178          4
   187          6
   189          1
   191          6
   192          1
   202          2
   205          7
   220          3