##TITLE=Library Entry 65787
##JCAMP-DX=Revision 4.10 
##DATA TYPE=MASS SPECTRUM
##SAMPLE DESCRIPTION=Chemical Concepts
##NAMES=HP
##CAS NAME=1,3,7-Octatriene, 3,7-dimethyl-
##MOLFORM=C10H16
##CAS REGISTRY NO=502-99-8
##MP= -300
##BP= -300
##MW= 136
##$RETENTION INDEX=1047
##$CONDENSED SPECTRUM=NO
##NPOINTS= 82
##XYDATA=(XY..XY) 1 
    25          0
    26         14
    27        279
    29        197
    30          3
    31          0
    34          0
    37          5
    38         22
    39        324
    40         51
    41        423
    42         25
    43        186
    44          3
    45          1
    47          1
    49          2
    50         33
    51         93
    52         44
    53        198
    54         21
    55        144
    56          9
    57          3
    58          4
    59          1
    60          0
    61          3
    62         10
    63         34
    64          8
    65         87
    66         30
    67        132
    68         47
    69         28
    70          1
    71          2
    72          1
    74          5
    75         11
    76          5
    77        322
    78         58
    79        396
    80        378
    81        104
    82          9
    83          0
    86          1
    87          0
    88          1
    89         14
    90          7
    91        334
    92        209
    93        999
    94        101
    95         16
    96          1
   101          1
   102          2
   103         23
   104          7
   105        160
   106         44
   107         72
   108         10
   109          6
   115          6
   116          1
   117          6
   118          0
   119         28
   120          8
   121        175
   122         17
   135          2
   136         83
   137         10