##TITLE=Library Entry 73920
##JCAMP-DX=Revision 4.10 
##DATA TYPE=MASS SPECTRUM
##SAMPLE DESCRIPTION=Chemical Concepts
##NAMES=HP
##CAS NAME=4-Ketopimelic
##MOLFORM=C7H10O5
##CAS REGISTRY NO=502-50-1
##MP= -300
##BP= -300
##MW= 174
##$RETENTION INDEX=0
##$CONDENSED SPECTRUM=NO
##NPOINTS= 105
##XYDATA=(XY..XY) 1 
    25          1
    26         32
    27        215
    28        167
    29        332
    30         15
    31         28
    39         22
    40          3
    41         26
    42         47
    43         92
    44         10
    45        281
    46          9
    47          3
    50          4
    51          4
    52          2
    53         14
    54          8
    55        430
    56        239
    57         33
    58          2
    59          1
    60          8
    61          1
    63          1
    65          4
    66          1
    67          9
    68          5
    69         11
    70          8
    71          8
    72          4
    73        341
    74        184
    75         10
    76          4
    77          4
    78          1
    79          3
    80          7
    81          6
    82          7
    83         34
    84          9
    85          4
    86          0
    87          2
    91          3
    92          1
    93          3
    94          2
    95          4
    96          4
    97          6
    98          3
    99          2
   100          5
   101        999
   102         46
   103          7
   104          4
   105          2
   107          2
   108          3
   109          3
   110          7
   111         55
   112         36
   113          3
   114          1
   115          2
   119          7
   120          1
   121          1
   122          1
   123          1
   124          1
   125          1
   126          0
   127          0
   128          4
   129         22
   130          2
   131          1
   133          1
   134          0
   135          1
   136          1
   137          1
   138          3
   139          2
   143          1
   148          1
   152          1
   153          1
   156         13
   157          4
   173          0
   174         20
   175          1