##TITLE=Library Entry 70959
##JCAMP-DX=Revision 4.10 
##DATA TYPE=MASS SPECTRUM
##SAMPLE DESCRIPTION=Japan AIST/NIMC Database- Spectrum MS-NW-1282
##NAMES=HP
##CAS NAME=Cyclooctanone
##MOLFORM=C8H14O
##CAS REGISTRY NO=502-49-8
##MP= -300
##BP= -300
##MW= 126
##$RETENTION INDEX=1115
##$CONDENSED SPECTRUM=NO
##NPOINTS= 82
##XYDATA=(XY..XY) 1 
    14          5
    15         23
    17          2
    18          7
    26         31
    27        319
    28        149
    29        242
    30          6
    31          5
    32          3
    33          1
    34          4
    36          2
    37          4
    38         17
    39        304
    40         68
    41        754
    42        748
    43        147
    44         11
    45          4
    46          1
    47          1
    48          6
    49          1
    50         12
    51         22
    52         10
    53         68
    54         97
    55        812
    56        388
    57         74
    58         63
    59          9
    60          2
    61          1
    62          2
    63          6
    64          1
    65          9
    66          9
    67        220
    68        161
    69        271
    70        264
    71         68
    72         15
    73          1
    74          1
    76          1
    77          8
    78          5
    79         38
    80         34
    81         21
    82        437
    83        420
    84        492
    85         36
    86          3
    91          4
    93         60
    94          5
    95         13
    96          4
    97        225
    98        999
    99         67
   100          4
   107          3
   108         12
   109          2
   111         81
   112          7
   124          2
   125          4
   126        184
   127         18
   128          1