##TITLE=Library Entry 4692
##JCAMP-DX=Revision 4.10 
##DATA TYPE=MASS SPECTRUM
##SAMPLE DESCRIPTION=Japan AIST/NIMC Database- Spectrum MS-NW- 859
##NAMES=HP
##CAS NAME=2-Oxepanone
##MOLFORM=C6H10O2
##CAS REGISTRY NO=502-44-3
##MP= -300
##BP= -300
##MW= 114
##$RETENTION INDEX=1860
##$CONDENSED SPECTRUM=NO
##NPOINTS= 55
##XYDATA=(XY..XY) 1 
    14          7
    15         21
    17          1
    18          7
    25          2
    26         47
    27        226
    28        263
    29        136
    30          6
    31         18
    32          1
    37          9
    38         23
    39        209
    40         67
    41        498
    42        999
    43         49
    44         13
    45          5
    49          2
    50         11
    51         13
    52          5
    53         30
    54         17
    55        965
    56        301
    57         46
    58          5
    60          3
    61          1
    62          2
    63          2
    65          4
    66          4
    67         40
    68         19
    69         10
    70        213
    71         12
    73          3
    78          1
    81          2
    83         18
    84        440
    85         31
    86          6
    95          1
    96          1
   113          2
   114        208
   115         15
   116          2