##TITLE=Library Entry 7390
##JCAMP-DX=Revision 4.10 
##DATA TYPE=MASS SPECTRUM
##SAMPLE DESCRIPTION=Exported from NIST MS Search
##NAMES=HP
##CAS NAME=Undecanoic acid, 4,8-dimethyl-10-oxo-, methyl ester
##MOLFORM=C14H26O3
##CAS REGISTRY NO=5024-24-8
##MP= -300
##BP= -300
##MW= 242
##$RETENTION INDEX=0
##$CONDENSED SPECTRUM=NO
##NPOINTS= 62
##XYDATA=(XY..XY) 1 
    41        326
    42        165
    43        999
    44         52
    45         52
    53         80
    54         26
    55        978
    56        147
    57        200
    58        395
    59        380
    67        136
    68        152
    69        895
    70        152
    71        173
    73        191
    74        250
    81        167
    82         69
    83        400
    84         69
    85        928
    86         86
    87        452
    93         60
    95        221
    96        123
    97        352
    98        104
    99         54
   101         60
   107         78
   108        152
   109        247
   110        326
   111        391
   112        143
   115        152
   123         54
   124         50
   125        152
   126         80
   127         65
   128        282
   129         73
   135        204
   137         58
   151         58
   152        152
   153        793
   154         76
   175         34
   184        252
   185        604
   186         80
   211        195
   212         43
   227         21
   242         26
   243         17