##TITLE=Library Entry 19240
##JCAMP-DX=Revision 4.10 
##DATA TYPE=MASS SPECTRUM
##SAMPLE DESCRIPTION=Exported from NIST MS Search
##NAMES=HP
##CAS NAME=Decanedioic acid, 3,6-dimethyl-, dimethyl ester
##MOLFORM=C14H26O4
##CAS REGISTRY NO=5024-28-2
##MP= -300
##BP= -300
##MW= 258
##$RETENTION INDEX=0
##$CONDENSED SPECTRUM=NO
##NPOINTS= 65
##XYDATA=(XY..XY) 1 
    41        895
    42        253
    43        671
    45        111
    53         95
    54         26
    55        999
    56        155
    57        133
    59        653
    65         15
    67        106
    68         84
    69        799
    70        106
    71         62
    73        155
    74        555
    75         57
    81        151
    82        106
    83        377
    86         80
    87        275
    88         60
    93         37
    96        102
    97        382
    98        431
   101        311
   108         57
   109         97
   110         71
   111        244
   112        191
   115         84
   124         40
   125        173
   126        355
   127         48
   129        155
   130         17
   135        111
   137         15
   139         48
   142        111
   143         26
   149         66
   152         48
   153        377
   154         57
   166         60
   167         37
   177         40
   179         33
   182         88
   184         53
   185        404
   186         53
   194         26
   208         17
   209         53
   210         11
   227        133
   228         28