##TITLE=Library Entry 71173
##JCAMP-DX=Revision 4.10 
##DATA TYPE=MASS SPECTRUM
##SAMPLE DESCRIPTION=NIST Mass Spectrometry Data Center
##NAMES=HP
##CAS NAME=Dimethyl tetradecanedioate
##MOLFORM=C16H30O4
##CAS REGISTRY NO=5024-21-5
##MP= -300
##BP= -300
##MW= 286
##$RETENTION INDEX=2054
##$CONDENSED SPECTRUM=NO
##NPOINTS= 186
##XYDATA=(XY..XY) 1 
    14          1
    15         26
    26          2
    27         31
    28         20
    29         76
    30          4
    31         11
    32          1
    33          2
    38          1
    39         49
    40         11
    41        291
    42         74
    43        315
    44         16
    45         35
    46          1
    50          1
    51          3
    52          2
    53         31
    54         35
    55        572
    56         64
    57        106
    58         14
    59        286
    60          9
    61          3
    63          1
    65          7
    66          4
    67         94
    68         49
    69        304
    70         42
    71         55
    72          7
    73         56
    74        633
    75         46
    76          4
    77          7
    78          3
    79         35
    80         27
    81        118
    82         45
    83        273
    84        430
    85         65
    86          5
    87        295
    88         33
    89          3
    91         10
    92          3
    93         40
    94         37
    95        106
    96         85
    97        279
    98        999
    99         88
   100         10
   101         56
   102          6
   103          1
   104          1
   105          6
   106          3
   107         41
   108         27
   109         52
   110         43
   111        116
   112        290
   113         36
   114         12
   115         40
   116         11
   117          3
   118          1
   119         14
   120         10
   121         65
   122         16
   123         45
   124         29
   125         58
   126         74
   127         15
   128         11
   129         31
   130         27
   131          5
   132          1
   133         10
   134          9
   135         30
   136         16
   137         31
   138         41
   139         65
   140        101
   141         20
   142          5
   143         26
   144         20
   145          4
   146          1
   147          5
   148          7
   149          9
   150         12
   151         18
   152         26
   153         17
   154         34
   155          6
   156          9
   157         15
   158         12
   159          2
   160          1
   161          6
   162         18
   163        122
   164         17
   165         12
   166         12
   167          6
   168          3
   169          4
   170         15
   171         17
   172          4
   173          1
   175          3
   176          5
   177         17
   178          6
   179          9
   180         43
   181        115
   182         15
   183          4
   184          2
   185          4
   186          2
   187          4
   188          1
   193          2
   194         22
   195         12
   196          2
   197          1
   198         17
   199          4
   200         13
   201          2
   203          1
   204          3
   205          2
   210          1
   211          3
   212          7
   213        130
   214         18
   215          2
   221          4
   222         34
   223          9
   224          1
   225          1
   226          2
   227          1
   228          1
   236          1
   253          1
   254          4
   255        189
   256         32
   257          3