##TITLE=Library Entry 100651
##JCAMP-DX=Revision 4.10 
##DATA TYPE=MASS SPECTRUM
##SAMPLE DESCRIPTION=Japan AIST/NIMC Database- Spectrum MS-NW-2753
##NAMES=HP
##CAS NAME=N-(Mesitylenesulfonyl)imidazole
##MOLFORM=C12H14N2O2S
##CAS REGISTRY NO=50257-39-1
##MP= -300
##BP= -300
##MW= 250
##$RETENTION INDEX=0
##$CONDENSED SPECTRUM=NO
##NPOINTS= 98
##XYDATA=(XY..XY) 1 
    14          1
    18          2
    26          1
    27         11
    28         13
    29          1
    32          1
    38          3
    39         26
    40         44
    41         73
    42          3
    43          1
    44          1
    45          3
    48          2
    50          4
    51         15
    52          6
    53         13
    54          1
    55          1
    59          1
    62          2
    63          8
    64          4
    65         19
    66          3
    67          9
    68         72
    69          3
    74          1
    75          2
    76          2
    77         49
    78         17
    79         25
    80          2
    89          3
    90          1
    91        114
    92         10
    93         14
    94          1
    97          1
   102          5
   103         36
   104         30
   105         23
   106          7
   107          2
   115         22
   116          7
   117         44
   118         21
   119        999
   120        112
   121          6
   130          1
   131          3
   132          3
   134          7
   135          9
   136          1
   137          1
   139          3
   142          1
   143          2
   144          9
   145          3
   146          2
   150          2
   151          1
   152          3
   156          1
   157          1
   158         12
   159          8
   160          1
   165          2
   166          1
   167          2
   168          2
   169          1
   170          2
   182          2
   183        196
   184         24
   185         11
   186          2
   199          9
   200          2
   223         14
   224          2
   250        166
   251         24
   252          9
   253          1