##TITLE=Library Entry 85574
##JCAMP-DX=Revision 4.10 
##DATA TYPE=MASS SPECTRUM
##SAMPLE DESCRIPTION=NIST Mass Spectrometry Data Center, 1994
##NAMES=HP
##CAS NAME=p-Nonyloxyaniline
##MOLFORM=C15H25NO
##CAS REGISTRY NO=50262-67-4
##MP= -300
##BP= -300
##MW= 235
##$RETENTION INDEX=0
##$CONDENSED SPECTRUM=NO
##NPOINTS= 69
##XYDATA=(XY..XY) 1 
     5          0
    15          0
    16          0
    17          0
    18          1
    26          2
    27         61
    28         29
    29         99
    30          3
    37          0
    39         44
    41        141
    42         20
    43         91
    44          2
    50          1
    51          5
    52         19
    53         47
    54         14
    55         45
    56          5
    57         18
    58          0
    61          0
    62          1
    63          4
    64          5
    65         32
    66          6
    67          5
    68          2
    69         12
    70          1
    71          5
    72          0
    77          7
    78          2
    80        108
    81         25
    82          4
    83          3
    85          2
    90          0
    91          4
    92         21
    93          7
    94         16
    95          1
   105          0
   106          2
   108        128
   109        999
   110         73
   111          4
   119          0
   120          1
   121          0
   122         11
   123          1
   135          3
   136          1
   149          0
   163          1
   177          0
   235         78
   236         14
   237          1