##TITLE=Library Entry 8746
##JCAMP-DX=Revision 4.10 
##DATA TYPE=MASS SPECTRUM
##SAMPLE DESCRIPTION=NIST Mass Spectrometry Data Center, 1994
##NAMES=HP
##CAS NAME=p-Butyryloxybenzaldehyde
##MOLFORM=C11H12O3
##CAS REGISTRY NO=50262-49-2
##MP= -300
##BP= -300
##MW= 192
##$RETENTION INDEX=0
##$CONDENSED SPECTRUM=NO
##NPOINTS= 74
##XYDATA=(XY..XY) 1 
    12          1
    13          1
    14          7
    15         25
    16          1
    17          1
    18          3
    26         25
    27        242
    28         42
    29         53
    30          1
    32          0
    37         14
    38         61
    39        297
    40         28
    41        234
    42         77
    43        999
    44         33
    45          1
    49          3
    50         39
    51         62
    52          7
    53         12
    54          1
    55         76
    56          4
    60          1
    61          6
    62         26
    63         77
    64         43
    65        182
    66         24
    67          5
    68          3
    69          8
    70          1
    71        867
    72         38
    73          4
    74         15
    75          9
    76         14
    77         45
    78          4
    79          3
    88          1
    90          0
    91          5
    92         24
    93         49
    94         15
    95          9
   103          0
   104          3
   105         16
   106          1
   107          2
   119          3
   121        198
   122         51
   123         69
   124          5
   133          2
   135          1
   149          3
   163          2
   164          1
   192         40
   193          5