##TITLE=Library Entry 22191
##JCAMP-DX=Revision 4.10 
##DATA TYPE=MASS SPECTRUM
##SAMPLE DESCRIPTION=CARL DJERASSI DEPT OF CHEM STANFORD UNIV STANFORD CALIF
 94305
##NAMES=HP
##CAS NAME=1-Heptene, 6-methyl-
##MOLFORM=C8H16
##CAS REGISTRY NO=5026-76-6
##MP= -300
##BP= -300
##MW= 112
##$RETENTION INDEX=749
##$CONDENSED SPECTRUM=NO
##NPOINTS= 20
##XYDATA=(XY..XY) 1 
    39        190
    40         10
    41        650
    42        210
    43        860
    44         20
    53         40
    54         20
    55        760
    56        999
    57        330
    67         40
    68         60
    69        650
    70        340
    71         20
    83         30
    84         80
    97        100
   112         80