##TITLE=Library Entry 9394
##JCAMP-DX=Revision 4.10 
##DATA TYPE=MASS SPECTRUM
##SAMPLE DESCRIPTION=Exported from NIST MS Search
##NAMES=HP
##CAS NAME=2-Oxa-6-azatricyclo[3.3.1.1(3,7)]decan-4-ol, 8-iodo-6-(phenylsulf
onyl)-, acetate (ester), (1.alpha.,3.beta.,4.beta.,5.alpha.,7.beta.,8.alpha.
)-
##MOLFORM=C16H18INO5S
##CAS REGISTRY NO=50267-29-3
##MP= -300
##BP= -300
##MW= 463
##$RETENTION INDEX=0
##$CONDENSED SPECTRUM=NO
##NPOINTS= 21
##XYDATA=(XY..XY) 1 
    41        480
    42        250
    43        999
    67        230
    69        440
    77        659
    80        390
    81        360
    94        230
   106        170
   136        210
   141        499
   208         70
   220        370
   222        200
   224        180
   250        190
   276         40
   295        200
   336        539
   463         50