##TITLE=Library Entry 50202
##JCAMP-DX=Revision 4.10 
##DATA TYPE=MASS SPECTRUM
##SAMPLE DESCRIPTION=Exported from NIST MS Search
##NAMES=HP
##CAS NAME=3,8,11-Trioxatetracyclo[4.4.1.0(2,4).0(7,9)]undecane, (1.alpha.,2
.beta.,4.beta.,6.alpha.,7.beta.,9.beta.)-
##MOLFORM=C8H10O3
##CAS REGISTRY NO=50267-13-5
##MP= -300
##BP= -300
##MW= 154
##$RETENTION INDEX=0
##$CONDENSED SPECTRUM=NO
##NPOINTS= 15
##XYDATA=(XY..XY) 1 
    39        639
    41        589
    53        549
    55        709
    57        390
    69        799
    71        400
    81        999
    83        400
    97        240
   107        100
   111        140
   123         50
   125         70
   154        350