##TITLE=Library Entry 49459
##JCAMP-DX=Revision 4.10 
##DATA TYPE=MASS SPECTRUM
##SAMPLE DESCRIPTION=Exported from NIST MS Search
##NAMES=HP
##CAS NAME=3-Oxa-10-azatricyclo[4.3.1.0(2,4)]dec-7-ene, 10-(phenylsulfonyl)-
, (1.alpha.,2.alpha.,4.alpha.,6.alpha.)-
##MOLFORM=C14H15NO3S
##CAS REGISTRY NO=50267-09-9
##MP= -300
##BP= -300
##MW= 277
##$RETENTION INDEX=0
##$CONDENSED SPECTRUM=NO
##NPOINTS= 16
##XYDATA=(XY..XY) 1 
    41        180
    51        190
    53        190
    68         90
    77        519
    80        999
    92        170
   108         90
   118         40
   136        120
   141        100
   220        190
   221        310
   234         20
   249         30
   277        210