##TITLE=Library Entry 6375
##JCAMP-DX=Revision 4.10 
##DATA TYPE=MASS SPECTRUM
##SAMPLE DESCRIPTION=NIST Mass Spectrometry Data Center, 1994
##NAMES=HP
##CAS NAME=p-Nonyloxybenzaldehyde
##MOLFORM=C16H24O2
##CAS REGISTRY NO=50262-46-9
##MP= -300
##BP= -300
##MW= 248
##$RETENTION INDEX=0
##$CONDENSED SPECTRUM=NO
##NPOINTS= 82
##XYDATA=(XY..XY) 1 
    12          2
    14          2
    15         13
    16          2
    18         12
    27        274
    28         73
    29        538
    30         13
    31          2
    37          4
    39        280
    41        860
    42        172
    43        999
    44         40
    50         37
    51        104
    52         13
    53         52
    54          4
    55        424
    56        186
    57        350
    58         17
    62         10
    63         41
    64         33
    65        164
    66         30
    67         45
    68         23
    69        147
    70        146
    71        258
    72         14
    74         10
    75         10
    76         35
    77        160
    78         19
    79         54
    80          5
    81          7
    82         26
    83         75
    84         79
    85        116
    86          9
    89          1
    90          2
    91         15
    92         26
    93         71
    94         42
    95         59
    96         14
    97         82
    98         36
   103          4
   105         72
   106          9
   107         19
   108          3
   109          1
   111          3
   115          1
   117          1
   119          6
   121        575
   122        635
   123        817
   124         65
   125          5
   126         30
   135         26
   136          2
   147         10
   148          3
   248        180
   249         38
   250          4