##TITLE=Library Entry 33890
##JCAMP-DX=Revision 4.10 
##DATA TYPE=MASS SPECTRUM
##SAMPLE DESCRIPTION=Chemical Concepts
##NAMES=HP
##CAS NAME=3,8-Dioxa-11-azatetracyclo[4.4.1.0(2,4).0(7,9)]undecane-11-carbox
aldehyde, (1.alpha.,2.beta.,4.beta.,6.alpha.,7.beta.,9.beta.)-
##MOLFORM=C9H11NO3
##CAS REGISTRY NO=50267-15-7
##MP= -300
##BP= -300
##MW= 181
##$RETENTION INDEX=0
##$CONDENSED SPECTRUM=NO
##NPOINTS= 135
##XYDATA=(XY..XY) 1 
    26         23
    27        210
    28        206
    29        166
    30         38
    31         42
    36         10
    37          9
    38         27
    39        239
    40         65
    41        444
    42        195
    43        227
    44         72
    45         14
    46          5
    48         11
    50         17
    51         51
    52         47
    53        168
    54        162
    55        193
    56         81
    57        161
    58         19
    59         12
    60         14
    61          4
    62          4
    63          8
    64          6
    65         39
    66         28
    67        130
    68        999
    69        488
    70        378
    71         78
    72         25
    73         17
    74          6
    75          4
    76          3
    77         36
    78         31
    79         59
    80        333
    81        147
    82        131
    83        135
    84         63
    85         50
    86          9
    87          8
    88          2
    89          3
    90          1
    91         14
    92         35
    93         29
    94         67
    95         47
    96        584
    97        330
    98         50
    99         16
   100          6
   101          4
   102          4
   103          2
   104          6
   105          9
   106         55
   107         45
   108        150
   109         65
   110        153
   111         46
   112         14
   113         10
   114          3
   115          2
   116          2
   117          6
   118         18
   119          6
   120         10
   121          7
   122         27
   123         19
   124        379
   125        442
   126         42
   127         10
   128          4
   129          8
   133          4
   134         23
   135         23
   136        240
   137         27
   138         55
   139          9
   140          4
   141          6
   142          2
   143          2
   144          2
   149         10
   150          4
   151          7
   152        200
   153         34
   154          8
   155          3
   160          1
   161          1
   163          1
   164         14
   165          6
   166          5
   167          2
   168          2
   169          1
   177          2
   178          2
   179          3
   180         16
   181        744
   182         84
   183         12
   184          1
   185          2