##TITLE=Library Entry 23162
##JCAMP-DX=Revision 4.10 
##DATA TYPE=MASS SPECTRUM
##SAMPLE DESCRIPTION=NIST Mass Spectrometry Data Center, 1994
##NAMES=HP
##CAS NAME=p-Propionoxybenzaldehyde
##MOLFORM=C10H10O3
##CAS REGISTRY NO=50262-48-1
##MP= -300
##BP= -300
##MW= 178
##$RETENTION INDEX=0
##$CONDENSED SPECTRUM=NO
##NPOINTS= 72
##XYDATA=(XY..XY) 1 
    12          1
    13          2
    14          7
    15         11
    16          1
    18          2
    25          4
    26         50
    27        193
    28         88
    29        628
    30         14
    32          1
    37         16
    38         61
    39        205
    40         13
    41          4
    42         14
    43          3
    44          1
    45          0
    49          4
    50         41
    51         55
    52          5
    53         15
    54          2
    55         20
    56          0
    57        999
    58         30
    59          1
    60          1
    61          9
    62         29
    63         79
    64         42
    65        164
    66         27
    67          2
    68          1
    73          2
    74         14
    75         10
    76         12
    77         30
    78          3
    79          2
    91          5
    92         22
    93         51
    94         13
    95          8
   103          1
   104          3
   105         12
   106          2
   107          1
   110          1
   119          2
   121        279
   122         79
   123        127
   124          9
   132          1
   133          2
   149          2
   150         17
   151          1
   178         63
   179          7