##TITLE=Library Entry 67179
##JCAMP-DX=Revision 4.10 
##DATA TYPE=MASS SPECTRUM
##SAMPLE DESCRIPTION=Chemical Concepts
##NAMES=HP
##CAS NAME=2-Oxa-6-azatricyclo[3.3.1.1(3,7)]decan-4-ol, 6-(phenylsulfonyl)-,
 acetate (ester), (1.alpha.,3.beta.,4.beta.,5.alpha.,7.beta.)-
##MOLFORM=C16H19NO5S
##CAS REGISTRY NO=50267-33-9
##MP= -300
##BP= -300
##MW= 337
##$RETENTION INDEX=0
##$CONDENSED SPECTRUM=NO
##NPOINTS= 237
##XYDATA=(XY..XY) 1 
    26         12
    27        155
    28         38
    29        134
    30         46
    31         52
    33          3
    34          5
    35          3
    36         20
    37          5
    38         12
    39        213
    40         55
    41        457
    42        136
    43        511
    44         99
    45         45
    46          5
    47          6
    48          5
    49         11
    50         91
    51        408
    52         48
    53        141
    54        300
    55        231
    56        106
    57         75
    58         46
    59         14
    60         23
    61         13
    62          4
    63         17
    64          8
    65         90
    66         46
    67        256
    68        196
    69        212
    70         92
    71         42
    72         22
    73         15
    74         28
    75         29
    76         43
    77        544
    78        234
    79        149
    80        944
    81        454
    82        218
    83        139
    84        122
    85         28
    86         15
    87         12
    88          3
    89          4
    90          7
    91         80
    92        102
    93         91
    94        999
    95        142
    96        112
    97         66
    98         49
    99         15
   100          8
   101         13
   102          3
   103          9
   104         27
   106         36
   107         43
   108        130
   109        121
   110        203
   111         34
   112        105
   113         19
   114          7
   115         14
   116          5
   117         13
   118         38
   119         20
   120         23
   121         30
   122         50
   123         27
   124        112
   125         64
   126         34
   127         13
   128         11
   129          9
   130         21
   131          9
   132          3
   133          5
   134         20
   135         19
   136        293
   137         42
   138         27
   139         13
   140          8
   141        629
   142         64
   143         45
   144         11
   145          7
   146          4
   147          5
   148         16
   149         18
   150          6
   151          9
   152         74
   153         40
   154        555
   155         53
   156         20
   157         12
   158          9
   159          4
   160          2
   161          4
   162          1
   163          0
   164          3
   165          2
   166         12
   167          4
   168         28
   169         10
   170         40
   171          3
   172          3
   173          2
   177          0
   178          0
   181          1
   182          2
   183          1
   184         41
   185         16
   186          8
   187          1
   189          0
   191          0
   192          6
   193          0
   194          0
   195          2
   196        333
   197         23
   198          3
   199          4
   200          2
   202          0
   205          0
   207         14
   208         27
   209          3
   210         12
   211          1
   212         23
   213          6
   214          0
   218          0
   219          2
   220        897
   221        171
   222        314
   223         57
   224         35
   225          0
   226         36
   227          3
   228          3
   229          0
   232          1
   233          4
   234          9
   235          9
   236         69
   237         15
   238         28
   239          2
   240          0
   242          5
   244          1
   247          0
   248          7
   249          1
   250        112
   251          9
   252         15
   253          1
   254          3
   255          0
   256          1
   264        305
   265         30
   266         21
   267          1
   268          2
   273          5
   274          0
   276          3
   277         51
   278         69
   279          8
   280         13
   281          0
   294         18
   295         37
   296          9
   297          3
   309          0
   310          1
   313          0
   316          0
   322          7
   323          0
   336          1
   337        407
   338        111
   339         40
   340          4