##TITLE=Library Entry 48955
##JCAMP-DX=Revision 4.10 
##DATA TYPE=MASS SPECTRUM
##SAMPLE DESCRIPTION=F-J. MARNER, INST. BIOCHEM., COLOGNE, W. GER.
##NAMES=HP
##CAS NAME=1,3,5,8-Undecatetraene
##MOLFORM=C11H16
##CAS REGISTRY NO=50277-31-1
##MP= -300
##BP= -300
##MW= 148
##$RETENTION INDEX=1177
##$CONDENSED SPECTRUM=NO
##NPOINTS= 88
##XYDATA=(XY..XY) 1 
    40         55
    41        478
    42         20
    43          5
    45          0
    46          0
    50         20
    51         90
    52         42
    53        108
    54         15
    55         93
    56          4
    57          4
    58          6
    59          4
    60          2
    61          1
    62          8
    63         28
    64          5
    65        149
    66        153
    67        171
    68         18
    69          7
    70         40
    71          2
    72          0
    74          4
    75          4
    77        366
    78        231
    79        999
    80        293
    81         95
    82         45
    83          3
    85          0
    87          2
    88          1
    89          8
    91        808
    92        128
    93         48
    94        168
    95          8
    96          0
    98          0
    99          0
   101          1
   102          5
   103         40
   104         20
   105        283
   106         49
   107         51
   108          4
   110          0
   112          0
   113          0
   114          0
   115         27
   116          8
   117         48
   118          8
   119        114
   120         13
   121          1
   125          0
   126          0
   127          1
   128          4
   129          3
   130          1
   131          4
   132          0
   133         13
   134          2
   137          0
   141          0
   142          0
   143          0
   144          0
   147          1
   148        309
   149         25
   150          1