##TITLE=Library Entry 22745
##JCAMP-DX=Revision 4.10 
##DATA TYPE=MASS SPECTRUM
##SAMPLE DESCRIPTION=E.BAYER UNIV. OF TUBINGEN, W. GERMANY
##NAMES=HP
##CAS NAME=Iron, [.mu.-[(1,2,3,4-.eta.:1,4-.eta.)-1,3-butadiene-1,4-diyl]]he
xacarbonyldi-, (Fe-Fe)
##MOLFORM=C10H4Fe2O6
##CAS REGISTRY NO=50277-83-3
##MP= -300
##BP= -300
##MW= 332
##$RETENTION INDEX=0
##$CONDENSED SPECTRUM=NO
##NPOINTS= 32
##XYDATA=(XY..XY) 1 
    28         30
    56        999
    81        120
    82        110
    84         85
   110         55
   112        450
   113         35
   136         85
   137        155
   138        250
   162         60
   164        400
   165         35
   190         35
   192        360
   193         35
   218         60
   220        450
   221         35
   246         32
   247         32
   248        290
   274         32
   276        250
   277         32
   302         35
   304        320
   305         35
   330         31
   332        180
   333         31