##TITLE=Library Entry 16563
##JCAMP-DX=Revision 4.10 
##DATA TYPE=MASS SPECTRUM
##SAMPLE DESCRIPTION=Drug Lab
##NAMES=HP
##CAS NAME=Bromo-dragonFLY
##MOLFORM=C13H12BrNO2
##CAS REGISTRY NO=502759-67-3
##MP= -300
##BP= -300
##MW= 293
##$RETENTION INDEX=0
##$CONDENSED SPECTRUM=NO
##NPOINTS= 156
##XYDATA=(XY..XY) 1 
    40          1
    41          4
    42         27
    44        999
    45         26
    49          1
    50         10
    51         10
    52          2
    53          3
    54          1
    55          1
    56          3
    57          6
    59          3
    61          5
    62         23
    63         58
    64         12
    65          9
    66          2
    67          1
    70          2
    71          9
    73          2
    74         22
    75         20
    76          6
    77         13
    78          4
    79          2
    80          1
    81          1
    82          1
    84          2
    85         13
    86         32
    87         56
    88         67
    89         28
    90          4
    91          2
    92          2
    97          2
    98         17
    99         18
   100         12
   101          7
   102          5
   103          1
   104          1
   109          2
   110          9
   111         10
   112          5
   113        141
   114        168
   115         91
   116         14
   117          4
   118          1
   119          2
   122          1
   125          6
   126         12
   127          9
   128          9
   129         18
   130          4
   131          4
   133          1
   137          2
   138          3
   139         23
   140         17
   141         24
   142        246
   143         46
   144          7
   145          1
   146          1
   147          1
   152          1
   153          4
   154          5
   155          6
   156          3
   157          2
   158          2
   166          2
   167          5
   168         10
   169         14
   170         55
   171        149
   172         24
   173          2
   179          1
   181          1
   182          4
   183          3
   184          7
   185          2
   192          1
   193          6
   194          2
   195         11
   196          7
   197          3
   198          9
   199         25
   200          3
   207          2
   209          3
   210          1
   211          1
   212          2
   213          6
   214          1
   220          5
   221         25
   222         13
   223         25
   224          7
   225          1
   233          1
   235          1
   236          6
   237          1
   238          6
   247          2
   249        378
   250        638
   251        442
   252        627
   253         74
   254          6
   262          4
   263          1
   264          4
   265          1
   266          1
   275          2
   276          5
   277         12
   278         14
   279         12
   280          9
   281          1
   290          1
   291          2
   292          6
   293         34
   294         12
   295         32
   296          7