##TITLE=Library Entry 12891
##JCAMP-DX=Revision 4.10 
##DATA TYPE=MASS SPECTRUM
##SAMPLE DESCRIPTION=NIST Mass Spectrometry Data Center, 1994
##NAMES=HP
##CAS NAME=1,1,2,2-Tetraacetylethane
##MOLFORM=C10H14O4
##CAS REGISTRY NO=5027-32-7
##MP= -300
##BP= -300
##MW= 198
##$RETENTION INDEX=0
##$CONDENSED SPECTRUM=NO
##NPOINTS= 96
##XYDATA=(XY..XY) 1 
    12          2
    14          9
    15        107
    16          2
    17          1
    18          1
    26          1
    27         17
    28          7
    29         13
    37          3
    38          8
    39         56
    40         10
    41         32
    42          1
    43        999
    44         24
    45          6
    50         12
    51         29
    52          6
    53         27
    54          3
    55         22
    56          4
    57          2
    61          2
    62          2
    63          7
    65         28
    66         13
    67         49
    68          8
    69         50
    70          6
    71         19
    74          0
    77          6
    78          3
    79          7
    80          2
    81         18
    82          2
    83          2
    84          0
    85         58
    86          3
    91          7
    92          2
    93          8
    94          5
    95         40
    96         10
    97          7
    98          2
    99         11
   105          3
   106          1
   108          3
   109         17
   110          3
   111          7
   112         18
   113         45
   114         10
   119          7
   120          3
   121          2
   122          1
   123        138
   124         10
   125          3
   133          7
   134          2
   137         31
   138         20
   139          3
   141         18
   147         17
   148          1
   151          2
   155          2
   156          2
   161          5
   162         19
   163         11
   164          1
   165        305
   166         32
   167          3
   180        179
   181         20
   182          3
   198         31
   199          3