##TITLE=Library Entry 73198
##JCAMP-DX=Revision 4.10 
##DATA TYPE=MASS SPECTRUM
##SAMPLE DESCRIPTION=W.T.RAINEY OAK RIDGE NATIONAL LABORATORY,OAK RIDGE,TN.U
SA
##NAMES=HP
##CAS NAME=Urea, triethylnitroso-
##MOLFORM=C7H15N3O2
##CAS REGISTRY NO=50285-70-6
##MP= -300
##BP= -300
##MW= 173
##$RETENTION INDEX=0
##$CONDENSED SPECTRUM=NO
##NPOINTS= 23
##XYDATA=(XY..XY) 1 
    30        142
    40         30
    41         57
    42        285
    43         35
    44        404
    54         16
    55         23
    56        452
    57         64
    58         83
    70         47
    71         28
    72        833
    74         35
   100        999
   101         64
   102         16
   115         26
   116         11
   130         16
   145          7
   173          2