##TITLE=Library Entry 49251
##JCAMP-DX=Revision 4.10 
##DATA TYPE=MASS SPECTRUM
##SAMPLE DESCRIPTION=D. Rasala, Inst. Chem., Pedagogical Univ., Kielce, Pola
nd
##NAMES=HP
##CAS NAME=2-Pyridinamine, N,N-dimethyl-3-nitro-
##MOLFORM=C7H9N3O2
##CAS REGISTRY NO=5028-23-9
##MP= -300
##BP= -300
##MW= 167
##$RETENTION INDEX=0
##$CONDENSED SPECTRUM=NO
##NPOINTS= 43
##XYDATA=(XY..XY) 1 
    50        190
    51        440
    52        390
    53        190
    54         60
    55         80
    63         50
    64        210
    65        110
    66        280
    67        150
    69         40
    75         40
    76         60
    77         50
    78        710
    79        999
    80        310
    81        170
    82         90
    91         40
    92        220
    93        520
    94        260
    95         50
   105        150
   106        160
   107        230
   108         90
   109         80
   119        670
   120        640
   121        100
   122        770
   123         70
   137         10
   139         60
   150        300
   151         24
   166         20
   167        530
   168         66
   169          4