##TITLE=Library Entry 85740
##JCAMP-DX=Revision 4.10 
##DATA TYPE=MASS SPECTRUM
##SAMPLE DESCRIPTION=ATLANTIC REFINING CO., PHILADELPHIA, PA, USA
##NAMES=HP
##CAS NAME=Cyclohexene, 3,3,5-trimethyl-
##MOLFORM=C9H16
##CAS REGISTRY NO=503-45-7
##MP= -300
##BP= -300
##MW= 124
##$RETENTION INDEX=1633
##$CONDENSED SPECTRUM=NO
##NPOINTS= 79
##XYDATA=(XY..XY) 1 
    38         37
    39        437
    40         83
    41        503
    42         60
    43        128
    44          5
    45          3
    46          2
    47          0
    49          2
    50         33
    51         92
    52         42
    53        164
    54         46
    55        208
    56         28
    57         15
    58          1
    59          0
    60          2
    61          4
    62         10
    63         32
    64         10
    65         84
    66         43
    67        624
    68        146
    69        196
    70         18
    71          2
    73          5
    74          4
    75          6
    76          4
    77        117
    78         38
    79        103
    80         35
    81        323
    82        450
    83         38
    84          2
    85          0
    86          0
    87          0
    88          0
    89          4
    90          3
    91         90
    92         15
    93         47
    94         27
    95        273
    96         37
    97          5
    98          1
    99          0
   100          0
   101          1
   102          1
   103          3
   104          1
   105          9
   106          3
   107         27
   108         10
   109        999
   110         92
   111          4
   115          0
   121          0
   122          0
   123         14
   124        299
   125         32
   126          1