##TITLE=Library Entry 30834
##JCAMP-DX=Revision 4.10 
##DATA TYPE=MASS SPECTRUM
##SAMPLE DESCRIPTION=Japan AIST/NIMC Database- Spectrum MS-NW-5070
##NAMES=HP
##CAS NAME=Propanoic acid, 3-hydroxy-
##MOLFORM=C3H6O3
##CAS REGISTRY NO=503-66-2
##MP= -300
##BP= -300
##MW= 90
##$RETENTION INDEX=0
##$CONDENSED SPECTRUM=NO
##NPOINTS= 42
##XYDATA=(XY..XY) 1 
    24          8
    25         27
    26        166
    27        390
    28        199
    29        264
    30         88
    31        472
    32         23
    35          4
    36         27
    38          8
    40          8
    41         43
    42        725
    43        570
    44        252
    45        358
    46         23
    47         31
    52          4
    53         19
    54         11
    55        390
    56         27
    57          4
    60        999
    61         39
    62          8
    63          8
    69          8
    70          8
    71        166
    72        545
    73        394
    74         23
    75          4
    86         15
    87          8
    89         52
    90         19
    91         56