##TITLE=Library Entry 70261
##JCAMP-DX=Revision 4.10 
##DATA TYPE=MASS SPECTRUM
##SAMPLE DESCRIPTION=James Little,Eastman Chem.Co.,Kingsport,TN
##NAMES=HP
##CAS NAME=Pyrollidine, 2,5-bis(imino)-
##MOLFORM=C4H7N3
##CAS REGISTRY NO=503-84-4
##MP= -300
##BP= -300
##MW= 97
##$RETENTION INDEX=0
##$CONDENSED SPECTRUM=NO
##NPOINTS= 22
##XYDATA=(XY..XY) 1 
    27         76
    29         11
    30         13
    41         53
    42        126
    43        256
    44         54
    52         45
    54        278
    55        125
    56         50
    68         43
    69        237
    70         20
    79         11
    80         10
    81         23
    96        228
    97        999
    98        312
    99         39
   100          2