##TITLE=Library Entry 30846
##JCAMP-DX=Revision 4.10 
##DATA TYPE=MASS SPECTRUM
##SAMPLE DESCRIPTION=NIST Mass Spectrometry Data Center
##NAMES=HP
##CAS NAME=Butanoic acid, 3-methyl-
##MOLFORM=C5H10O2
##CAS REGISTRY NO=503-74-2
##MP= -300
##BP= -300
##MW= 102
##$RETENTION INDEX=863
##$CONDENSED SPECTRUM=NO
##NPOINTS= 52
##XYDATA=(XY..XY) 1 
    14          1
    15          5
    26          6
    27         83
    28         10
    29         46
    30          1
    31         14
    37          7
    38         17
    39        148
    40         22
    41        300
    42        123
    43        371
    44         16
    45        213
    46          5
    47          2
    49          2
    50          9
    51          9
    52          2
    53         13
    54          3
    55         31
    56         38
    57         27
    58          5
    59         45
    60        999
    61         63
    62          5
    66          1
    67          1
    68          5
    69         41
    70          2
    71          2
    73          1
    74          6
    82          1
    83          5
    84          1
    85         10
    86          3
    87        170
    88          7
    89          1
   101          3
   102          2
   103          1