##TITLE=Library Entry 28793
##JCAMP-DX=Revision 4.10 
##DATA TYPE=MASS SPECTRUM
##SAMPLE DESCRIPTION=AAFS Toxicology Section MS DB Committee, U. Alberta, Ca
nada
##NAMES=HP
##CAS NAME=5-Hepten-2-amine, N,6-dimethyl-
##MOLFORM=C9H19N
##CAS REGISTRY NO=503-01-5
##MP= -300
##BP= -300
##MW= 141
##$RETENTION INDEX=1029
##$CONDENSED SPECTRUM=NO
##NPOINTS= 71
##XYDATA=(XY..XY) 1 
    29         10
    30         30
    31          1
    32          8
    38          1
    39         39
    40          9
    41         78
    42         36
    43         15
    44         17
    45          1
    50          2
    51          7
    52          4
    53         24
    54         11
    55         28
    56         77
    57         32
    58        999
    59         40
    60          1
    62          1
    63          2
    64          1
    65          7
    66          4
    67         44
    68         18
    69         96
    70         54
    71        102
    72         19
    73          1
    77          8
    78          1
    79          9
    80          3
    81         13
    82          8
    83          2
    84        119
    85         26
    86          1
    91          4
    92          1
    93          5
    94          2
    95        124
    96         12
    97          1
    98         50
    99          6
   100          5
   101          1
   106          1
   107          1
   108          1
   109          2
   110         26
   111          2
   112          1
   124          1
   126         31
   127          2
   130          1
   138          1
   140          2
   141         20
   142          2