##TITLE=Library Entry 55708
##JCAMP-DX=Revision 4.10 
##DATA TYPE=MASS SPECTRUM
##SAMPLE DESCRIPTION=Chemical Concepts
##NAMES=HP
##CAS NAME=Isocrotonic acid
##MOLFORM=C4H6O2
##CAS REGISTRY NO=503-64-0
##MP= -300
##BP= -300
##MW= 86
##$RETENTION INDEX=0
##$CONDENSED SPECTRUM=NO
##NPOINTS= 28
##XYDATA=(XY..XY) 1 
    25          7
    26         48
    27        128
    28         27
    29         87
    31         17
    36         19
    37        106
    38        170
    39        872
    40        262
    41        771
    42        158
    43         75
    44         26
    45        202
    53         24
    55         32
    57         38
    58          9
    60         23
    68        390
    69        298
    70          6
    71         87
    85         40
    86        999
    87         40