##TITLE=Library Entry 1054
##JCAMP-DX=Revision 4.10 
##DATA TYPE=MASS SPECTRUM
##SAMPLE DESCRIPTION=F.A. HOHORST, ALLIED CHEMICAL, IDAHO FALLS, IDAHO, U
##NAMES=HP
##CAS NAME=Trifluoromethyl peroxynitrate
##MOLFORM=CF3NO4
##CAS REGISTRY NO=50311-48-3
##MP= -300
##BP= -300
##MW= 147
##$RETENTION INDEX=0
##$CONDENSED SPECTRUM=NO
##NPOINTS= 6
##XYDATA=(XY..XY) 1 
    30        999
    46        900
    47        760
    48         80
    66        600
    69        420