##TITLE=Library Entry 65740
##JCAMP-DX=Revision 4.10 
##DATA TYPE=MASS SPECTRUM
##SAMPLE DESCRIPTION=M.A.BALDWIN UNIVERSITY COLLEGE, LONDON, UK
##NAMES=HP
##CAS NAME=Urea, N-1-naphthalenyl-N'-phenyl-
##MOLFORM=C17H14N2O
##CAS REGISTRY NO=5031-71-0
##MP= -300
##BP= -300
##MW= 262
##$RETENTION INDEX=0
##$CONDENSED SPECTRUM=NO
##NPOINTS= 94
##XYDATA=(XY..XY) 1 
    27        108
    29         58
    30        358
    31        154
    35          6
    36         13
    37         14
    38         31
    39         85
    40         26
    41         72
    42         28
    43         82
    44         96
    45         46
    50         30
    51         48
    52         22
    53         12
    54         17
    55         54
    56         34
    57         62
    58        122
    59          9
    60         23
    61          8
    62         17
    63         40
    64         61
    65         90
    66        106
    67         26
    68          9
    69         37
    70         22
    71         41
    72          8
    73         15
    74        186
    75         15
    76         12
    77         57
    78         19
    79          7
    81         17
    82         12
    83         26
    84         12
    85         26
    86          6
    87          7
    88        131
    89         13
    90          8
    91         63
    92         59
    93        999
    94         58
    95         15
    96          9
    97         24
    98          9
    99          8
   106          7
   109          9
   110          7
   111         14
   112          7
   113         11
   114         19
   115         56
   116         24
   117         34
   119        131
   120         18
   121         17
   123          6
   125          8
   127          7
   131          8
   132         15
   140         31
   141         31
   142         12
   143        217
   144         26
   149          7
   150         62
   151          8
   169        264
   170         17
   262         37
   263          8