##TITLE=Library Entry 85814
##JCAMP-DX=Revision 4.10 
##DATA TYPE=MASS SPECTRUM
##SAMPLE DESCRIPTION=Div. of Experiment Therapeutics WRAIR, WRAMC, Washingto
n DC 20307
##NAMES=HP
##CAS NAME=2-Amino-4-[2,2-diphenyl-2-hydroxyethyl]pyrimidine
##MOLFORM=C18H17N3O
##CAS REGISTRY NO=50324-59-9
##MP= -300
##BP= -300
##MW= 291
##$RETENTION INDEX=0
##$CONDENSED SPECTRUM=NO
##NPOINTS= 112
##XYDATA=(XY..XY) 1 
    41         57
    42         60
    43        191
    44          6
    51        253
    52         39
    53         25
    54         45
    55         24
    56          9
    63         23
    64          3
    65         24
    66         18
    67         59
    68         48
    69         55
    70          1
    71          1
    74          8
    75         11
    77        815
    78         59
    79         10
    81        183
    82        127
    83          6
    86          1
    87          2
    88          1
    89         12
    91         17
    92          7
    93         16
    94         15
    95          2
    96          2
   101          6
   102          4
   103         13
   105        761
   106         49
   109        999
   110         57
   111          2
   113          3
   114          1
   115         16
   116          4
   117          2
   118          4
   119          0
   122          1
   123          6
   125          1
   126          4
   127          9
   128          7
   129          3
   130          6
   136          8
   139          5
   140          1
   141          1
   143          5
   144          3
   150          3
   151          4
   152         26
   153         10
   154          7
   155          0
   162          0
   163          2
   164          1
   165         16
   166          0
   167          2
   169          1
   170         32
   172        515
   173         34
   176          2
   178          7
   179          1
   181          9
   183        138
   184         20
   186         36
   187          3
   196          5
   198          8
   200          3
   202          3
   203          0
   204          1
   212          4
   214         75
   215          7
   228          3
   230          2
   241          1
   272          5
   274         79
   275         16
   276          1
   288          0
   290         11
   291        178
   292         35
   293         12
   294          1