##TITLE=Library Entry 85651
##JCAMP-DX=Revision 4.10 
##DATA TYPE=MASS SPECTRUM
##SAMPLE DESCRIPTION=Div. of Experiment Therapeutics WRAIR, WRAMC, Washingto
n DC 20307
##NAMES=HP
##CAS NAME=2-Amino-4-[2-hydroxyoctyl]pyrimidine
##MOLFORM=C12H21N3O
##CAS REGISTRY NO=50324-62-4
##MP= -300
##BP= -300
##MW= 223
##$RETENTION INDEX=0
##$CONDENSED SPECTRUM=NO
##NPOINTS= 85
##XYDATA=(XY..XY) 1 
    41        213
    42         79
    43        321
    44         25
    45          4
    49          4
    51         10
    52         18
    53         27
    55        124
    56         13
    57         20
    58          1
    59          3
    60          6
    63          2
    64          0
    65         10
    66         19
    67         58
    68         75
    69        107
    70          8
    71          6
    73          5
    77          6
    78          5
    79          8
    81         86
    82         93
    83          8
    84          2
    85          6
    86          1
    91          2
    92          1
    93         23
    94         17
    96        222
    97         15
    98          4
   105          2
   106          4
   109        999
   110        145
   111          9
   113          6
   115          1
   117          6
   120          3
   122         51
   123          7
   124          3
   125          4
   131          7
   134         47
   135         35
   136         13
   138        277
   139         28
   140          2
   146          4
   148         38
   149         14
   150          5
   152         74
   153          5
   160          2
   162         26
   163          8
   164          3
   166          4
   176         14
   178          8
   180         11
   190          8
   194          6
   204          4
   205         23
   206         16
   207          1
   222          2
   223         52
   224          6
   225          2