##TITLE=Library Entry 55947
##JCAMP-DX=Revision 4.10 
##DATA TYPE=MASS SPECTRUM
##SAMPLE DESCRIPTION=Japan AIST/NIMC Database- Spectrum MS-IW-4496
##NAMES=HP
##CAS NAME=Morpholino phenyl sulfone
##MOLFORM=C10H13NO3S
##CAS REGISTRY NO=5033-21-6
##MP= -300
##BP= -300
##MW= 227
##$RETENTION INDEX=0
##$CONDENSED SPECTRUM=NO
##NPOINTS= 99
##XYDATA=(XY..XY) 1 
    15         11
    26          4
    27         28
    28         94
    29         49
    30         33
    31          6
    38          2
    39          9
    40          4
    41         20
    42         79
    43          7
    44          4
    45          6
    48          1
    49          1
    50         35
    51        135
    52         10
    53          3
    54         25
    55         45
    56        719
    57         36
    58         13
    59          7
    60          2
    62          1
    63          5
    64          1
    65          7
    66          2
    69          3
    70          1
    72         95
    73          4
    74         10
    75          9
    76         12
    77        459
    78         45
    79          3
    81          1
    82          1
    84         32
    85         21
    86        999
    87         53
    88          3
    89          1
    90          3
    91         16
    92         23
    93          2
    94          1
    97          6
   104          9
   105         20
   106          2
   108          1
   109          3
   110          2
   117          1
   118          1
   119          4
   125         11
   126          2
   127          1
   132         29
   133          4
   134          2
   141        297
   142         22
   143         16
   144          1
   149          1
   162          8
   163          2
   169          2
   170         21
   171          2
   172          1
   182          1
   184        234
   185         23
   186         11
   187          1
   196         82
   197          9
   198          4
   212         11
   213          1
   225          2
   226          9
   227        614
   228         77
   229         34
   230          3