##TITLE=Library Entry 32195
##JCAMP-DX=Revision 4.10 
##DATA TYPE=MASS SPECTRUM
##SAMPLE DESCRIPTION=D.HENNEBERG, MAX-PLANCK INSTITUTE, MULHEIM, WEST GERMAN
Y
##NAMES=HP
##CAS NAME=Tricyclo[4.2.1.0(2,5)]nonane, 3,4-dimethyl-
##MOLFORM=C11H18
##CAS REGISTRY NO=50333-74-9
##MP= -300
##BP= -300
##MW= 150
##$RETENTION INDEX=0
##$CONDENSED SPECTRUM=NO
##NPOINTS= 84
##XYDATA=(XY..XY) 1 
    23          0
    25          1
    26          3
    27         78
    28          2
    29         64
    30          1
    38          3
    39        115
    40         26
    41        187
    42         14
    43         26
    47          0
    48          0
    49          0
    50          4
    51         23
    52         11
    53         63
    54         20
    55         78
    56         31
    57          4
    58          2
    59          1
    60          0
    62          2
    63          7
    64          7
    65         40
    66        999
    67        254
    68        178
    69         35
    70          2
    71          2
    72          0
    74          0
    75          3
    77         68
    78         27
    79        189
    80        177
    81         93
    82         53
    83          7
    84          1
    85          0
    86          0
    87          0
    88          0
    89          3
    90          1
    91         58
    92         16
    93        175
    94        275
    95        122
    96         17
    97          1
   101          0
   102          0
   103          2
   104          0
   105         10
   106          6
   107        202
   108         74
   109         19
   110          1
   115          0
   117          0
   119          2
   120          1
   121        107
   122         26
   123          0
   134          0
   135         55
   136          4
   149          1
   150         34
   151          2