##TITLE=Library Entry 89890
##JCAMP-DX=Revision 4.10 
##DATA TYPE=MASS SPECTRUM
##SAMPLE DESCRIPTION=G.RUCKER PHARM. CHEM. INST., UNIV., MUNSTER, GERMANY, F
.R.G.
##NAMES=HP
##CAS NAME=1,4-Methano-3-benzoxepin-5(4H)-one, 1,2,7,8,9,9a-hexahydro-10-hyd
roxy-7-methoxy-2,2,9,9a-tetramethyl-
##MOLFORM=C16H24O4
##CAS REGISTRY NO=50340-23-3
##MP= -300
##BP= -300
##MW= 280
##$RETENTION INDEX=0
##$CONDENSED SPECTRUM=NO
##NPOINTS= 27
##XYDATA=(XY..XY) 1 
    41        120
    43        160
    55         60
    67         80
    79        100
    91        120
    95        120
   107        100
   113        999
   121         60
   123         60
   136        120
   151         30
   161         30
   165         30
   167         30
   175         30
   177         20
   179         20
   189         20
   205         20
   229         20
   233         20
   248         40
   262         10
   265         20
   280         40