##TITLE=Library Entry 18248
##JCAMP-DX=Revision 4.10 
##DATA TYPE=MASS SPECTRUM
##SAMPLE DESCRIPTION=NIST Mass Spectrometry Data Center
##NAMES=HP
##CAS NAME=5-Bromo-3-methoxysalicylaldehyde
##MOLFORM=C8H7BrO3
##CAS REGISTRY NO=5034-74-2
##MP= -300
##BP= -300
##MW= 230
##$RETENTION INDEX=0
##$CONDENSED SPECTRUM=NO
##NPOINTS= 171
##XYDATA=(XY..XY) 1 
    12          1
    13          2
    14          3
    15        113
    16          2
    24          1
    25          8
    26         30
    27         27
    29        228
    30         15
    31         16
    33          1
    36          9
    37         86
    38        118
    39        110
    40         23
    41         32
    42         20
    43         22
    44          1
    45          7
    46          7
    47          5
    48         13
    49        139
    50        552
    51        999
    52        446
    53        379
    54         90
    55        147
    56          6
    58          1
    59          1
    60         30
    61        188
    62        346
    63        426
    64        104
    65        183
    66         91
    67         20
    68         13
    69         30
    70          4
    71          2
    72          4
    73         31
    74         90
    75        174
    76         32
    77        341
    78         78
    79        572
    80        245
    81         31
    82          8
    83          4
    84          1
    85          3
    86          3
    87          1
    88          1
    89          5
    90         38
    91         90
    92         66
    93         60
    94        153
    95         51
    96          3
   101          2
   102          1
   103          8
   104         19
   105        118
   106         40
   107        118
   108        512
   109         45
   110          3
   111          1
   113          1
   114          5
   115         22
   116         23
   117         58
   118         11
   119         64
   120          7
   121         37
   122         55
   123         21
   124          2
   127          1
   128          4
   129         22
   130         16
   131        203
   132         21
   133        200
   134         23
   135         18
   136        138
   137         11
   138          1
   140          2
   141         25
   142          7
   143         86
   144         10
   145         61
   146          6
   147          2
   149         19
   150         16
   151         24
   152          5
   153          6
   154        122
   155         31
   156        136
   157         46
   158         60
   159        315
   160         56
   161        286
   162         15
   169          4
   170         57
   171         32
   172         70
   173         36
   174         13
   175          9
   181          1
   182         28
   183         53
   184        626
   185        130
   186        653
   187        413
   188         96
   189        309
   190         20
   191          2
   197          5
   198         40
   199         94
   200        137
   201        104
   202        105
   203         24
   204         11
   211         10
   212         16
   213         12
   214         34
   215         45
   216         22
   217         41
   218          3
   227          3
   229        119
   230        903
   231        193
   232        894
   233         80
   234          8