##TITLE=Library Entry 28645
##JCAMP-DX=Revision 4.10 
##DATA TYPE=MASS SPECTRUM
##SAMPLE DESCRIPTION=Div. of Experiment Therapeutics WRAIR, WRAMC, Washingto
n DC 20307
##NAMES=HP
##CAS NAME=5,5'-[[3-[Dimethylamino]propyl]imino]bis[3-[trichloromethyl]-1,2,
4-thiadiazole
##MOLFORM=C11H12Cl6N6S2
##CAS REGISTRY NO=50350-58-8
##MP= -300
##BP= -300
##MW= 502
##$RETENTION INDEX=0
##$CONDENSED SPECTRUM=NO
##NPOINTS= 189
##XYDATA=(XY..XY) 1 
    41         24
    42         56
    43         18
    44         19
    45          1
    46          9
    47          9
    49         50
    51         16
    53          1
    54          2
    55          1
    56         15
    58        999
    59         34
    60          2
    64          1
    67          4
    68          3
    70         43
    71         11
    72         22
    73          4
    74          2
    75          0
    76          0
    77          1
    79          8
    81          5
    82          6
    84        197
    85        181
    86         38
    87          1
    88          3
    90          0
    94          2
    98          1
    99          2
   100          0
   101          0
   102          0
   104          1
   105          3
   106          0
   108         10
   110          8
   111          0
   112          2
   113          1
   114          4
   116          5
   117          1
   119          4
   121          2
   131          1
   140         28
   142         17
   144          4
   147          1
   148          0
   149          0
   150          0
   158          6
   160          0
   166          0
   168          0
   172          4
   173          0
   175          1
   177          0
   192          0
   194          5
   195          2
   196          2
   198          0
   201          0
   203          2
   205          0
   206          2
   208          1
   210          0
   213          0
   216          0
   218          0
   220          0
   222          0
   224          2
   225          0
   226          0
   229          1
   230          1
   231          2
   232          1
   233          2
   235          1
   236          0
   237          1
   238          2
   239          2
   240          0
   241          1
   244          1
   246          1
   249          4
   251          3
   253          1
   255          0
   256          0
   259          4
   261          5
   263          2
   264          0
   266          2
   268          1
   274          1
   276          1
   277          0
   280          1
   281          4
   282          0
   283          4
   284          1
   285          0
   287          2
   289          2
   291          0
   292          0
   294          1
   296          0
   299          0
   301          6
   303          6
   305          1
   315          6
   317          6
   318          0
   319          2
   345          1
   346          1
   347          1
   348          1
   349          2
   352          0
   382          0
   383          1
   384          0
   386          0
   389          0
   391          1
   396          1
   397          0
   398          2
   399          1
   400          0
   418          1
   420          2
   421          2
   423          0
   424          5
   425          1
   426          8
   427          1
   428          5
   429          0
   430          1
   431          0
   433          2
   435          2
   437          0
   460          1
   462          1
   463          0
   465          0
   467          6
   468          2
   469         11
   471          6
   472          1
   473          2
   502          5
   503          1
   504         10
   505          3
   506          8
   507          2
   508          3
   509          0
   510          1