##TITLE=Library Entry 15349
##JCAMP-DX=Revision 4.10 
##DATA TYPE=MASS SPECTRUM
##SAMPLE DESCRIPTION=Exported from NIST MS Search
##NAMES=HP
##CAS NAME=Pregn-5-en-3-ol, 20-amino-, (3.beta.,20S)-
##MOLFORM=C21H35NO
##CAS REGISTRY NO=5035-10-9
##MP= -300
##BP= -300
##MW= 317
##$RETENTION INDEX=0
##$CONDENSED SPECTRUM=NO
##NPOINTS= 46
##XYDATA=(XY..XY) 1 
    41         50
    43         70
    44        999
    45         70
    53         10
    55         60
    56         30
    57         10
    66         60
    68         20
    69         50
    76         20
    78         50
    79         10
    80         50
    82         20
    90         20
    92         20
    94         30
   106         20
   108         20
   109         30
   110         50
   120         20
   122         20
   134         20
   136         20
   161         20
   243         17
   244          5
   257         20
   258          7
   259          5
   272         50
   273         13
   274          3
   284          2
   286          2
   287          1
   288          3
   289         10
   290          2
   302          7
   303          3
   317         25
   318          7