##TITLE=Library Entry 67941
##JCAMP-DX=Revision 4.10 
##DATA TYPE=MASS SPECTRUM
##SAMPLE DESCRIPTION=Chemical Concepts
##NAMES=HP
##CAS NAME=2,4-Hexadienamide, N,N-diethyl-
##MOLFORM=C10H17NO
##CAS REGISTRY NO=50362-13-5
##MP= -300
##BP= -300
##MW= 167
##$RETENTION INDEX=0
##$CONDENSED SPECTRUM=NO
##NPOINTS= 75
##XYDATA=(XY..XY) 1 
    25          3
    26         18
    27        133
    28         23
    29        144
    30         37
    37          5
    38         19
    39        209
    40         41
    41        339
    42         96
    43         11
    44         74
    45          3
    48          8
    50          7
    51         21
    52         16
    53         20
    54         18
    55         37
    56         75
    57          7
    58         95
    62          5
    63         18
    64          4
    65        121
    66         57
    67        490
    68         53
    69         10
    70         21
    71          7
    72        152
    73         12
    74          7
    77          8
    78          8
    79         11
    80          5
    81         41
    82         20
    83          3
    85          4
    86          7
    92          4
    93          8
    94         12
    95        999
    96        103
    97          7
    98          7
    99          3
   100         30
   108          4
   110         12
   111          8
   112          7
   113          6
   122          4
   123          3
   124         39
   125         12
   126         39
   127          6
   138         30
   139          8
   150          3
   152        143
   153          9
   166         27
   167        155
   168         16