##TITLE=Library Entry 73512
##JCAMP-DX=Revision 4.10 
##DATA TYPE=MASS SPECTRUM
##SAMPLE DESCRIPTION=R.E.ARDREY HOME OFFICE, RES. EST., ALDERMASTON, BERKS.,
 U.K.
##NAMES=HP
##CAS NAME=1,3-Propanediamine, N,N-dibutyl-N'-(2,2,3,4,4-pentamethyl-1-phosp
hetanyl)-, P-oxide
##MOLFORM=C19H41N2OP
##CAS REGISTRY NO=50377-99-6
##MP= -300
##BP= -300
##MW= 344
##$RETENTION INDEX=0
##$CONDENSED SPECTRUM=NO
##NPOINTS= 67
##XYDATA=(XY..XY) 1 
    30         50
    39         40
    40         40
    41        110
    42         60
    43         50
    44        130
    47         30
    55        130
    56         80
    57        110
    58        160
    64         40
    67         30
    68         40
    69         80
    70        100
    71         40
    72         80
    84        110
    86        220
    90         90
    97        170
    98         90
   100        999
   103         40
   104         80
   105         70
   106         50
   107         50
   111         40
   112        280
   119         60
   120         50
   126         80
   128        250
   129        110
   133         60
   142        560
   147        160
   156         50
   158         50
   159         50
   160         70
   161         40
   168         90
   175        140
   176        130
   185         50
   188         60
   189         30
   190         20
   195         20
   202        130
   216        270
   217         60
   218         30
   231         60
   233         30
   245        170
   264         30
   273         20
   274         20
   287        220
   288         70
   301        170
   344         20