##TITLE=Library Entry 70488
##JCAMP-DX=Revision 4.10 
##DATA TYPE=MASS SPECTRUM
##SAMPLE DESCRIPTION=R.E.ARDREY HOME OFFICE, RES. EST., ALDERMASTON, BERKS.,
 U.K.
##NAMES=HP
##CAS NAME=Piperidine, 1-(2,2,3,4,4-pentamethyl-1-phosphetanyl)-, P-oxide
##MOLFORM=C13H26NOP
##CAS REGISTRY NO=50378-01-3
##MP= -300
##BP= -300
##MW= 243
##$RETENTION INDEX=0
##$CONDENSED SPECTRUM=NO
##NPOINTS= 28
##XYDATA=(XY..XY) 1 
    41        200
    42         20
    43         20
    47         10
    55         90
    57         30
    69         50
    70         30
    76         30
    84        340
    97        999
   112        710
   113         90
   115        560
   126        710
   130        560
   131         80
   132        790
   133        100
   159         40
   160         20
   161         20
   173        630
   174        130
   175         70
   188         20
   228         30
   243        160