##TITLE=Library Entry 17265
##JCAMP-DX=Revision 4.10 
##DATA TYPE=MASS SPECTRUM
##SAMPLE DESCRIPTION=ATLAS OF MASS SPECTRA OF ORGANIC COMPOUNDS, V. A. KOPTY
UG, ED.
##NAMES=HP
##CAS NAME=Hydrazine, propyl-
##MOLFORM=C3H10N2
##CAS REGISTRY NO=5039-61-2
##MP= -300
##BP= -300
##MW= 74
##$RETENTION INDEX=714
##$CONDENSED SPECTRUM=NO
##NPOINTS= 19
##XYDATA=(XY..XY) 1 
    29        108
    30         77
    31        145
    32         25
    39         72
    40         17
    41        145
    42         62
    43        113
    44         34
    45        999
    46         25
    56         29
    57         13
    58          6
    59         19
    73         16
    74        264
    75         46