##TITLE=Library Entry 61005
##JCAMP-DX=Revision 4.10 
##DATA TYPE=MASS SPECTRUM
##SAMPLE DESCRIPTION=Exported from NIST MS Search
##NAMES=HP
##CAS NAME=Acetic acid, [(3-methylphenyl)sulfonyl]-, ethyl ester
##MOLFORM=C11H14O4S
##CAS REGISTRY NO=50397-63-2
##MP= -300
##BP= -300
##MW= 242
##$RETENTION INDEX=0
##$CONDENSED SPECTRUM=NO
##NPOINTS= 17
##XYDATA=(XY..XY) 1 
    77         73
    78         30
    79         37
    89        105
    90         72
    91        999
    92        150
   105        370
   106         64
   108        100
   139         41
   149         41
   155        160
   156         33
   178        148
   197         33
   242         54