##TITLE=Library Entry 87928
##JCAMP-DX=Revision 4.10 
##DATA TYPE=MASS SPECTRUM
##SAMPLE DESCRIPTION=NIST Mass Spectrometry Data Center
##NAMES=HP
##CAS NAME=2,4-Diamino-1,3,5-triazine
##MOLFORM=C3H5N5
##CAS REGISTRY NO=504-08-5
##MP= -300
##BP= -300
##MW= 111
##$RETENTION INDEX=0
##$CONDENSED SPECTRUM=NO
##NPOINTS= 20
##XYDATA=(XY..XY) 1 
    14          8
    17          7
    18          9
    27         39
    28        117
    29         13
    40          3
    41         61
    42        324
    43        472
    44         30
    53         29
    56         37
    68         92
    69         55
    70        196
    83         19
    84         31
   111        999
   112         53