##TITLE=Library Entry 58292
##JCAMP-DX=Revision 4.10 
##DATA TYPE=MASS SPECTRUM
##SAMPLE DESCRIPTION=Japan AIST/NIMC Database- Spectrum MS-NW-2863
##NAMES=HP
##CAS NAME=Thiazole, tetrahydro-
##MOLFORM=C3H7NS
##CAS REGISTRY NO=504-78-9
##MP= -300
##BP= -300
##MW= 89
##$RETENTION INDEX=903
##$CONDENSED SPECTRUM=NO
##NPOINTS= 60
##XYDATA=(XY..XY) 1 
    12          1
    13          2
    14          8
    15         37
    16          1
    17          3
    18         16
    24          1
    25          4
    26         33
    27        109
    28        280
    29         39
    30        197
    31          3
    32         14
    33         12
    34         19
    39          6
    40         16
    41         53
    42        475
    43        861
    44        130
    45        197
    46         52
    47         31
    48          3
    49          1
    51          3
    52          6
    53          2
    54         13
    55         10
    56         47
    57         18
    58         60
    59        223
    60        190
    61        132
    62         12
    63          6
    68          1
    70          1
    71          1
    72          1
    73          1
    74          1
    75          2
    76          3
    82          1
    83          4
    85          2
    86         11
    87         10
    88        323
    89        999
    90         59
    91         44
    92          1