##TITLE=Library Entry 70915
##JCAMP-DX=Revision 4.10 
##DATA TYPE=MASS SPECTRUM
##SAMPLE DESCRIPTION=Japan AIST/NIMC Database- Spectrum MS-NW-4002
##NAMES=HP
##CAS NAME=Nanofin
##MOLFORM=C7H15N
##CAS REGISTRY NO=504-03-0
##MP= -300
##BP= -300
##MW= 113
##$RETENTION INDEX=834
##$CONDENSED SPECTRUM=NO
##NPOINTS= 62
##XYDATA=(XY..XY) 1 
    14          1
    15          1
    18          2
    26          6
    27         55
    28        105
    29         31
    30         40
    31          1
    32          8
    37          1
    38          4
    39         56
    40         11
    41         98
    42        232
    43        106
    44        326
    45          8
    46          1
    50          2
    51          4
    52          4
    53         13
    54         13
    55        111
    56        132
    57         36
    58         30
    59          1
    63          1
    65          3
    66          2
    67         10
    68         16
    69         18
    70        271
    71         71
    72         21
    73          1
    77          1
    79          3
    80          5
    81         30
    82         14
    83         11
    84         64
    85         19
    86          1
    93          2
    94          4
    95          3
    96         12
    97          3
    98        999
    99         73
   100          2
   110          3
   111          7
   112         79
   113         69
   114          6