##TITLE=Library Entry 32669
##JCAMP-DX=Revision 4.10 
##DATA TYPE=MASS SPECTRUM
##SAMPLE DESCRIPTION=Japan AIST/NIMC Database- Spectrum MS-IW-3455
##NAMES=HP
##CAS NAME=1,3-Pentadiene
##MOLFORM=C5H8
##CAS REGISTRY NO=504-60-9
##MP= -300
##BP= -300
##MW= 68
##$RETENTION INDEX=523
##$CONDENSED SPECTRUM=NO
##NPOINTS= 38
##XYDATA=(XY..XY) 1 
    14          1
    15          8
    25          3
    26         30
    27        173
    28         17
    29         25
    31         37
    32         10
    33          8
    34         12
    36          4
    37         45
    38         93
    39        545
    40        331
    41        400
    42        215
    43          7
    48          2
    49         12
    50         56
    51         77
    52         46
    53        709
    54         31
    55          8
    60          8
    61         37
    62         50
    63         63
    64          9
    65        167
    66         99
    67        999
    68        899
    69         53
    70          6