##TITLE=Library Entry 90712
##JCAMP-DX=Revision 4.10 
##DATA TYPE=MASS SPECTRUM
##SAMPLE DESCRIPTION=D.HENNEBERG, MAX-PLANCK INSTITUTE, MULHEIM, WEST GERMAN
Y
##NAMES=HP
##CAS NAME=2,4(1H,3H)-Pyrimidinedione, dihydro-
##MOLFORM=C4H6N2O2
##CAS REGISTRY NO=504-07-4
##MP= -300
##BP= -300
##MW= 114
##$RETENTION INDEX=0
##$CONDENSED SPECTRUM=NO
##NPOINTS= 47
##XYDATA=(XY..XY) 1 
    26         45
    27         74
    28        501
    29        147
    30        286
    31          4
    32          7
    38          0
    39          2
    40         21
    41         45
    42        373
    43        208
    44        101
    45          4
    46          0
    51          0
    52          1
    53          1
    54          3
    55         32
    56         25
    57          1
    58          1
    59         33
    60          1
    67          0
    68          6
    69          6
    70         79
    71        252
    72          9
    73          2
    84          0
    85          9
    86         17
    87          1
    96          2
    97          0
    98          3
    99          1
   112          1
   113         34
   114        999
   115         73
   116          6
   117          0