##TITLE=Library Entry 17222
##JCAMP-DX=Revision 4.10 
##DATA TYPE=MASS SPECTRUM
##SAMPLE DESCRIPTION=NIST Mass Spectrometry Data Center
##NAMES=HP
##CAS NAME=3-Nitropropanoic acid
##MOLFORM=C3H5NO4
##CAS REGISTRY NO=504-88-1
##MP= -300
##BP= -300
##MW= 119
##$RETENTION INDEX=0
##$CONDENSED SPECTRUM=NO
##NPOINTS= 74
##XYDATA=(XY..XY) 1 
    12          1
    13          1
    14          6
    15          8
    16          4
    17          8
    18         21
    19          5
    24          1
    25          9
    26         85
    27        382
    28        148
    29        387
    30        194
    31         39
    32          1
    35          3
    36         16
    37          4
    38         19
    39         21
    40         44
    41         71
    42         75
    43        181
    44        251
    45        999
    46         85
    47         18
    48          8
    49          4
    50          4
    51          3
    52          5
    53         18
    54          9
    55        293
    56         20
    57         28
    58          4
    59          9
    60          8
    61          1
    65          1
    66          1
    67          4
    68          8
    69         16
    70         13
    71          7
    72         24
    73        441
    74         22
    75          3
    77          1
    79          1
    80          2
    81          1
    82          2
    83          3
    84          5
    85          7
    86          3
    87         21
    88          1
    89          2
    91          1
    94          1
    95          1
    96          1
    97          1
    98          1
   102          2