##TITLE=Library Entry 69113
##JCAMP-DX=Revision 4.10 
##DATA TYPE=MASS SPECTRUM
##SAMPLE DESCRIPTION=Japan AIST/NIMC Database- Spectrum MS-IW-7722
##NAMES=HP
##CAS NAME=3(2H)-Pyridazinone
##MOLFORM=C4H4N2O
##CAS REGISTRY NO=504-30-3
##MP= -300
##BP= -300
##MW= 96
##$RETENTION INDEX=0
##$CONDENSED SPECTRUM=NO
##NPOINTS= 37
##XYDATA=(XY..XY) 1 
    12          2
    13          2
    14          3
    17          6
    18          4
    24          1
    25          7
    26         26
    27          8
    28         25
    29         19
    34          1
    36          5
    37         27
    38         49
    39        259
    40         52
    41         80
    42         92
    43         12
    44          2
    50          4
    51         17
    52         21
    53          9
    54          2
    66          3
    67         16
    68        219
    69          9
    77          1
    78          4
    80          1
    95          4
    96        999
    97         76
    98          4