##TITLE=Library Entry 9071
##JCAMP-DX=Revision 4.10 
##DATA TYPE=MASS SPECTRUM
##SAMPLE DESCRIPTION=NIST Mass Spectrometry Data Center, 1990.
##NAMES=HP
##CAS NAME=10-Nonadecanone
##MOLFORM=C19H38O
##CAS REGISTRY NO=504-57-4
##MP= -300
##BP= -300
##MW= 282
##$RETENTION INDEX=2082
##$CONDENSED SPECTRUM=NO
##NPOINTS= 87
##XYDATA=(XY..XY) 1 
    18          0
    27        121
    28         37
    29        320
    30          7
    31          4
    39         68
    41        636
    42        152
    43        999
    44         37
    45          8
    51          4
    53         38
    54         55
    55        449
    56        121
    57        654
    58        601
    59        202
    60          7
    65          8
    66         15
    67        158
    68         80
    69        198
    70        109
    71        961
    72        152
    73         18
    77          8
    79         22
    81        283
    82        188
    83        152
    84         69
    85        476
    86         72
    87         12
    91          6
    93          8
    95        277
    96        215
    97        108
    98         41
    99         42
   100         74
   101          8
   107          5
   108          6
   109         73
   110        283
   111         56
   112         95
   113         93
   114         91
   115          9
   123         27
   124         12
   125          6
   126          6
   127        196
   128         51
   129          4
   137         36
   138         10
   141         29
   142         14
   152         33
   153         11
   155        898
   156        107
   157          6
   170        177
   171        164
   172         23
   183        103
   184         13
   197         36
   198          5
   211          5
   225          9
   239         28
   240          7
   253          8
   282         22
   283          4