##TITLE=Library Entry 4942
##JCAMP-DX=Revision 4.10 
##DATA TYPE=MASS SPECTRUM
##SAMPLE DESCRIPTION=Japan AIST/NIMC Database- Spectrum MS-NW-1409
##NAMES=HP
##CAS NAME=1,3-Cyclohexanedione
##MOLFORM=C6H8O2
##CAS REGISTRY NO=504-02-9
##MP= -300
##BP= -300
##MW= 112
##$RETENTION INDEX=0
##$CONDENSED SPECTRUM=NO
##NPOINTS= 47
##XYDATA=(XY..XY) 1 
    13          4
    14         23
    15         28
    18          1
    25          2
    26         32
    27        113
    28         52
    29         11
    31          3
    32          1
    37         12
    38         24
    39        134
    40         45
    41        142
    42        999
    43        100
    44          4
    49          2
    50          8
    51          7
    52          1
    53          6
    54          1
    55        312
    56         55
    57          3
    58          2
    61          1
    62          2
    63          1
    65          1
    66          3
    67          2
    68          4
    69         38
    70        103
    71          7
    83         90
    84        387
    85         19
    86          1
   111          1
   112        209
   113         12
   114          1