##TITLE=Library Entry 67056
##JCAMP-DX=Revision 4.10 
##DATA TYPE=MASS SPECTRUM
##SAMPLE DESCRIPTION=NIST Mass Spectrometry Data Center, 1998.
##NAMES=HP
##CAS NAME=2-Aminopyridine
##MOLFORM=C5H6N2
##CAS REGISTRY NO=504-29-0
##MP= -300
##BP= -300
##MW= 94
##$RETENTION INDEX=1002
##$CONDENSED SPECTRUM=NO
##NPOINTS= 47
##XYDATA=(XY..XY) 1 
    14          1
    25          2
    26         14
    27         14
    28         66
    29          3
    30          1
    32          4
    33          1
    36          5
    37         46
    38         90
    39        184
    40        112
    41        207
    42         29
    43         18
    47         22
    48          2
    49         15
    50         72
    51         93
    52         67
    53         18
    54         26
    55          2
    62          8
    63         16
    64         31
    65         45
    66        148
    67        830
    68         53
    69          1
    74          1
    75          8
    76          8
    77          5
    78         16
    79          2
    90          1
    91          1
    92          6
    93         49
    94        999
    95         68
    96          1