##TITLE=Library Entry 1994
##JCAMP-DX=Revision 4.10 
##DATA TYPE=MASS SPECTRUM
##SAMPLE DESCRIPTION=Exported from NIST MS Search
##NAMES=HP
##CAS NAME=1,2-Propadiene-1,3-dione
##MOLFORM=C3O2
##CAS REGISTRY NO=504-64-3
##MP= -300
##BP= -300
##MW= 68
##$RETENTION INDEX=0
##$CONDENSED SPECTRUM=NO
##NPOINTS= 19
##XYDATA=(XY..XY) 1 
    12        393
    13         16
    16         28
    24        144
    25         19
    28        256
    29         37
    36         35
    40        999
    41         80
    44         63
    45          1
    52         40
    53          3
    56         17
    57          1
    68        718
    69         29
    70          9