##TITLE=Library Entry 150
##JCAMP-DX=Revision 4.10 
##DATA TYPE=MASS SPECTRUM
##SAMPLE DESCRIPTION=NIST Mass Spectrometry Data Center, 1994
##NAMES=HP
##CAS NAME=1,3-Propanediol
##MOLFORM=C3H8O2
##CAS REGISTRY NO=504-63-2
##MP= -300
##BP= -300
##MW= 76
##$RETENTION INDEX=781
##$CONDENSED SPECTRUM=NO
##NPOINTS= 36
##XYDATA=(XY..XY) 1 
    13         11
    14         40
    15        109
    16          8
    17         11
    18         15
    25         15
    26        122
    27        396
    28        999
    29        651
    30        212
    31        878
    32          7
    33          6
    36          5
    37         13
    38         17
    39         46
    40         34
    41         29
    42         58
    43        195
    44         42
    45        148
    46         91
    47         36
    48          3
    49          8
    53          8
    55         19
    57        642
    58        598
    59         10
    75          5
    76          1