##TITLE=Library Entry 25375
##JCAMP-DX=Revision 4.10 
##DATA TYPE=MASS SPECTRUM
##SAMPLE DESCRIPTION=NIST Mass Spectrometry Data Center, 1990.
##NAMES=HP
##CAS NAME=Hexadecane, 2,6,11,15-tetramethyl-
##MOLFORM=C20H42
##CAS REGISTRY NO=504-44-9
##MP= -300
##BP= -300
##MW= 282
##$RETENTION INDEX=1792
##$CONDENSED SPECTRUM=NO
##NPOINTS= 69
##XYDATA=(XY..XY) 1 
    14          7
    16          4
    27         38
    28         11
    29         80
    30          1
    39         39
    41        364
    42         93
    43        699
    44         29
    51          1
    53         23
    55        295
    56        273
    57        999
    58         51
    65          3
    66          2
    67         30
    68         24
    69        180
    70        139
    71        833
    72         50
    77          3
    79          6
    80          1
    81         11
    82         14
    83         64
    84         85
    85        325
    86         21
    95          6
    96          4
    97         45
    98         24
    99        135
   100         10
   109          1
   110         21
   111         71
   112        101
   113        157
   114         14
   124          1
   125          7
   126         39
   127         80
   128          7
   139          2
   140          5
   141         41
   142          4
   153          2
   154          1
   155         19
   156          2
   168         32
   169        152
   170         21
   171          1
   183          5
   196         12
   197         30
   198          4
   211          2
   267          1