##TITLE=Library Entry 1805
##JCAMP-DX=Revision 4.10 
##DATA TYPE=MASS SPECTRUM
##SAMPLE DESCRIPTION=Chemical Concepts
##NAMES=HP
##CAS NAME=2H-Pyran-2-one
##MOLFORM=C5H4O2
##CAS REGISTRY NO=504-31-4
##MP= -300
##BP= -300
##MW= 96
##$RETENTION INDEX=976
##$CONDENSED SPECTRUM=NO
##NPOINTS= 24
##XYDATA=(XY..XY) 1 
    25          3
    26         64
    27         15
    28          5
    29        265
    30          4
    37        148
    38        271
    39        999
    40        323
    41         30
    42        184
    43          5
    49         45
    50         80
    51         21
    52          4
    53         15
    67          8
    68        840
    69         49
    95        169
    96        674
    97         41