##TITLE=Library Entry 38447
##JCAMP-DX=Revision 4.10 
##DATA TYPE=MASS SPECTRUM
##SAMPLE DESCRIPTION=NIST Mass Spectrometry Data Center
##NAMES=HP
##CAS NAME=Nonacosan-10-one
##MOLFORM=C29H58O
##CAS REGISTRY NO=504-56-3
##MP= -300
##BP= -300
##MW= 422
##$RETENTION INDEX=3090
##$CONDENSED SPECTRUM=NO
##NPOINTS= 100
##XYDATA=(XY..XY) 1 
    27         32
    29        102
    30          4
    39         38
    40         12
    41        467
    42        116
    43        983
    44         36
    53         28
    54         46
    55        618
    56        127
    57        859
    58        455
    59        204
    67        156
    68         82
    69        391
    70        132
    71        999
    72         90
    79         43
    81        210
    82        157
    83        279
    84         74
    85        406
    86         38
    93         27
    95        249
    96        199
    97        200
    98         64
    99         48
   100         69
   109        119
   110        229
   111        107
   112         70
   113         75
   114         57
   123         49
   124         30
   125         47
   127        149
   128         29
   137         50
   142         10
   152         30
   153         10
   154         14
   155        805
   156        104
   169          8
   170        163
   171        528
   172         67
   183        111
   184         21
   194         11
   197         42
   198          7
   211         27
   212         17
   236         11
   237          5
   239         27
   240          9
   250         58
   251         13
   252         11
   253         20
   267         20
   268          6
   277          7
   292         32
   293          9
   294          8
   295        656
   296        134
   297         24
   310        100
   311        127
   312         22
   323         35
   324          8
   337         31
   338          5
   351          5
   352          4
   365          4
   379         18
   380          3
   393         13
   394          3
   407          2
   421          6
   422         45
   423          9