##TITLE=Library Entry 15507
##JCAMP-DX=Revision 4.10 
##DATA TYPE=MASS SPECTRUM
##SAMPLE DESCRIPTION=D.HENNEBERG, MAX-PLANCK INSTITUTE, MULHEIM, WEST GERMAN
Y
##NAMES=HP
##CAS NAME=1,3-Cyclohexanediol
##MOLFORM=C6H12O2
##CAS REGISTRY NO=504-01-8
##MP= -300
##BP= -300
##MW= 116
##$RETENTION INDEX=1092
##$CONDENSED SPECTRUM=NO
##NPOINTS= 82
##XYDATA=(XY..XY) 1 
    26         39
    27        288
    28         90
    29        232
    30         12
    31        160
    32          2
    33          0
    36          1
    37          2
    38          7
    39        246
    40         75
    41        500
    42        709
    43        436
    44        999
    45        393
    46         10
    47         88
    48          1
    49          0
    50         11
    51         34
    52         28
    53         99
    54        847
    55        443
    56        104
    57        479
    58         50
    59         22
    60         17
    61          1
    62          7
    63          3
    64          0
    65         20
    66         11
    67        102
    68         77
    69        218
    70        406
    71         95
    72         28
    73        344
    74         15
    75         22
    76          3
    77         52
    78         25
    79        168
    80        446
    81         59
    82         50
    83        268
    84         17
    85          4
    86          4
    87          2
    88         26
    89          2
    91          1
    93          0
    94          7
    95          6
    96         26
    97        149
    98        486
    99         44
   100          4
   101          2
   104          0
   105          1
   110          0
   111          1
   112          1
   113          0
   114          1
   115          1
   116          8
   117          2