##TITLE=Library Entry 40766
##JCAMP-DX=Revision 4.10 
##DATA TYPE=MASS SPECTRUM
##SAMPLE DESCRIPTION=Exported from NIST MS Search
##NAMES=HP
##CAS NAME=1,3,5-Cyclohexanetriol, (1.alpha.,3.alpha.,5.alpha.)-
##MOLFORM=C6H12O3
##CAS REGISTRY NO=50409-12-6
##MP= -300
##BP= -300
##MW= 132
##$RETENTION INDEX=0
##$CONDENSED SPECTRUM=NO
##NPOINTS= 49
##XYDATA=(XY..XY) 1 
    31         40
    39         52
    40         23
    41        114
    42        169
    43        252
    44        344
    45        632
    46         10
    47         40
    50          5
    51          5
    53          9
    54          9
    55         25
    56          7
    57         25
    58         23
    59          9
    60          6
    65          7
    66         10
    67         64
    68         90
    69         18
    70        236
    71         80
    72          7
    73        999
    74         35
    75          9
    79          8
    81         10
    84         15
    85          7
    86         29
    87         26
    88          8
    91         90
    92          5
    95          7
    96        137
    97         13
    99         17
   113          9
   114        133
   115         14
   132         15
   133          9