##TITLE=Library Entry 12972
##JCAMP-DX=Revision 4.10 
##DATA TYPE=MASS SPECTRUM
##SAMPLE DESCRIPTION=Institute of Organic Chemistry, Novosibirsk, USSR 1988
##NAMES=HP
##CAS NAME=p-Chlorophenyl-2,3,4,6-tetra-O-acetyl-.beta.-D-glucopyranoside
##MOLFORM=C20H23ClO10
##CAS REGISTRY NO=5041-92-9
##MP= -300
##BP= -300
##MW= 458
##$RETENTION INDEX=0
##$CONDENSED SPECTRUM=NO
##NPOINTS= 89
##XYDATA=(XY..XY) 1 
    41         12
    42          0
    43        999
    44         56
    45         12
    50          4
    51          2
    53          6
    54          2
    55         16
    56          4
    57         10
    60         10
    61         20
    63          6
    64          6
    65         16
    68          4
    69         35
    70         10
    71         16
    73         31
    74          2
    75         12
    81         29
    82         10
    83         10
    84          4
    85         56
    86         10
    87          2
    93          2
    94          2
    95          0
    97         99
    98         27
    99         45
   100          8
   101         10
   102         14
   103         75
   109        879
   110         69
   111         22
   113         22
   115         60
   116         10
   125          8
   126         18
   127        349
   128        159
   129         18
   130         41
   131          6
   139         70
   140          6
   141         18
   143          6
   144          6
   145         72
   146          6
   151          4
   155          5
   157          7
   165          6
   167          6
   168          6
   169        999
   170         95
   171         14
   181          0
   183          6
   185          4
   186          0
   187         27
   188          0
   195          2
   199          2
   211         33
   213          6
   225          0
   229         24
   233          4
   271         25
   272          0
   288          0
   289          0
   331        104
   332         16