##TITLE=Library Entry 61341
##JCAMP-DX=Revision 4.10 
##DATA TYPE=MASS SPECTRUM
##SAMPLE DESCRIPTION=LAC, NIDDK, NIH, Bethesda, MD 20892
##NAMES=HP
##CAS NAME=Carbamic acid, N-allyl-, benzyl ester
##MOLFORM=C11H13NO2
##CAS REGISTRY NO=5041-33-8
##MP= -300
##BP= -300
##MW= 191
##$RETENTION INDEX=0
##$CONDENSED SPECTRUM=NO
##NPOINTS= 45
##XYDATA=(XY..XY) 1 
    41         31
    42         23
    43         24
    44         45
    45         56
    49         14
    50         14
    51         35
    52         13
    55         80
    56        173
    57         49
    62          8
    63         30
    65        137
    73         46
    74         31
    75          3
    77         73
    78         16
    79         56
    84         66
    85         44
    86         25
    89         56
    91        999
    92         76
   100         59
   101        140
   102         85
   104         17
   105         34
   106         11
   107        186
   108        488
   109         36
   117         12
   118         16
   120         19
   150         19
   164         12
   165          5
   190          7
   191        142
   192         23