##TITLE=Library Entry 53227
##JCAMP-DX=Revision 4.10 
##DATA TYPE=MASS SPECTRUM
##SAMPLE DESCRIPTION=Japan AIST/NIMC Database- Spectrum MS-NW-7725
##NAMES=HP
##CAS NAME=(1S,3S,4R)-(+)-Menthyl (R)-p-toluenesulfinate
##MOLFORM=C17H26O2S
##CAS REGISTRY NO=50444-99-0
##MP= -300
##BP= -300
##MW= 294
##$RETENTION INDEX=0
##$CONDENSED SPECTRUM=NO
##NPOINTS= 133
##XYDATA=(XY..XY) 1 
    15          2
    26          1
    27         55
    28          7
    29         62
    30          1
    31          4
    32          1
    37          1
    38          6
    39         85
    40          9
    41        200
    42         15
    43        149
    44          5
    45         43
    46          1
    47          2
    48          8
    50         11
    51         27
    52          9
    53         32
    54         16
    55        287
    56         30
    57        295
    58         13
    59          2
    60          1
    61          3
    62          9
    63         29
    64         17
    65        110
    66          9
    67         76
    68         23
    69        331
    70         23
    71         57
    72          4
    73          1
    74          2
    75          2
    76          2
    77         60
    78         20
    79         58
    80         18
    81        185
    82         53
    83        999
    84         68
    85          7
    86          2
    87          2
    89         28
    90         18
    91        328
    92        102
    93         17
    94         12
    95        144
    96         38
    97        158
    98         11
    99          2
   105         10
   106          1
   107         29
   108         18
   109         14
   110          5
   111         10
   112          5
   113          1
   115          2
   117          1
   119          2
   121         14
   122          9
   123         96
   124         45
   125          7
   126          2
   128          1
   129          1
   132          1
   133          7
   134          1
   135          1
   136          2
   137          8
   138         84
   139        437
   140         61
   141         18
   142          3
   152          1
   153          2
   154          1
   155         55
   156         10
   157         67
   158          6
   159          3
   161          2
   165          3
   166          1
   167          1
   172         40
   173          4
   174          2
   181          2
   182          2
   184          4
   197          2
   198          3
   199          3
   213          3
   214          8
   215          1
   246         11
   247          2
   248          1
   253          4
   278         83
   279         14
   280          8
   281          1
   294          1