##TITLE=Library Entry 89586
##JCAMP-DX=Revision 4.10 
##DATA TYPE=MASS SPECTRUM
##SAMPLE DESCRIPTION=L. Cohen, LC, NIDDK, NIH, Bethesda, MD 20892
##NAMES=HP
##CAS NAME=Histamine, N-trifluoro-2-fluoro-
##MOLFORM=C7H7F4N3O
##CAS REGISTRY NO=50444-84-3
##MP= -300
##BP= -300
##MW= 225
##$RETENTION INDEX=0
##$CONDENSED SPECTRUM=NO
##NPOINTS= 92
##XYDATA=(XY..XY) 1 
    41         15
    42          8
    43         16
    44         23
    45          9
    46         29
    47          4
    48          1
    50         10
    51          9
    52         23
    53         13
    54         45
    55          9
    56         22
    57          7
    58         10
    59         10
    60          7
    61          1
    63          1
    64          2
    65          3
    66         15
    67          8
    68          3
    69        128
    70          6
    71          7
    72         26
    73         10
    74          1
    75          0
    77          3
    78         45
    79         10
    80          1
    81          7
    82          2
    83          2
    84          8
    85          5
    86         23
    87          7
    91          0
    92          2
    93         12
    94          2
    95          0
    96          3
    97         14
    98          8
    99        529
   100        178
   101         12
   106          6
   107          6
   108          4
   109          0
   110          1
   111         75
   112        999
   113        170
   114         10
   115          4
   116          1
   117          0
   118          0
   124          4
   125          0
   126         48
   127         14
   128          9
   129          3
   130          2
   136          3
   138          2
   139          2
   140          5
   141          1
   149          3
   154          3
   155          0
   156         16
   157          1
   167          0
   168          2
   186          7
   207          0
   225        119
   226         29
   227          2