##TITLE=Library Entry 73344
##JCAMP-DX=Revision 4.10 
##DATA TYPE=MASS SPECTRUM
##SAMPLE DESCRIPTION=L. Cohen, LC, NIDDK, NIH, Bethesda, MD 20892
##NAMES=HP
##CAS NAME=Histidine, 2-fluoro-, L-
##MOLFORM=C6H8FN3O2
##CAS REGISTRY NO=50444-78-5
##MP= -300
##BP= -300
##MW= 173
##$RETENTION INDEX=0
##$CONDENSED SPECTRUM=NO
##NPOINTS= 62
##XYDATA=(XY..XY) 1 
    41         48
    42         81
    43         62
    44        328
    45        150
    46        172
    47         11
    48          3
    50          9
    51         16
    52         46
    53         33
    54        102
    55         31
    56         21
    57         54
    58         12
    59         15
    60         20
    63          7
    64         14
    65          3
    66         21
    67         33
    68          8
    69         26
    70         10
    71         15
    72         31
    73         32
    74         75
    75         29
    77          9
    78          8
    79         18
    80          8
    81         88
    82         11
    83         11
    84         16
    85          9
    86         11
    87         10
    97          9
    98         10
    99        526
   100        999
   101         89
   102          2
   106          3
   107         11
   108         39
   109          2
   110          3
   111         23
   112         13
   124          2
   127         44
   128        115
   129         14
   173         30
   174          2