##TITLE=Library Entry 25338
##JCAMP-DX=Revision 4.10 
##DATA TYPE=MASS SPECTRUM
##SAMPLE DESCRIPTION=Japan AIST/NIMC Database- Spectrum MS-IW-4056
##NAMES=HP
##CAS NAME=Propanoic acid, 3-mercapto-, 2-ethylhexyl ester
##MOLFORM=C11H22O2S
##CAS REGISTRY NO=50448-95-8
##MP= -300
##BP= -300
##MW= 218
##$RETENTION INDEX=0
##$CONDENSED SPECTRUM=NO
##NPOINTS= 110
##XYDATA=(XY..XY) 1 
    15          1
    26          4
    27         85
    28         91
    29        142
    30          3
    31          7
    32          2
    33          1
    34          4
    35         31
    36          1
    37          1
    39         31
    40          6
    41        314
    42         77
    43        677
    44         24
    45         16
    46         10
    47         56
    48          1
    49          2
    51          1
    53         14
    54         14
    55        355
    56        216
    57        999
    58         62
    59         21
    60         59
    61        340
    62         13
    63         18
    65          2
    66          1
    67         16
    68         18
    69        164
    70        502
    71        951
    72         59
    73         11
    74          2
    75          1
    76          1
    77          4
    78          1
    79          2
    81          6
    82         49
    83        263
    84        138
    85         19
    86          4
    87         16
    88        272
    89        297
    90         24
    91         14
    92          2
    95          2
    96          1
    97         26
    98          8
    99          4
   100          1
   101          8
   102          2
   103          1
   104          3
   105          9
   106        224
   107         97
   108         13
   109          4
   110          1
   111         10
   112        442
   113        239
   114         18
   115          5
   117          1
   119          8
   120          3
   127          1
   129         11
   130          1
   131          1
   132          1
   133          5
   143          8
   144          3
   145         33
   146          3
   147          8
   157          6
   161         12
   162          1
   171          3
   175          8
   185          1
   189          9
   190          1
   200          9
   201          1
   218          9
   219          2