##TITLE=Library Entry 62885
##JCAMP-DX=Revision 4.10 
##DATA TYPE=MASS SPECTRUM
##SAMPLE DESCRIPTION=Exported from NIST MS Search
##NAMES=HP
##CAS NAME=Dispiro[9H-fluorene-9,3'-[1,4,2]oxathiazolidine-5',2''-tricyclo[3
.3.1.1(3,7)]decane], 2'-phenyl-
##MOLFORM=C29H27NOS
##CAS REGISTRY NO=50455-54-4
##MP= -300
##BP= -300
##MW= 437
##$RETENTION INDEX=0
##$CONDENSED SPECTRUM=NO
##NPOINTS= 21
##XYDATA=(XY..XY) 1 
    51        230
    64        160
    65        150
    71        160
    77        250
    79        270
    91        999
    92        150
    93        120
   124        200
   125        140
   133        180
   151        150
   152        130
   163        120
   166        649
   180        160
   254        220
   255        250
   270        220
   271        230