##TITLE=Library Entry 63190
##JCAMP-DX=Revision 4.10 
##DATA TYPE=MASS SPECTRUM
##SAMPLE DESCRIPTION=Exported from NIST MS Search
##NAMES=HP
##CAS NAME=5-Oxa-8-thia-6-azaspiro[3.4]octan-2-one, 1,1,3,3-tetramethyl-6,7-
diphenyl-
##MOLFORM=C21H23NO2S
##CAS REGISTRY NO=50455-60-2
##MP= -300
##BP= -300
##MW= 353
##$RETENTION INDEX=0
##$CONDENSED SPECTRUM=NO
##NPOINTS= 19
##XYDATA=(XY..XY) 1 
    41        260
    64        220
    70        200
    71        529
    77        739
    81        190
    85        200
    86        629
    91        999
    96        290
   105        200
   156        180
   180        509
   181        899
   182        170
   196        200
   197        250
   212         60
   353         20