##TITLE=Library Entry 2319
##JCAMP-DX=Revision 4.10 
##DATA TYPE=MASS SPECTRUM
##SAMPLE DESCRIPTION=Exported from NIST MS Search
##NAMES=HP
##CAS NAME=6-Oxa-1-azabicyclo[3.1.0]hexane, 2,2,4,4-tetramethyl-
##MOLFORM=C8H15NO
##CAS REGISTRY NO=50454-94-9
##MP= -300
##BP= -300
##MW= 141
##$RETENTION INDEX=0
##$CONDENSED SPECTRUM=NO
##NPOINTS= 15
##XYDATA=(XY..XY) 1 
    41        999
    42        999
    55        280
    56        310
    57        290
    58        300
    69        100
    83        230
    84        190
    85        120
    86        250
    98        220
   110         70
   126        699
   141        160