##TITLE=Library Entry 71906
##JCAMP-DX=Revision 4.10 
##DATA TYPE=MASS SPECTRUM
##SAMPLE DESCRIPTION=Exported from NIST MS Search
##NAMES=HP
##CAS NAME=2,5,10-Undecanetrione, 6,6-dimethyl-
##MOLFORM=C13H22O3
##CAS REGISTRY NO=50464-96-5
##MP= -300
##BP= -300
##MW= 226
##$RETENTION INDEX=0
##$CONDENSED SPECTRUM=NO
##NPOINTS= 14
##XYDATA=(XY..XY) 1 
    43        899
    55         70
    69        529
    71        250
    81         10
    99        999
   109        599
   123         40
   127        200
   142        120
   165         10
   193         10
   208         20
   226         10