##TITLE=Library Entry 33124
##JCAMP-DX=Revision 4.10 
##DATA TYPE=MASS SPECTRUM
##SAMPLE DESCRIPTION=Chemical Concepts
##NAMES=HP
##CAS NAME=1,2-Cyclopentanedicarboxylic acid
##MOLFORM=C7H10O4
##CAS REGISTRY NO=50483-99-3
##MP= -300
##BP= -300
##MW= 158
##$RETENTION INDEX=0
##$CONDENSED SPECTRUM=NO
##NPOINTS= 82
##XYDATA=(XY..XY) 1 
    25          2
    26         26
    27        147
    29         64
    30          8
    31         22
    33          2
    36         11
    37          9
    38         25
    39        263
    40         69
    41        350
    42         63
    43         51
    44          7
    45        119
    46         13
    47         14
    48         40
    50          9
    51         13
    52          5
    53         43
    54          6
    55        160
    56          9
    57         30
    58          9
    59          2
    60         12
    61          2
    62          4
    63         13
    64          3
    65         59
    66         82
    67        999
    68        349
    69         61
    70          8
    71         30
    72          3
    73        163
    74          7
    75          1
    77          3
    78         14
    79          3
    80         19
    81         10
    82          4
    83         12
    84         12
    85         13
    86        262
    87         14
    93          5
    94         18
    95         59
    96         12
    97        107
    98          7
    99        550
   100         28
   101          4
   105          2
   109          3
   111         10
   112        736
   113         77
   114         50
   115          4
   117        114
   118          7
   119          2
   122          8
   133          2
   140        374
   141         60
   142          6
   159          4