##TITLE=Library Entry 21013
##JCAMP-DX=Revision 4.10 
##DATA TYPE=MASS SPECTRUM
##SAMPLE DESCRIPTION=G. Wolber, Eastman Kodak Company, Rochester, NY
##NAMES=HP
##CAS NAME=7-Octene-1-nitrile
##MOLFORM=C8H13N
##CAS REGISTRY NO=5048-29-3
##MP= -300
##BP= -300
##MW= 123
##$RETENTION INDEX=0
##$CONDENSED SPECTRUM=NO
##NPOINTS= 54
##XYDATA=(XY..XY) 1 
    26         28
    27        183
    28         73
    29        125
    30         14
    37         11
    38         37
    39        418
    40         82
    41        674
    42        145
    43         64
    44          6
    50         27
    51         54
    52         45
    53        138
    54        246
    55        999
    56         80
    57          7
    62          6
    63         13
    64         11
    65         31
    66         25
    67        195
    68         66
    69         93
    70         14
    72          3
    73          3
    77         20
    78         11
    79         70
    80        348
    81        102
    82        328
    83         78
    84          4
    91         25
    92          3
    94        993
    95        253
    96         55
    97         29
   105         19
   106          9
   107          5
   108        130
   109          9
   120          9
   122        246
   123         24