##TITLE=Library Entry 59340
##JCAMP-DX=Revision 4.10 
##DATA TYPE=MASS SPECTRUM
##SAMPLE DESCRIPTION=Japan AIST/NIMC Database- Spectrum MS-IW-3805
##NAMES=HP
##CAS NAME=Benzenesulfonamide, 4-methyl-N-allyl-
##MOLFORM=C10H13NO2S
##CAS REGISTRY NO=50487-71-3
##MP= -300
##BP= -300
##MW= 211
##$RETENTION INDEX=0
##$CONDENSED SPECTRUM=NO
##NPOINTS= 109
##XYDATA=(XY..XY) 1 
    15          1
    16          2
    17         19
    18          8
    26          6
    27         25
    28          9
    29         14
    30         29
    32          1
    37          2
    38          9
    39         91
    40          9
    41         59
    42          4
    43          2
    44          6
    45          7
    46          1
    48          2
    50         15
    51         33
    52         11
    53          8
    54         14
    55          9
    56        576
    57         25
    58          1
    61          2
    62         13
    63         51
    64         16
    65        229
    66         12
    67          5
    69          3
    71          1
    72          1
    74          3
    75          4
    76          4
    77         26
    78          9
    79         13
    80          6
    81          1
    85          1
    86          2
    87          2
    88          1
    89         55
    90         28
    91        999
    92        203
    93         19
    94          1
    95          2
   103          1
   104          3
   105         50
   106         10
   107         25
   108         20
   109          2
   111          5
   115          4
   116          1
   117          5
   118         25
   119         33
   120         70
   121          8
   122          2
   123          2
   124          2
   128          1
   129          3
   130         20
   131          9
   132         53
   133          5
   135          2
   138          1
   139         69
   140         17
   141          4
   142          1
   144          3
   146         70
   147        186
   148         20
   149          2
   155        359
   156         36
   157         30
   158          2
   159          1
   182          1
   184         24
   185          2
   186          1
   209          2
   210          9
   211        183
   212         20
   213          9
   214          1