##TITLE=Library Entry 6998
##JCAMP-DX=Revision 4.10 
##DATA TYPE=MASS SPECTRUM
##SAMPLE DESCRIPTION=NIST Mass Spectrometry Data Center
##NAMES=HP
##CAS NAME=5-Hexene-1-ol, acetate
##MOLFORM=C8H14O2
##CAS REGISTRY NO=5048-26-0
##MP= -300
##BP= -300
##MW= 142
##$RETENTION INDEX=1001
##$CONDENSED SPECTRUM=NO
##NPOINTS= 70
##XYDATA=(XY..XY) 1 
    14          2
    15         19
    26          7
    27         55
    28         22
    29         43
    30          2
    31         11
    37          2
    38          8
    39        156
    40         24
    41        225
    42         55
    43        999
    44         30
    45          7
    50          7
    51         13
    52          7
    53         48
    54        635
    55        120
    56         12
    57         23
    58         24
    59          5
    60          1
    61         38
    62          2
    63          3
    64          1
    65         19
    66         12
    67        622
    68         41
    69         13
    70          4
    71         20
    72         11
    73         48
    74          2
    77          8
    78          2
    79         35
    80          9
    81        106
    82        367
    83         32
    84         21
    85          6
    86          2
    87          2
    93          1
    94         20
    95          7
    96          1
    97          9
    98          4
    99         13
   100         18
   101         16
   102          1
   109          2
   111          1
   112         19
   113          2
   114          7
   124          1
   127          1