##TITLE=Library Entry 80144
##JCAMP-DX=Revision 4.10 
##DATA TYPE=MASS SPECTRUM
##SAMPLE DESCRIPTION=V.GOLDBERG NATIONAL HOSPITAL, QUEEN SQUARE, LONDON, UK
##NAMES=HP
##CAS NAME=Benzoic acid, 2-[benzoyl(4-chlorophenyl)amino]-, methyl ester
##MOLFORM=C21H16ClNO3
##CAS REGISTRY NO=50495-79-9
##MP= -300
##BP= -300
##MW= 365
##$RETENTION INDEX=0
##$CONDENSED SPECTRUM=NO
##NPOINTS= 27
##XYDATA=(XY..XY) 1 
    50         20
    51         50
    59         20
    63         20
    75         50
    76         20
    77        330
    78         50
   105        999
   106        100
   111         20
   139         20
   140         20
   166         70
   167         20
   180         20
   194         20
   201         50
   214         50
   229         50
   238        100
   239         20
   306         50
   334         50
   365        160
   366         50
   367         70