##TITLE=Library Entry 68062
##JCAMP-DX=Revision 4.10 
##DATA TYPE=MASS SPECTRUM
##SAMPLE DESCRIPTION=Japan AIST/NIMC Database- Spectrum MS-NW-6172
##NAMES=HP
##CAS NAME=Aminopyrazine
##MOLFORM=C4H5N3
##CAS REGISTRY NO=5049-61-6
##MP= -300
##BP= -300
##MW= 95
##$RETENTION INDEX=0
##$CONDENSED SPECTRUM=NO
##NPOINTS= 54
##XYDATA=(XY..XY) 1 
    12          4
    13          6
    14         14
    15          3
    16          2
    24          3
    25          7
    26         80
    27         35
    28        115
    29          5
    30          1
    32          1
    33         17
    34          9
    36          1
    37          2
    38         35
    39         66
    40        220
    41        382
    42        222
    43         42
    44          4
    45          1
    46          1
    47          8
    48          1
    49          1
    50          5
    51         21
    52         34
    53         70
    54          5
    55          2
    63          2
    64          3
    65          6
    66         27
    67         84
    68        755
    69         53
    70          2
    75          1
    76          1
    77          2
    79          4
    91         27
    92         21
    93          4
    94         20
    95        999
    96         56
    97          2