##TITLE=Library Entry 79760
##JCAMP-DX=Revision 4.10 
##DATA TYPE=MASS SPECTRUM
##SAMPLE DESCRIPTION=V.GOLDBERG CHEM. PATH., NAT. HOSP., QUEEN SQ., LONDON,
 UK
##NAMES=HP
##CAS NAME=Benzoic acid, 2-[benzoyl(4-chlorophenyl)amino]-
##MOLFORM=C20H14ClNO3
##CAS REGISTRY NO=50495-85-7
##MP= -300
##BP= -300
##MW= 351
##$RETENTION INDEX=0
##$CONDENSED SPECTRUM=NO
##NPOINTS= 40
##XYDATA=(XY..XY) 1 
    50         50
    51        120
    52         20
    63         30
    64         20
    65         20
    74         20
    75         60
    76         40
    77        580
    78         50
    83         20
    92         20
    99         20
   105        999
   106        100
   111         30
   122         80
   139         30
   140         20
   164         20
   165         20
   166        100
   167         70
   194        120
   195         40
   201         20
   214         20
   229        520
   230         80
   231        180
   232         20
   247         40
   249         20
   306         50
   307         60
   308         30
   309         20
   351         30
   353         20