##TITLE=Library Entry 82388
##JCAMP-DX=Revision 4.10 
##DATA TYPE=MASS SPECTRUM
##SAMPLE DESCRIPTION=Japan AIST/NIMC Database- Spectrum MS-NW-2958
##NAMES=HP
##CAS NAME=1-Propanol, 3-(methylthio)-
##MOLFORM=C4H10OS
##CAS REGISTRY NO=505-10-2
##MP= -300
##BP= -300
##MW= 106
##$RETENTION INDEX=981
##$CONDENSED SPECTRUM=NO
##NPOINTS= 70
##XYDATA=(XY..XY) 1 
    13          1
    14          6
    15         36
    16          1
    17          4
    18         20
    19          6
    25          2
    26         25
    27        195
    28         56
    29        103
    30        132
    31        444
    32          6
    33          5
    34          9
    35        126
    36          3
    37          8
    38          8
    39         64
    40         41
    41        299
    42         22
    43         33
    44         17
    45        207
    46        145
    47        352
    48        329
    49        382
    50         18
    51         15
    53          4
    54          6
    55         13
    56          7
    57        577
    58        688
    59        236
    60         45
    61        751
    62        103
    63         42
    64          5
    65          1
    69          3
    70          1
    71          6
    72         12
    73        274
    74         17
    75        158
    76         17
    77         13
    78          4
    79          1
    85          1
    87         11
    88         86
    89          7
    90          5
    91         10
   104          5
   105          1
   106        999
   107         52
   108         47
   109          2