##TITLE=Library Entry 38446
##JCAMP-DX=Revision 4.10 
##DATA TYPE=MASS SPECTRUM
##SAMPLE DESCRIPTION=Japan AIST/NIMC Database- Spectrum MS-NW- 727
##NAMES=HP
##CAS NAME=Isophytol
##MOLFORM=C20H40O
##CAS REGISTRY NO=505-32-8
##MP= -300
##BP= -300
##MW= 296
##$RETENTION INDEX=1948
##$CONDENSED SPECTRUM=NO
##NPOINTS= 112
##XYDATA=(XY..XY) 1 
    15          3
    17          1
    18          3
    27         38
    28          6
    29         75
    30          5
    31          3
    39         25
    40          6
    41        170
    42         35
    43        244
    44          8
    45          8
    50          2
    51          9
    52          2
    53         20
    54          6
    55        155
    56         57
    57        186
    58         42
    59         23
    63          1
    65          6
    66          4
    67         40
    68         50
    69        106
    70         42
    71        999
    72         60
    73          8
    77         10
    78          1
    79         11
    80         24
    81        102
    82        132
    83         75
    84         12
    85         41
    86          7
    87          3
    91          3
    93          6
    94         10
    95         83
    96         53
    97         54
    98          8
    99         13
   100          4
   107          3
   108          3
   109         40
   110         24
   111         34
   112          9
   113         11
   114          2
   115          2
   121          2
   122          5
   123         81
   124         36
   125         20
   126         11
   127          8
   135          1
   137         19
   138         14
   139          8
   140          6
   141         16
   142          2
   151         12
   152         15
   153          6
   154          1
   155          1
   165          7
   166          5
   167         22
   168         40
   169         20
   170          2
   179          9
   180          2
   181          1
   182          1
   193          7
   194          4
   196          6
   197          2
   207          2
   208          2
   210          1
   222          3
   235          1
   236          5
   238          1
   249          1
   250          1
   263          2
   269          3
   278         21
   279          5
   281          5
   296          1