##TITLE=Library Entry 19474
##JCAMP-DX=Revision 4.10 
##DATA TYPE=MASS SPECTRUM
##SAMPLE DESCRIPTION=Chemical Concepts
##NAMES=HP
##CAS NAME=12-Hydroxydodecanoic acid
##MOLFORM=C12H24O3
##CAS REGISTRY NO=505-95-3
##MP= -300
##BP= -300
##MW= 216
##$RETENTION INDEX=0
##$CONDENSED SPECTRUM=NO
##NPOINTS= 131
##XYDATA=(XY..XY) 1 
    26          5
    27        147
    28         46
    29        290
    30         12
    31        200
    39        118
    40         27
    41        848
    42        175
    43        424
    44         27
    45        129
    46         21
    51          5
    52          3
    53         50
    54         95
    55        999
    56        196
    57        153
    58         16
    59         42
    60        296
    61         40
    65         10
    66         14
    67        154
    68        213
    69        633
    70        130
    71         92
    72          9
    73        378
    74         39
    75          4
    77          7
    78          6
    79         35
    80         39
    81        150
    82        184
    83        438
    84        530
    85         74
    86         13
    87        116
    88         14
    89          3
    91         12
    92          6
    93         26
    94         61
    95        115
    96        167
    97        229
    98        789
    99         73
   100         45
   101         78
   102         15
   105          7
   106          6
   107         19
   108         36
   109         70
   110        121
   111         97
   112        192
   113         34
   114         52
   115         50
   116         17
   117          3
   119         18
   120         11
   121         24
   122          9
   123         64
   124         51
   125         40
   126         61
   127         22
   128          7
   129        138
   130         22
   131          7
   133         24
   134         20
   135         16
   136         36
   137         58
   138         61
   139         24
   140         11
   141         10
   142          4
   143         67
   144          7
   147          5
   148          2
   149          3
   150          0
   151         40
   152         60
   153         19
   154          7
   155         20
   156          8
   157         19
   158          2
   161          3
   162         34
   163         10
   165          4
   166          5
   167          2
   168          2
   169         12
   170          8
   171          4
   179          2
   180         30
   181         12
   186        133
   187         18
   197          3
   198         14
   199         19
   200          3
   217          4