##TITLE=Library Entry 71217
##JCAMP-DX=Revision 4.10 
##DATA TYPE=MASS SPECTRUM
##SAMPLE DESCRIPTION=Chemical Concepts
##NAMES=HP
##CAS NAME=Hexadecanedioic acid
##MOLFORM=C16H30O4
##CAS REGISTRY NO=505-54-4
##MP= -300
##BP= -300
##MW= 286
##$RETENTION INDEX=0
##$CONDENSED SPECTRUM=NO
##NPOINTS= 220
##XYDATA=(XY..XY) 1 
    25          0
    26          1
    27         58
    29        149
    30          4
    31         13
    33          0
    34          0
    36          1
    37          0
    38          0
    39         36
    41        332
    42         53
    43        226
    44          6
    45         44
    46          1
    47          2
    48          0
    50          1
    51          3
    52          1
    53         17
    54         30
    55        393
    56         62
    57        180
    58          9
    59         28
    60        248
    61         45
    62          2
    63          0
    64          0
    65          3
    66          4
    67         63
    68         45
    69        229
    70         38
    71         88
    72          5
    73        336
    74         35
    75          2
    76          0
    77          5
    78          3
    79         19
    80         25
    81         67
    82         42
    83        137
    84        497
    85         60
    86          5
    87         58
    88         11
    89          1
    90          0
    91          7
    92          3
    93         21
    94         34
    95         50
    96         38
    97        109
    98        999
    99         99
   100         10
   101         34
   102          9
   103          1
   104          0
   105          5
   106          2
   107         17
   108         27
   109         30
   110         22
   111         61
   112        308
   113         36
   114          8
   115         36
   116         14
   117          2
   118          1
   119          5
   120          3
   121         31
   122         16
   123         17
   124         13
   125         30
   126         86
   127         15
   128          2
   129         95
   130         82
   131          8
   132          1
   133          7
   134          5
   135         23
   136          9
   137         12
   138         12
   139         16
   140         26
   141          5
   142          1
   143         50
   144         12
   145          2
   146          0
   147          5
   148          7
   149         13
   150          6
   151          8
   152         16
   153         14
   154         29
   155          4
   156          1
   157         28
   158          5
   159          1
   160          0
   161          1
   162          1
   163          5
   164          4
   165          5
   166         19
   167         13
   168         13
   169          3
   170          4
   171         26
   172          9
   173          1
   174          0
   175          1
   176          0
   177          2
   178          2
   179          4
   180          8
   181          8
   182          6
   183          2
   184          7
   185         38
   186          7
   187          1
   188          0
   189          2
   190          4
   191         12
   192          2
   193          2
   194          4
   195          2
   196          3
   197          6
   198          1
   199         47
   200          6
   201          0
   203          0
   204          1
   205          0
   206          2
   207          4
   208         12
   209         25
   210          3
   211          1
   212         16
   213         13
   214          2
   215          0
   221          2
   222         13
   223          2
   224          3
   225          4
   226          5
   227          4
   228          0
   231          0
   232          2
   233          0
   235          0
   239          0
   240          1
   241          0
   242        301
   243         47
   244          4
   245          0
   248          0
   249          5
   250         78
   251         13
   252          1
   253          0
   256          0
   266          0
   267          2
   268        131
   269         29
   270          3
   271          0
   286         10
   287          4
   288          0