##TITLE=Library Entry 70957
##JCAMP-DX=Revision 4.10 
##DATA TYPE=MASS SPECTRUM
##SAMPLE DESCRIPTION=NIST Mass Spectrometry Data Center, 1994
##NAMES=HP
##CAS NAME=Tridecanedioic acid
##MOLFORM=C13H24O4
##CAS REGISTRY NO=505-52-2
##MP= -300
##BP= -300
##MW= 244
##$RETENTION INDEX=0
##$CONDENSED SPECTRUM=NO
##NPOINTS= 106
##XYDATA=(XY..XY) 1 
    15         12
    16          2
    18          1
    27        252
    28        119
    29        278
    30         13
    31         52
    32          2
    39        228
    40         55
    41        652
    42        214
    43        327
    44          2
    45        404
    46         16
    47         12
    51         19
    53         65
    54         96
    55        841
    56        116
    57         91
    58         23
    59         74
    60        493
    61         42
    65         17
    67        125
    68         91
    69        437
    70         72
    71         65
    72         17
    73        355
    74         41
    75          5
    77          9
    79         67
    80         35
    81        113
    82         62
    83        269
    84        619
    85         62
    86         16
    87         63
    91         30
    92         23
    93         75
    94         70
    95        112
    96         91
    97        314
    98        999
    99         94
   100         21
   101         73
   105         17
   107         26
   108         20
   109         40
   110         67
   111         87
   112        301
   113         42
   114         25
   115         25
   116          3
   119         17
   120         40
   121        171
   122         22
   123         56
   124         70
   125         28
   126         33
   127         21
   128          3
   129         43
   130         21
   131         10
   133          5
   134         22
   135         20
   136         32
   137         39
   138         52
   139        259
   140         44
   143         18
   150          7
   152        233
   153         41
   154         14
   155         14
   157         25
   162         22
   170         16
   171         10
   172         18
   180         65
   181         16
   197         10
   199         35