##TITLE=Library Entry 21182
##JCAMP-DX=Revision 4.10 
##DATA TYPE=MASS SPECTRUM
##SAMPLE DESCRIPTION=Chemical Concepts
##NAMES=HP
##CAS NAME=Docosanedioic acid
##MOLFORM=C22H42O4
##CAS REGISTRY NO=505-56-6
##MP= -300
##BP= -300
##MW= 370
##$RETENTION INDEX=0
##$CONDENSED SPECTRUM=NO
##NPOINTS= 203
##XYDATA=(XY..XY) 1 
    26         16
    27        247
    28         95
    29        538
    30         20
    31         44
    36          9
    39        168
    40        391
    41        955
    42        244
    43        955
    44         38
    45        113
    46          4
    51         14
    52          4
    53         66
    54         84
    55        999
    56        237
    57        473
    58         34
    59         67
    60        571
    61         83
    65         17
    66         10
    67        168
    68        100
    69        604
    70        106
    71        212
    72         15
    73        479
    74         52
    77         16
    78         11
    79         52
    80         44
    81        162
    82        106
    83        380
    84        391
    85        128
    86         14
    87         93
    88         14
    91         27
    92          4
    93         44
    94         58
    95        118
    96        102
    97        247
    98        964
    99        155
   100         19
   101         49
   102         14
   103          4
   104          4
   105         18
   107         40
   108         61
   109         68
   110         48
   111        146
   112        359
   113         67
   114         16
   115         65
   116         34
   117          3
   119         17
   120         10
   121         64
   122         39
   123         49
   124         37
   125         75
   126        105
   127         35
   128          9
   129        113
   130         66
   131         12
   133         17
   134         17
   135         67
   136         25
   137         32
   138         25
   139         39
   140         62
   141         17
   142          8
   143         37
   144         24
   145          3
   147         13
   148         13
   149         31
   150         16
   151         19
   152         23
   153         29
   154         91
   155         19
   156          4
   157         25
   158         14
   161          4
   162          3
   163         25
   164         14
   165         12
   166         15
   167         18
   168         67
   169         12
   171         46
   172         16
   175          3
   177         12
   178         11
   179         11
   180         12
   181         18
   182         59
   183         18
   185         57
   186         14
   191          9
   192          9
   193          9
   194         10
   195         15
   196         71
   197         23
   199         22
   200         13
   206          5
   207          8
   208         10
   209         13
   210         70
   211         15
   213         17
   214         18
   221          9
   222         10
   223         11
   224         38
   225         12
   227         35
   228         14
   235          8
   236         18
   237         12
   238         33
   239          8
   241         26
   242          9
   249          8
   250         16
   251         11
   252         23
   253         10
   254         14
   255         11
   256          8
   263         10
   264          8
   265         10
   266          6
   267          5
   268         11
   269         17
   277          3
   278          4
   283         42
   284          9
   291         10
   292         24
   293         17
   296         30
   297         18
   298          3
   306         33
   307          6
   316         14
   324          8
   326        243
   327         62
   328          8
   333          4
   334        106
   335         31
   352        156
   353         44
   354          6
   370          8