##TITLE=Library Entry 69681
##JCAMP-DX=Revision 4.10 
##DATA TYPE=MASS SPECTRUM
##SAMPLE DESCRIPTION=Humboldt-Universitat zu Berlin, Department of Chemistry
, Analytical Group
##NAMES=HP
##CAS NAME=2,4-Hexadienedioic acid
##MOLFORM=C6H6O4
##CAS REGISTRY NO=505-70-4
##MP= -300
##BP= -300
##MW= 142
##$RETENTION INDEX=0
##$CONDENSED SPECTRUM=NO
##NPOINTS= 93
##XYDATA=(XY..XY) 1 
    12          6
    13          7
    14         15
    15         36
    16          5
    17         15
    18         32
    19          5
    20          0
    24          2
    25         19
    26        213
    27        341
    28         61
    29        114
    30          5
    31          9
    32          0
    33          0
    34          2
    36          6
    37         38
    38         50
    39        218
    40         78
    41        427
    42         66
    43         75
    44         27
    45        299
    46          9
    47          2
    48          8
    49         57
    50        240
    51        347
    52        135
    53        113
    54         38
    55        128
    56          6
    57         10
    58          2
    59          0
    60          7
    61          4
    62          3
    63          2
    64          1
    65          2
    66          5
    67          8
    68        137
    69        269
    70         21
    71         11
    72          1
    73          2
    74          0
    76          1
    77         12
    79        160
    80         14
    81          7
    82          3
    83         24
    84          3
    85          5
    86          3
    87          6
    88          1
    91          1
    92          0
    93          0
    95         17
    96        117
    97        999
    98         58
    99          6
   105          0
   107          5
   108          1
   111          1
   113          2
   114          0
   121          0
   123          2
   124         45
   125         26
   126          2
   142        196
   143         18
   144          2