##TITLE=Library Entry 39642
##JCAMP-DX=Revision 4.10 
##DATA TYPE=MASS SPECTRUM
##SAMPLE DESCRIPTION=NIST Mass Spectrometry Data Center
##NAMES=HP
##CAS NAME=Methylsulfinylpropylisothiocyanate
##MOLFORM=C5H9NOS2
##CAS REGISTRY NO=505-44-2
##MP= -300
##BP= -300
##MW= 163
##$RETENTION INDEX=1618
##$CONDENSED SPECTRUM=NO
##NPOINTS= 69
##XYDATA=(XY..XY) 1 
    26          4
    27         20
    28         12
    31          4
    32          7
    33          4
    34          4
    35          8
    37          4
    38         10
    39        127
    40         27
    41        461
    42         33
    45        107
    46         31
    47         54
    48         30
    49         10
    50          4
    51          3
    52          4
    56         84
    58         24
    59         37
    60         37
    61        182
    62         13
    63        214
    64        153
    65         16
    66          8
    72        999
    73         53
    74         59
    75         14
    76         11
    77          7
    78         86
    80          6
    86        116
    87         24
    88         14
    89          9
    90          2
    91          7
    98         41
    99         50
   100        279
   101         61
   102         62
   103          7
   104         13
   105          4
   106          4
   114          4
   115          3
   116        347
   117         20
   118         16
   130         84
   131          7
   132          4
   146          3
   147          3
   148          8
   163         26
   164          2
   165          2