##TITLE=Library Entry 21421
##JCAMP-DX=Revision 4.10 
##DATA TYPE=MASS SPECTRUM
##SAMPLE DESCRIPTION=Exported from NIST MS Search
##NAMES=HP
##CAS NAME=1,2-Dithiane
##MOLFORM=C4H8S2
##CAS REGISTRY NO=505-20-4
##MP= -300
##BP= -300
##MW= 120
##$RETENTION INDEX=1087
##$CONDENSED SPECTRUM=NO
##NPOINTS= 20
##XYDATA=(XY..XY) 1 
    39         90
    41         90
    44         50
    45        100
    46         70
    47         50
    53         50
    54         40
    55        999
    56         80
    59         50
    60        100
    64        100
    73         50
    78         50
    79         50
    84         40
    86         80
    87         80
   120        749