##TITLE=Library Entry 82768
##JCAMP-DX=Revision 4.10 
##DATA TYPE=MASS SPECTRUM
##SAMPLE DESCRIPTION=Chemical Concepts
##NAMES=HP
##CAS NAME=Propanimidamide, N,N'-bis(phenylmethyl)-
##MOLFORM=C17H20N2
##CAS REGISTRY NO=50502-07-3
##MP= -300
##BP= -300
##MW= 252
##$RETENTION INDEX=0
##$CONDENSED SPECTRUM=NO
##NPOINTS= 111
##XYDATA=(XY..XY) 1 
    28         78
    39          5
    54          8
    55          0
    56        132
    63          2
    64          2
    65         95
    66          6
    67          0
    68          1
    69          6
    70         33
    71          2
    77          1
    79         42
    80          5
    83          0
    85          0
    87          1
    89         21
    90         29
    91        773
    92         78
    93          3
    95          0
    97          0
    99          0
   102          1
   103          6
   104         21
   105          3
   106        999
   107          1
   110          0
   111          0
   112          1
   114          0
   115          2
   116          3
   117         20
   118         25
   119          2
   125          0
   127          0
   128          1
   129          2
   130         16
   131          7
   132         30
   133          0
   139          0
   141          0
   142          1
   143          1
   144         18
   145         18
   146         24
   147         16
   151          0
   152          2
   153          0
   154          0
   158          0
   159          9
   160          7
   161        193
   162         15
   165          1
   166          1
   167         22
   168          6
   169          1
   173          4
   174          1
   175          4
   178          1
   179          2
   180          4
   181          1
   182         27
   183          5
   184          0
   185          0
   187          0
   192          0
   193          0
   194          2
   195          0
   196          4
   197          1
   202          0
   206          1
   207          0
   208          0
   218          0
   220          1
   221          2
   222          2
   223          4
   224          1
   235          0
   236          0
   237          0
   238          1
   249          1
   251         33
   252        518
   253        119
   254         12
   255          1