##TITLE=Library Entry 71176
##JCAMP-DX=Revision 4.10 
##DATA TYPE=MASS SPECTRUM
##SAMPLE DESCRIPTION=Chemical Concepts
##NAMES=HP
##CAS NAME=Tetradecanedioic acid, monomethyl ester
##MOLFORM=C15H28O4
##CAS REGISTRY NO=50515-99-6
##MP= -300
##BP= -300
##MW= 272
##$RETENTION INDEX=0
##$CONDENSED SPECTRUM=NO
##NPOINTS= 165
##XYDATA=(XY..XY) 1 
    26          3
    27         60
    28         12
    29        123
    30          3
    31         17
    39         52
    40         12
    41        363
    42         62
    43        203
    44         10
    45         53
    53         26
    54         33
    55        540
    56         60
    57         97
    58         13
    59        113
    60         93
    61         10
    65          6
    66          5
    67         91
    68         61
    69        333
    70         43
    71         46
    72          5
    73         73
    74        821
    75        117
    76          7
    77          6
    78          3
    79         27
    80         32
    81        115
    82         51
    83        215
    84        552
    85         62
    86          5
    87        296
    88         42
    89          5
    91          8
    92          3
    93         33
    94         39
    95         89
    96         63
    97        188
    98        999
    99         78
   100         13
   101         50
   102          5
   105          6
   106          4
   107         32
   108         36
   109         38
   110         38
   112        304
   113         30
   114         14
   115         35
   116          8
   119         12
   120         10
   121         54
   122         15
   123         34
   124         26
   125         53
   126         63
   127         12
   128          9
   129         26
   130         19
   131          3
   132          3
   133          8
   134         10
   135         23
   136         14
   137         26
   138         27
   139         49
   140         58
   141         10
   142          3
   143         23
   144         26
   145          4
   147          6
   148          4
   149         22
   150         13
   151         18
   152         22
   153         15
   154         26
   155          6
   156          4
   157         14
   158         12
   161          5
   162         12
   163         72
   164         10
   165         12
   166         14
   167          6
   168          5
   169          3
   170          4
   171         12
   172          3
   175          4
   176          7
   177         13
   178          7
   179         11
   180         22
   181        102
   182         13
   183          4
   184          3
   185          8
   186          3
   187          4
   193          3
   194         47
   195         18
   196          5
   197          5
   198          4
   199          7
   200          4
   203          2
   204          8
   205          3
   210          2
   211          5
   212          2
   213         58
   214          9
   221          5
   222         79
   223         17
   224          2
   226          3
   227          2
   228          7
   236          4
   241        113
   242         18
   243          2
   254          7
   255         22
   256          4
   273          2