##TITLE=Library Entry 82797
##JCAMP-DX=Revision 4.10 
##DATA TYPE=MASS SPECTRUM
##SAMPLE DESCRIPTION=R.E.ARDREY HOME OFFICE, RES. EST., ALDERMASTON, BERKS.,
 U.K.
##NAMES=HP
##CAS NAME=Phosphetane, 2,2,3,4,4-pentamethyl-1-(1-methylethoxy)-, 1-oxide
##MOLFORM=C11H23O2P
##CAS REGISTRY NO=50517-25-4
##MP= -300
##BP= -300
##MW= 218
##$RETENTION INDEX=0
##$CONDENSED SPECTRUM=NO
##NPOINTS= 53
##XYDATA=(XY..XY) 1 
    29         50
    39         80
    41        280
    42        150
    43        250
    47         60
    53         50
    55        340
    57        210
    59        560
    65        200
    69        270
    70        170
    71        150
    80         60
    81         50
    82         40
    83        100
    84         50
    89         50
    90         80
    92        130
    97        890
   106        999
   107         90
   108        300
   109         30
   110         40
   111         80
   112        250
   120        180
   121         30
   133        180
   134         50
   141         40
   143         30
   145         20
   147         80
   148        320
   149         50
   150         30
   159         50
   160         30
   161        760
   162         90
   163         20
   175         80
   176        450
   177        120
   189         20
   203        190
   217         30
   218        160