##TITLE=Library Entry 98617
##JCAMP-DX=Revision 4.10 
##DATA TYPE=MASS SPECTRUM
##SAMPLE DESCRIPTION=NIST Mass Spectrometry Data Center, 2009
##NAMES=HP
##CAS NAME=Propanedioic acid, 1,3-dithiolan-2-ylidene-, bis(1-methylethyl) e
ster
##MOLFORM=C12H18O4S2
##CAS REGISTRY NO=50512-35-1
##MP= -300
##BP= -300
##MW= 290
##$RETENTION INDEX=2171
##$CONDENSED SPECTRUM=NO
##NPOINTS= 143
##XYDATA=(XY..XY) 1 
    15          6
    19          1
    26          6
    27         94
    28         15
    29          9
    31          4
    35          4
    37          2
    38          3
    39         53
    40          9
    41        237
    42         26
    43        446
    44         26
    45         97
    46          7
    47          6
    53          4
    55          5
    56          5
    57         16
    58         28
    59         81
    60        119
    61        102
    62          7
    63          5
    64          7
    65          3
    66          1
    69          9
    70          4
    71         13
    72          4
    73          5
    74         13
    75          2
    76         20
    77         12
    78          3
    79          2
    81          1
    84         33
    85        105
    86         28
    87         11
    88         65
    89        102
    90         16
    91         11
    92          9
    93         21
    94          1
    95          2
    98          3
    99          5
   100          4
   101          3
   102         23
   103         14
   104          4
   105         54
   106          5
   107          5
   108          1
   111          1
   112          1
   113          3
   115          6
   116        143
   117         30
   118        999
   119         57
   120         90
   121         12
   122          3
   123          1
   126          1
   129         45
   130          5
   131          5
   132          6
   133         34
   134        125
   135          9
   136         10
   138          1
   143          9
   144         76
   145        196
   146         46
   147         37
   148          5
   149          3
   158          2
   159         18
   160        135
   161         36
   162        682
   163         51
   164         65
   165          5
   166          2
   170          1
   171          5
   172          5
   173         30
   174          4
   175          3
   176         34
   178        154
   179         12
   180         16
   181          1
   182          1
   185          1
   186          2
   187         14
   189        504
   190         44
   191         42
   192          4
   193          1
   202          3
   203          4
   204        228
   205         26
   206         43
   207          4
   208          3
   220          5
   231        188
   232         23
   233         19
   234          2
   247          1
   248          3
   290        209
   291         31
   292         22
   293          3