##TITLE=Library Entry 60771
##JCAMP-DX=Revision 4.10 
##DATA TYPE=MASS SPECTRUM
##SAMPLE DESCRIPTION=Japan AIST/NIMC Database- Spectrum MS-NW-9431
##NAMES=HP
##CAS NAME=4-Piperidinamine, 1-(phenylmethyl)-
##MOLFORM=C12H18N2
##CAS REGISTRY NO=50541-93-0
##MP= -300
##BP= -300
##MW= 190
##$RETENTION INDEX=0
##$CONDENSED SPECTRUM=NO
##NPOINTS= 107
##XYDATA=(XY..XY) 1 
    15         16
    26          3
    27         25
    28        120
    29         27
    30         61
    31          1
    32          8
    37          1
    38          3
    39         51
    40          6
    41         49
    42        190
    43         62
    44        291
    45          9
    50          9
    51         28
    52         13
    53         10
    54         23
    55         69
    56        259
    57         32
    58         91
    59          4
    62          3
    63         19
    64          6
    65        137
    66          9
    67          7
    68         10
    69          9
    70        279
    71         46
    72          4
    74          1
    75          2
    76          3
    77         18
    78          9
    79         20
    80          9
    81          7
    82        141
    83         12
    84          4
    85          1
    86         15
    87          1
    89         23
    90         16
    91        999
    92        107
    93          6
    94          2
    95          3
    96         70
    97          7
    98          2
    99        329
   100         20
   103          3
   104         24
   105         13
   106         39
   107         15
   108          1
   113          5
   115          3
   116          2
   117         17
   118         58
   119         43
   120         34
   121          3
   128          1
   129          2
   130          5
   131          8
   132         39
   133         59
   134         12
   135          1
   143          1
   144         13
   145          9
   146         58
   147         20
   148          2
   158         33
   159          4
   160          1
   161          3
   170          2
   171          3
   172        127
   173        280
   174         41
   175          4
   187          2
   189          5
   190         56
   191         10
   192          1