##TITLE=Library Entry 42280
##JCAMP-DX=Revision 4.10 
##DATA TYPE=MASS SPECTRUM
##SAMPLE DESCRIPTION=Philip J. Marriott, Australian Centre for Research on S
eparation Science, Melbourne, Australia
##NAMES=HP
##CAS NAME=Testosterone, TMS derivative
##MOLFORM=C22H36O2Si
##CAS REGISTRY NO=5055-42-5
##MP= -300
##BP= -300
##MW= 360
##$RETENTION INDEX=2659
##$CONDENSED SPECTRUM=NO
##NPOINTS= 247
##XYDATA=(XY..XY) 1 
    45        222
    46         16
    47         65
    48          3
    49          2
    50          1
    51         16
    52         13
    53        105
    54         16
    55        267
    56         16
    57         27
    58         18
    59        132
    60         19
    61         71
    62          4
    63          4
    64          2
    65         55
    66         22
    67        149
    68         24
    69         30
    70          4
    71          9
    72         19
    73        999
    74         85
    75        348
    76         25
    77        163
    78         35
    79        227
    80         32
    81        112
    82         12
    83         19
    84          1
    85         20
    86          3
    87          8
    88          2
    89         16
    90          4
    91        268
    92         43
    93        150
    94         35
    95         86
    96         14
    97         25
    98          2
    99         16
   100          3
   101        123
   102         14
   103         36
   104         17
   105        156
   106         34
   107         92
   108         25
   109         33
   110         10
   111         24
   112          2
   113         10
   114          1
   115         88
   116         82
   117         55
   118         18
   119         63
   120         22
   121         49
   122         35
   123         31
   124         66
   125         11
   126          1
   127          5
   128         13
   129        451
   130         95
   131         94
   132         23
   133         67
   134         45
   135         32
   136         37
   137         18
   138         14
   139          2
   140          1
   141         13
   142         10
   143         23
   144         25
   145         51
   146         59
   147        149
   148         69
   149         45
   150          9
   151          6
   152          4
   153          5
   154          3
   155         20
   156         12
   157         29
   158         15
   159         38
   160         23
   161         25
   162         37
   163         12
   164          3
   165          7
   166          3
   167          8
   168          6
   169         23
   170          9
   171         27
   172         12
   173         22
   174         53
   175         20
   176          7
   177          4
   178          2
   179          6
   180          3
   181         19
   182         12
   183         19
   184         12
   185         40
   186         17
   187         23
   188         10
   189          8
   190          3
   191          1
   193          5
   194         10
   195         20
   196         36
   197         18
   198         11
   199         21
   200         18
   201         13
   202          5
   203          3
   204          1
   205          1
   206          1
   207          3
   208          2
   209         10
   210          7
   211         15
   212          8
   213         17
   214         10
   215          5
   216          2
   217          1
   219          1
   220          1
   221          3
   222          2
   223          4
   224          4
   225          4
   226         43
   227         26
   228         33
   229         30
   230          6
   231          4
   232          1
   233          2
   234          1
   235          3
   236          6
   237         30
   238         11
   239          5
   240          1
   241          5
   242         16
   243          8
   244          5
   245          2
   246          1
   247          2
   248          1
   249          2
   250          1
   251          2
   252         10
   253         12
   254          3
   255         13
   256          6
   257          1
   258          1
   259          1
   261          1
   262          1
   264          1
   269          4
   270         88
   271         24
   272          4
   273          1
   275          1
   276          8
   277          3
   278          1
   287          1
   289          8
   290          4
   291          1
   301          1
   303          2
   304         13
   305          4
   306          1
   317         10
   318          9
   319          3
   320          1
   343          4
   344          2
   346          9
   347          2
   359          1
   360         74
   361         29
   362          9
   363          1