##TITLE=Library Entry 83534
##JCAMP-DX=Revision 4.10 
##DATA TYPE=MASS SPECTRUM
##SAMPLE DESCRIPTION=Dr. Jiri Zamecnik, DCIEM, North York, Canada, GP Librar
y
##NAMES=HP
##CAS NAME=p-Hydroxyphenyl-2-propanone-oxime
##MOLFORM=C9H11NO2
##CAS REGISTRY NO=50563-19-4
##MP= -300
##BP= -300
##MW= 165
##$RETENTION INDEX=0
##$CONDENSED SPECTRUM=NO
##NPOINTS= 22
##XYDATA=(XY..XY) 1 
    41         71
    50         93
    51        154
    52        103
    63         46
    77        419
    78        167
    79         54
    94         40
   105        138
   106        243
   107        999
   108        113
   121         38
   130         25
   132        365
   133        200
   146        124
   147        201
   148        147
   165        395
   166         35