##TITLE=Library Entry 21987
##JCAMP-DX=Revision 4.10 
##DATA TYPE=MASS SPECTRUM
##SAMPLE DESCRIPTION=T. REICHENBACH
##NAMES=HP
##CAS NAME=1-Hexene, 1-chloro-, (E)-
##MOLFORM=C6H11Cl
##CAS REGISTRY NO=50586-19-1
##MP= -300
##BP= -300
##MW= 118
##$RETENTION INDEX=0
##$CONDENSED SPECTRUM=NO
##NPOINTS= 82
##XYDATA=(XY..XY) 1 
    13          5
    14         12
    15         72
    16          3
    17         14
    18         48
    25          6
    26         94
    27        720
    28        119
    29        159
    30          3
    31          3
    32          2
    35          5
    36          7
    37         31
    38         69
    39        499
    40         69
    41        917
    42        274
    43        834
    44         30
    45          3
    47          8
    48          3
    49        107
    50         48
    51        128
    52         31
    53        240
    54         58
    55        196
    56        999
    57         50
    58          2
    59          2
    60         14
    61         36
    62         38
    63         33
    64         11
    65         28
    66          6
    67         88
    68          7
    69         80
    70          6
    71          2
    72          4
    73          3
    74          8
    75        291
    76         72
    77        107
    78         27
    79          9
    80          2
    81          2
    82         46
    83         24
    84          2
    85          2
    86          2
    87          5
    88         15
    89         50
    90         21
    91         17
    92          6
    93          3
    97          2
   103          2
   104          1
   105          2
   113          2
   117          2
   118        251
   119         17
   120         80
   121          5