##TITLE=Library Entry 27240
##JCAMP-DX=Revision 4.10 
##DATA TYPE=MASS SPECTRUM
##SAMPLE DESCRIPTION=Exported from NIST MS Search
##NAMES=HP
##CAS NAME=Carbamic acid, [1-(3-methyl-1H-inden-1-ylidene)ethyl]-, 1,1-dimet
hylethyl ester
##MOLFORM=C17H21NO2
##CAS REGISTRY NO=50585-35-8
##MP= -300
##BP= -300
##MW= 271
##$RETENTION INDEX=0
##$CONDENSED SPECTRUM=NO
##NPOINTS= 25
##XYDATA=(XY..XY) 1 
    51         50
    55         50
    56         90
    57        999
    59        320
    77         50
   115         60
   127        130
   128        390
   129        140
   130        130
   153         70
   154         80
   155         60
   156         60
   170        170
   171        619
   172         80
   182         60
   197        649
   198        130
   215        480
   216         60
   271        180
   272         40