##TITLE=Library Entry 86050
##JCAMP-DX=Revision 4.10 
##DATA TYPE=MASS SPECTRUM
##SAMPLE DESCRIPTION=L. Cohen, LC, NIDDK, NIH, Bethesda, MD 20892
##NAMES=HP
##CAS NAME=Histamine, N-trifluoroacetyl-2-amino-
##MOLFORM=C7H9F3N4O
##CAS REGISTRY NO=50580-60-4
##MP= -300
##BP= -300
##MW= 222
##$RETENTION INDEX=0
##$CONDENSED SPECTRUM=NO
##NPOINTS= 93
##XYDATA=(XY..XY) 1 
    41          9
    42        653
    43        749
    44        294
    45        424
    46         44
    47        104
    48         26
    49        109
    50        125
    51        208
    52         81
    53         86
    54        357
    55        272
    56        382
    57         75
    58         29
    59         41
    60         55
    61         20
    63         23
    64         30
    65         31
    66         38
    67         92
    68        107
    69        862
    70         44
    71         30
    72         17
    73         29
    74          7
    75          5
    76          9
    77         11
    78         93
    79         24
    80         15
    81         60
    82         73
    83         65
    84         26
    85         35
    86         38
    87         15
    89          7
    90          6
    91          7
    92          8
    93         10
    94         12
    95         33
    96        958
    97        268
    98         37
    99          8
   105          8
   106          5
   107          6
   108         35
   109        999
   110        209
   111         15
   112         11
   113          5
   114          4
   115         10
   117          5
   120         28
   121          5
   122         11
   123         11
   124         10
   125         16
   126         40
   129          5
   134          5
   135          8
   136          5
   137         23
   138          7
   139         13
   145          4
   146          8
   149          5
   150          5
   153         45
   154          6
   168          6
   220          5
   222         95
   223         17