##TITLE=Library Entry 73350
##JCAMP-DX=Revision 4.10 
##DATA TYPE=MASS SPECTRUM
##SAMPLE DESCRIPTION=L. Cohen, LC, NIDDK, NIH, Bethesda, MD 20892
##NAMES=HP
##CAS NAME=2-Fluorohistamine
##MOLFORM=C5H8FN3
##CAS REGISTRY NO=50581-18-5
##MP= -300
##BP= -300
##MW= 129
##$RETENTION INDEX=0
##$CONDENSED SPECTRUM=NO
##NPOINTS= 71
##XYDATA=(XY..XY) 1 
    41         27
    42         80
    43         81
    44         64
    45        101
    46        133
    47         10
    48          6
    49         17
    50        125
    51         87
    52         67
    53        167
    54         79
    55         70
    56         26
    57         36
    58         14
    59         27
    60         33
    61        115
    62        315
    63        130
    64         54
    65         19
    66         57
    67         41
    68         27
    69         66
    70         24
    71         22
    72         33
    73         41
    74         18
    75         27
    76         38
    77         91
    78         97
    79         55
    80        108
    81         42
    82         23
    83         22
    84         18
    85         15
    86         11
    87         11
    98         22
    99        368
   100        999
   101         61
   102          7
   103          3
   107         19
   108         20
   109          8
   110          8
   111         20
   112         26
   113         12
   114         10
   115          5
   116          8
   118          3
   125          8
   126          3
   127         14
   128         11
   129        181
   130         32
   131          3