##TITLE=Library Entry 66352
##JCAMP-DX=Revision 4.10 
##DATA TYPE=MASS SPECTRUM
##SAMPLE DESCRIPTION=D.HENNEBERG, MAX-PLANCK INSTITUTE, MULHEIM, WEST GERMAN
Y
##NAMES=HP
##CAS NAME=Pyridine, 2-butyl-
##MOLFORM=C9H13N
##CAS REGISTRY NO=5058-19-5
##MP= -300
##BP= -300
##MW= 135
##$RETENTION INDEX=0
##$CONDENSED SPECTRUM=NO
##NPOINTS= 73
##XYDATA=(XY..XY) 1 
    26         10
    27         40
    29         15
    30          1
    31          2
    32          1
    38          0
    39         44
    40          9
    41         33
    42          5
    43          5
    44          1
    45          0
    47          0
    50          5
    51         34
    52         29
    53         22
    54          7
    55          4
    56          1
    57          3
    59          1
    62          0
    63          2
    64          4
    65         65
    66         50
    67         13
    68          2
    69          0
    71          0
    73          1
    74          0
    75          3
    76          1
    77         14
    78         76
    79         46
    80         13
    81          1
    83          0
    87          0
    88          0
    89          1
    90          2
    91         10
    92         64
    93        999
    94         72
    95          2
   103          0
   104          9
   105          4
   106        251
   107         48
   108          3
   115          0
   116          0
   117         13
   118         21
   119          7
   120        124
   121         10
   122          0
   130          2
   131          1
   132          5
   133          0
   134         26
   135         12
   136          1