##TITLE=Library Entry 49229
##JCAMP-DX=Revision 4.10 
##DATA TYPE=MASS SPECTRUM
##SAMPLE DESCRIPTION=Div. of Experiment Therapeutics WRAIR, WRAMC, Washingto
n DC 20307
##NAMES=HP
##CAS NAME=2-[1-Adamantylmethyl]aminothiazole
##MOLFORM=C14H20N2S
##CAS REGISTRY NO=50591-76-9
##MP= -300
##BP= -300
##MW= 248
##$RETENTION INDEX=0
##$CONDENSED SPECTRUM=NO
##NPOINTS= 141
##XYDATA=(XY..XY) 1 
    41        671
    42        108
    43         88
    44         10
    45        231
    46         26
    47         28
    49         13
    51        130
    52          6
    53        320
    55        564
    56         44
    57        133
    58        218
    59        355
    60         46
    61         98
    62         34
    63         22
    64          3
    65        165
    67        502
    68         47
    69        164
    70         33
    71         40
    72         45
    73         33
    74         13
    75          9
    77        483
    79        999
    80         13
    81        435
    82         31
    84         81
    85         77
    86        230
    87         12
    88         20
    89         13
    91        495
    92          9
    93        737
    94         60
    95         56
    96          9
    97          6
    98         12
   100        649
   101         80
   102         30
   103         25
   105        144
   107        330
   108         21
   109          4
   111         13
   113        796
   114          5
   115         93
   116          7
   117         13
   118          5
   119         13
   120          5
   121         14
   122          5
   124          3
   125          8
   126          4
   127          3
   128          2
   129          1
   130          2
   131          3
   132          2
   133         13
   135        474
   136         25
   137          4
   139          7
   140          2
   141          1
   142          0
   143          0
   145          0
   146          0
   147          3
   149         39
   150          6
   151          4
   152          1
   153          4
   154          1
   155          0
   157          0
   159          1
   160          1
   161          2
   162          2
   163          8
   164          3
   165          1
   166          0
   167          0
   168          0
   174          4
   175          2
   176          7
   177          2
   178          1
   179          1
   180          0
   188          2
   189          1
   190          0
   191         14
   192          3
   193          2
   205          3
   207          2
   208          3
   215         37
   216          1
   217          0
   219         58
   220         11
   221          4
   223          2
   224          4
   225          0
   232         11
   233         35
   234          6
   235          0
   247          1
   248         65
   249         11
   250          4