##TITLE=Library Entry 74914
##JCAMP-DX=Revision 4.10 
##DATA TYPE=MASS SPECTRUM
##SAMPLE DESCRIPTION=Chemical Concepts
##NAMES=HP
##CAS NAME=Malonic acid, cyclohexyl ester methyl ester
##MOLFORM=C10H16O4
##CAS REGISTRY NO=50598-42-0
##MP= -300
##BP= -300
##MW= 200
##$RETENTION INDEX=0
##$CONDENSED SPECTRUM=NO
##NPOINTS= 79
##XYDATA=(XY..XY) 1 
    26          3
    27         67
    28         13
    29        105
    30          3
    31         11
    33          9
    38          1
    39         81
    40         12
    41        218
    42         70
    43         65
    44         19
    45         11
    50          2
    51          7
    52          4
    53         31
    54        208
    55        329
    56         23
    57        206
    58         14
    59        320
    60         10
    61          1
    65          5
    66          8
    67        566
    68         32
    69         54
    70          7
    71         21
    72          7
    73          2
    74         46
    75          2
    77          8
    78          2
    79         21
    80          8
    81        132
    82        547
    83        275
    84         17
    85          2
    87         43
    88          1
    91          1
    97          3
    98         15
    99        350
   100         50
   101        999
   102         49
   103          8
   105          8
   108          0
   109         26
   110          2
   115          3
   116         19
   117          1
   118          3
   119        595
   120         29
   121          5
   125          2
   127          3
   129          6
   133          8
   151         38
   152          3
   157          3
   169         15
   170          1
   172          1
   201          0