##TITLE=Library Entry 68629
##JCAMP-DX=Revision 4.10 
##DATA TYPE=MASS SPECTRUM
##SAMPLE DESCRIPTION=D.HENNEBERG, MAX-PLANCK INSTITUTE, MULHEIM, WEST GERMAN
Y
##NAMES=HP
##CAS NAME=Propanedioic acid, (2-methyl-2-propenyl)-, dimethyl ester
##MOLFORM=C9H14O4
##CAS REGISTRY NO=50598-40-8
##MP= -300
##BP= -300
##MW= 186
##$RETENTION INDEX=0
##$CONDENSED SPECTRUM=NO
##NPOINTS= 125
##XYDATA=(XY..XY) 1 
    26         50
    27        319
    28        106
    29        181
    30         19
    31         66
    32         26
    33         10
    36          1
    37          7
    38         23
    39        342
    40         91
    41        373
    42         45
    43        137
    44         50
    45         56
    46          2
    47          9
    48          2
    49          3
    50         21
    51         44
    52         24
    53        145
    54         40
    55        398
    56         34
    57         27
    58          9
    59        346
    60          9
    61          4
    62          4
    63         11
    64          3
    65         60
    66        148
    67        631
    68         87
    69        100
    70          8
    71         51
    72         39
    73         13
    74          6
    75          3
    76          1
    77          9
    78          4
    79         17
    80          3
    81         61
    82         12
    83         41
    84         14
    85         65
    86          9
    87         29
    88          3
    89          1
    91          5
    92          2
    93         25
    94        400
    95        999
    96        147
    97         47
    98         24
    99         31
   100         11
   101         31
   102          1
   105          2
   106          1
   107          5
   108         10
   109         20
   110          6
   111        298
   112         22
   113         18
   114          3
   115          1
   119          3
   120          2
   121         13
   122        443
   123        545
   124         50
   125        225
   126        448
   127        791
   128         66
   129          6
   131          0
   132          1
   133          1
   134          1
   135          1
   137          3
   138          0
   139          9
   140          1
   141          2
   142         19
   143          2
   145          3
   148          1
   149          4
   151          1
   152          2
   153         10
   154        151
   155         83
   156          7
   157          1
   165          1
   166          1
   168          1
   171          1
   185          0
   186         45
   187          5