##TITLE=Library Entry 21018
##JCAMP-DX=Revision 4.10 
##DATA TYPE=MASS SPECTRUM
##SAMPLE DESCRIPTION=NIST Mass Spectrometry Data Center, 1990.
##NAMES=HP
##CAS NAME=1,5-Heptadiene, 3-methyl-, (E)-
##MOLFORM=C8H14
##CAS REGISTRY NO=50592-72-8
##MP= -300
##BP= -300
##MW= 110
##$RETENTION INDEX=0
##$CONDENSED SPECTRUM=NO
##NPOINTS= 35
##XYDATA=(XY..XY) 1 
    15          5
    26         14
    27        101
    28         42
    29        100
    39        198
    40         25
    41         97
    42          9
    43          5
    44          6
    50         26
    51         44
    52         22
    53        116
    54        115
    55        999
    56         90
    63         11
    65         25
    66         11
    67        113
    68         75
    69         15
    77         34
    78          8
    79         36
    80          8
    81        137
    82         38
    91         14
    93          8
    95        269
    96         20
   110          7