##TITLE=Library Entry 47680
##JCAMP-DX=Revision 4.10 
##DATA TYPE=MASS SPECTRUM
##SAMPLE DESCRIPTION=ASES Database, Dalian Institute, P.R. China
##NAMES=HP
##CAS NAME=2,4-Dihydroxy-benzophenone oxime
##MOLFORM=C13H11NO3
##CAS REGISTRY NO=50593-96-9
##MP= -300
##BP= -300
##MW= 229
##$RETENTION INDEX=0
##$CONDENSED SPECTRUM=NO
##NPOINTS= 48
##XYDATA=(XY..XY) 1 
    39        328
    50        241
    51        456
    52        348
    53        159
    63        191
    69        256
    74         90
    75         97
    76        168
    77        999
    78        324
    79        114
    80        204
    81        162
   102         48
   103         81
   104        354
   105        125
   106         91
   108        622
   109         80
   110        141
   115        189
   127        103
   128        124
   129         80
   137        125
   139         92
   140         54
   141        107
   154        458
   155        113
   156         27
   169        123
   182         97
   183        624
   184        118
   197        206
   198         27
   210         43
   211        829
   212        587
   213        244
   214         54
   228         54
   229        595
   230        107