##TITLE=Library Entry 48689
##JCAMP-DX=Revision 4.10 
##DATA TYPE=MASS SPECTRUM
##SAMPLE DESCRIPTION=NIST Mass Spectrometry Data Center
##NAMES=HP
##CAS NAME=9,12,15-Octadecatrien-1-ol, (Z,Z,Z)-
##MOLFORM=C18H32O
##CAS REGISTRY NO=506-44-5
##MP= -300
##BP= -300
##MW= 264
##$RETENTION INDEX=2058
##$CONDENSED SPECTRUM=NO
##NPOINTS= 66
##XYDATA=(XY..XY) 1 
    27         28
    29         65
    39        102
    41        432
    42         45
    43        140
    45         72
    51         24
    52         17
    53        104
    54         92
    55        401
    56         41
    57         73
    59         19
    60         82
    65         90
    66        111
    67        713
    68        139
    69        169
    71         54
    73        107
    77        254
    78        120
    79        999
    80        422
    81        345
    82        131
    83         84
    85         37
    91        270
    92         51
    93        471
    94        155
    95        357
    96         72
    99         22
   101         21
   105         71
   106         34
   107        183
   108        331
   109         98
   117         50
   119         52
   121        149
   122         91
   123         36
   126         21
   127         21
   133         33
   135        156
   136         62
   148         17
   149         63
   150         23
   159         20
   195         27
   208         86
   209         16
   210         16
   221         15
   235         25
   264         43
   265          7