##TITLE=Library Entry 41120
##JCAMP-DX=Revision 4.10 
##DATA TYPE=MASS SPECTRUM
##SAMPLE DESCRIPTION=Japan AIST/NIMC Database- Spectrum MS-NW-2626
##NAMES=HP
##CAS NAME=Heptadecanoic acid
##MOLFORM=C17H34O2
##CAS REGISTRY NO=506-12-7
##MP= -300
##BP= -300
##MW= 270
##$RETENTION INDEX=2071
##$CONDENSED SPECTRUM=NO
##NPOINTS= 193
##XYDATA=(XY..XY) 1 
    12          1
    14         22
    15          3
    16         11
    17         10
    18         40
    26          5
    27         98
    28         39
    29        239
    30          7
    31          9
    32          8
    38          2
    39         61
    40         14
    41        449
    42         99
    43        763
    44         43
    45         38
    46          1
    47          1
    50          1
    51          3
    52          2
    53         22
    54         37
    55        430
    56        138
    57        784
    58         36
    59         28
    60        858
    61        293
    62          9
    63          2
    65          4
    66          5
    67         52
    68         55
    69        316
    70        108
    71        463
    72         26
    73        999
    74         90
    75          7
    76          1
    77          4
    78          3
    79         13
    80          8
    81         48
    82         65
    83        238
    84        115
    85        306
    86         21
    87        201
    88         18
    89          3
    91          3
    92          2
    93         11
    94          8
    95         35
    96         55
    97        204
    98        167
    99        112
   100         10
   101         84
   102         40
   103          3
   104          1
   105          1
   106          1
   107         10
   108          6
   109         18
   110         29
   111        105
   112         54
   113         74
   114          8
   115        173
   116         88
   117          7
   118          1
   119          1
   120          1
   121         14
   122          5
   123          9
   124         18
   125         57
   126         28
   127         57
   128          6
   129        507
   130         52
   131          5
   133          1
   135         10
   136          4
   137          6
   138         13
   139         29
   140         19
   141         43
   142          6
   143         60
   144          9
   145          1
   147          1
   149          8
   150          2
   151          3
   152         12
   153         17
   154         13
   155         30
   156          4
   157         39
   158         19
   159          2
   163          4
   164          1
   165          2
   166         10
   167         11
   168          9
   169         14
   170          2
   171        192
   172         32
   173          3
   177          3
   178          1
   179          2
   180          7
   181          8
   182         14
   183          3
   185        177
   186         23
   187          2
   191          2
   192          1
   193          1
   194          1
   195          3
   196          4
   197          2
   199         28
   200          6
   205          1
   206          1
   207          1
   208         35
   209          9
   210         40
   211         32
   212          5
   213         38
   214          9
   215          1
   223          2
   224          2
   227        209
   228         33
   229          3
   233          1
   234          9
   235          2
   237          1
   241         42
   242          9
   243          1
   250          1
   251          2
   252          5
   253          6
   254          1
   255          2
   256          1
   268          1
   269          2
   270        675
   271        127
   272         14
   273          1