##TITLE=Library Entry 51192
##JCAMP-DX=Revision 4.10 
##DATA TYPE=MASS SPECTRUM
##SAMPLE DESCRIPTION=Japan AIST/NIMC Database- Spectrum MS-IW-4093
##NAMES=HP
##CAS NAME=9-Octadecen-1-ol, (E)-
##MOLFORM=C18H36O
##CAS REGISTRY NO=506-42-3
##MP= -300
##BP= -300
##MW= 268
##$RETENTION INDEX=2068
##$CONDENSED SPECTRUM=NO
##NPOINTS= 119
##XYDATA=(XY..XY) 1 
    15          1
    17          1
    18          3
    26          3
    27         67
    28         19
    29        188
    30          5
    31        112
    32          1
    38          1
    39         66
    40         13
    41        564
    42        102
    43        462
    44         24
    45         13
    51          3
    52          3
    53         52
    54        361
    55        887
    56        225
    57        321
    58         16
    59          3
    65         13
    66         76
    67        629
    68        525
    69        580
    70        168
    71        130
    72         11
    73          6
    77         10
    78          4
    79         50
    80         58
    81        599
    82        999
    83        494
    84         87
    85         74
    86         10
    87          2
    91          6
    92          1
    93         17
    94         30
    95        500
    96        781
    97        300
    98         53
    99         19
   100          4
   101          1
   105          1
   107          7
   108         12
   109        259
   110        296
   111        106
   112         24
   113          7
   114          2
   121          6
   122         12
   123        151
   124        184
   125         45
   126         13
   127          4
   135          3
   136          8
   137         90
   138        104
   139         19
   140          8
   141          3
   149          1
   150          1
   151         32
   152         53
   153          9
   154          6
   155          1
   165         15
   166         32
   167          6
   168          8
   169          2
   179          9
   180         23
   181          5
   182          4
   183          1
   193         13
   194         28
   195          4
   196          1
   207          8
   208         14
   209          3
   221          5
   222         28
   223          6
   224          2
   235          1
   248          1
   249          1
   250        140
   251         28
   252          3
   266          1
   267          1
   268          5
   269          2