##TITLE=Library Entry 3182
##JCAMP-DX=Revision 4.10 
##DATA TYPE=MASS SPECTRUM
##SAMPLE DESCRIPTION=NIST Mass Spectrometry Data Center, 1994
##NAMES=HP
##CAS NAME=9-Octadecynoic acid
##MOLFORM=C18H32O2
##CAS REGISTRY NO=506-24-1
##MP= -300
##BP= -300
##MW= 280
##$RETENTION INDEX=2184
##$CONDENSED SPECTRUM=NO
##NPOINTS= 119
##XYDATA=(XY..XY) 1 
    17          7
    18         16
    26          3
    27        274
    28         87
    29        451
    30          6
    39        259
    40         59
    41        999
    42        130
    43        496
    44         16
    45        114
    50         10
    51         40
    52         74
    53        202
    54        438
    55        761
    56         88
    57        148
    58         13
    59         10
    60        128
    61          9
    63         10
    65        101
    66         72
    67        786
    68        484
    69        262
    70         43
    71         45
    72          4
    73         57
    75          6
    77        135
    78         40
    79        330
    80        133
    81        729
    82        408
    83        141
    84         31
    85         31
    86          4
    87         16
    91        106
    92         21
    93        159
    94        101
    95        418
    96        204
    97         74
    98         15
    99         11
   100          3
   101         10
   103          5
   104          5
   105         26
   106         11
   107         86
   108         52
   109        168
   110         96
   111         29
   112          8
   113          9
   115          9
   117          7
   118          4
   119         16
   120         16
   121         70
   122         90
   123         77
   124         70
   125         13
   126         26
   127         18
   128          4
   129          5
   131         15
   133          7
   134          7
   135         53
   136         85
   137         33
   138         19
   139         10
   140         25
   141          5
   145          9
   146          4
   147          6
   148          4
   149         33
   150         18
   151          7
   152         57
   153         21
   154         10
   163          9
   164         16
   165          4
   166         11
   167         13
   168          4
   178          8
   181          5
   182         45
   183          6
   187          5
   196         61
   197          9
   209          2
   225          4