##TITLE=Library Entry 25763
##JCAMP-DX=Revision 4.10 
##DATA TYPE=MASS SPECTRUM
##SAMPLE DESCRIPTION=NIST Mass Spectrometry Data Center
##NAMES=HP
##CAS NAME=n-Tetracosanol-1
##MOLFORM=C24H50O
##CAS REGISTRY NO=506-51-4
##MP= -300
##BP= -300
##MW= 354
##$RETENTION INDEX=0
##$CONDENSED SPECTRUM=NO
##NPOINTS= 135
##XYDATA=(XY..XY) 1 
    19          1
    27         29
    28          6
    29        109
    30          3
    31         58
    39         38
    41        479
    42        133
    43        802
    44         35
    45         10
    50          1
    51          2
    52          1
    53         30
    54         97
    55        946
    56        394
    57        999
    58         47
    59          3
    65          6
    66         15
    67        169
    68        307
    69        774
    70        352
    71        481
    72         26
    73         14
    74          1
    77          4
    78          1
    79         16
    80         10
    81        129
    82        454
    83        953
    84        264
    85        326
    86         21
    87          3
    91          3
    92          1
    93          4
    94          5
    95         82
    96        219
    97        941
    98        184
    99         87
   100          7
   104          1
   105          1
   106          1
   107          1
   108          3
   109         37
   110         92
   111        519
   112        127
   113         52
   114          4
   121          1
   122          4
   123         24
   124         63
   125        264
   126         81
   127         33
   128          3
   129          1
   136          2
   137         15
   138         39
   139         99
   140         50
   141         19
   142          2
   151          4
   152         24
   153         55
   154         35
   155         13
   156          1
   165          2
   166         17
   167         34
   168         24
   169          9
   170          1
   179          1
   180         12
   181         19
   182         17
   183          6
   184          1
   193          1
   194          9
   195         13
   196         12
   197          4
   208          8
   209          9
   210          9
   211          3
   222          7
   223          6
   224          7
   225          2
   236          6
   237          4
   238          6
   239          1
   250          5
   251          3
   252          5
   253          1
   264          4
   265          3
   266          4
   267          2
   278          3
   279          2
   280          4
   292          2
   293          1
   294          2
   306          1
   307          1
   308         15
   309          4
   336         13
   337          3