##TITLE=Library Entry 20090
##JCAMP-DX=Revision 4.10 
##DATA TYPE=MASS SPECTRUM
##SAMPLE DESCRIPTION=NIST Mass Spectrometry Data Center
##NAMES=HP
##CAS NAME=cis-Vaccenic acid
##MOLFORM=C18H34O2
##CAS REGISTRY NO=506-17-2
##MP= -300
##BP= -300
##MW= 282
##$RETENTION INDEX=2139
##$CONDENSED SPECTRUM=NO
##NPOINTS= 211
##XYDATA=(XY..XY) 1 
    15          1
    26          3
    27         63
    28         16
    29        138
    30          4
    31          7
    37          1
    38          1
    39         99
    40         21
    41        583
    42        118
    43        386
    44         15
    45         70
    46          2
    47          1
    50          2
    51          8
    52          7
    53         85
    54        210
    55        999
    56        276
    57        223
    58         14
    59         30
    60        150
    61         13
    62          1
    63          1
    64          1
    65         28
    66         22
    67        290
    68        167
    69        638
    70        237
    71        107
    72          7
    73        130
    74         12
    75          3
    76          1
    77         32
    78         11
    79         92
    80         45
    81        222
    82        182
    83        487
    84        273
    85         75
    86          9
    87         45
    88          6
    89          2
    91         34
    92          5
    93         46
    94         42
    95        177
    96        234
    97        426
    98        227
    99         44
   100         38
   101         59
   102          8
   103          2
   104          2
   105         17
   106          7
   107         32
   108         29
   109         97
   110        138
   111        194
   112         83
   113         33
   114         71
   115         38
   116          9
   117          5
   118          3
   119         25
   120         12
   121         34
   122         21
   123         90
   124         79
   125         92
   126         40
   127         53
   128         20
   129         30
   130          6
   131          4
   132          2
   133         26
   134         24
   135         26
   136         14
   137         59
   138         56
   139         44
   140         20
   141         14
   142          4
   143         10
   144          3
   145          2
   146          1
   147         21
   148         19
   149         20
   150         13
   151         44
   152         37
   153         23
   154         10
   155          9
   156          3
   157          7
   158          2
   159          1
   160          1
   161         16
   162          8
   163         12
   164          9
   165         31
   166         25
   167         14
   168          6
   169         10
   170          2
   171          4
   172          2
   173          1
   175         12
   176          4
   177          6
   178          5
   179         20
   180         30
   181         11
   182          4
   183          5
   184          2
   185          4
   186          5
   187          1
   189          6
   190          2
   191          3
   192          2
   193         15
   194         12
   195          6
   196          2
   197          2
   198          1
   199          4
   200          2
   201          1
   203          3
   204          1
   205          1
   206          1
   207         14
   208          9
   209          4
   210          2
   211          1
   212          1
   213          1
   214          1
   217          2
   218          1
   220         24
   221         21
   222         28
   223          6
   224          1
   225          1
   226          1
   227          1
   231          1
   235         15
   236          8
   237          1
   239          3
   240          1
   241          1
   246          6
   247          1
   249          2
   250          1
   253          1
   263          1
   264         88
   265         21
   266          3
   278          3
   279          1
   280          1
   282         16
   283          4
   284          1