##TITLE=Library Entry 48974
##JCAMP-DX=Revision 4.10 
##DATA TYPE=MASS SPECTRUM
##SAMPLE DESCRIPTION=NIST Mass Spectrometry Data Center
##NAMES=HP
##CAS NAME=Arachidonic acid
##MOLFORM=C20H32O2
##CAS REGISTRY NO=506-32-1
##MP= -300
##BP= -300
##MW= 304
##$RETENTION INDEX=2324
##$CONDENSED SPECTRUM=NO
##NPOINTS= 224
##XYDATA=(XY..XY) 1 
    15          1
    26          2
    27         53
    28          9
    29        109
    30          3
    31          3
    36          1
    37          1
    38          3
    39        109
    40         18
    41        477
    42         48
    43        158
    44          6
    45         41
    46          1
    47          1
    50          5
    51         27
    52         21
    53        127
    54        112
    55        415
    56         43
    57         92
    58         13
    59         11
    60        101
    61          6
    62          2
    63          9
    64          4
    65        134
    66        136
    67        660
    68         92
    69        156
    70         27
    71         63
    72          5
    73         46
    74         10
    75          5
    77        355
    78        208
    79        999
    80        626
    81        355
    82         90
    83         76
    84         27
    85         45
    86          4
    87         14
    88         16
    89          7
    91        742
    92        228
    93        547
    94        189
    95        200
    96         86
    97         51
    98         16
    99         11
   100          4
   101         11
   102          8
   103         37
   104         85
   105        399
   106        271
   107        194
   108         52
   109         67
   110         32
   111         19
   112          7
   113         10
   114          6
   115         43
   116         18
   117        114
   118         33
   119        269
   120        114
   121        125
   122         33
   123         32
   124         20
   125          9
   126         10
   127         15
   128         17
   129         39
   130         26
   131         79
   132         24
   133        148
   134         38
   135         66
   136         24
   137         19
   138          9
   139          5
   140         11
   141         11
   142          6
   143         12
   144          8
   145         31
   146         24
   147         78
   148         20
   149         28
   150        149
   151         31
   152         17
   153          8
   154          4
   155          6
   156          2
   157         16
   158          3
   159         18
   160         11
   161         38
   162         12
   163         16
   164         52
   165         17
   166         85
   167         14
   168          4
   169          8
   170          2
   171          6
   172          1
   173         12
   174          5
   175         30
   176         14
   177         37
   178         11
   179         10
   180         22
   181          5
   182          2
   183         15
   184          2
   185          3
   186          1
   187          9
   188          3
   189         12
   190         14
   191          9
   192          6
   193         25
   194          7
   195          2
   196          2
   197          4
   198          1
   199          1
   201          7
   202          2
   203         18
   204          5
   205          8
   206         34
   207          8
   208          2
   209          1
   210          1
   211          1
   213          1
   215          3
   216          1
   217         16
   218          4
   219         11
   220          6
   221          2
   222          2
   223          2
   224          6
   225          1
   229          1
   230          1
   231          3
   232          1
   233         12
   234          4
   235          2
   236          5
   237          2
   238          1
   239          1
   241          1
   244          1
   245          1
   247          6
   248          2
   249          1
   250          8
   251          2
   257          1
   261          2
   262          1
   263          2
   264          4
   265          1
   275          1
   276          2
   278          2
   280          3
   281          1
   282          1
   284          1
   304          3
   305          1