##TITLE=Library Entry 80744
##JCAMP-DX=Revision 4.10 
##DATA TYPE=MASS SPECTRUM
##SAMPLE DESCRIPTION=A.A.Kutin, Moscow, Russia
##NAMES=HP
##CAS NAME=Cyanogen bromide
##MOLFORM=CBrN
##CAS REGISTRY NO=506-68-3
##MP= -300
##BP= -300
##MW= 105
##$RETENTION INDEX=482
##$CONDENSED SPECTRUM=NO
##NPOINTS= 7
##XYDATA=(XY..XY) 1 
    26         20
    53         70
    54         60
    79         71
    81         69
   105        999
   107        949