##TITLE=Library Entry 32814
##JCAMP-DX=Revision 4.10 
##DATA TYPE=MASS SPECTRUM
##SAMPLE DESCRIPTION=NIST Mass Spectrometry Data Center, 2012
##NAMES=HP
##CAS NAME=Linoelaidic acid
##MOLFORM=C18H32O2
##CAS REGISTRY NO=506-21-8
##MP= -300
##BP= -300
##MW= 280
##$RETENTION INDEX=0
##$CONDENSED SPECTRUM=NO
##NPOINTS= 87
##XYDATA=(XY..XY) 1 
    27         87
    29        169
    39        131
    40         17
    41        630
    42         70
    43        207
    44         20
    45        119
    51         32
    52         14
    53        150
    54        445
    55        720
    56         48
    57         64
    59         22
    60         74
    65         78
    66         75
    67        999
    68        368
    69        267
    70         48
    71         83
    73         58
    77        139
    78         37
    79        366
    80        150
    81        799
    82        475
    83        144
    84         24
    85         26
    91        100
    93        118
    94        105
    95        579
    96        356
    97        103
    98         28
   101         13
   106         26
   107         71
   108         81
   109        249
   110        178
   111         50
   112          9
   120         12
   121         73
   122         59
   123        113
   124         83
   125         18
   126         20
   127         19
   133         21
   135         55
   136         66
   137         60
   138         36
   140         19
   141         11
   144          2
   145          8
   147         18
   149         40
   150         49
   151         36
   152         12
   154         13
   160          5
   163         21
   164         16
   165         14
   167         14
   168         12
   169          6
   179         12
   195          8
   196          6
   224          2
   263          2
   280         85
   281         22