##TITLE=Library Entry 32842
##JCAMP-DX=Revision 4.10 
##DATA TYPE=MASS SPECTRUM
##SAMPLE DESCRIPTION=Japan AIST/NIMC Database- Spectrum MS-IW-4198
##NAMES=HP
##CAS NAME=9,12-Octadecadien-1-ol, (Z,Z)-
##MOLFORM=C18H34O
##CAS REGISTRY NO=506-43-4
##MP= -300
##BP= -300
##MW= 266
##$RETENTION INDEX=2052
##$CONDENSED SPECTRUM=NO
##NPOINTS= 155
##XYDATA=(XY..XY) 1 
    14          1
    15          9
    18          2
    26          3
    27         34
    28         43
    29         87
    30          2
    31         35
    32         13
    38          1
    39         45
    40          8
    41        298
    42         36
    43        212
    44         12
    45          8
    50          1
    51          4
    52          4
    53         49
    54        392
    55        501
    56         63
    57        113
    58         53
    59         24
    60          2
    63          1
    65         32
    66         84
    67        999
    68        545
    69        318
    70         61
    71         86
    72         11
    73          4
    77         55
    78         37
    79        334
    80        300
    81        953
    82        771
    83        227
    84         61
    85         60
    86         12
    87          3
    91         58
    92         17
    93        230
    94        168
    95        677
    96        592
    97        178
    98        140
    99         25
   100          7
   101          9
   103          2
   104          2
   105         15
   106          6
   107        133
   108         96
   109        292
   110        294
   111         90
   112         44
   113          9
   114          3
   115          2
   117          4
   118          1
   119          8
   120          6
   121        213
   122         77
   123        120
   124        143
   125         34
   126         15
   127          4
   128          2
   129          1
   131          3
   133          5
   134          3
   135        131
   136         63
   137         61
   138         74
   139         17
   140         10
   141          4
   142          1
   145          1
   147          3
   148          2
   149         54
   150         31
   151         27
   152         44
   153         11
   154          9
   155          2
   161          1
   162          1
   163         23
   164         12
   165         14
   166         29
   167          8
   168          7
   169          1
   177         11
   178          6
   179          8
   180         10
   181          5
   182          7
   183          1
   191          9
   192          4
   193          5
   194          5
   195          6
   196          6
   197          1
   205          5
   206          3
   207          3
   208          1
   209          5
   210          5
   211          1
   219          4
   220          2
   221          1
   222          6
   223          6
   224          4
   235          1
   237          3
   246          1
   248         21
   249          5
   250          1
   264          6
   265          2
   266         57
   267         10
   268          1