##TITLE=Library Entry 48671
##JCAMP-DX=Revision 4.10 
##DATA TYPE=MASS SPECTRUM
##SAMPLE DESCRIPTION=NIST Mass Spectrometry Data Center
##NAMES=HP
##CAS NAME=Gamolenic acid
##MOLFORM=C18H30O2
##CAS REGISTRY NO=506-26-3
##MP= -300
##BP= -300
##MW= 278
##$RETENTION INDEX=2144
##$CONDENSED SPECTRUM=NO
##NPOINTS= 198
##XYDATA=(XY..XY) 1 
    15          1
    18          1
    26          3
    27         85
    28         17
    29        155
    30          5
    31          7
    36          1
    37          1
    38          4
    39        147
    40         24
    41        581
    42         59
    43        209
    44          8
    45         76
    46          2
    47          2
    50          6
    51         30
    52         23
    53        139
    54        186
    55        474
    56         48
    57        112
    58         18
    59         16
    60         55
    61          5
    62          1
    63          9
    64          4
    65        131
    66        153
    67        829
    68        134
    69        177
    70         24
    71         68
    72          6
    73        133
    74         16
    75          4
    77        317
    78        166
    79        999
    80        714
    81        488
    82        135
    83         94
    84         37
    85         64
    86          6
    87         28
    88         10
    89          5
    91        449
    92        108
    93        544
    94        287
    95        299
    96        106
    97         61
    98         17
    99         16
   100          4
   101         13
   102         13
   103         21
   104         16
   105        152
   106         61
   107        258
   108         77
   109         60
   110         44
   111         20
   112          7
   113         12
   114          6
   115         23
   116         13
   117         46
   118         24
   119         71
   120         84
   121        141
   122         36
   123         34
   124         27
   125         10
   126         11
   127          9
   128          8
   129         25
   130         12
   131         37
   132          8
   133         53
   134         25
   135         58
   136         33
   137         40
   138         14
   139          6
   140         12
   141          5
   142          2
   143          8
   144         13
   145         13
   146          3
   147         40
   148         12
   149         43
   150        126
   151         25
   152          8
   153          5
   154          6
   155          2
   156          1
   157         23
   158          4
   159          4
   160          2
   161         32
   162         12
   163         32
   164         14
   165          7
   166          8
   167          8
   168          7
   169          2
   170          1
   171         11
   172          2
   173          1
   174          2
   175         34
   176          6
   177         23
   178         10
   179          8
   180        110
   181         17
   182          4
   183          1
   185          3
   186          1
   187          1
   188          1
   189          8
   190          2
   191          7
   192          2
   193         11
   194         13
   195          3
   196          1
   197          1
   199          1
   203          2
   204          1
   205          2
   206          1
   207         14
   208         13
   209          2
   210          2
   211          1
   213          1
   217          1
   218          2
   219          1
   220          1
   221         11
   222          4
   223          1
   224          9
   225          1
   231          1
   235          4
   236          2
   237          2
   249          2
   250          2
   263          1
   264          3
   265          1
   278         32
   279          6
   280          1
   282          1