##TITLE=Library Entry 14952
##JCAMP-DX=Revision 4.10 
##DATA TYPE=MASS SPECTRUM
##SAMPLE DESCRIPTION=Japan AIST/NIMC Database- Spectrum MS-NW-6086
##NAMES=HP
##CAS NAME=Hexacosanoic acid
##MOLFORM=C26H52O2
##CAS REGISTRY NO=506-46-7
##MP= -300
##BP= -300
##MW= 396
##$RETENTION INDEX=0
##$CONDENSED SPECTRUM=NO
##NPOINTS= 308
##XYDATA=(XY..XY) 1 
    15          2
    16          2
    17          3
    18          9
    26          4
    27         79
    28         24
    29        232
    30          8
    31          7
    33          1
    37          1
    38          1
    39         56
    40         12
    41        547
    42        119
    43        999
    44         32
    45         32
    46          1
    47          1
    49          1
    50          1
    51          3
    52          2
    53         31
    54         57
    55        617
    56        178
    57        814
    58         41
    59         26
    60        396
    61        188
    62          9
    63          2
    65          6
    66          7
    67         81
    68         70
    69        391
    70        123
    71        414
    72         25
    73        458
    74         52
    75          4
    76          2
    77          7
    78          4
    79         18
    80         13
    81         76
    82         84
    83        300
    84        101
    85        250
    86         19
    87        119
    88         11
    89          2
    91          5
    92          4
    93         12
    94         11
    95         56
    96         70
    97        250
    98        161
    99         80
   100          9
   101         52
   102         24
   103          3
   104          2
   105          3
   106          3
   107         11
   108          7
   109         33
   110         32
   111        130
   112         50
   113         56
   114          9
   115         81
   116         85
   117          8
   118          2
   119          3
   120          2
   121         18
   122          8
   123         19
   124         19
   125         72
   126         24
   127         36
   128          5
   129        302
   130         37
   131          5
   132          1
   133          3
   134          2
   135         17
   136          6
   137         11
   138         12
   139         50
   140         21
   141         28
   142          4
   143         42
   144          9
   145          1
   147          2
   148          1
   149         10
   150          4
   151          6
   152         10
   153         31
   154         15
   155         22
   156          5
   157         18
   158         13
   159          2
   161          1
   162          1
   163          7
   164          3
   165          3
   166          9
   167         20
   168         12
   169         17
   170          4
   171         54
   172         21
   173          3
   177          5
   178          1
   179          3
   180          7
   181         15
   182         11
   183         14
   184          3
   185         99
   186         18
   187          2
   191          4
   192          1
   193          1
   194          7
   195         11
   196          9
   197         11
   198          3
   199         20
   200          6
   201          1
   203          1
   204          1
   205          3
   206          2
   207          2
   208          6
   209         11
   210          9
   211         11
   212          3
   213         12
   214          6
   215          1
   219          3
   220          1
   221          2
   222          6
   223          9
   224          9
   225          9
   226          2
   227         23
   228          9
   229          2
   233          1
   234          2
   235          1
   236          5
   237          9
   238          9
   239          8
   240          2
   241         41
   242         10
   243          2
   245          1
   247          1
   248          1
   249          1
   250          5
   251          6
   252          9
   253          5
   254          1
   255         15
   256          5
   257          1
   261          1
   263          1
   264          4
   265          5
   266          9
   267          4
   268          2
   269          9
   270          4
   271          1
   275          1
   276          1
   277          1
   278          4
   279          4
   280          7
   281          3
   282          2
   283         13
   284          6
   285          1
   291          1
   292          6
   293          5
   294          6
   295          4
   296          1
   297         45
   298         12
   299          3
   303          1
   304          1
   305          1
   306          2
   307          3
   308          7
   309          3
   310          2
   311         21
   312          7
   313          2
   315          1
   317          1
   319          1
   320          1
   321          2
   322          4
   323          2
   325          7
   326          2
   332          1
   334         10
   335          5
   336         17
   337         10
   338          3
   339         11
   340          5
   341          1
   342          1
   348          2
   349          2
   350          9
   351          2
   352          3
   353         73
   354         19
   355          3
   358          1
   359          1
   360          9
   361          3
   362          1
   363          1
   364          1
   367         11
   368          5
   369          1
   374          1
   375          1
   376          6
   377          5
   378         12
   379          7
   380          2
   381          2
   382          2
   383          1
   392          1
   393          1
   394          1
   395          5
   396        983
   397        291
   398         47
   399          5