##TITLE=Library Entry 7899
##JCAMP-DX=Revision 4.10 
##DATA TYPE=MASS SPECTRUM
##SAMPLE DESCRIPTION=Chemical Concepts
##NAMES=HP
##CAS NAME=Eicosanoic acid
##MOLFORM=C20H40O2
##CAS REGISTRY NO=506-30-9
##MP= -300
##BP= -300
##MW= 312
##$RETENTION INDEX=2362
##$CONDENSED SPECTRUM=NO
##NPOINTS= 192
##XYDATA=(XY..XY) 1 
    27         83
    28         25
    29        308
    30         22
    31         22
    33          4
    36          2
    37          2
    38         14
    39         86
    40         49
    41        688
    42        152
    43        999
    44         31
    45        150
    46          4
    50          3
    51         22
    52          3
    53         40
    54         60
    55        659
    56        205
    57        787
    58         27
    59         21
    60        605
    61        243
    62         11
    63          4
    64         10
    65          3
    66          8
    67        113
    68         80
    69        352
    70        120
    71        429
    72         30
    73        709
    74         68
    75         13
    76          1
    78         13
    79         28
    80         23
    81         65
    82         83
    83        236
    84        106
    85        261
    86         23
    87        155
    88         15
    89         13
    91          6
    92          1
    93         17
    94          9
    95         47
    96         64
    97        247
    98        154
    99         75
   100         16
   101         57
   102         33
   103          8
   104          1
   105          9
   107         10
   108          4
   109         18
   110         33
   111        114
   112         44
   113         38
   114          7
   115         95
   116         60
   117          9
   118          6
   119          6
   120          8
   121         14
   122          4
   123         19
   124         26
   125         48
   126         16
   127         22
   128         16
   129        236
   130         38
   131         12
   132          1
   133          6
   134          7
   135         13
   136          7
   137         10
   138         12
   139         10
   140         12
   141         13
   142         11
   143         44
   144         16
   145          2
   146          3
   147          6
   149          3
   150          6
   151          4
   152          8
   153          8
   155         12
   156          5
   157         69
   158         21
   159          4
   160          3
   161          4
   163          6
   164          4
   165          1
   166          8
   167          7
   169          5
   170          3
   171         85
   172         18
   173          2
   175          4
   178          5
   179          8
   180          5
   181          7
   183          6
   185        116
   186         22
   189          3
   190          4
   193          7
   194          7
   195          7
   196          5
   198          2
   199         38
   200         13
   201          5
   206          3
   207          4
   208          9
   209          9
   210          5
   212          3
   213         62
   214         19
   222          9
   227         48
   228         15
   236          4
   237          4
   238          3
   239          4
   241         44
   242          6
   249          3
   250          8
   254          2
   255         30
   256          5
   257          4
   258          4
   259          5
   261          3
   263          3
   267          6
   269         92
   270         22
   271          5
   278          2
   281          8
   283         26
   284          6
   292          4
   302          3
   312        116
   313         28
   314          2