##TITLE=Library Entry 5472
##JCAMP-DX=Revision 4.10 
##DATA TYPE=MASS SPECTRUM
##SAMPLE DESCRIPTION=Japan AIST/NIMC Database- Spectrum MS-NW-2819
##NAMES=HP
##CAS NAME=Acetyl bromide
##MOLFORM=C2H3BrO
##CAS REGISTRY NO=506-96-7
##MP= -300
##BP= -300
##MW= 122
##$RETENTION INDEX=0
##$CONDENSED SPECTRUM=NO
##NPOINTS= 47
##XYDATA=(XY..XY) 1 
    12         10
    13         31
    14        127
    15        458
    16          5
    18          3
    20          1
    21          1
    24          6
    25         17
    26         24
    27          7
    28         25
    29         38
    35          1
    36          3
    38          1
    40         11
    41         69
    42        244
    43        999
    44         22
    45         11
    47          2
    48          1
    49          3
    57          1
    60          9
    62          2
    63          1
    79        143
    80         54
    81        137
    82         53
    91          7
    92          8
    93         15
    94          9
    95          8
    96          1
   104          3
   105          1
   106          3
   107         18
   109         17
   121          1
   123          1