##TITLE=Library Entry 2721
##JCAMP-DX=Revision 4.10 
##DATA TYPE=MASS SPECTRUM
##SAMPLE DESCRIPTION=Japan AIST/NIMC Database- Spectrum MS-NW-5975
##NAMES=HP
##CAS NAME=(E)-13-Docosenoic acid
##MOLFORM=C22H42O2
##CAS REGISTRY NO=506-33-2
##MP= -300
##BP= -300
##MW= 338
##$RETENTION INDEX=0
##$CONDENSED SPECTRUM=NO
##NPOINTS= 281
##XYDATA=(XY..XY) 1 
    13          1
    14          2
    15          8
    16          3
    17          1
    18          4
    24          1
    25          2
    26         17
    27        272
    28         62
    29        365
    30          8
    31          3
    36          1
    37          4
    38          8
    39        210
    40         40
    41        999
    42        142
    43        566
    44         19
    45         17
    46          1
    47          1
    48          1
    49          1
    50          8
    51         18
    52         16
    53        129
    54        265
    55        943
    56        167
    57        295
    58         13
    59          9
    60         69
    61          5
    62          2
    63          6
    64          2
    65         36
    66         37
    67        441
    68        186
    69        484
    70        117
    71         73
    72          5
    73         33
    74          4
    75          1
    76          1
    77         48
    78         23
    79        151
    80        115
    81        355
    82        239
    83        330
    84        160
    85         45
    86          5
    87          8
    88          2
    89          3
    90          1
    91         67
    92         29
    93         77
    94         78
    95        237
    96        221
    97        247
    98        561
    99         50
   100         10
   101         10
   102          3
   103          4
   104         24
   105         29
   106         14
   107         43
   108         36
   109        135
   110        109
   111        183
   112        117
   113         19
   114         13
   115         12
   116          4
   117         14
   118          8
   119         22
   120         12
   121         57
   122         35
   123         67
   124         75
   125         66
   126         22
   127         13
   128          6
   129         16
   130          5
   131          8
   132          5
   133         18
   134         19
   135         47
   136         29
   137         68
   138         55
   139         33
   140         16
   141          8
   142          3
   143          7
   144          3
   145          3
   146          2
   147         20
   148         13
   149         22
   150         11
   151         34
   152         44
   153         18
   154         10
   155         12
   156          4
   157          5
   158          2
   159          3
   160          1
   161         14
   162          9
   163          9
   164          6
   165         26
   166         32
   167         14
   168          7
   169          4
   170          2
   171          4
   172          1
   173          1
   174          1
   175         12
   176          6
   177          7
   178          6
   179         16
   180         19
   181          8
   182          5
   183          4
   184          3
   185          4
   186          2
   187          2
   188          1
   189          9
   190          5
   191          7
   192          8
   193         13
   194         18
   195          8
   196          6
   197          2
   198          2
   199          2
   200          1
   202          1
   203          4
   204          2
   205          6
   206         10
   207         15
   208         18
   209          7
   210          5
   211          3
   212          2
   213          3
   214          1
   215          1
   216          1
   217          4
   218          1
   219          5
   220          7
   221         25
   222         30
   223          9
   224          5
   225          4
   226          1
   227          2
   228          1
   231          3
   232          1
   233          4
   234          3
   235         14
   236         16
   237          6
   238          3
   239          3
   240          1
   241          2
   242          2
   244          1
   245          1
   246          1
   247          2
   248          1
   249          9
   250         12
   251          5
   252          2
   253          1
   255          2
   256          1
   259          1
   260          1
   261          2
   262          1
   263          9
   264          9
   265          4
   266          1
   268          1
   269          1
   270          1
   273          2
   274          1
   275          1
   276          8
   277         11
   278          9
   279          4
   280          1
   281          1
   286          1
   287          1
   289          1
   290          2
   291          6
   292         14
   293          3
   294          2
   295          2
   296          1
   297          1
   298          1
   300          7
   301          3
   302         11
   303          3
   304          4
   305          1
   314          1
   316          1
   318          4
   319          4
   320        139
   321         37
   322          7
   323          1
   336          3
   337          1
   338         13
   339          4
   340          1