##TITLE=Library Entry 44665
##JCAMP-DX=Revision 4.10 
##DATA TYPE=MASS SPECTRUM
##SAMPLE DESCRIPTION=V.G.Zaikin, TIPS, Russian Acad. Sci.
##NAMES=HP
##CAS NAME=4(equatorial)-Ethenyl-1,2(axial)-dimethyl-trans-decahydroquinol-4
-ol,N-oxide
##MOLFORM=C13H23NO2
##CAS REGISTRY NO=50609-99-9
##MP= -300
##BP= -300
##MW= 225
##$RETENTION INDEX=0
##$CONDENSED SPECTRUM=NO
##NPOINTS= 75
##XYDATA=(XY..XY) 1 
    53         48
    54         42
    55        364
    56        215
    57         92
    58        411
    65         14
    67        147
    68         28
    69        533
    70         92
    71         32
    72         48
    73         56
    74        999
    75         78
    79         83
    80         61
    81        163
    82         30
    83         23
    84         35
    85         21
    86         56
    87         12
    91        120
    92         26
    93         80
    94         14
    95         37
    96         24
    97         96
    98         21
   105        104
   106         14
   107         19
   108         17
   109         58
   110         39
   111         21
   112         30
   117         17
   119        112
   120         16
   124         24
   126         80
   131         21
   133         58
   134         87
   135         23
   136         14
   137         69
   138         40
   152         21
   159         56
   160         37
   161        329
   162         40
   163         12
   164         28
   166         69
   179         19
   180         33
   182         12
   188         21
   190         46
   192         46
   194        103
   195         17
   207        240
   208         62
   209         33
   210         16
   225         30
   226          4