##TITLE=Library Entry 44887
##JCAMP-DX=Revision 4.10 
##DATA TYPE=MASS SPECTRUM
##SAMPLE DESCRIPTION=V.G.Zaikin, TIPS, Russian Acad. Sci.
##NAMES=HP
##CAS NAME=4(equatorial)-Ethynyl-1,2(axial)-dimethyl-trans-decahydroquinol-4
-ol,N-oxide
##MOLFORM=C13H21NO2
##CAS REGISTRY NO=50609-97-7
##MP= -300
##BP= -300
##MW= 223
##$RETENTION INDEX=0
##$CONDENSED SPECTRUM=NO
##NPOINTS= 83
##XYDATA=(XY..XY) 1 
    55          9
    56         52
    57         81
    58        368
    59          7
    60          4
    67         40
    68         10
    69         69
    70          9
    71          4
    72          7
    73         21
    74        999
    75         34
    79         20
    81         34
    82         18
    83          5
    84          8
    91         26
    92          8
    93         23
    94          9
    95         36
    96         15
   103          7
   104          8
   105         57
   107          8
   108         10
   109          7
   110         59
   111          4
   112          8
   117        100
   118          7
   119         10
   122          7
   124         24
   125         11
   126         20
   127          5
   129          9
   131        119
   132         43
   133         10
   134          7
   135         33
   138         24
   143          9
   144         34
   145          4
   148          4
   149         11
   150         10
   152          4
   154          9
   157          8
   158         17
   159        685
   160         91
   161         10
   162         20
   164         53
   166          8
   178          5
   180          8
   187          8
   188        348
   189         44
   190         43
   191         16
   192         87
   193         13
   205        510
   206        145
   207         48
   208         73
   209          7
   222         26
   223         52
   224          7