##TITLE=Library Entry 87947
##JCAMP-DX=Revision 4.10 
##DATA TYPE=MASS SPECTRUM
##SAMPLE DESCRIPTION=TAT 0693
##NAMES=HP
##CAS NAME=2H-Pyran-2-one, 3-ethyl-4-hydroxy-6-methyl-
##MOLFORM=C8H10O3
##CAS REGISTRY NO=50607-35-7
##MP= -300
##BP= -300
##MW= 154
##$RETENTION INDEX=0
##$CONDENSED SPECTRUM=NO
##NPOINTS= 33
##XYDATA=(XY..XY) 1 
    39        340
    40        100
    41        250
    42        130
    43        880
    44        120
    45         10
    51         70
    53        150
    54         60
    55        720
    56         40
    68         90
    69        420
    70        310
    71         20
    83         90
    84         10
    85        860
    86         70
    87         10
    97        140
    98         20
   111        999
   112        100
   113         50
   126        300
   127         30
   139        550
   140         50
   154        670
   155         60
   156         10