##TITLE=Library Entry 71266
##JCAMP-DX=Revision 4.10 
##DATA TYPE=MASS SPECTRUM
##SAMPLE DESCRIPTION=Exported from NIST MS Search
##NAMES=HP
##CAS NAME=.beta.-L-Altropyranoside, phenylmethyl 2,4-bis(acetylamino)-2,4,6
-trideoxy-, 3-acetate
##MOLFORM=C19H26N2O6
##CAS REGISTRY NO=50611-14-8
##MP= -300
##BP= -300
##MW= 378
##$RETENTION INDEX=0
##$CONDENSED SPECTRUM=NO
##NPOINTS= 150
##XYDATA=(XY..XY) 1 
    39        107
    40         85
    41        168
    42        180
    43        333
    44        152
    45         61
    52         21
    53         33
    54         55
    55        232
    56        360
    57        648
    58        415
    59        452
    60        648
    61         18
    77        159
    78         18
    79        238
    80         79
    81        305
    82        522
    83        220
    84        581
    85         79
    86        152
    87        113
    88         48
    89         67
    90         70
    91        816
    92        385
    95        321
    96        250
    97        269
    98        999
    99        795
   100        770
   101        764
   102        776
   103         73
   104         42
   105         48
   106          6
   107        229
   108        284
   109         97
   110        177
   111         85
   112         79
   113        275
   114         61
   115         42
   116         39
   117          6
   119          6
   120         61
   121         15
   122         45
   123        519
   124        428
   125        159
   126        116
   127         61
   128         97
   129         85
   130         24
   131          6
   132         33
   133          9
   135         24
   137         12
   138        605
   139        559
   140        684
   141        611
   142        128
   143        281
   144        403
   145         18
   148          9
   149         21
   150         97
   151         67
   152         55
   153         55
   154        116
   155        443
   156         48
   157        311
   158         42
   159          6
   162         85
   163         18
   164          6
   166        116
   167         97
   168        232
   169         91
   170         18
   171          6
   172          3
   173          9
   174         27
   180          6
   181        256
   182        807
   183        299
   184         24
   185         82
   186        220
   187         12
   188          6
   195          9
   197          9
   199        397
   200         91
   201         12
   203        107
   204          6
   210        128
   211        119
   212        116
   213         82
   214          9
   215         21
   216          9
   218          6
   227        229
   228        207
   229         24
   241         33
   242         18
   245        740
   246         85
   259          9
   260         48
   270        137
   271         27
   272        131
   273         21
   287        391
   288        159
   289         12
   318         55
   319         61
   320         15
   335          9
   378         21