##TITLE=Library Entry 14997
##JCAMP-DX=Revision 4.10 
##DATA TYPE=MASS SPECTRUM
##SAMPLE DESCRIPTION=Chemical Concepts
##NAMES=HP
##CAS NAME=3,4-Seco-5.alpha.-cholestan-3-oic acid, 4-hydroxy-4-methyl-, .eps
ilon.-lactone, (4R)-
##MOLFORM=C28H48O2
##CAS REGISTRY NO=5061-93-8
##MP= -300
##BP= -300
##MW= 416
##$RETENTION INDEX=0
##$CONDENSED SPECTRUM=NO
##NPOINTS= 111
##XYDATA=(XY..XY) 1 
    27        159
    28          1
    29        275
    31         71
    39        110
    41        618
    42        133
    43        999
    44        169
    45        223
    53         94
    54         57
    55        768
    56        165
    57        620
    60        129
    67        330
    68        174
    69        489
    70        127
    71        307
    73        132
    77         75
    79        228
    80         64
    81        446
    82        131
    83        289
    84         84
    85        155
    91        156
    92         44
    93        287
    94        100
    95        407
    96        104
    97        294
    98         74
    99        161
   105        173
   106         67
   107        237
   108        115
   109        244
   110         97
   111        148
   119        130
   120         64
   121        188
   122         86
   123        175
   124         69
   125         73
   129         57
   131         50
   133        118
   134         75
   135        138
   136         75
   137         89
   145         56
   147        113
   148         47
   149        113
   151         56
   161        215
   162         57
   163         94
   175        101
   177         82
   189         82
   201         65
   203        113
   209         86
   217        260
   218        151
   219         83
   231         50
   232        106
   233         67
   245         75
   246         61
   247         75
   256         41
   261        280
   262        269
   263         93
   274         42
   275         51
   276         75
   277         43
   287         42
   303         52
   315        130
   316         59
   317         34
   331         34
   343        119
   344         49
   357         71
   372        272
   373        100
   375         44
   385         31
   386         27
   387         53
   388         46
   400         78
   401         78
   416        780
   417        248