##TITLE=Library Entry 64895
##JCAMP-DX=Revision 4.10 
##DATA TYPE=MASS SPECTRUM
##SAMPLE DESCRIPTION=A.A.Kutin, Moscow, Russia
##NAMES=HP
##CAS NAME=2,5,8-Triphenyl benzotristriazole
##MOLFORM=C24H15N9
##CAS REGISTRY NO=50617-19-1
##MP= -300
##BP= -300
##MW= 429
##$RETENTION INDEX=0
##$CONDENSED SPECTRUM=NO
##NPOINTS= 88
##XYDATA=(XY..XY) 1 
    33          2
    34          6
    36         10
    37          3
    38         30
    39         63
    40        127
    41         84
    42         19
    43         44
    44         68
    45          4
    48          3
    50         30
    51        148
    52         69
    53          5
    54          2
    55         30
    56         11
    57         37
    60          2
    62          2
    63         73
    64        343
    65         77
    66          7
    67          5
    68          5
    69         15
    70         15
    71         18
    73          2
    74          3
    75          9
    76         14
    77        171
    78         19
    79         33
    80          3
    82          4
    83         11
    84         11
    85          4
    89          6
    90         25
    91        999
    92         73
    93          9
    95          1
    97          3
    98          4
   102          0
   103          3
   104          2
   105          5
   112          8
   113          2
   114          2
   115          0
   121          1
   123          3
   125          1
   128          1
   143          5
   149          1
   152          3
   166          3
   167          6
   168          2
   171         15
   172          2
   189          1
   195          1
   215         94
   219          1
   301          2
   326          2
   338         44
   339          8
   382          0
   402          1
   403          2
   429        754
   430        220
   431         34
   432         23
   433          3