##TITLE=Library Entry 4993
##JCAMP-DX=Revision 4.10 
##DATA TYPE=MASS SPECTRUM
##SAMPLE DESCRIPTION=A.A.Kutin, Moscow, Russia
##NAMES=HP
##CAS NAME=Furoxane, 3,4-diacetyl-, dioxime
##MOLFORM=C6H8N4O4
##CAS REGISTRY NO=50610-79-2
##MP= -300
##BP= -300
##MW= 200
##$RETENTION INDEX=0
##$CONDENSED SPECTRUM=NO
##NPOINTS= 99
##XYDATA=(XY..XY) 1 
    33         19
    34          0
    37         26
    38         47
    39        201
    42        999
    43        167
    44         19
    45          5
    46          3
    48          0
    51        196
    52         89
    53         43
    54         56
    55         51
    56         11
    58        161
    60          9
    61          3
    63         20
    64         29
    65        111
    66         92
    67         60
    69        124
    70         15
    71          9
    73          3
    74          4
    75          9
    76         12
    77         18
    78         21
    79         17
    80         15
    82         98
    84         40
    85         21
    86         13
    88          0
    89          0
    90          5
    92        295
    93         40
    95         25
    96          4
    97          6
    98          8
    99          5
   101         11
   102          0
   103          0
   104          1
   105          3
   106          2
   107          7
   108          6
   109          6
   110         29
   111          6
   112          3
   113          4
   116          0
   117          1
   121          0
   122         13
   123         24
   124          2
   125          3
   126          3
   127          0
   128          1
   129          1
   135          1
   136          4
   138          4
   140        263
   141         14
   143         10
   144          0
   149          0
   152          7
   153         85
   154          5
   155          1
   163          0
   165          0
   166          0
   168         12
   170        137
   171          6
   172          0
   183         77
   184          4
   185          0
   198          1
   200         59
   202          2