##TITLE=Library Entry 51228
##JCAMP-DX=Revision 4.10 
##DATA TYPE=MASS SPECTRUM
##SAMPLE DESCRIPTION=Exported from NIST MS Search
##NAMES=HP
##CAS NAME=2-Furanacetamide, N-methyl-
##MOLFORM=C7H9NO2
##CAS REGISTRY NO=50618-94-5
##MP= -300
##BP= -300
##MW= 139
##$RETENTION INDEX=0
##$CONDENSED SPECTRUM=NO
##NPOINTS= 7
##XYDATA=(XY..XY) 1 
    53        360
    54        220
    58        809
    81        809
    82        999
    83         70
   139        340