##TITLE=Library Entry 2024
##JCAMP-DX=Revision 4.10 
##DATA TYPE=MASS SPECTRUM
##SAMPLE DESCRIPTION=RADIAN CORP
##NAMES=HP
##CAS NAME=2(3H)-Furanone, 3-bromodihydro-
##MOLFORM=C4H5BrO2
##CAS REGISTRY NO=5061-21-2
##MP= -300
##BP= -300
##MW= 164
##$RETENTION INDEX=0
##$CONDENSED SPECTRUM=NO
##NPOINTS= 54
##XYDATA=(XY..XY) 1 
    13          2
    14          8
    15          6
    16          2
    18          2
    24          1
    25         14
    26         88
    27        247
    28         95
    29        110
    30         16
    31          5
    32         10
    36          4
    37         26
    38         45
    39        237
    40         38
    41        999
    42         49
    43          4
    44         20
    45          5
    52          2
    53         16
    54         13
    55        181
    56          9
    57          3
    60          1
    76          2
    79         34
    80          7
    81         34
    82          8
    84          2
    91          2
    92          5
    93          5
    94          4
    95          3
   105          8
   106         15
   107         24
   108         12
   109         15
   119          3
   120         41
   121          4
   122         41
   135          2
   164          5
   166          5