##TITLE=Library Entry 39772
##JCAMP-DX=Revision 4.10 
##DATA TYPE=MASS SPECTRUM
##SAMPLE DESCRIPTION=Japan AIST/NIMC Database- Spectrum MS-NW-8032
##NAMES=HP
##CAS NAME=N-Ethyl-4-methoxy-alpha-methylphenethylamine
##MOLFORM=C12H19NO
##CAS REGISTRY NO=50623-66-0
##MP= -300
##BP= -300
##MW= 193
##$RETENTION INDEX=0
##$CONDENSED SPECTRUM=NO
##NPOINTS= 84
##XYDATA=(XY..XY) 1 
    15          5
    26          1
    27         17
    28         24
    29         22
    30          6
    39         14
    40          2
    41         12
    42         32
    43          6
    44        183
    45          5
    50          6
    51         17
    52         14
    53          7
    54          2
    55          3
    56         23
    57          4
    58          1
    62          2
    63          9
    64          5
    65         15
    66          2
    67          1
    68          1
    70         13
    71          6
    72        999
    73         47
    74          1
    75          2
    76          3
    77         39
    78         47
    79         10
    80          2
    89         10
    90          6
    91         29
    92          5
    93          2
    94          2
   102          2
   103          6
   104          3
   105          6
   106          6
   107          6
   108          3
   109          1
   115          6
   116          2
   117          5
   118          3
   119          4
   120          1
   121         79
   122         13
   123          1
   130          1
   131          2
   132          2
   133          3
   134          6
   135          3
   146          2
   147          4
   148          4
   149         11
   150          2
   162          2
   163          1
   176          1
   177          1
   178          7
   179          1
   191          1
   192          4
   193          2
   194          2