##TITLE=Library Entry 64098
##JCAMP-DX=Revision 4.10 
##DATA TYPE=MASS SPECTRUM
##SAMPLE DESCRIPTION=Chemical Concepts
##NAMES=HP
##CAS NAME=1H-Pyrrole-3-propanoic acid, 2-benzyloxycarbonyl-4-(2-methoxy-2-o
xoethyl)-5-methyl-, methyl ester
##MOLFORM=C20H23NO6
##CAS REGISTRY NO=50622-64-5
##MP= -300
##BP= -300
##MW= 373
##$RETENTION INDEX=0
##$CONDENSED SPECTRUM=NO
##NPOINTS= 287
##XYDATA=(XY..XY) 1 
    26          1
    27          7
    28          7
    29          5
    30          1
    31          1
    37          0
    38          1
    39         21
    40          2
    41         15
    42         25
    43         14
    44          2
    45          8
    50          3
    51         16
    52         10
    53         14
    54          2
    55          9
    56          4
    57          8
    58          0
    59         18
    60          1
    61          0
    62          1
    63         10
    64          5
    65         84
    66         10
    67          5
    68          2
    69          4
    70          2
    71          4
    72          0
    73          1
    74          1
    75          4
    76          3
    77         41
    78         15
    79         22
    80          4
    81          3
    82          1
    83          3
    84          1
    85          2
    86          0
    87          0
    88          1
    89         15
    90         13
    91        999
    92         91
    93         14
    94          8
    95          2
    96          1
    97          2
    98          0
    99          0
   100          0
   101          0
   102          2
   103          6
   104         19
   105         19
   106         17
   107         16
   108         13
   109          3
   110          0
   111          1
   112          1
   113          1
   114          0
   115          3
   116          7
   117         11
   118         38
   119         17
   120         46
   121         14
   122         42
   123          5
   124          1
   125          1
   126          0
   127          0
   128          1
   129          2
   130          2
   131          3
   132          7
   133          9
   134         23
   135          8
   136         30
   137          4
   138          4
   139          1
   140          0
   141          2
   142          1
   143          0
   144          6
   145         10
   146         98
   147         21
   148         37
   149         20
   150         11
   151          3
   152          7
   153          4
   154          2
   155          2
   156          1
   157          1
   158          1
   159          1
   160         11
   161          3
   162         29
   163         12
   164         51
   165         13
   166         22
   167          7
   168          5
   169          2
   170          1
   171          1
   172          7
   173          6
   174          6
   175          3
   176         23
   177         10
   178         78
   179         21
   180         44
   181         23
   182         15
   183          5
   184          3
   185          1
   186          1
   187          1
   188          2
   189          1
   190         18
   191          9
   192         20
   193          7
   194         20
   195          7
   196         30
   197         12
   198         11
   199          3
   200          2
   201          1
   202          2
   203          2
   204         41
   205         16
   206         68
   207         33
   208         24
   209          5
   210         18
   211          4
   212          6
   215          2
   217          2
   218          7
   219          2
   220          7
   221          7
   222        270
   223         51
   224         46
   225          7
   226          4
   227          2
   228          6
   229          3
   230          3
   231          1
   232          3
   233          3
   234          4
   235          7
   236         37
   237         34
   238         42
   239         28
   240         17
   241          4
   242         17
   243          6
   244          2
   245          1
   246          1
   247          2
   248          1
   249          4
   250        379
   251         56
   252         15
   253          3
   254         48
   255          9
   256        104
   257         21
   258          3
   259          0
   261          0
   262          2
   263          1
   264         11
   265          6
   266          7
   267          4
   268         15
   269          7
   270         21
   271          4
   272          3
   273          1
   278          0
   279          1
   280          3
   281          7
   282        350
   283         56
   284         12
   285          1
   286          2
   287          1
   294          1
   295          1
   296          6
   297          5
   298          6
   299          5
   300          6
   301          2
   302          0
   309          1
   310          0
   311          2
   312         12
   313         12
   314        152
   315         33
   316          4
   317          0
   322          0
   323          1
   326          0
   327          2
   328         15
   329          6
   330          1
   340          2
   341         83
   342         30
   343         10
   344          2
   345          0
   354          1
   355          1
   356          0
   358          1
   359          1
   360          0
   372          2
   373        300
   374         67
   375         13
   376          1