##TITLE=Library Entry 64097
##JCAMP-DX=Revision 4.10 
##DATA TYPE=MASS SPECTRUM
##SAMPLE DESCRIPTION=Organic Synthesis Lab, MSU, Moscow.TRC 671
##NAMES=HP
##CAS NAME=Ethyl 2-(ethoxycarbonyl)-5-methyl-4-[(phenylmethoxy)carbonyl]-1H-
pyrrole-3-propanoate
##MOLFORM=C21H25NO6
##CAS REGISTRY NO=50622-87-2
##MP= -300
##BP= -300
##MW= 387
##$RETENTION INDEX=0
##$CONDENSED SPECTRUM=NO
##NPOINTS= 199
##XYDATA=(XY..XY) 1 
    26          3
    27         21
    29         77
    30          1
    31          8
    38          1
    39         24
    40          6
    41         13
    42         18
    43         27
    44         26
    45          5
    46          1
    50          4
    51         18
    52          7
    53         10
    54          1
    55         12
    57          0
    58          1
    60          1
    62          1
    63          9
    64          7
    65         85
    66          9
    67          5
    71          1
    76          2
    77         38
    78         16
    79         22
    80          6
    81          3
    89         12
    90         10
    91        999
    92         85
    93          9
    94          5
   102          1
   103          3
   104         17
   105         15
   106         12
   107         14
   108          9
   109          2
   115          2
   117          2
   118          2
   119          2
   120         13
   121          6
   122          8
   123          1
   129          1
   130          0
   131          2
   132         18
   133         31
   134         29
   135         11
   136         15
   137          2
   138          5
   146          1
   147          6
   148         28
   149          8
   150         15
   151          5
   152          3
   153          1
   154          0
   158          1
   159          5
   160        108
   161         31
   162         18
   163          3
   164         31
   165          3
   166         23
   167          3
   168          1
   172          1
   174          1
   175          0
   176         39
   177         11
   178         77
   179         22
   180         19
   181          4
   182         19
   183          1
   186         15
   187          1
   188          4
   190          2
   191          0
   192          4
   193          3
   194         72
   195          9
   196          5
   197          1
   204         69
   205         22
   206         81
   207         68
   208         88
   209         13
   210         26
   211          4
   212          0
   218          2
   219          2
   220          0
   221         18
   222        162
   223         26
   224         15
   225          2
   226          2
   232          8
   233          4
   234         10
   235          8
   236          9
   237          8
   238         38
   239          5
   240          2
   241          0
   245          1
   246          2
   248          1
   249          1
   250        736
   251        240
   252         45
   253         12
   254          8
   255          1
   256         14
   257          2
   263          5
   264          4
   265          1
   266          2
   267          1
   268          5
   269          1
   270          2
   278         92
   279        104
   280         67
   281         14
   282          3
   286          1
   291          7
   292          4
   293          6
   294          0
   295          8
   296         39
   297          6
   298          4
   299         26
   300         19
   301          3
   313         32
   314          9
   315          2
   320          1
   321          1
   322          1
   323          3
   324          2
   337          5
   338          2
   340          1
   341          6
   342         76
   343         16
   344          1
   365          7
   366          4
   369          7
   370          1
   373          1
   386          1
   387        122
   388         28
   389          5