##TITLE=Library Entry 22846
##JCAMP-DX=Revision 4.10 
##DATA TYPE=MASS SPECTRUM
##SAMPLE DESCRIPTION=V.G. Zaikin, R.S.Borisov, TIPS RAS, Moscow, Russia
##NAMES=HP
##CAS NAME=Nonanoic acid, butyl ester
##MOLFORM=C13H26O2
##CAS REGISTRY NO=50623-57-9
##MP= -300
##BP= -300
##MW= 214
##$RETENTION INDEX=1486
##$CONDENSED SPECTRUM=NO
##NPOINTS= 84
##XYDATA=(XY..XY) 1 
    25          1
    26         10
    27         85
    29        229
    30          5
    31          7
    39         52
    40         11
    41        316
    42         63
    43        247
    44         13
    45         11
    53         13
    54         16
    55        201
    56        999
    57        484
    58         22
    59         11
    60        267
    61        127
    62          3
    65          1
    67         27
    68         19
    69         80
    70         24
    71        157
    72         11
    73        211
    74         18
    75          5
    80          1
    81         35
    82          5
    83         44
    84         39
    85          8
    86          7
    87         55
    88          5
    89         40
    90          1
    93          2
    94          3
    95          9
    96         17
    97         45
    98         28
    99          6
   100          2
   101         64
   102          5
   103         27
   104          1
   111          9
   112         13
   113          2
   114          1
   115         80
   116         65
   117         18
   121          4
   122          2
   123         11
   125          3
   129        103
   130          8
   138          2
   139         12
   140          2
   141        527
   142         50
   143          8
   157          4
   158         50
   159        634
   160         63
   161          4
   171         11
   185         11
   214          7
   215          1