##TITLE=Library Entry 24698
##JCAMP-DX=Revision 4.10 
##DATA TYPE=MASS SPECTRUM
##SAMPLE DESCRIPTION=D.HENNEBERG, MAX-PLANCK INSTITUTE, MULHEIM, WEST GERMAN
Y
##NAMES=HP
##CAS NAME=2-Hexen-1-ol, 2-ethyl-
##MOLFORM=C8H16O
##CAS REGISTRY NO=50639-00-4
##MP= -300
##BP= -300
##MW= 128
##$RETENTION INDEX=996
##$CONDENSED SPECTRUM=NO
##NPOINTS= 64
##XYDATA=(XY..XY) 1 
    26         62
    27        165
    28        119
    29        438
    30         12
    31         91
    32          5
    38          5
    39        124
    40         27
    41        598
    42         76
    43        404
    44         39
    45         27
    50          5
    51         13
    52          9
    53        129
    54         52
    55        860
    56        122
    57        999
    58         60
    59         31
    65         27
    66         15
    67        230
    68        105
    69        110
    70         81
    71        210
    72        110
    73         11
    77         31
    78          7
    79         59
    80         15
    81        221
    82         66
    83         47
    84         17
    85        587
    86         59
    87          6
    91          8
    93         19
    94          2
    95        165
    96         21
    97        129
    98         29
    99        224
   100         28
   107          1
   109          7
   110        119
   111         19
   112          7
   113          4
   126         15
   127          3
   128        176
   129         15