##TITLE=Library Entry 8065
##JCAMP-DX=Revision 4.10 
##DATA TYPE=MASS SPECTRUM
##SAMPLE DESCRIPTION=Exported from NIST MS Search
##NAMES=HP
##CAS NAME=5-Undecanone, 2-methyl-
##MOLFORM=C12H24O
##CAS REGISTRY NO=50639-02-6
##MP= -300
##BP= -300
##MW= 184
##$RETENTION INDEX=0
##$CONDENSED SPECTRUM=NO
##NPOINTS= 35
##XYDATA=(XY..XY) 1 
    27        346
    28        227
    29        366
    30          8
    31         12
    39        156
    41        420
    42        102
    43        999
    44         34
    45          8
    55        172
    56         61
    57        215
    58        547
    59        158
    69         38
    70         29
    71        321
    72         42
    73          3
    84          7
    85        167
    86         41
    87          4
    99        177
   100         39
   101         23
   113        235
   114         32
   127         86
   128         22
   141         38
   142          5
   155         11