##TITLE=Library Entry 38194
##JCAMP-DX=Revision 4.10 
##DATA TYPE=MASS SPECTRUM
##SAMPLE DESCRIPTION=Japan AIST/NIMC Database- Spectrum MS-NW-3138
##NAMES=HP
##CAS NAME=Oxirane, pentyl-
##MOLFORM=C7H14O
##CAS REGISTRY NO=5063-65-0
##MP= -300
##BP= -300
##MW= 114
##$RETENTION INDEX=905
##$CONDENSED SPECTRUM=NO
##NPOINTS= 67
##XYDATA=(XY..XY) 1 
    14          4
    15         29
    17          1
    18          4
    26         18
    27        278
    28         66
    29        283
    30         10
    31        132
    32          9
    36          1
    37          4
    38         11
    39        203
    40         36
    41        694
    42        335
    43        341
    44         71
    45         67
    46          1
    49          2
    50          8
    51         14
    52          6
    53         46
    54         86
    55        460
    56        502
    57        168
    58        413
    59         39
    60          2
    62          2
    63          3
    65          8
    66          4
    67        147
    68         43
    69        118
    70         55
    71        999
    72         74
    73          7
    74          1
    77          4
    79          9
    80          2
    81         62
    82         78
    83         23
    84         16
    85        122
    86         19
    87          1
    91          1
    93          1
    94          1
    95          6
    96         24
    97          6
    98          2
    99          6
   112          1
   113          3
   114          2