##TITLE=Library Entry 6610
##JCAMP-DX=Revision 4.10 
##DATA TYPE=MASS SPECTRUM
##SAMPLE DESCRIPTION=Exported from NIST MS Search
##NAMES=HP
##CAS NAME=2,4(3H,5H)-Furandione, 5,5-dimethyl-
##MOLFORM=C6H8O3
##CAS REGISTRY NO=50630-62-1
##MP= -300
##BP= -300
##MW= 128
##$RETENTION INDEX=0
##$CONDENSED SPECTRUM=NO
##NPOINTS= 16
##XYDATA=(XY..XY) 1 
    39         70
    41         80
    42        700
    43        999
    44         70
    56         60
    58         90
    59        120
    60         10
    69         30
    72        140
    73         10
   100        490
   101         40
   113         50
   128         90