##TITLE=Library Entry 6903
##JCAMP-DX=Revision 4.10 
##DATA TYPE=MASS SPECTRUM
##SAMPLE DESCRIPTION=JAFCAU, 21 (4) 632 (1973); R.O. MUMMA, PENN STATE UNIV,
 PA, USA
##NAMES=HP
##CAS NAME=l-Lysine, N2-[(2,4-dichlorophenoxy)acetyl]-
##MOLFORM=C14H18Cl2N2O4
##CAS REGISTRY NO=50649-08-6
##MP= -300
##BP= -300
##MW= 348
##$RETENTION INDEX=0
##$CONDENSED SPECTRUM=NO
##NPOINTS= 62
##XYDATA=(XY..XY) 1 
    41        470
    42        400
    43        999
    44        390
    45        770
    46        180
    51        170
    55        470
    56        410
    57        210
    58        260
    59        300
    60        470
    63        150
    65        230
    66        230
    69        210
    70        190
    72        160
    77        550
    79        170
    82        240
    83        550
    84        630
    86        300
    97        670
    98        290
    99        150
   100        200
   107        270
   108        160
   111        200
   113        160
   127        190
   128        290
   144        430
   145         90
   146         30
   147         50
   162        260
   163         40
   164        170
   170        290
   175         60
   176         30
   177         40
   220         30
   221         20
   222         20
   262        190
   263         50
   280        220
   281         50
   295        170
   296         50
   297         60
   314         20
   330         90
   331         50
   332         70
   348         30
   350         20