##TITLE=Library Entry 88662
##JCAMP-DX=Revision 4.10 
##DATA TYPE=MASS SPECTRUM
##SAMPLE DESCRIPTION=M. VANDEWALLE
##NAMES=HP
##CAS NAME=2-Hexenoic acid, 3-methyl-, methyl ester
##MOLFORM=C8H14O2
##CAS REGISTRY NO=50652-80-7
##MP= -300
##BP= -300
##MW= 142
##$RETENTION INDEX=0
##$CONDENSED SPECTRUM=NO
##NPOINTS= 69
##XYDATA=(XY..XY) 1 
    30         10
    31         20
    32         10
    33         10
    37         10
    38         30
    39        400
    40         70
    41        520
    42         70
    43        170
    44         30
    45         30
    50         30
    51         50
    52         30
    53        200
    54         70
    55        650
    56         60
    57         30
    59        300
    60         10
    61         10
    62         10
    63         10
    65         30
    66         20
    67        230
    68         70
    69        450
    70         30
    71         70
    72         20
    73         30
    74        140
    75         10
    77         20
    79         20
    80         10
    81        100
    82        410
    83        360
    84         30
    85        140
    86         40
    87         20
    88         10
    91         10
    93         10
    95        400
    96         30
    97         20
    99        110
   100         10
   101         70
   109         30
   110         30
   111        999
   112         80
   113         40
   114        400
   115         30
   125         40
   127        610
   128         50
   141         20
   142        800
   143         80