##TITLE=Library Entry 21548
##JCAMP-DX=Revision 4.10 
##DATA TYPE=MASS SPECTRUM
##SAMPLE DESCRIPTION=Exported from NIST MS Search
##NAMES=HP
##CAS NAME=2-Hexenoic acid, 2-methyl-, methyl ester
##MOLFORM=C8H14O2
##CAS REGISTRY NO=50652-82-9
##MP= -300
##BP= -300
##MW= 142
##$RETENTION INDEX=1044
##$CONDENSED SPECTRUM=NO
##NPOINTS= 58
##XYDATA=(XY..XY) 1 
    38         10
    39        167
    40         31
    41        397
    42         89
    43        103
    44         43
    45         72
    50         13
    51         26
    52         12
    53        143
    54         58
    55        999
    56         58
    57         55
    58          6
    59        191
    60          4
    65         15
    66          9
    67        133
    68         32
    69        221
    70         21
    71         69
    72         31
    73        170
    74         23
    77         12
    79         24
    81        128
    82        179
    83        417
    84         27
    85         52
    86         12
    87         15
    88        445
    89         12
    97          4
    99        120
   100         26
   101        408
   102         35
   109         43
   110         51
   111        433
   112         34
   113         71
   114         12
   125         10
   127        241
   128         20
   141         18
   142        815
   143         85
   144         12