##TITLE=Library Entry 3460
##JCAMP-DX=Revision 4.10 
##DATA TYPE=MASS SPECTRUM
##SAMPLE DESCRIPTION=Chemical Concepts
##NAMES=HP
##CAS NAME=2-Pentenoic acid, 4-methyl-, methyl ester
##MOLFORM=C7H12O2
##CAS REGISTRY NO=50652-78-3
##MP= -300
##BP= -300
##MW= 128
##$RETENTION INDEX=1229
##$CONDENSED SPECTRUM=NO
##NPOINTS= 75
##XYDATA=(XY..XY) 1 
    27        309
    28         32
    29         80
    30         11
    31         19
    33          4
    35          0
    36          1
    37         12
    38         30
    39        279
    40         40
    41        999
    42         66
    43        150
    44          4
    45         33
    46          1
    47          1
    48          0
    49          6
    50         42
    51         68
    52         31
    53        262
    54         63
    55        187
    56         18
    57         25
    58          3
    59        176
    60          5
    61          4
    62          5
    63          7
    64          1
    65         21
    66         11
    67        186
    68        195
    69        672
    70         39
    71         50
    72          6
    73        369
    74         38
    75          1
    77          3
    78          0
    79         14
    80          3
    81        222
    82         27
    83         10
    84          0
    85        104
    86         22
    87         66
    88          3
    94          0
    95         88
    96        182
    97        460
    98         30
    99          9
   100          1
   101          0
   111          4
   112          0
   113        215
   114         14
   127          9
   128        389
   129         29
   130          2