##TITLE=Library Entry 3853
##JCAMP-DX=Revision 4.10 
##DATA TYPE=MASS SPECTRUM
##SAMPLE DESCRIPTION=M. VANDEWALLE
##NAMES=HP
##CAS NAME=2-Pentenoic acid, 3-methyl-, methyl ester
##MOLFORM=C7H12O2
##CAS REGISTRY NO=50652-79-4
##MP= -300
##BP= -300
##MW= 128
##$RETENTION INDEX=893
##$CONDENSED SPECTRUM=NO
##NPOINTS= 49
##XYDATA=(XY..XY) 1 
    31         10
    32         40
    33         30
    37         10
    38         50
    39        390
    40         80
    41        999
    42         70
    43        210
    44        180
    45         30
    50         30
    51         50
    52         30
    53        170
    54         40
    55        110
    56         20
    57         30
    59        140
    63         10
    65         40
    66         20
    67        250
    68        220
    69        350
    70         30
    71         50
    73         20
    74         30
    79         10
    81        150
    82         20
    83         30
    85         70
    86         20
    87         10
    95        130
    96        310
    97        980
    98         70
    99         80
   110         10
   111         30
   113        170
   127         10
   128        690
   129         60