##TITLE=Library Entry 11886
##JCAMP-DX=Revision 4.10 
##DATA TYPE=MASS SPECTRUM
##SAMPLE DESCRIPTION=M. VANDEWALLE
##NAMES=HP
##CAS NAME=2-Heptenoic acid, 3-methyl-, methyl ester
##MOLFORM=C9H16O2
##CAS REGISTRY NO=50652-81-8
##MP= -300
##BP= -300
##MW= 156
##$RETENTION INDEX=0
##$CONDENSED SPECTRUM=NO
##NPOINTS= 68
##XYDATA=(XY..XY) 1 
    30         10
    31         10
    32         20
    38         10
    39        200
    40         30
    41        260
    42         40
    43        999
    44         40
    50         10
    51         20
    52         10
    53        110
    54         50
    55        300
    56         50
    57         30
    58         10
    59        130
    65         20
    66         10
    67        220
    68         30
    69        160
    70         10
    71         60
    72         20
    73         30
    74         40
    75         10
    77         20
    78         10
    79         20
    80         10
    81         70
    82        230
    83        190
    84         20
    85         70
    86         60
    87         10
    88         60
    91         10
    93         10
    95        430
    96        110
    97         30
    99         60
   100         10
   101         40
   109         30
   111         10
   112         10
   113         10
   114        370
   115         50
   123         10
   124         20
   125        420
   126         30
   127        999
   128         70
   129         10
   139         10
   141         50
   156        590
   157         10