##TITLE=Library Entry 44410
##JCAMP-DX=Revision 4.10 
##DATA TYPE=MASS SPECTRUM
##SAMPLE DESCRIPTION=BAY 0237
##NAMES=HP
##CAS NAME=Prost-13-en-1-oic acid, 9,11,15-tris[(trimethylsilyl)oxy]-, trime
thylsilyl ester, (9.alpha.,11.alpha.,13E,15S)-
##MOLFORM=C32H68O5Si4
##CAS REGISTRY NO=50669-94-8
##MP= -300
##BP= -300
##MW= 644
##$RETENTION INDEX=0
##$CONDENSED SPECTRUM=NO
##NPOINTS= 453
##XYDATA=(XY..XY) 1 
    41         30
    42          6
    43         75
    44         11
    45         45
    46          3
    47         12
    51          1
    53          5
    54          6
    55         84
    56          8
    57         18
    58          7
    59         32
    60          5
    61         17
    62          2
    64          2
    65          3
    66          4
    67         71
    68          8
    69         42
    70          5
    71         26
    72         21
    73        999
    74        135
    75        313
    76         23
    77         24
    78          6
    79         52
    80         15
    81         61
    82          6
    83         32
    84          4
    85         11
    86          3
    87          6
    88          3
    89          9
    90          2
    91         55
    92         11
    93         62
    94         10
    95         43
    96          5
    97         12
    98          3
    99         26
   100          4
   101         32
   102          5
   103         87
   104         12
   105         50
   106         10
   107         30
   108          6
   109         18
   110          3
   111         12
   112          3
   113         12
   114          3
   115         14
   116         28
   117         55
   118         10
   119         36
   120          8
   121         18
   122          4
   123         10
   124          3
   125          5
   126          3
   127         11
   128          7
   129        284
   130         64
   131         62
   132         14
   133         68
   134         13
   135         20
   136          5
   137          6
   138          2
   139          8
   140          4
   141         12
   142         12
   143         43
   144         21
   145         36
   146         11
   147        297
   148         53
   149         68
   150         10
   151         17
   152          3
   153          7
   154          6
   155         32
   156          9
   157         21
   158          5
   159         23
   160          5
   161         22
   162          9
   163         12
   164          3
   165          9
   166          5
   167         42
   168         22
   169         26
   170          8
   171         21
   172          5
   173        129
   174         22
   175         23
   176         23
   177         13
   178          3
   179         31
   180         11
   181         42
   182         71
   183         33
   184          9
   185         15
   186         10
   187         25
   188          6
   189         14
   190          6
   191        290
   192         57
   193         41
   194          9
   195         13
   196          5
   197         13
   198          7
   199        100
   200         21
   201         12
   202          3
   203         19
   204         16
   205         14
   206          5
   207         15
   208          6
   209          8
   210          3
   211          6
   212          7
   213          8
   214          5
   215          8
   216          5
   217        194
   218         59
   219         33
   220          8
   221         25
   222          7
   223         14
   224          5
   225         23
   226          6
   227          5
   228          6
   229          6
   230          5
   231          8
   232          3
   233          4
   234         17
   235          9
   236          3
   237         36
   238         14
   239         12
   240          3
   241         10
   242          6
   243         32
   244          8
   245          5
   246          1
   247          4
   248          1
   249          8
   250          3
   251         17
   252          9
   253          5
   254          2
   255         14
   256         13
   257         37
   258         10
   259         15
   260          3
   261          5
   262          1
   263         22
   264          8
   265         10
   266          4
   267          5
   268          2
   269          6
   270          5
   271          3
   273          4
   274          2
   275          4
   276          3
   277         35
   278         18
   279         15
   280          5
   281          6
   282          3
   283          4
   284          1
   285          3
   287          8
   288          3
   289          2
   291          8
   292          4
   293          5
   294          3
   295          6
   296          4
   297          4
   298          2
   299          3
   300          1
   301          3
   302          1
   303         22
   304          6
   305          5
   306          2
   307          2
   309          2
   311          4
   312          8
   313        213
   314         65
   315         27
   316          6
   317          8
   318          3
   319          3
   320          3
   321          5
   322          3
   323          2
   324          1
   325          4
   326          3
   327          8
   328          3
   329          7
   330          3
   331          3
   332          3
   333          6
   334          3
   335          2
   337          3
   338          5
   339         23
   340         10
   341          9
   342          6
   343          3
   344          1
   347          5
   348         17
   349         14
   350          5
   351          5
   352          4
   353         55
   354         25
   355         24
   356          8
   357          3
   359          2
   364          3
   365          8
   366         28
   367        219
   368         97
   369         43
   370         12
   371          4
   372          3
   373          3
   374         12
   375         15
   376          5
   377          3
   378          1
   379          3
   380          1
   381         13
   382          6
   383          3
   384          5
   385          2
   389          1
   391          3
   392         10
   393        155
   394         57
   395         28
   396          8
   397          3
   398          1
   399          1
   403          1
   407          5
   408          4
   409          2
   410          3
   411          3
   412          1
   413          2
   414          1
   415          1
   421          3
   422          3
   423         19
   424          8
   425         12
   426          6
   427         12
   428         36
   429         23
   430         10
   431          3
   433          3
   434          1
   435          2
   436          3
   437         13
   438         97
   439         61
   440         25
   441         10
   442          5
   443         13
   444          6
   445          3
   449         29
   450         12
   451          6
   452          2
   453          2
   454          5
   455          8
   456          9
   457         46
   458         19
   459          9
   460          3
   461          2
   462          3
   463         15
   464        116
   465         60
   466         24
   467          9
   468          3
   469          3
   470          2
   483        322
   484        142
   485         70
   486         21
   487          6
   488          1
   497          1
   498          4
   499          2
   500          1
   511          2
   512          3
   513         60
   514         28
   515         14
   516          6
   517         43
   518         21
   519         11
   520          4
   521          1
   526          1
   527          1
   528          1
   530          1
   531          3
   532          1
   537          2
   538          5
   539         58
   540         28
   541         14
   542          4
   543          1
   544          1
   545          5
   546          3
   547          1
   551          1
   552          5
   553         18
   554        257
   555        123
   556         59
   557         18
   558          5
   559          1
   573         84
   574         45
   575         23
   576          8
   577          2
   629         32
   630         18
   631         10
   632          3
   633          1
   643          1
   644          2
   645          1