##TITLE=Library Entry 41404
##JCAMP-DX=Revision 4.10 
##DATA TYPE=MASS SPECTRUM
##SAMPLE DESCRIPTION=BAY 0239
##NAMES=HP
##CAS NAME=(+)-Prostaglandin F2.beta., 4TMS derivative
##MOLFORM=C32H66O5Si4
##CAS REGISTRY NO=50669-96-0
##MP= -300
##BP= -300
##MW= 642
##$RETENTION INDEX=0
##$CONDENSED SPECTRUM=NO
##NPOINTS= 463
##XYDATA=(XY..XY) 1 
    41         42
    42         11
    43         58
    44         20
    45         38
    46          3
    47         16
    48          2
    49          3
    50          7
    51          6
    52          5
    53          8
    54          9
    55         60
    56         10
    57         19
    58          6
    59         29
    60          6
    61         16
    62          2
    63          3
    64          2
    65          5
    66          6
    67         66
    68          9
    69         30
    70          6
    71         17
    72         14
    73        999
    74         91
    75        244
    76         20
    77         21
    78         10
    79         35
    80         14
    81         62
    82          8
    83         15
    84          5
    85          8
    86          3
    87          5
    88          2
    89          8
    90          2
    91         41
    92          9
    93         26
    94          6
    95         16
    96          6
    97          8
    98          5
    99         14
   100          2
   101         21
   102          4
   103         62
   104         11
   105         31
   106          9
   107         12
   108          4
   109         18
   110          4
   111          6
   112          2
   113          7
   114          2
   115         11
   116         16
   117         55
   118         11
   119         17
   120          5
   121          8
   122          3
   123          6
   124          2
   125          4
   126          2
   127          7
   128          6
   129        158
   130         38
   131         41
   132         19
   133         36
   134          6
   135         16
   136          3
   137          5
   138          2
   139          5
   140          3
   141          8
   142         13
   143         33
   144         14
   145         25
   146          6
   147        155
   148         27
   149         32
   150          5
   151         11
   152          3
   153          6
   154          8
   155         30
   156          9
   157         18
   158          6
   159         11
   160          4
   161          9
   162          2
   163          6
   164          2
   165          6
   166          5
   167         32
   168         16
   169         28
   170          6
   171         13
   172          4
   173         69
   174         13
   175         12
   176          3
   177          5
   178          2
   179         12
   180          6
   181         22
   182          9
   183         17
   184          6
   185         16
   186          9
   187         15
   188          5
   189          5
   190          3
   191        158
   192         32
   193         27
   194          8
   195          7
   196          3
   197          9
   198          6
   199         60
   200         13
   201          9
   202          3
   203          9
   204         12
   205          9
   206          6
   209          8
   210          3
   211         12
   212          5
   213          6
   214          3
   215          6
   216          2
   217         88
   218         26
   219         20
   220          8
   221         16
   222          5
   223          8
   224          3
   225         11
   226          3
   227          5
   228          4
   229          5
   230          3
   231          4
   232          2
   233          9
   234          3
   235          5
   236          3
   237         32
   238         15
   239         10
   240          5
   241          6
   242          5
   243         23
   244          6
   245          5
   246          2
   247          4
   248          2
   249          6
   250          5
   251          6
   252          2
   253          4
   254          3
   255         14
   256         24
   257         46
   258         13
   259          8
   260          3
   261          6
   262          4
   263         24
   264         11
   265          6
   266          2
   267          5
   268          2
   269          5
   270          2
   271          3
   272          4
   273          5
   274          6
   275         17
   276         13
   277          7
   278          5
   279          4
   280          2
   283          9
   284          3
   285          2
   286          4
   287          9
   288          4
   289          4
   290          2
   291          3
   292          2
   293          2
   294          2
   295          5
   296          3
   297          3
   298          2
   299          3
   300          2
   301         16
   302          5
   303          5
   304          2
   305          2
   306          1
   307          2
   308          1
   309          2
   310          2
   311          2
   312          2
   313         43
   314         13
   315          6
   316          3
   317          3
   318          2
   319          2
   320          2
   321          1
   323          2
   324          1
   325          3
   326          5
   327         12
   328          5
   329          3
   330          8
   331          4
   332          2
   333          2
   334          1
   335          2
   336          3
   337          5
   338          3
   339          6
   340          3
   341          4
   342          2
   343          3
   344          3
   345          2
   346          6
   347          5
   348          3
   349          3
   350          2
   351          5
   352          6
   353         38
   354         13
   355          9
   356          5
   357          3
   358          1
   359          2
   361          1
   362          2
   363          3
   364          4
   365         54
   366         24
   367         13
   368          5
   369          3
   370          2
   371          5
   372         13
   373          8
   374          4
   375          2
   376          1
   377          2
   378          1
   379          5
   380          3
   381          2
   382          2
   383          2
   384          2
   385          2
   386          2
   387          2
   388          2
   389          2
   390          2
   391         49
   392         17
   393          9
   394          3
   395          2
   396          1
   397          1
   399          1
   400          1
   401          2
   403          1
   404          1
   405          2
   406          3
   407          2
   408          2
   409          2
   410          1
   411          1
   412          1
   413          1
   415          2
   416          1
   417          2
   419          2
   420          1
   421          6
   422          2
   423          2
   424          1
   425          2
   426          4
   427          3
   428          2
   429          4
   430          2
   431          2
   433          1
   434          2
   435          2
   436          9
   437          6
   438          5
   439          2
   440          2
   441          2
   442          2
   443         25
   444          9
   445          5
   446          2
   447          8
   448          3
   449          2
   451          2
   452          2
   453          2
   454          2
   455          8
   456          4
   457          2
   458          1
   461          3
   462         25
   463         13
   464          6
   465          3
   466          2
   467          2
   468          1
   469          6
   470          2
   471          2
   479          1
   480          2
   481         49
   482         21
   483         11
   484          3
   485          2
   503          2
   504          1
   509          2
   511          6
   512          3
   513          2
   515          6
   516          3
   517          2
   518          1
   528          1
   529          2
   530          2
   537         11
   538          6
   539          3
   540          2
   541          1
   542          1
   543          2
   544          1
   545          1
   551          2
   552         27
   553         13
   554          7
   555          3
   556          1
   571         13
   572          6
   573          4
   574          2
   627         13
   628          6
   629          3
   630          2
   642          4
   643          2
   644          2