##TITLE=Library Entry 59008
##JCAMP-DX=Revision 4.10 
##DATA TYPE=MASS SPECTRUM
##SAMPLE DESCRIPTION=Japan AIST/NIMC Database- Spectrum MS-IW-6986
##NAMES=HP
##CAS NAME=Boc-S-benzyl-L-cysteine
##MOLFORM=C15H21NO4S
##CAS REGISTRY NO=5068-28-0
##MP= -300
##BP= -300
##MW= 311
##$RETENTION INDEX=0
##$CONDENSED SPECTRUM=NO
##NPOINTS= 147
##XYDATA=(XY..XY) 1 
    15          7
    16          5
    17          1
    18          3
    25          1
    26          7
    27         28
    28         51
    29         28
    30         10
    31         37
    32          3
    33          2
    34          4
    36          1
    37          4
    38          9
    39         83
    40         22
    41        222
    42         30
    43         43
    44        204
    45         43
    46          6
    47          4
    48          1
    49          3
    50         14
    51         25
    52          7
    53         12
    54          5
    55         48
    56        112
    57         50
    58          3
    59        126
    60          7
    61          3
    62          7
    63         15
    64          4
    65         87
    66          5
    67          1
    68          1
    69          6
    70          3
    71          8
    72          1
    73          3
    74         35
    75          4
    76          3
    77         20
    78          9
    79          6
    81          2
    82          1
    83          3
    84          1
    85          3
    86          2
    87          6
    88          3
    89         32
    90          9
    91        999
    92         92
    93          4
    95          2
    96          1
    97          4
    99          1
   100          1
   101          1
   102          3
   103          2
   104          2
   105          2
   106          4
   107          1
   108          1
   109          2
   110          1
   111          2
   112          1
   113          4
   115          1
   117          1
   118          1
   119          1
   120          3
   121         24
   122         34
   123         39
   124         77
   125          7
   126          3
   128          1
   130          1
   131          1
   132          2
   133          2
   134          2
   135          4
   136          1
   137        215
   138         63
   139         14
   140          3
   141          1
   146          2
   147          1
   148          7
   149          6
   150          1
   151          1
   161          9
   162          1
   163          1
   164          5
   165         19
   166          9
   167          2
   168          1
   176          9
   177          2
   191          1
   192          1
   193          4
   194         27
   195          3
   196          1
   210          7
   211         13
   212          2
   237        100
   238         16
   239          7
   240          1
   254          5
   255         58
   256          8
   257          4
   311          2