##TITLE=Library Entry 12723
##JCAMP-DX=Revision 4.10 
##DATA TYPE=MASS SPECTRUM
##SAMPLE DESCRIPTION=Div. of Experiment Therapeutics WRAIR, WRAMC, Washingto
n DC 20307
##NAMES=HP
##CAS NAME=5-Cholesten-3.beta.,26-diol-16-one diacetate
##MOLFORM=C31H48O5
##CAS REGISTRY NO=50681-35-1
##MP= -300
##BP= -300
##MW= 500
##$RETENTION INDEX=0
##$CONDENSED SPECTRUM=NO
##NPOINTS= 132
##XYDATA=(XY..XY) 1 
    41        192
    43        999
    44         14
    45          9
    49         26
    51          8
    53         35
    55        361
    57         92
    59         17
    61         30
    65          9
    66          3
    67        154
    69        341
    70         13
    71         33
    73         31
    77         40
    79        144
    81        300
    83         78
    84         10
    85         20
    86          4
    91        147
    93        155
    95        160
    97         70
    98          3
    99          7
   103          7
   105        196
   107        188
   109        143
   110         11
   111         33
   115         29
   117         74
   119         97
   120         56
   121         84
   122          7
   123         52
   125         19
   128         13
   129         42
   131         98
   133        104
   135         65
   137         21
   139         19
   141         28
   142         12
   143        114
   145        188
   147         97
   148         19
   149         43
   151         19
   153         57
   155         24
   158        400
   159        105
   160         21
   161         51
   162          5
   163         22
   165          5
   169         29
   171         55
   173         37
   175         22
   177          4
   181          4
   183         21
   184          5
   185         32
   187         15
   189         13
   195         17
   197        186
   198         22
   199         31
   200          4
   201          7
   209          4
   211         32
   212         47
   213        258
   214         28
   215         28
   216          5
   225         14
   226         13
   227         17
   228         13
   229          4
   235          4
   239         18
   251        115
   252         20
   253         23
   255        200
   256         22
   267          4
   269         40
   270         23
   273         17
   297         21
   305         21
   315         20
   322         37
   323          8
   347         16
   362         50
   363         15
   365         64
   366         47
   367          9
   380        233
   381         71
   382          9
   407         22
   411          7
   422         44
   423         10
   425         22
   426         95
   427         33
   440        128
   441         38