##TITLE=Library Entry 13978
##JCAMP-DX=Revision 4.10 
##DATA TYPE=MASS SPECTRUM
##SAMPLE DESCRIPTION=Chemical Concepts
##NAMES=HP
##CAS NAME=.alpha.-d-Mannopyranosyl bromide, 6-deoxy-6-iodo-, triacetate
##MOLFORM=C12H16BrIO7
##CAS REGISTRY NO=50692-56-3
##MP= -300
##BP= -300
##MW= 478
##$RETENTION INDEX=0
##$CONDENSED SPECTRUM=NO
##NPOINTS= 334
##XYDATA=(XY..XY) 1 
    25          1
    26          5
    27         41
    28         15
    29         37
    30          2
    31         10
    33          1
    35          2
    36          6
    37          2
    38          6
    39         54
    40          9
    41         42
    42         58
    43        999
    44         96
    45         37
    46          1
    47          1
    48          1
    49          3
    50          5
    51         11
    52          9
    53         27
    54         20
    55         49
    56         13
    57         37
    58          7
    59          5
    60         47
    61         19
    62          2
    63          4
    64          5
    65         13
    66          7
    67         15
    68         14
    69         48
    70         24
    71         43
    72          4
    73         49
    74          5
    75          4
    76          7
    77          7
    78          7
    79         13
    80         32
    81        145
    82        126
    83         68
    84         11
    85         43
    86         16
    87         14
    88          3
    89          9
    90          1
    91          7
    92          2
    93          8
    94         24
    95         14
    96          9
    97        122
    98         27
    99         85
   100         16
   101         12
   102         18
   103         45
   104          9
   105          4
   106          3
   107          5
   108          4
   109        115
   110        172
   111         80
   112         17
   113         25
   114          5
   115         51
   116          5
   117          5
   118          1
   119          5
   120          5
   121          6
   122          4
   123          3
   124          7
   125          7
   126         11
   127        196
   128         63
   129         20
   130          8
   131         21
   132          4
   133          4
   134          2
   135          5
   136          3
   137          6
   138          4
   139         73
   140         11
   141         40
   142         13
   143         10
   144          6
   145         20
   146          2
   147          4
   148          3
   149         76
   150          9
   151          6
   152        132
   153         29
   154          8
   155         33
   156          5
   157         13
   158          2
   159          4
   160          1
   161          4
   162          4
   163          7
   164          3
   165          6
   166          2
   167         11
   168          2
   169         44
   170         11
   171         10
   172          3
   173         10
   174          4
   175          2
   176          3
   177          5
   178          2
   179          3
   180          3
   181          7
   182          3
   183         27
   184          4
   185         11
   186          3
   187          5
   188          3
   189         34
   190          6
   191         34
   192          4
   193          3
   194          4
   195         35
   196          4
   197         16
   198          2
   199         16
   200          1
   201          1
   202          1
   203          3
   204          1
   205         10
   206          2
   207          6
   208          4
   209         85
   210          5
   211          5
   212          3
   213          6
   214          2
   215          3
   216          0
   217          1
   218          1
   219          3
   220          2
   221         10
   222          1
   223          7
   224          1
   225         25
   226          2
   227          7
   228          4
   229          5
   230          7
   231         26
   232          5
   233         23
   234          4
   235          1
   236          4
   237        952
   238         74
   239         11
   240          0
   241          2
   242          2
   243          3
   244          0
   245          0
   246          3
   247          1
   248          1
   249          3
   250          3
   251          3
   252          1
   253          7
   254          8
   255         54
   256          6
   257          1
   258          0
   259          1
   260          0
   262          0
   263          1
   265          1
   266          1
   267         11
   268          2
   269          1
   270          0
   271          1
   272          1
   273          8
   274          0
   275          1
   276          0
   277          1
   278          0
   279        108
   280         20
   281          5
   282          0
   283          1
   284          1
   285          1
   286          4
   287          8
   288          4
   289          1
   290          1
   291          7
   292          2
   293          6
   294          0
   295          2
   296          9
   297         96
   298         10
   299          4
   300          0
   301          2
   307          1
   308          1
   309          1
   310          1
   311          1
   313          0
   315          1
   316          1
   317          2
   318          1
   319          1
   321          1
   322          1
   323          1
   324          2
   325          2
   326          0
   327          0
   328          1
   330          1
   331          5
   332          2
   333          0
   334          0
   339        109
   340         12
   341          1
   344          1
   347          1
   349          3
   351         83
   352         15
   353         87
   354         15
   355          3
   356         16
   357          4
   370          2
   378          2
   380          2
   384          1
   385          0
   386          1
   387          0
   389          1
   390          0
   391          1
   392          0
   393          0
   395          0
   396          1
   399        250
   400         42
   401          7
   406          1
   407          2
   408          1
   409          0
   418          2
   478          8
   479          2