##TITLE=Library Entry 109757
##JCAMP-DX=Revision 4.10 
##DATA TYPE=MASS SPECTRUM
##SAMPLE DESCRIPTION=Exported from NIST MS Search
##NAMES=HP
##CAS NAME=Thiophene, 2,5-diethyl-
##MOLFORM=C8H12S
##CAS REGISTRY NO=5069-23-8
##MP= -300
##BP= -300
##MW= 140
##$RETENTION INDEX=1034
##$CONDENSED SPECTRUM=NO
##NPOINTS= 95
##XYDATA=(XY..XY) 1 
    34          3
    35          1
    36          1
    37          9
    38         19
    39         95
    40          9
    41         38
    42          1
    43          1
    44          1
    45        111
    46          6
    47         17
    48          1
    49          4
    50         24
    51         45
    52         13
    53         26
    54          3
    55          5
    56          1
    57         10
    58         25
    59         29
    60          4
    61          9
    62         12
    63         23
    64          4
    65         36
    66         17
    67         16
    68          3
    69         38
    70         11
    71         36
    72          4
    73         13
    74          6
    75          5
    76          3
    77         43
    78         16
    79         27
    80          3
    81         15
    82          8
    83          5
    84         10
    85         18
    86          3
    87          2
    89          5
    90          3
    91         85
    92         28
    93          7
    94          1
    95         13
    96          5
    97         65
    98          6
    99          6
   100          1
   101          1
   102          1
   103          3
   104          1
   105          5
   106          2
   107          1
   108          3
   109         16
   110         93
   111        105
   112         14
   113          5
   114          1
   121          6
   122          3
   123         49
   124         25
   125        999
   126         88
   127         47
   128          4
   137          3
   138          2
   139         38
   140        360
   141         37
   142         16
   143          1