##TITLE=Library Entry 42769
##JCAMP-DX=Revision 4.10 
##DATA TYPE=MASS SPECTRUM
##SAMPLE DESCRIPTION=M. WURST, OSTBOHMISCHE CHEM. SYNTH. VEB., FRANKFURT, W.
 GER.
##NAMES=HP
##CAS NAME=1,1,1,3,5,7,9,11,11,11-Decamethyl-5-(trimethylsiloxy)hexasiloxane
##MOLFORM=C13H42O6Si7
##CAS REGISTRY NO=50694-26-3
##MP= -300
##BP= -300
##MW= 490
##$RETENTION INDEX=0
##$CONDENSED SPECTRUM=NO
##NPOINTS= 20
##XYDATA=(XY..XY) 1 
    45         60
    59         80
    73        999
    74         90
    75         60
   133         80
   147        230
   148         60
   207        120
   221         80
   267         80
   281         80
   325         90
   327         90
   341        230
   342         90
   343         60
   355         60
   475        110
   476         60