##TITLE=Library Entry 46463
##JCAMP-DX=Revision 4.10 
##DATA TYPE=MASS SPECTRUM
##SAMPLE DESCRIPTION=COMPAGNIE FRANCAISE DE RAFFINAGE, FRANCE.
##NAMES=HP
##CAS NAME=Butane, 2,3-dichloro-2-methyl-
##MOLFORM=C5H10Cl2
##CAS REGISTRY NO=507-45-9
##MP= -300
##BP= -300
##MW= 140
##$RETENTION INDEX=793
##$CONDENSED SPECTRUM=NO
##NPOINTS= 66
##XYDATA=(XY..XY) 1 
    25          1
    26         19
    27        166
    28         20
    29         47
    30          1
    31          4
    35          5
    36         34
    37          9
    38         26
    39        140
    40         24
    41        506
    42         50
    43         74
    44          2
    47          1
    48          1
    49         23
    50         17
    51         33
    52          8
    53         97
    54         10
    55         78
    56          4
    57          4
    60          1
    61         15
    62          9
    63         78
    64          4
    65         25
    66          2
    67         18
    68          6
    69        237
    70         31
    71          3
    73          3
    75          9
    76        327
    77        999
    78        141
    79        325
    80         11
    83          2
    85          2
    87          1
    89         41
    90          3
    91         13
    92          1
    97          3
    99          2
   104          6
   105         92
   106          7
   107         29
   108          1
   125         14
   126          1
   127          9
   129          1
   140          0