##TITLE=Library Entry 38378
##JCAMP-DX=Revision 4.10 
##DATA TYPE=MASS SPECTRUM
##SAMPLE DESCRIPTION=Japan AIST/NIMC Database- Spectrum MS-NW-3226
##NAMES=HP
##CAS NAME=Butane, 2-bromo-2-methyl-
##MOLFORM=C5H11Br
##CAS REGISTRY NO=507-36-8
##MP= -300
##BP= -300
##MW= 150
##$RETENTION INDEX=750
##$CONDENSED SPECTRUM=NO
##NPOINTS= 65
##XYDATA=(XY..XY) 1 
    14          3
    15         18
    25          2
    26         22
    27        210
    28         15
    29        280
    30          7
    36          9
    37         11
    38         27
    39        247
    40         37
    41        415
    42        157
    43        955
    44         33
    45          1
    49          4
    50         22
    51         28
    52         11
    53         74
    54         19
    55        591
    56         35
    57          5
    59          5
    60          1
    61          4
    62          4
    63          5
    65          6
    66          2
    67         15
    68          4
    69         36
    70        175
    71        999
    72         57
    73          3
    76          3
    77          5
    78          1
    79          9
    80         17
    81          9
    82         18
    91          1
    93          3
    95          2
   105          1
   107          8
   109          5
   120          3
   121         27
   122          4
   123         27
   127          3
   128          6
   135          5
   137          5
   149         10
   150          1
   151         10