##TITLE=Library Entry 16409
##JCAMP-DX=Revision 4.10 
##DATA TYPE=MASS SPECTRUM
##SAMPLE DESCRIPTION=NIST Mass Spectrometry Data Center, 1994
##NAMES=HP
##CAS NAME=Perfluoroglutaramide
##MOLFORM=C5H4F6N2O2
##CAS REGISTRY NO=507-68-6
##MP= -300
##BP= -300
##MW= 238
##$RETENTION INDEX=0
##$CONDENSED SPECTRUM=NO
##NPOINTS= 43
##XYDATA=(XY..XY) 1 
    16         18
    17          2
    18          1
    29          8
    31         19
    44        999
    45         30
    46          9
    47          1
    51         30
    64          7
    66         36
    67         59
    69          6
    77          8
    78          9
    81          3
    82          2
    90          4
    91          6
    93          2
    95        230
    96          7
    97          7
   105          0
   108          5
   109          4
   112          7
   113          5
   116          9
   119         15
   126          1
   128          4
   136          9
   144         13
   146         12
   156         11
   171          5
   172         26
   175        260
   176         17
   195        145
   196          9