##TITLE=Library Entry 68442
##JCAMP-DX=Revision 4.10 
##DATA TYPE=MASS SPECTRUM
##SAMPLE DESCRIPTION=NIST Mass Spectrometry Data Center
##NAMES=HP
##CAS NAME=endo-Borneol
##MOLFORM=C10H18O
##CAS REGISTRY NO=507-70-0
##MP= -300
##BP= -300
##MW= 154
##$RETENTION INDEX=1167
##$CONDENSED SPECTRUM=NO
##NPOINTS= 94
##XYDATA=(XY..XY) 1 
    15          6
    18          2
    19          1
    26          3
    27         59
    28         12
    29         61
    30          2
    31         10
    37          1
    38          3
    39         87
    40         15
    41        166
    42         17
    43         97
    44         14
    45          7
    50          4
    51         16
    52          8
    53         53
    54         11
    55         98
    56         13
    57         30
    58          3
    59          5
    60          1
    61          1
    62          1
    63          5
    64          1
    65         24
    66          8
    67        110
    68         18
    69         75
    70         26
    71         51
    72         19
    73          1
    74          1
    75          1
    77         50
    78         10
    79         58
    80         13
    81         42
    82         39
    83         43
    84         36
    85          9
    86          2
    89          1
    91         44
    92         29
    93         95
    94         19
    95        999
    96         93
    97         18
    98          6
    99          9
   100          2
   103          3
   104          1
   105         19
   106          4
   107         17
   108         33
   109         29
   110        215
   111         48
   112          4
   113          7
   114          1
   115          1
   117          1
   119          4
   121         70
   122          7
   123          8
   124          1
   125          3
   126          1
   135          1
   136         60
   137          7
   139         81
   140          8
   152          2
   153          1
   154          4