##TITLE=Library Entry 8146
##JCAMP-DX=Revision 4.10 
##DATA TYPE=MASS SPECTRUM
##SAMPLE DESCRIPTION=NIST Mass Spectrometry Data Center
##NAMES=HP
##CAS NAME=2-Trifluoromethyl-2-propanol
##MOLFORM=C4H7F3O
##CAS REGISTRY NO=507-52-8
##MP= -300
##BP= -300
##MW= 128
##$RETENTION INDEX=0
##$CONDENSED SPECTRUM=NO
##NPOINTS= 66
##XYDATA=(XY..XY) 1 
    12          3
    13         10
    14         55
    15        251
    16          4
    17          1
    19          4
    20          1
    25          4
    26         29
    27        102
    29        128
    31        532
    33         18
    36          1
    37         18
    38         35
    39        126
    40         18
    41        235
    42        100
    43        999
    44         34
    45         21
    46         13
    47         64
    48          2
    49         16
    50         20
    51         42
    53          3
    55          7
    56          4
    57         23
    59        713
    60         28
    61        131
    63        169
    64         25
    65         40
    66          1
    67         15
    69        129
    70          2
    71          9
    73          4
    75         13
    76          2
    77          8
    78          1
    79          5
    83          1
    88          1
    89         13
    90          8
    91         47
    92          7
    93         28
    94          6
    95         10
   105          1
   109          1
   110          3
   111          3
   113        228
   114          7