##TITLE=Library Entry 8286
##JCAMP-DX=Revision 4.10 
##DATA TYPE=MASS SPECTRUM
##SAMPLE DESCRIPTION=NIST Mass Spectrometry Data Center, 1998.
##NAMES=HP
##CAS NAME=Thioacetic acid
##MOLFORM=C2H4OS
##CAS REGISTRY NO=507-09-5
##MP= -300
##BP= -300
##MW= 76
##$RETENTION INDEX=1124
##$CONDENSED SPECTRUM=NO
##NPOINTS= 37
##XYDATA=(XY..XY) 1 
    12          1
    13          3
    14          9
    15         59
    16          1
    24          1
    25          3
    26          4
    27          2
    28          5
    29          9
    32         30
    33         58
    34          8
    35          3
    40          4
    41         21
    42        105
    43        999
    44         47
    45         70
    46         10
    47         27
    48          4
    49          2
    56         10
    57         27
    58         22
    59         11
    60         22
    61        115
    62          3
    63          5
    72          1
    76         23
    77          1
    78          1