##TITLE=Library Entry 59616
##JCAMP-DX=Revision 4.10 
##DATA TYPE=MASS SPECTRUM
##SAMPLE DESCRIPTION=Div. of Experiment Therapeutics WRAIR, WRAMC, Washingto
n DC 20307
##NAMES=HP
##CAS NAME=4-Methyl-2-nitrophenylhydrazine
##MOLFORM=C7H9N3O2
##CAS REGISTRY NO=50707-83-0
##MP= -300
##BP= -300
##MW= 167
##$RETENTION INDEX=0
##$CONDENSED SPECTRUM=NO
##NPOINTS= 69
##XYDATA=(XY..XY) 1 
    41        203
    42         50
    43         40
    44          4
    45         11
    46         13
    47          2
    48          2
    49         30
    50        132
    51        397
    52        251
    53        156
    54        175
    55          7
    56          1
    57          3
    59          5
    61         24
    62         70
    63        222
    65        747
    66        675
    67        101
    68         10
    69          3
    71          1
    73          4
    74         17
    75         25
    76         52
    77        411
    78        219
    79         66
    80         16
    81          2
    84         35
    86         23
    87         12
    89        181
    91        999
    92        147
    93         67
    94         16
    95          1
    99          2
   102         16
   103          7
   104        325
   105         82
   106         42
   107         16
   118          4
   119         21
   120         10
   121          8
   122          8
   123          1
   132         15
   133         34
   134          5
   149         42
   150         18
   151         15
   152          3
   165          6
   167        497
   168         43
   169          4