##TITLE=Library Entry 96735
##JCAMP-DX=Revision 4.10 
##DATA TYPE=MASS SPECTRUM
##SAMPLE DESCRIPTION=NIST Mass Spectrometry Data Center, 1994
##NAMES=HP
##CAS NAME=4-Chloro-2-methylbenzonitrile
##MOLFORM=C8H6ClN
##CAS REGISTRY NO=50712-68-0
##MP= -300
##BP= -300
##MW= 151
##$RETENTION INDEX=0
##$CONDENSED SPECTRUM=NO
##NPOINTS= 73
##XYDATA=(XY..XY) 1 
    14          4
    15          7
    25          3
    26         17
    27         22
    28          9
    35          6
    36          9
    37         55
    38         63
    39        114
    40          9
    41          6
    43         19
    44         12
    47          7
    48          6
    49         35
    50         96
    51         73
    52         25
    53          2
    57          9
    58         58
    60         17
    61         66
    62        111
    63        170
    64         51
    65         20
    66          2
    71          1
    72         10
    73         49
    74         34
    75         64
    76         32
    78          2
    84         11
    85         26
    86         34
    87         59
    88         74
    89        291
    90         41
    91          2
    96          2
    97         14
    98          9
    99         24
   100         16
   101          4
   102          3
   109          2
   110          3
   111          6
   112          3
   113          2
   114         56
   115          2
   116        999
   117         85
   118          4
   123         48
   124         35
   125         21
   126         11
   127          2
   150         67
   151        456
   152         59
   153        144
   154         12