##TITLE=Library Entry 3688
##JCAMP-DX=Revision 4.10 
##DATA TYPE=MASS SPECTRUM
##SAMPLE DESCRIPTION=Chemical Concepts
##NAMES=HP
##CAS NAME=Oxiranemethanol, 3-methyl-3-(4-methyl-3-pentenyl)-
##MOLFORM=C10H18O2
##CAS REGISTRY NO=50727-94-1
##MP= -300
##BP= -300
##MW= 170
##$RETENTION INDEX=0
##$CONDENSED SPECTRUM=NO
##NPOINTS= 98
##XYDATA=(XY..XY) 1 
    26         10
    27        170
    28         30
    29        151
    30         28
    31         87
    38          8
    39        242
    40         44
    41        999
    42         89
    43        602
    44         24
    45         39
    50         10
    51         30
    52         14
    53        133
    54         47
    55        366
    56         99
    57        111
    58         33
    59        107
    60          8
    61        121
    62          6
    63         10
    65         37
    66         16
    67        474
    68        119
    69        794
    70        164
    71        159
    72         24
    73         22
    77         50
    78         10
    79         82
    80         17
    81        208
    82        804
    83        198
    84         51
    85         61
    86          8
    87         24
    88        143
    89         10
    91         47
    92         13
    93         78
    94         33
    95        142
    96         23
    97         54
    98         13
    99          8
   101         29
   105         24
   106          9
   107         29
   108         18
   109        367
   110        112
   111         46
   112          9
   113          7
   114         12
   115          8
   118          3
   119         36
   120          7
   121         57
   122          5
   123         16
   124          6
   125          8
   126          3
   127         12
   128          2
   133          2
   134         12
   135         13
   136          3
   137         13
   138          4
   139         50
   140          6
   141          9
   142          2
   152         23
   153          4
   155          8
   156          2
   170         14
   171          1