##TITLE=Library Entry 6164
##JCAMP-DX=Revision 4.10 
##DATA TYPE=MASS SPECTRUM
##SAMPLE DESCRIPTION=Chemical Concepts
##NAMES=HP
##CAS NAME=Geranyl acetate, 2,3-epoxy-
##MOLFORM=C12H20O3
##CAS REGISTRY NO=50727-95-2
##MP= -300
##BP= -300
##MW= 212
##$RETENTION INDEX=0
##$CONDENSED SPECTRUM=NO
##NPOINTS= 100
##XYDATA=(XY..XY) 1 
    26          5
    27         75
    29         43
    30          1
    31          4
    38          3
    39         85
    40         16
    41        398
    42         25
    43        999
    44         26
    45          4
    50          2
    51          7
    52          4
    53         52
    54         16
    55         89
    56          8
    58          4
    59         22
    60          3
    61         10
    63          1
    65         10
    66          6
    67        175
    68         73
    69        282
    70         38
    71         71
    72         13
    73         11
    77         11
    78          3
    79         39
    80         10
    81         81
    82        134
    83         34
    84         38
    85         35
    86          8
    87         56
    88         25
    89          1
    91          7
    92          3
    93         22
    94         21
    95         75
    96         12
    97          9
    98          2
    99          5
   100          1
   101         12
   102          1
   103         69
   104          3
   105          6
   106          3
   107         11
   108          9
   109        248
   110         46
   111         10
   112          8
   113          2
   114          4
   119         27
   120          2
   121         12
   122          2
   123          5
   124          3
   125          3
   126          4
   127          6
   129         10
   130          5
   133          1
   134         27
   135          4
   136          1
   137          5
   138          1
   139          3
   143          1
   151          1
   152         12
   153          3
   154          0
   155          2
   169          5
   170          1
   194          1
   197          8
   212          4