##TITLE=Library Entry 8169
##JCAMP-DX=Revision 4.10 
##DATA TYPE=MASS SPECTRUM
##SAMPLE DESCRIPTION=LAC, NIDDK, NIH, Bethesda, MD 20892
##NAMES=HP
##CAS NAME=1,2-Dihydroprednisolone, 21-O-acetyl-11-thiocaynato-
##MOLFORM=C24H31NO6S
##CAS REGISTRY NO=50733-59-0
##MP= -300
##BP= -300
##MW= 461
##$RETENTION INDEX=0
##$CONDENSED SPECTRUM=NO
##NPOINTS= 232
##XYDATA=(XY..XY) 1 
    41        128
    42        146
    43        999
    44         72
    45         44
    46         14
    51         10
    52          6
    53         49
    54          4
    55        148
    56          9
    57         21
    58        105
    59        706
    60         42
    61         46
    65         30
    66         12
    67         63
    68         16
    69         45
    70          5
    71         19
    73         62
    74         29
    77         84
    78         21
    79         90
    80         13
    81         42
    82         10
    83         21
    84          6
    85          6
    87          6
    89          5
    91        141
    92         20
    93         55
    94         13
    95         50
    96         15
    97         56
    98          8
    99          8
   101         17
   102          9
   103         22
   104         11
   105         87
   106         18
   107         53
   108         17
   109         33
   110         13
   111         13
   115         42
   116         15
   117         42
   118         12
   119         45
   120         16
   121         99
   122        101
   123         56
   124         21
   125          6
   127         14
   128         35
   129         40
   130         13
   131         41
   132         12
   133         47
   134         30
   135         65
   136         50
   137         21
   138          4
   139         13
   141         31
   142         17
   143         34
   144         14
   145         32
   146         14
   147         49
   148         19
   149         19
   150          7
   151          7
   152         16
   153         26
   154         16
   155         32
   156         10
   157         21
   158         10
   159         33
   160         21
   161         59
   162         22
   163         33
   164          6
   165         32
   166         14
   167         24
   168         14
   169         35
   170         11
   171         19
   172          9
   173         25
   174         10
   175         14
   176          6
   177          8
   178         13
   179         19
   180          7
   181         23
   182         14
   183         29
   184         11
   185         18
   186          8
   187         18
   188          8
   189         20
   190          6
   191          9
   192          9
   193         11
   194          7
   195         25
   196         17
   197         28
   198         12
   199         17
   200          7
   201         14
   202         10
   203          8
   205         10
   206          5
   207         23
   208          8
   209         24
   210         18
   211         22
   212         11
   213         20
   214          9
   215         13
   216          5
   217          4
   219          6
   220          5
   221         14
   222          6
   223         50
   224         15
   225         77
   226         19
   227         14
   228          9
   229         11
   230          7
   231         10
   235          9
   236          5
   237         15
   238         63
   239         53
   240         25
   241         24
   242          8
   243         20
   244         22
   245          8
   247          6
   249         15
   250         15
   251         14
   253         12
   254         23
   255         41
   256         31
   257         42
   258         17
   259          6
   263         17
   264          8
   265         57
   266         13
   267         14
   268          8
   271          4
   272         46
   273         12
   281         17
   282         15
   283         39
   284          8
   285          7
   286          5
   291         26
   292          5
   293         12
   296          4
   299         10
   300         28
   301        103
   302         20
   306         31
   307          9
   309         27
   310          6
   311          4
   314          5
   324         12
   325          5
   327          4
   342         64
   343         21
   344          5
   366          5
   384         23
   385          7
   402         24
   403          8