##TITLE=Library Entry 70735
##JCAMP-DX=Revision 4.10 
##DATA TYPE=MASS SPECTRUM
##SAMPLE DESCRIPTION=NIST Mass Spectrometry Data Center, 1994
##NAMES=HP
##CAS NAME=1,5-Dimethyl-2-pyrrolidinone
##MOLFORM=C6H11NO
##CAS REGISTRY NO=5075-92-3
##MP= -300
##BP= -300
##MW= 113
##$RETENTION INDEX=0
##$CONDENSED SPECTRUM=NO
##NPOINTS= 49
##XYDATA=(XY..XY) 1 
     4          0
    14          5
    15         48
    16          1
    18          1
    26         24
    27         87
    28        109
    29         39
    30         33
    31          2
    37          3
    38          9
    39         56
    40          2
    41        264
    42        224
    43         26
    44         11
    49          1
    50          8
    51          8
    52          8
    53         18
    54         29
    55         84
    56         94
    57         26
    58         77
    59          3
    66          2
    67          7
    68         40
    69         17
    70         88
    71         13
    80          6
    81          3
    82          7
    83         12
    84          7
    85          1
    94          2
    98        999
    99         56
   100          3
   112         56
   113        205
   114         16