##TITLE=Library Entry 4538
##JCAMP-DX=Revision 4.10 
##DATA TYPE=MASS SPECTRUM
##SAMPLE DESCRIPTION=NIST Mass Spectrometry Data Center, 1994
##NAMES=HP
##CAS NAME=Sarcosine anhydride
##MOLFORM=C6H10N2O2
##CAS REGISTRY NO=5076-82-4
##MP= -300
##BP= -300
##MW= 142
##$RETENTION INDEX=0
##$CONDENSED SPECTRUM=NO
##NPOINTS= 49
##XYDATA=(XY..XY) 1 
    15        353
    16          4
    17          0
    18          4
    25          1
    26          8
    27         29
    28        113
    29         14
    30         17
    38          5
    39         12
    40         53
    41        125
    42        999
    43        604
    44        547
    45         23
    51          2
    52          4
    53          2
    54          6
    55         15
    56         58
    57        485
    58         25
    67          0
    68          1
    69          2
    70          2
    71          4
    72          5
    73          1
    83          1
    85        109
    86          7
    87          1
    97          1
    98          1
    99          6
   100          1
   113         56
   114         40
   115          2
   127          2
   140          0
   142        474
   143         35
   144          3