##TITLE=Library Entry 98801
##JCAMP-DX=Revision 4.10 
##DATA TYPE=MASS SPECTRUM
##SAMPLE DESCRIPTION=NIST Mass Spectrometry Data Center
##NAMES=HP
##CAS NAME=Bicyclo[3.1.1]hept-2-en-6-ol, 2,7,7-trimethyl-, acetate, [1S-(1.a
lpha.,5.alpha.,6.beta.)]-
##MOLFORM=C12H18O2
##CAS REGISTRY NO=50764-55-1
##MP= -300
##BP= -300
##MW= 194
##$RETENTION INDEX=1239
##$CONDENSED SPECTRUM=NO
##NPOINTS= 91
##XYDATA=(XY..XY) 1 
    15          1
    27         47
    29         38
    31          5
    37          2
    38          5
    39        119
    40         19
    41        230
    42         20
    43        846
    44         22
    45         10
    50         10
    51         45
    52         18
    53         80
    54         11
    55         90
    56         13
    57         34
    58          5
    59        115
    60          5
    61          3
    62          5
    63         22
    64          7
    65         85
    66         20
    67        100
    68         18
    69        104
    70         14
    71          8
    72         34
    73          5
    74          3
    75          3
    76          2
    77        151
    78         36
    79        132
    80        134
    81        221
    82         53
    83         55
    84         43
    86          3
    89          7
    91        251
    92         73
    93        135
    94         62
    95        107
    96         70
    97         20
   101         26
   102          5
   103         27
   104         10
   105        105
   106         26
   107        141
   108         42
   109        268
   110         27
   111          4
   114         15
   115         17
   116          5
   117         31
   118          6
   119        999
   120        100
   121        179
   122         20
   123        120
   124         14
   131          3
   132          3
   133         23
   134        290
   135         38
   136          7
   137         76
   138          8
   151         14
   152         10
   179          2
   194          2