##TITLE=Library Entry 86323
##JCAMP-DX=Revision 4.10 
##DATA TYPE=MASS SPECTRUM
##SAMPLE DESCRIPTION=Exported from NIST MS Search
##NAMES=HP
##CAS NAME=Benzene, 1-ethoxy-4-methoxy-
##MOLFORM=C9H12O2
##CAS REGISTRY NO=5076-72-2
##MP= -300
##BP= -300
##MW= 152
##$RETENTION INDEX=0
##$CONDENSED SPECTRUM=NO
##NPOINTS= 71
##XYDATA=(XY..XY) 1 
    15         94
    25          6
    26        123
    27        282
    29        211
    30          8
    31          6
    37         15
    38         74
    39        158
    40         12
    41        159
    42         12
    43         24
    44          5
    45          3
    49          5
    50         73
    51         98
    52        139
    53        179
    54        115
    55         42
    56          3
    61         17
    62         50
    63        152
    64        136
    65        123
    66         33
    67         21
    68          6
    69         14
    74         20
    75         14
    76         15
    77         68
    78         12
    79         41
    80         61
    81        250
    82         44
    83          3
    91         11
    92         65
    93         14
    94         32
    95        228
    96         23
    97          4
   107         18
   108         26
   109        999
   110         71
   111          8
   119          6
   121         11
   122         12
   123        459
   124        853
   125         65
   126          6
   135          3
   136          3
   137         18
   138          2
   149          3
   151          6
   152        727
   153         71
   154          6