##TITLE=Library Entry 34357
##JCAMP-DX=Revision 4.10 
##DATA TYPE=MASS SPECTRUM
##SAMPLE DESCRIPTION=B. Derendyaev, Novosibirsk Institute of Organic Chemist
ry
##NAMES=HP
##CAS NAME=1,6:2,3-Dianhydro-4-deoxy-.beta.-d-lyxo-hexopyranose
##MOLFORM=C6H8O3
##CAS REGISTRY NO=50767-54-9
##MP= -300
##BP= -300
##MW= 128
##$RETENTION INDEX=0
##$CONDENSED SPECTRUM=NO
##NPOINTS= 15
##XYDATA=(XY..XY) 1 
    40        109
    41        809
    42        329
    43        689
    44        559
    53        279
    54        569
    55        219
    57        249
    69        999
    70        189
    71        169
    81        779
    82        729
    83         99