##TITLE=Library Entry 24595
##JCAMP-DX=Revision 4.10 
##DATA TYPE=MASS SPECTRUM
##SAMPLE DESCRIPTION=B. Derendyaev, Novosibirsk Institute of Organic Chemist
ry
##NAMES=HP
##CAS NAME=1,6:3,4-Dianhydro-2-deoxy-.beta.-d-ribo-hexopyranose
##MOLFORM=C6H8O3
##CAS REGISTRY NO=50767-52-7
##MP= -300
##BP= -300
##MW= 128
##$RETENTION INDEX=0
##$CONDENSED SPECTRUM=NO
##NPOINTS= 14
##XYDATA=(XY..XY) 1 
    41        169
    42        189
    43        669
    44        959
    45        469
    55        729
    57        999
    69        159
    71        229
    72        449
    81        159
    82        289
    83        839
    85        369