##TITLE=Library Entry 30948
##JCAMP-DX=Revision 4.10 
##DATA TYPE=MASS SPECTRUM
##SAMPLE DESCRIPTION=G.D. ROBERTS & E. WHITE, V SMITH KLINE CORP PHILA., PA.
, USA
##NAMES=HP
##CAS NAME=Silver butanoate
##MOLFORM=C4H7AgO2
##CAS REGISTRY NO=5076-24-4
##MP= -300
##BP= -300
##MW= 194
##$RETENTION INDEX=0
##$CONDENSED SPECTRUM=NO
##NPOINTS= 73
##XYDATA=(XY..XY) 1 
    15         11
    18         11
    23         10
    26         32
    27        240
    28        245
    29        133
    31         13
    32         39
    37         16
    38         28
    39        160
    40         34
    41        282
    42        223
    43        383
    44        162
    45        148
    55        145
    57         11
    60        999
    61         29
    69         29
    70         58
    71        647
    72         34
    73        360
    74         15
    87         32
    88         13
   107         71
   109         66
   149         29
   151         20
   153         10
   214         70
   215         36
   216        128
   217         69
   218         60
   219         34
   244          0
   246          1
   248          0
   272          0
   274          1
   276          0
   301        121
   302          7
   303        208
   304         11
   305         95
   306          5
   344          1
   345          1
   346          1
   347          2
   348          1
   349          1
   387          0
   388          0
   389          0
   390          0
   391          0
   392          0
   443          0
   445          0
   447          0
   449          0
   495          0
   497          0
   499          0
   501          0