##TITLE=Library Entry 83690
##JCAMP-DX=Revision 4.10 
##DATA TYPE=MASS SPECTRUM
##SAMPLE DESCRIPTION=Japan AIST/NIMC Database- Spectrum MS-NW-1966
##NAMES=HP
##CAS NAME=4-(3,5-Dibromo-2-pyridylazo)-m-phenylenediamine
##MOLFORM=C11H9Br2N5
##CAS REGISTRY NO=50768-79-1
##MP= -300
##BP= -300
##MW= 369
##$RETENTION INDEX=0
##$CONDENSED SPECTRUM=NO
##NPOINTS= 139
##XYDATA=(XY..XY) 1 
    15          4
    26          2
    27          9
    28         41
    29          2
    36          3
    37          8
    38         12
    39         25
    40         11
    41         23
    42         28
    43          8
    44          2
    49          4
    50         12
    51         15
    52         48
    53         73
    54         24
    55          3
    62          6
    63         35
    64         13
    65         14
    66         26
    67         30
    68          5
    69          4
    75         12
    76         36
    77         12
    78         24
    79         43
    80        271
    81         16
    82         16
    89          3
    90         44
    91          9
    92         13
    93          6
    94         15
    95          6
   103          2
   104          4
   105         28
   106         23
   107        999
   108         75
   109          2
   116          1
   117          2
   118          2
   119          3
   120         13
   121         10
   122          1
   123          2
   128          2
   129          1
   130          2
   131          5
   132          5
   133          1
   134          2
   135        233
   136         18
   142          3
   143          1
   144          4
   145          1
   154          8
   155          6
   156         10
   157          8
   158          7
   159          3
   166          1
   170          2
   171          3
   172          4
   173          2
   174          1
   180          1
   181          2
   182          8
   183         14
   184          4
   185          1
   209          1
   210          1
   211          5
   224          1
   233          1
   234          3
   235          2
   236          5
   237          1
   238          3
   249          1
   250          4
   251          1
   252          8
   253          1
   254          4
   260          2
   261          6
   262         31
   263         11
   264         28
   265          6
   274          1
   276          1
   288          1
   289         13
   290          4
   291         19
   292          3
   293          6
   313          1
   315          2
   317          1
   339          2
   340        102
   341         19
   342        201
   343         31
   344         97
   345         13
   346          1
   367          5
   368          2
   369         35
   370          7
   371         56
   372          8
   373         26
   374          3