##TITLE=Library Entry 562
##JCAMP-DX=Revision 4.10 
##DATA TYPE=MASS SPECTRUM
##SAMPLE DESCRIPTION=Chuck Anderson, Aldrich Chemical Co.
##NAMES=HP
##CAS NAME=1-Hydroxy-2-butanone
##MOLFORM=C4H8O2
##CAS REGISTRY NO=5077-67-8
##MP= -300
##BP= -300
##MW= 88
##$RETENTION INDEX=748
##$CONDENSED SPECTRUM=NO
##NPOINTS= 45
##XYDATA=(XY..XY) 1 
    13          2
    14         11
    15         18
    17          1
    18          5
    19          3
    20          9
    24          0
    25          7
    26         61
    27        270
    28         75
    29        999
    30         42
    31        349
    32          8
    33          2
    36          1
    37          5
    38          7
    39         23
    40          4
    41         32
    42         47
    43         18
    44          1
    45          4
    49          1
    50          2
    51          1
    52          1
    53          4
    54          1
    55         12
    56         61
    57        739
    58         29
    59         13
    60          4
    69          3
    71          1
    73          1
    86          4
    88         76
    89          5