##TITLE=Library Entry 72684
##JCAMP-DX=Revision 4.10 
##DATA TYPE=MASS SPECTRUM
##SAMPLE DESCRIPTION=Chemical Concepts
##NAMES=HP
##CAS NAME=2-Adamantanone, 6,6-ethylenedioxy-
##MOLFORM=C12H16O3
##CAS REGISTRY NO=50776-11-9
##MP= -300
##BP= -300
##MW= 208
##$RETENTION INDEX=0
##$CONDENSED SPECTRUM=NO
##NPOINTS= 149
##XYDATA=(XY..XY) 1 
    26          8
    27        135
    28         39
    29         50
    30          4
    31          8
    37          2
    38          8
    39        178
    40         47
    41        203
    42         30
    43         60
    44         21
    45         57
    46          2
    47          1
    49          1
    50         13
    51         42
    52         26
    53         78
    54         37
    55        352
    56         17
    57         26
    58          5
    59          4
    60          5
    61          2
    62          3
    63         12
    64          4
    65         54
    66         35
    67         90
    68         93
    69         36
    70         11
    71         14
    72          2
    73        183
    74          9
    75          5
    76          6
    77         98
    78         31
    79        118
    80         29
    81         43
    82         21
    83         20
    84          6
    85         12
    86        117
    87         27
    88          2
    89          9
    90          3
    91         92
    92         29
    93         35
    94         23
    95         70
    96         13
    97         12
    98          5
    99        999
   100         64
   101         10
   102          3
   103          7
   104          5
   105         20
   106          7
   107         35
   108         20
   109         19
   110          5
   111          8
   112        145
   113         79
   114          9
   115         11
   116          5
   117         20
   118         22
   119         15
   120         13
   121         42
   122         12
   123         37
   124          7
   125         32
   126        105
   127         28
   128          7
   129          7
   130          3
   131          5
   132          1
   133          5
   134          4
   135         15
   136         22
   137         26
   138         37
   139         66
   140         42
   141         12
   142          6
   143         11
   144          3
   145          4
   146         16
   147         10
   148          4
   149         20
   150          6
   151         17
   152         13
   153         39
   154          7
   155          5
   156          2
   157          2
   162          2
   163         13
   164         12
   165         91
   166         13
   167         90
   168         11
   169          2
   177          3
   178         16
   179         12
   180        194
   181         22
   182          2
   190          3
   191          3
   192          2
   193         15
   194          2
   207          6
   208        482
   209         63
   210          7