##TITLE=Library Entry 26367
##JCAMP-DX=Revision 4.10 
##DATA TYPE=MASS SPECTRUM
##SAMPLE DESCRIPTION=L.N.Kulikova, V.G. Zaikin, RPFU, Moscow, Russia
##NAMES=HP
##CAS NAME=Propanedioic acid, bis(2-methylpropyl) ester
##MOLFORM=C11H20O4
##CAS REGISTRY NO=50780-99-9
##MP= -300
##BP= -300
##MW= 216
##$RETENTION INDEX=1357
##$CONDENSED SPECTRUM=NO
##NPOINTS= 55
##XYDATA=(XY..XY) 1 
    26          2
    27         49
    29        129
    30          8
    31          6
    39         48
    40          7
    41        210
    42         97
    43         70
    45          2
    53          1
    54          2
    55         31
    56        295
    57        999
    58         44
    59          5
    60         35
    61          6
    69         21
    70          2
    71         29
    72         16
    73         51
    83         66
    84          3
    87        240
    88          7
    89          2
    90         12
   100         11
   101          9
   105        449
   106         15
   107          3
   112          8
   114          3
   116          3
   117         18
   118         60
   119         10
   125         37
   126          2
   127         12
   130         20
   131          2
   132          8
   143        332
   144         26
   145         12
   159          2
   160          5
   161         17
   201          3