##TITLE=Library Entry 66207
##JCAMP-DX=Revision 4.10 
##DATA TYPE=MASS SPECTRUM
##SAMPLE DESCRIPTION=NIST Mass Spectrometry Data Center, 1990.
##NAMES=HP
##CAS NAME=Tricyclo[2.2.1.0(2,6)]heptane, 1,7,7-trimethyl-
##MOLFORM=C10H16
##CAS REGISTRY NO=508-32-7
##MP= -300
##BP= -300
##MW= 136
##$RETENTION INDEX=925
##$CONDENSED SPECTRUM=NO
##NPOINTS= 79
##XYDATA=(XY..XY) 1 
    14          2
    15         20
    16          1
    17          1
    18          1
    26         14
    27        144
    28         36
    29         63
    30          1
    31          0
    32          2
    37          2
    38         20
    39        224
    40         42
    41        245
    42         20
    43         82
    44          2
    45          0
    50         21
    51         69
    52         29
    53         85
    54         15
    55         70
    56          5
    57         35
    58          9
    61          1
    62          7
    63         25
    64          1
    65         77
    66         68
    67         93
    68         16
    69         11
    70         24
    71          2
    74          3
    75          3
    77        220
    78         95
    79        247
    80         94
    81         27
    82          6
    83          1
    85          0
    86          0
    87          0
    89          6
    91        314
    92        270
    93        999
    94         89
    95         23
    96          1
   101          0
   102          3
   103         19
   104          0
   105        104
   106         28
   107         49
   108         13
   109          2
   115          6
   116          1
   117          4
   119         21
   121        200
   122         20
   123          0
   136        159
   137         18
   138          0