##TITLE=Library Entry 11243
##JCAMP-DX=Revision 4.10 
##DATA TYPE=MASS SPECTRUM
##SAMPLE DESCRIPTION=LAC, NIDDK, NIH, Bethesda, MD 20892
##NAMES=HP
##CAS NAME=Cymarin
##MOLFORM=C30H44O9
##CAS REGISTRY NO=508-77-0
##MP= -300
##BP= -300
##MW= 548
##$RETENTION INDEX=0
##$CONDENSED SPECTRUM=NO
##NPOINTS= 141
##XYDATA=(XY..XY) 1 
    41        557
    43        999
    45        447
    47         20
    51         26
    53        181
    55        577
    57        472
    58        186
    59        566
    60         12
    61         67
    65         96
    67        357
    69        667
    71        371
    72         17
    73         26
    74        528
    75         17
    77        161
    79        253
    81        238
    83        142
    85        217
    87        648
    88         15
    89         18
    91        311
    92         19
    93        201
    95        338
    96         40
    97        117
    98         66
    99         32
   101        106
   103         41
   105        235
   107        164
   109         85
   111        190
   113        719
   114         18
   115         63
   117        156
   119        147
   121        109
   122         14
   123         44
   124         33
   125         32
   126         15
   127         61
   129         94
   131        212
   133        206
   134         47
   135         49
   136         27
   137         26
   138         15
   139         11
   141         39
   142          9
   143        105
   145        496
   146        164
   147         81
   148         16
   149         31
   151         27
   153         33
   155         56
   157         69
   158         69
   160        330
   161        157
   162         20
   163         34
   164         49
   165         25
   167         14
   169         35
   171         47
   173         40
   174         16
   175         20
   176         11
   177         28
   178         56
   179         53
   180         12
   181         55
   182         14
   183         34
   185         60
   187        132
   188         16
   189         24
   191          4
   193         17
   195         37
   197         58
   198          4
   199         24
   201         25
   203         22
   205         21
   207         15
   209         14
   211         22
   212         24
   213         13
   215         56
   217         24
   223          5
   225          5
   227          5
   229         11
   230          4
   231          5
   233          5
   245          5
   247          5
   307          4
   321         19
   322         35
   323         51
   324         18
   339         23
   340        259
   341         80
   342         24
   351         18
   358         92
   359         35
   368          6
   369         16
   376         11
   405          4