##TITLE=Library Entry 2773
##JCAMP-DX=Revision 4.10 
##DATA TYPE=MASS SPECTRUM
##SAMPLE DESCRIPTION=R.LARGE BRITISH PETROLEUM CO. LTD., EPSOM, SURREY, UK
##NAMES=HP
##CAS NAME=Spiro[5.6]dodecane-1,7-dione
##MOLFORM=C12H18O2
##CAS REGISTRY NO=50803-80-0
##MP= -300
##BP= -300
##MW= 194
##$RETENTION INDEX=0
##$CONDENSED SPECTRUM=NO
##NPOINTS= 76
##XYDATA=(XY..XY) 1 
    27        535
    28        488
    29        326
    39        651
    40        256
    41        999
    42        233
    43        279
    51         93
    52         70
    53        395
    54        326
    55        791
    56         70
    57         70
    65         93
    66        116
    67        744
    68        256
    69        163
    70        140
    71         47
    77        140
    78         47
    79        302
    80        140
    81        488
    82        140
    83        163
    84        209
    85         47
    91        140
    92         47
    93        163
    94        140
    95        395
    96        442
    97        628
    98        674
    99         47
   105         70
   106         47
   107        116
   108         70
   109        512
   110        326
   111        465
   112         93
   119         70
   120         47
   121         47
   122         70
   123        698
   124        326
   125        233
   133         47
   134         47
   135         47
   136         12
   137        558
   138        233
   139         47
   140         93
   147         47
   148        326
   149        186
   150         70
   151        116
   152         23
   153         47
   165         47
   166        558
   167         70
   176         93
   194        512
   195         70