##TITLE=Library Entry 30838
##JCAMP-DX=Revision 4.10 
##DATA TYPE=MASS SPECTRUM
##SAMPLE DESCRIPTION=Japan AIST/NIMC Database- Spectrum MS-IW-1549
##NAMES=HP
##CAS NAME=2-Propanamine, N-hydroxy-
##MOLFORM=C3H9NO
##CAS REGISTRY NO=5080-22-8
##MP= -300
##BP= -300
##MW= 75
##$RETENTION INDEX=0
##$CONDENSED SPECTRUM=NO
##NPOINTS= 39
##XYDATA=(XY..XY) 1 
    13          1
    14          5
    15         81
    16          2
    25          1
    26          9
    27         97
    28         93
    29         20
    30         21
    31          4
    32          3
    33         44
    34          8
    39         58
    40         22
    41        211
    42        374
    43        240
    44         78
    45          3
    46         35
    51          2
    52          4
    54          6
    55          3
    56         41
    57          9
    58         16
    59          8
    60        999
    61         33
    62          3
    72          1
    73         11
    74         47
    75        255
    76         34
    77          1