##TITLE=Library Entry 7257
##JCAMP-DX=Revision 4.10 
##DATA TYPE=MASS SPECTRUM
##SAMPLE DESCRIPTION=NIST Mass Spectrometry Data Center
##NAMES=HP
##CAS NAME=9-Decen-1-yl acetate
##MOLFORM=C12H22O2
##CAS REGISTRY NO=50816-18-7
##MP= -300
##BP= -300
##MW= 198
##$RETENTION INDEX=1399
##$CONDENSED SPECTRUM=NO
##NPOINTS= 100
##XYDATA=(XY..XY) 1 
    14          1
    15         11
    26          4
    27         54
    28         22
    29         86
    30          3
    31          8
    37          1
    38          4
    39        142
    40         26
    41        435
    42        101
    43        999
    44         30
    45          8
    50          3
    51         10
    52          7
    53         77
    54        593
    55        822
    56        111
    57         38
    58         16
    59          5
    60          3
    61        141
    62          4
    63          3
    64          1
    65         20
    66         78
    67        805
    68        781
    69        280
    70         38
    71         36
    72         26
    73         54
    74          3
    75          1
    77         15
    78          4
    79         62
    80         38
    81        710
    82        680
    83        167
    84         26
    85         11
    86         12
    87          8
    88          2
    91          9
    92          1
    93         21
    94         24
    95        470
    96        527
    97        139
    98         22
    99          5
   100          4
   101          7
   102          2
   105          1
   107          5
   108         10
   109        300
   110        231
   111         28
   112          4
   113          3
   114          5
   115          5
   116          6
   117          1
   119          1
   121          3
   122          2
   123         26
   124          3
   125          2
   126          2
   127          2
   128          2
   129          1
   130          1
   135          1
   136          1
   137          7
   138         78
   139         10
   140          1
   141          1
   155          2
   156          1
   161          1