##TITLE=Library Entry 59012
##JCAMP-DX=Revision 4.10 
##DATA TYPE=MASS SPECTRUM
##SAMPLE DESCRIPTION=R.VANHAELEN-FASTRE BRUSSELS UNIV., BRUSSELS, BELGIUM
##NAMES=HP
##CAS NAME=2,9-Heptadecadiene-4,6-diyn-8-ol, (Z,E)-
##MOLFORM=C17H24O
##CAS REGISTRY NO=50816-77-8
##MP= -300
##BP= -300
##MW= 244
##$RETENTION INDEX=0
##$CONDENSED SPECTRUM=NO
##NPOINTS= 129
##XYDATA=(XY..XY) 1 
    18         60
    26         20
    27        380
    28         60
    29        510
    39        360
    40         40
    41        830
    42         90
    43        760
    44         20
    50         60
    51        210
    52         60
    53        260
    54         90
    55        720
    56         60
    57        210
    62         60
    63        260
    64         60
    65        260
    66         90
    67        280
    68         90
    69        300
    70        260
    71         60
    74         40
    75         90
    76         90
    77        490
    78        190
    79        340
    80         90
    81        210
    82         60
    83        320
    84         40
    85         20
    86         10
    87         40
    88         20
    89        250
    90        100
    91        999
    92        130
    93        130
    94         40
    95        110
    96         40
    97         40
    98         20
   101         20
   102        110
   103        280
   104         90
   105        400
   106         90
   107        170
   108         60
   109         40
   110        190
   111         40
   112         20
   113         20
   114         20
   115        600
   116        300
   117        740
   118        210
   119        280
   120        230
   121        130
   122         20
   123         20
   126         20
   127        190
   128        320
   129        360
   130        170
   131        640
   132        190
   133        230
   134        110
   135         20
   139         40
   140         20
   141        210
   142         60
   143        110
   144        110
   145        640
   146        170
   147        170
   148         40
   149         60
   152         20
   153         40
   154        400
   155        150
   156         40
   157         60
   158         90
   159        830
   160        170
   161        130
   162         20
   169         20
   171         20
   172         20
   173        470
   174        150
   175         60
   187         90
   188         20
   189         20
   201         20
   203         20
   215         90
   216         20
   217         60
   218         20
   227         20
   229         60
   243         20
   244         40
   245         20