##TITLE=Library Entry 20113
##JCAMP-DX=Revision 4.10 
##DATA TYPE=MASS SPECTRUM
##SAMPLE DESCRIPTION=NIST Mass Spectrometry Data Center
##NAMES=HP
##CAS NAME=8-Bromo-1-octanol
##MOLFORM=C8H17BrO
##CAS REGISTRY NO=50816-19-8
##MP= -300
##BP= -300
##MW= 208
##$RETENTION INDEX=0
##$CONDENSED SPECTRUM=NO
##NPOINTS= 94
##XYDATA=(XY..XY) 1 
    15          5
    19          3
    26         11
    27        140
    28         43
    29        159
    31        238
    32          2
    33          1
    37          2
    38          3
    39        183
    40         39
    41        629
    42        172
    43        200
    44         32
    45         25
    46          1
    49          1
    50          5
    51         14
    52          8
    53         75
    54        106
    55        999
    56        196
    57        117
    58          7
    59          4
    62          1
    63          3
    64          1
    65         14
    67        248
    68        329
    69        962
    70         97
    71         10
    72          1
    73         15
    74          1
    77          8
    78          3
    79         23
    80          9
    81        134
    82        217
    83        534
    84         50
    85          4
    87          1
    91          4
    93         19
    95         38
    96          2
    97         15
    98          2
    99          1
   104          1
   105          2
   106          6
   107         57
   108          7
   109         69
   110         15
   111         85
   112          8
   119          6
   120         26
   121         25
   122         26
   123         20
   124          1
   133          4
   134         44
   135        125
   136         48
   137        119
   138          5
   148        300
   149         24
   150        295
   151         20
   152          1
   162        292
   163         30
   164        283
   165         19
   166          1
   188          1
   190          4
   191          1
   192          3