##TITLE=Library Entry 54903
##JCAMP-DX=Revision 4.10 
##DATA TYPE=MASS SPECTRUM
##SAMPLE DESCRIPTION=Japan AIST/NIMC Database- Spectrum MS-NW-6120
##NAMES=HP
##CAS NAME=1-Bromo-8-tetrahydropyranyloxyoctane
##MOLFORM=C13H25BrO2
##CAS REGISTRY NO=50816-20-1
##MP= -300
##BP= -300
##MW= 292
##$RETENTION INDEX=0
##$CONDENSED SPECTRUM=NO
##NPOINTS= 111
##XYDATA=(XY..XY) 1 
    14          1
    15          4
    17          1
    18          4
    26          8
    27         78
    28         41
    29        107
    30          3
    31         38
    32          1
    38          3
    39         52
    40         11
    41        271
    42         45
    43        106
    44         15
    45          6
    47          5
    49          1
    50          3
    51          4
    52          2
    53         20
    54         35
    55        275
    56        294
    57        163
    58          9
    59          5
    63          1
    65          3
    66          3
    67         69
    68         39
    69        282
    70         24
    71         27
    72          2
    73          3
    74          9
    77          2
    78          1
    79          3
    80          4
    81         18
    82         23
    83         59
    84         90
    85        999
    86         63
    87          5
    91          1
    93          2
    95          4
    96          1
    97          3
    98          1
    99          1
   100          2
   101         64
   102         11
   103          6
   107          9
   109          8
   110          3
   111         61
   112          6
   115         17
   116          2
   120          2
   121          4
   122          2
   123          4
   129          1
   134          3
   135         24
   136          4
   137         21
   138          1
   147          1
   148         19
   149         11
   150         20
   151         11
   152          1
   155          5
   161          1
   162         16
   163          2
   164         15
   165          1
   185          2
   188          2
   189          1
   190          7
   191          9
   192          7
   193          9
   194          1
   219          5
   221          4
   234          1
   236          1
   237          1
   239          1
   291          9
   292          2
   293          9
   294          2