##TITLE=Library Entry 97226
##JCAMP-DX=Revision 4.10 
##DATA TYPE=MASS SPECTRUM
##SAMPLE DESCRIPTION=Div. of Experiment Therapeutics WRAIR, WRAMC, Washingto
n DC 20307
##NAMES=HP
##CAS NAME=2,4-Diamino-5-[[3,4-dichlorophenyl]sulfonyl]quinazoline
##MOLFORM=C14H10Cl2N4O2S
##CAS REGISTRY NO=50828-14-3
##MP= -300
##BP= -300
##MW= 368
##$RETENTION INDEX=0
##$CONDENSED SPECTRUM=NO
##NPOINTS= 97
##XYDATA=(XY..XY) 1 
    41          6
    43        179
    44          7
    45          9
    49          3
    50         29
    51         19
    52         20
    53          6
    61          4
    62         26
    63        141
    64         34
    65         19
    66          3
    68         16
    69          4
    74         48
    75         39
    76         16
    77         10
    78         11
    79          4
    84          9
    85          4
    88          3
    90        308
    91         17
    92          6
    95          4
   100          4
   103          8
   105         88
   106          5
   109         44
   110          4
   111         22
   113          4
   114          3
   117        999
   118        187
   119         24
   121         49
   123          7
   124          5
   125          5
   126          6
   127          3
   130         26
   132        299
   133         34
   135        124
   138          5
   139          4
   141          3
   142         39
   143         16
   144          6
   145         63
   147         58
   148          4
   149          3
   151          6
   152          3
   159        185
   160         17
   161         10
   163          8
   164          3
   173          4
   190         10
   191          3
   193          6
   195          3
   217          5
   233          3
   234         10
   251         23
   252          3
   253          7
   268         18
   269         14
   270          6
   286         23
   288         17
   303        240
   305        193
   306         10
   307         28
   315         38
   317         11
   368        146
   369         14
   370        113
   371         15
   372         25
   373          3