##TITLE=Library Entry 96130
##JCAMP-DX=Revision 4.10 
##DATA TYPE=MASS SPECTRUM
##SAMPLE DESCRIPTION=Div. of Experiment Therapeutics WRAIR, WRAMC, Washingto
n DC 20307
##NAMES=HP
##CAS NAME=2-[2-Naphthylthio]-6-nitrobenzonitrile
##MOLFORM=C17H10N2O2S
##CAS REGISTRY NO=50828-10-9
##MP= -300
##BP= -300
##MW= 306
##$RETENTION INDEX=0
##$CONDENSED SPECTRUM=NO
##NPOINTS= 205
##XYDATA=(XY..XY) 1 
    41          4
    43          3
    45         68
    46         15
    47          2
    50         84
    51         97
    52         14
    53          5
    55          2
    57          5
    58         12
    59          0
    60          0
    61          6
    62         40
    63        103
    64          6
    65         46
    66          1
    67          0
    69         77
    70          7
    71          7
    73          1
    74         76
    75        150
    76         53
    77        116
    78          9
    79          2
    80          0
    81         12
    82         26
    83          7
    84          4
    85          1
    86         18
    87         31
    88         34
    89         66
    90          7
    91          8
    93         25
    94         96
    98         18
    99         18
   100         21
   101         70
   102         36
   103         14
   104         11
   105          5
   106         11
   107         15
   108         14
   109         21
   110         12
   111          9
   113         44
   115        999
   116        180
   117         36
   119          2
   121         36
   122          7
   123         53
   126        150
   127        158
   128         33
   129         33
   130         19
   131          1
   132          7
   133         13
   134          5
   135          6
   136          5
   138         47
   139         17
   140         65
   141         40
   142         10
   143          8
   144         16
   145          4
   146          3
   147         15
   149         12
   150          6
   151         15
   152         21
   153         10
   154          2
   155          0
   156         12
   158         54
   159         52
   160          8
   161          7
   162          4
   163         14
   164         10
   165         34
   166         24
   167          3
   168          0
   169          6
   170          1
   171          6
   172          8
   173          5
   174          4
   175          6
   176         14
   177          8
   178          4
   179          0
   180          1
   182          1
   183          3
   184         15
   185          3
   186          3
   187         18
   188         17
   189         67
   190         23
   191          5
   192          1
   193          1
   194          1
   195          4
   196          2
   197          2
   198          2
   199          6
   200         17
   201         14
   202         19
   203         13
   204         32
   205          8
   206          4
   207          5
   208         11
   209          5
   210          3
   212          5
   214         77
   215         29
   216         36
   217          9
   218          7
   219          4
   220          5
   221         34
   222          9
   223          6
   224          3
   225         14
   226         18
   227        266
   228         46
   229         12
   230          7
   231         12
   232         69
   233         57
   234         68
   235         20
   236         13
   237          3
   238          1
   243         18
   244          6
   245          6
   246         27
   247         63
   248         70
   249         22
   250          7
   251          2
   257         29
   258         43
   259        363
   260        130
   261         78
   262         20
   263          6
   264          1
   273          2
   274          1
   275         23
   276         30
   277         23
   278          5
   279          1
   288          1
   289          8
   290          2
   306        624
   307        118
   308         38
   309          5