##TITLE=Library Entry 37857
##JCAMP-DX=Revision 4.10 
##DATA TYPE=MASS SPECTRUM
##SAMPLE DESCRIPTION=Exported from NIST MS Search
##NAMES=HP
##CAS NAME=2-Propenoic acid, 3-[bis(1,1-dimethylethyl)amino]-, methyl ester
##MOLFORM=C12H23NO2
##CAS REGISTRY NO=50838-21-6
##MP= -300
##BP= -300
##MW= 213
##$RETENTION INDEX=0
##$CONDENSED SPECTRUM=NO
##NPOINTS= 27
##XYDATA=(XY..XY) 1 
    41        269
    42         95
    43        139
    55         52
    56         65
    57        539
    58         34
    68        130
    69         69
    70        999
    71         78
    82         78
    83         17
    84          8
    85         34
   101        200
   102         56
   110        843
   111         26
   126        200
   127         21
   142        882
   143         65
   157        434
   158         43
   198         43
   213         21