##TITLE=Library Entry 24541
##JCAMP-DX=Revision 4.10 
##DATA TYPE=MASS SPECTRUM
##SAMPLE DESCRIPTION=Exported from NIST MS Search
##NAMES=HP
##CAS NAME=Ethenol, 1-[bis(1,1-dimethylethyl)phosphino]-, acetate
##MOLFORM=C12H23O2P
##CAS REGISTRY NO=50838-15-8
##MP= -300
##BP= -300
##MW= 230
##$RETENTION INDEX=0
##$CONDENSED SPECTRUM=NO
##NPOINTS= 34
##XYDATA=(XY..XY) 1 
    39         56
    40          8
    41        326
    42         69
    43        591
    44         73
    45         60
    46         30
    53         26
    55         52
    56        108
    57        999
    58        108
    59         86
    60         82
    61        104
    75         56
    76         34
    89         34
    90         17
    99         13
   113         52
   116         43
   117        282
   118         43
   131         39
   132         78
   133         21
   146         26
   147          8
   173        382
   174         13
   188         21
   230         17