##TITLE=Library Entry 69158
##JCAMP-DX=Revision 4.10 
##DATA TYPE=MASS SPECTRUM
##SAMPLE DESCRIPTION=Exported from NIST MS Search
##NAMES=HP
##CAS NAME=3-Buten-2-one, 4-(2,2-dimethyl-1-aziridinyl)-
##MOLFORM=C8H13NO
##CAS REGISTRY NO=50838-17-0
##MP= -300
##BP= -300
##MW= 139
##$RETENTION INDEX=0
##$CONDENSED SPECTRUM=NO
##NPOINTS= 22
##XYDATA=(XY..XY) 1 
    39         34
    41        121
    42         52
    43        286
    53         34
    54         34
    55        278
    56        117
    58        121
    68         26
    69         17
    70        121
    71         13
    80         52
    81        247
    82        156
    83         30
    96        999
    97         52
   124        104
   139        269
   140         13