##TITLE=Library Entry 9349
##JCAMP-DX=Revision 4.10 
##DATA TYPE=MASS SPECTRUM
##SAMPLE DESCRIPTION=Exported from NIST MS Search
##NAMES=HP
##CAS NAME=Phosphine, acetylbis(1-methylethyl)-
##MOLFORM=C8H17OP
##CAS REGISTRY NO=50837-80-4
##MP= -300
##BP= -300
##MW= 160
##$RETENTION INDEX=0
##$CONDENSED SPECTRUM=NO
##NPOINTS= 26
##XYDATA=(XY..XY) 1 
    41        413
    42         60
    43        999
    44        107
    45         56
    46         30
    47        129
    48         64
    54         51
    58         69
    64        120
    69         94
    73         69
    74         90
    75        362
    76        624
    77        107
    89         21
    90         77
   103         64
   117         77
   118        525
   119         21
   142         10
   160        267
   161         34