##TITLE=Library Entry 16975
##JCAMP-DX=Revision 4.10 
##DATA TYPE=MASS SPECTRUM
##SAMPLE DESCRIPTION=R.D.Bowen ET AL, Org. Mass Spectrom., 26,421(1991)
##NAMES=HP
##CAS NAME=1-Methoxy-5-hexene
##MOLFORM=C7H14O
##CAS REGISTRY NO=5084-33-3
##MP= -300
##BP= -300
##MW= 114
##$RETENTION INDEX=0
##$CONDENSED SPECTRUM=NO
##NPOINTS= 27
##XYDATA=(XY..XY) 1 
    39        190
    40         50
    41        290
    42         60
    43        170
    45        999
    46         20
    53         50
    54        530
    55        110
    56         20
    57         20
    58        150
    59         40
    67        370
    68         30
    69         10
    71        470
    72         40
    73          5
    81         50
    82        300
    83         20
    84          5
    85         60
    86         10
   114          5