##TITLE=Library Entry 15015
##JCAMP-DX=Revision 4.10 
##DATA TYPE=MASS SPECTRUM
##SAMPLE DESCRIPTION=CARL DJERASSI DEPT OF CHEM STANFORD UNIV STANFORD CALIF
 94305
##NAMES=HP
##CAS NAME=D:A-Friedooleanan-3-ol, (3.alpha.)-
##MOLFORM=C30H52O
##CAS REGISTRY NO=5085-72-3
##MP= -300
##BP= -300
##MW= 428
##$RETENTION INDEX=3123
##$CONDENSED SPECTRUM=NO
##NPOINTS= 228
##XYDATA=(XY..XY) 1 
    41        646
    42        494
    43        999
    44        111
    45        222
    46         10
    47        202
    48         60
    49         60
    50         20
    51         90
    52         20
    53        222
    54        181
    55        818
    56        363
    57        868
    58        494
    59        121
    60        202
    61         80
    63         10
    64         10
    65         90
    66         40
    67        515
    68        333
    69        676
    70        383
    71        363
    72         50
    73        222
    74         30
    76         20
    77        202
    78         60
    79        373
    80        161
    81        565
    82        414
    83        474
    84        313
    85        272
    86         10
    87         80
    88         10
    89         10
    91        303
    92         90
    93        474
    94        282
    95        626
    96        494
    97        596
    98        222
    99        111
   100        101
   101         60
   102         10
   103         30
   104         70
   105        474
   106        171
   107        616
   108        404
   109        727
   110        414
   111        505
   112        151
   113        121
   114         10
   115         80
   116         20
   117         70
   118         20
   119        424
   120        242
   121        636
   122        363
   123        697
   124        404
   125        596
   126        171
   127         70
   128         30
   129        121
   130         30
   131        121
   132         40
   133        333
   134        313
   135        474
   136        282
   137        484
   138        222
   139        171
   140        101
   141         40
   142         10
   143         50
   144         20
   145        131
   146         60
   147        393
   148        222
   149        404
   150        313
   151        292
   152        161
   153         60
   154         20
   155         30
   157         40
   158         10
   159        131
   160         50
   161        333
   162        121
   163        515
   164        252
   165        585
   166        111
   167         60
   168         20
   169         20
   170         10
   171         40
   172         10
   173        101
   174         40
   175        363
   176        191
   177        555
   178        232
   179        596
   180        111
   181         20
   182         10
   183         10
   185         20
   187        101
   188         60
   189        444
   190        141
   191        333
   192         80
   193        141
   194        111
   195         50
   196         30
   197         10
   199         20
   201        111
   202        323
   203        181
   204        101
   205        383
   206        474
   207        161
   208         40
   210         10
   211         10
   213         20
   214         10
   215        181
   216        222
   217        171
   218        111
   219        101
   220        585
   221        121
   222        111
   223         10
   224         10
   227         10
   228         20
   229         90
   230         30
   231        737
   232        181
   233        393
   234        585
   235        101
   236         30
   238         10
   241         10
   242         20
   243         70
   244         10
   245         10
   246         20
   247         70
   248        424
   249        101
   250         10
   256        111
   257        363
   258         90
   259        242
   260         60
   261        111
   262         20
   264         10
   271         40
   272         10
   273         20
   274         20
   275        474
   276        323
   277         60
   279         40
   286         30
   287         10
   289         10
   304        111
   305         10
   346         10
   386         20
   387         10
   395         70
   396         20
   410         80
   411         20
   413        252
   414         70
   428        999
   429        313
   430         40