##TITLE=Library Entry 60103
##JCAMP-DX=Revision 4.10 
##DATA TYPE=MASS SPECTRUM
##SAMPLE DESCRIPTION=C.R.ENZELL SWEDISH TOBACCO CO., STOCKHOLM, SWEDEN
##NAMES=HP
##CAS NAME=.psi.,.psi.-Carotene, 3,4-didehydro-1,2-dihydro-1-methoxy-
##MOLFORM=C41H58O
##CAS REGISTRY NO=5085-16-5
##MP= -300
##BP= -300
##MW= 566
##$RETENTION INDEX=0
##$CONDENSED SPECTRUM=NO
##NPOINTS= 382
##XYDATA=(XY..XY) 1 
    13          1
    14          2
    15          6
    16          1
    17          1
    18          7
    24          1
    25          1
    26          9
    27         46
    28         13
    29         17
    30          2
    31          4
    32          2
    33          1
    36          1
    37          7
    38         20
    39        125
    40         18
    41         75
    42          7
    43         35
    44          4
    45          8
    46          1
    49          4
    50         41
    51         11
    52         48
    53         37
    54          4
    55         35
    56          4
    57          6
    58          2
    59          3
    60          2
    61          8
    62         24
    63         60
    64         13
    65         78
    66         12
    67         19
    68          3
    69        104
    70          6
    71          3
    72          1
    73        956
    74         51
    75         15
    76         12
    77        140
    78         68
    79         93
    80         11
    81         36
    82          4
    83          9
    84          2
    85          4
    86          5
    87          4
    88          1
    89         25
    90         12
    91        999
    92        110
    93         38
    94          5
    95         20
    96          3
    97          4
    98          4
    99          2
   100          1
   101          3
   102         13
   103         59
   104         27
   105        294
   106        544
   107         72
   108          5
   109         16
   110          2
   111          3
   112          1
   113          1
   114          1
   115         12
   116          5
   117         15
   118          5
   119         39
   120          7
   121         16
   122          2
   123          6
   124          1
   125          1
   126          1
   127          4
   128         13
   129         17
   130          7
   131         20
   132          8
   133         22
   134          4
   135          9
   136          2
   137          3
   139          1
   141         10
   142         13
   143         26
   144         11
   145         34
   146          6
   147         12
   148          3
   149          3
   151          2
   152          3
   153          5
   154          3
   155         13
   156         13
   157         26
   158          8
   159         16
   160          3
   161          6
   162          1
   163          1
   165          7
   166          4
   167          6
   168          5
   169         17
   170          7
   171         15
   172          4
   173         10
   174          2
   175          4
   176          1
   177          3
   178          4
   179          6
   180          4
   181          8
   182          4
   183         17
   184          5
   185         10
   186          3
   187          5
   188          2
   189          2
   190          1
   191          2
   192          3
   193          6
   194          4
   195          9
   196          4
   197         13
   198          5
   199          7
   200          2
   201          4
   202          2
   203          3
   204          2
   205          3
   206          3
   207          7
   208          4
   209         15
   210          4
   211         10
   212          3
   213          4
   214          2
   215          2
   216          2
   217          1
   218          1
   219          2
   220          2
   221          5
   222          3
   223          5
   224          2
   225          5
   226          2
   227          2
   228          1
   229          2
   230          1
   231          2
   232          1
   233          3
   234          1
   235          4
   236          2
   237          5
   238          2
   239          3
   240          1
   241          3
   242          1
   243          3
   244          1
   245          1
   246          1
   247          3
   248          2
   249          4
   250          2
   251          3
   252          1
   253          2
   254          1
   255          3
   256          1
   257          1
   258          1
   259          1
   260          1
   261          3
   262          2
   263          3
   264          2
   265          2
   266          1
   267          4
   268          2
   269          2
   270          1
   271          1
   272          1
   273          2
   274          1
   275          2
   276          1
   277          3
   278          1
   279          2
   280          1
   281          2
   282          1
   283          1
   285          1
   287          2
   288          1
   289          1
   290          1
   291          1
   292          1
   293          2
   295          3
   296          1
   299          1
   301          1
   303          2
   304          1
   305          2
   307          1
   308          1
   309          1
   310          1
   314          1
   315          1
   317          2
   318          1
   319          1
   321          1
   322          1
   323          1
   325          1
   326          1
   329          1
   330          1
   331          1
   332          1
   333          1
   334          1
   335          2
   336          2
   337          1
   341          1
   342          1
   343          1
   344          1
   345          1
   346          1
   347          1
   354          3
   355          1
   357          1
   358          1
   359          2
   360          1
   361          1
   362          1
   368          5
   369          2
   370          1
   371          1
   372          1
   373          1
   376          1
   381          1
   383          1
   385          1
   386          1
   387         12
   388          4
   389          1
   391          2
   392          1
   393          1
   395          1
   397          1
   398          1
   399          1
   400          1
   401          1
   402          1
   409          2
   410          1
   411          1
   412          1
   413          1
   414          1
   425          1
   426          1
   427          1
   428          6
   429          2
   430          1
   431          1
   442          1
   443          1
   444          1
   445          1
   458          1
   459          1
   460          5
   461         19
   462          6
   463          2
   464          1
   465          1
   466          1
   474          3
   475          1
   476          1
   477          1
   478          1
   479          1
   480          1
   488          1
   489          1
   493          1
   494          1
   497          1
   498          1
   534          4
   535          2
   536          2
   537          1
   538          1
   564          1
   565          1
   566         13