##TITLE=Library Entry 64041
##JCAMP-DX=Revision 4.10 
##DATA TYPE=MASS SPECTRUM
##SAMPLE DESCRIPTION=NIST Mass Spectrometry Data Center, 2010
##NAMES=HP
##CAS NAME=2,2,4,4-Tetramethyl-6-(3-phenylpropanoyl)cyclohexane-1,3,5-trione
##MOLFORM=C19H22O4
##CAS REGISTRY NO=50861-53-5
##MP= -300
##BP= -300
##MW= 314
##$RETENTION INDEX=2478
##$CONDENSED SPECTRUM=NO
##NPOINTS= 219
##XYDATA=(XY..XY) 1 
    39         20
    40          8
    41        100
    42         79
    43         85
    45          2
    50          6
    51         30
    52         10
    53         31
    54          6
    55         55
    56          6
    57          7
    59         21
    62          3
    63         18
    64          6
    65        117
    66         20
    67         45
    68         11
    69        148
    70        165
    71         36
    72          3
    74          3
    75          4
    76          7
    77        130
    78         53
    79         95
    80         10
    81        198
    82         19
    83         66
    84         23
    85          8
    87          3
    88          1
    89         24
    90         12
    91        999
    92         91
    93         27
    94         30
    95         77
    96        534
    97         96
    98          7
    99          5
   100          2
   101          3
   102         14
   103         93
   104         83
   105        379
   106         44
   107         19
   108          7
   109         15
   110          8
   111         71
   112        158
   113        113
   114         29
   115         39
   116         22
   117         30
   118         10
   119          9
   120          4
   121         23
   122         20
   123         14
   124          9
   125         25
   126          7
   127         20
   128         35
   129         24
   130          6
   131         66
   132         98
   133         49
   134          6
   135         19
   136         16
   137         15
   138         11
   139         79
   140         26
   141         18
   142          5
   143          8
   144          7
   145         17
   146         20
   147          7
   148          3
   149         27
   150          4
   151          9
   152         13
   153         62
   154         31
   155         30
   156         16
   157         15
   158          6
   159         12
   160          3
   161          3
   162          2
   163         18
   164         39
   165         21
   166         15
   167         42
   168          7
   169         11
   170          8
   171          5
   172          3
   173         44
   174         19
   175         24
   176          5
   177         18
   178          5
   179         10
   180          8
   181         38
   182         55
   183         53
   184         13
   185          8
   187          6
   188          4
   191         29
   192         55
   193         12
   194          3
   195         43
   196          8
   197         31
   198         38
   199          9
   200          6
   201        146
   202         26
   203          6
   204          2
   205         15
   206          3
   207          7
   208          8
   209         62
   210         15
   211         28
   212          5
   213          2
   215         79
   216         44
   217         10
   218          2
   219          5
   222          2
   223         19
   224          3
   225         22
   226         55
   227         18
   228          3
   229         61
   230         10
   231          1
   235          5
   237          2
   238          1
   239          6
   240          2
   241          2
   243        370
   244        566
   245         94
   246         11
   251          3
   252          1
   253         25
   254          6
   257         11
   258          3
   263          3
   264          1
   266          2
   267          3
   268         16
   269          4
   271         36
   272          7
   273          4
   278         15
   279          4
   281         36
   282          8
   283          2
   285          4
   286          9
   287          2
   295          3
   296        207
   297         45
   298          6
   299         35
   300          6
   314        374
   315         77
   316         11