##TITLE=Library Entry 76366
##JCAMP-DX=Revision 4.10 
##DATA TYPE=MASS SPECTRUM
##SAMPLE DESCRIPTION=NIST Mass Spectrometry Data Center, 2010
##NAMES=HP
##CAS NAME=Butanoic acid, 2-methyl-, heptyl ester
##MOLFORM=C12H24O2
##CAS REGISTRY NO=50862-12-9
##MP= -300
##BP= -300
##MW= 200
##$RETENTION INDEX=1333
##$CONDENSED SPECTRUM=NO
##NPOINTS= 75
##XYDATA=(XY..XY) 1 
    15          1
    26          4
    27         55
    28         28
    29        149
    30          4
    31          4
    39         57
    41        290
    42         72
    43        154
    44          8
    45          7
    47          3
    50          1
    51          2
    52          1
    53         17
    54         21
    55        167
    56        295
    57        823
    58         37
    59          5
    60          1
    61          3
    65          2
    66          1
    67         10
    68         33
    69        149
    70        256
    71         22
    72          3
    73         14
    74        141
    75         38
    76          2
    77          1
    79          2
    81          5
    82          3
    83         42
    85        385
    86         22
    87         61
    88          3
    95          1
    96          2
    97         22
    98        287
    99         24
   100          3
   101          6
   102         45
   103        999
   104         56
   105          6
   113         11
   114          1
   115         14
   116          1
   125          1
   129          5
   130          2
   140          1
   143         43
   144          4
   156          1
   157          1
   158          2
   170          1
   172         29
   173          3
   200          1