##TITLE=Library Entry 2797
##JCAMP-DX=Revision 4.10 
##DATA TYPE=MASS SPECTRUM
##SAMPLE DESCRIPTION=D.HENNEBERG, MAX-PLANCK INSTITUTE, MULHEIM, WEST GERMAN
Y
##NAMES=HP
##CAS NAME=1,6-Heptadiene, 3-methyl-
##MOLFORM=C8H14
##CAS REGISTRY NO=50871-05-1
##MP= -300
##BP= -300
##MW= 110
##$RETENTION INDEX=0
##$CONDENSED SPECTRUM=NO
##NPOINTS= 50
##XYDATA=(XY..XY) 1 
    24          1
    25          3
    26         21
    27        302
    28         41
    29        305
    30          8
    36          0
    37         13
    38         16
    39        379
    40         52
    41        999
    42         52
    43         25
    45          0
    49          2
    50         18
    51         44
    52         19
    53        183
    54        326
    55        814
    56        295
    57         10
    61          0
    62          3
    63          9
    64          1
    65         26
    66         43
    67        436
    68        632
    69        363
    70         18
    74          0
    75          0
    77         23
    78          5
    79         29
    80         15
    81        360
    82        114
    83          7
    91          8
    93          7
    95        250
    96         18
   109          4
   110          8