##TITLE=Library Entry 36227
##JCAMP-DX=Revision 4.10 
##DATA TYPE=MASS SPECTRUM
##SAMPLE DESCRIPTION=NIST Mass Spectrometry Data Center, 1990.
##NAMES=HP
##CAS NAME=Cyclohexane, 1,1,3,5-tetramethyl-, cis-
##MOLFORM=C10H20
##CAS REGISTRY NO=50876-32-9
##MP= -300
##BP= -300
##MW= 140
##$RETENTION INDEX=908
##$CONDENSED SPECTRUM=NO
##NPOINTS= 43
##XYDATA=(XY..XY) 1 
    15         11
    27         81
    28         41
    29         97
    32          7
    39        180
    40         41
    41        441
    42         64
    43         98
    44          7
    51         22
    52         11
    53         76
    54          7
    55        460
    56        132
    57        154
    58          6
    63          5
    65         26
    66          8
    67         89
    68          5
    69        999
    70         67
    71         10
    77         27
    78          6
    79         28
    80          5
    81         46
    82          5
    83        587
    84         76
    85          9
    91         15
    95          8
    97         15
   109         14
   125        954
   126         94
   140         15