##TITLE=Library Entry 96417
##JCAMP-DX=Revision 4.10 
##DATA TYPE=MASS SPECTRUM
##SAMPLE DESCRIPTION=NIST Mass Spectrometry Data Center, 2012
##NAMES=HP
##CAS NAME=Thiophene, 2-[(1-methylethyl)thio]-
##MOLFORM=C7H10S2
##CAS REGISTRY NO=50878-65-4
##MP= -300
##BP= -300
##MW= 158
##$RETENTION INDEX=1151
##$CONDENSED SPECTRUM=NO
##NPOINTS= 90
##XYDATA=(XY..XY) 1 
    15          5
    25          1
    26          9
    27         90
    28          7
    29          1
    32          2
    33          1
    37         11
    38         28
    39        141
    40         17
    41        147
    42         13
    43        156
    44          8
    45        105
    46          4
    47          8
    49          2
    50          4
    51          4
    52          2
    53          2
    56          2
    57         30
    58         34
    59         22
    60          4
    61          1
    63          1
    64          4
    65          2
    66          1
    67          1
    68          3
    69         67
    70         22
    71        356
    72         30
    73         20
    74          2
    76          8
    77          4
    78          1
    79          1
    80          1
    81         20
    82         33
    83          9
    84         12
    85          4
    86          1
    88          9
    89          4
    90          4
    91          1
    96          1
    97          4
    98          1
    99          2
   101          1
   103          1
   109          3
   110          6
   111          2
   112          2
   113          1
   114          8
   115        106
   116        999
   117         69
   118         92
   119          5
   120          2
   123          1
   124          1
   127          2
   129          1
   141          1
   142          1
   143          5
   144          1
   156          1
   157          1
   158        333
   159         30
   160         31
   161          3
   162          1