##TITLE=Library Entry 24403
##JCAMP-DX=Revision 4.10 
##DATA TYPE=MASS SPECTRUM
##SAMPLE DESCRIPTION=D.HENNEBERG, MAX-PLANCK INSTITUTE, MULHEIM, WEST GERMAN
Y
##NAMES=HP
##CAS NAME=1-Decene, 3,4-dimethyl-
##MOLFORM=C12H24
##CAS REGISTRY NO=50871-03-9
##MP= -300
##BP= -300
##MW= 168
##$RETENTION INDEX=1246
##$CONDENSED SPECTRUM=NO
##NPOINTS= 83
##XYDATA=(XY..XY) 1 
    24          0
    25          0
    26         10
    27        126
    28         22
    29        244
    30          5
    31          0
    32          0
    34          0
    36          0
    37          2
    38          2
    39         93
    40         17
    41        388
    42         88
    43        768
    44         15
    45          0
    48          0
    49          0
    50          1
    51          6
    52          3
    53         38
    54         32
    55        360
    56        266
    57        999
    58         37
    59          0
    60          0
    62          1
    63          1
    64          0
    65          6
    66          2
    67         33
    68         19
    69        125
    70        242
    71        668
    72         35
    73          0
    75          0
    76          0
    77          4
    78          0
    79          7
    80          0
    81         10
    82         32
    83        147
    84        102
    85         14
    86          0
    88          0
    91          1
    92          0
    93          0
    94          0
    95          2
    96          1
    97         25
    98         17
    99          2
   105          0
   107          0
   109          0
   110          8
   111         38
   112        155
   113         19
   114          0
   125          1
   126          7
   127          0
   137          0
   139          2
   140         46
   141          4
   168          1