##TITLE=Library Entry 47615
##JCAMP-DX=Revision 4.10 
##DATA TYPE=MASS SPECTRUM
##SAMPLE DESCRIPTION=A.A.Kutin, Moscow, Russia
##NAMES=HP
##CAS NAME=3H-Pyrazol-3-one, 1,2-dihydro-2,5-dimethyl-1-phenyl-
##MOLFORM=C11H12N2O
##CAS REGISTRY NO=50877-87-7
##MP= -300
##BP= -300
##MW= 188
##$RETENTION INDEX=0
##$CONDENSED SPECTRUM=NO
##NPOINTS= 121
##XYDATA=(XY..XY) 1 
    33          0
    34          0
    36          2
    37         28
    38         81
    39        375
    40        145
    41         43
    42         89
    43        268
    44         14
    45          7
    46          0
    47          0
    50        148
    51        509
    52         57
    53         16
    54         26
    55         33
    56         51
    57          9
    58         11
    59          7
    60          3
    61          8
    62         22
    63         73
    64         56
    65         75
    66         39
    67         68
    68         32
    69         26
    70          7
    71          4
    72          5
    73         14
    74         30
    75         31
    76         78
    77        999
    78         93
    79         14
    80          8
    81          4
    82         12
    83          8
    84         41
    85          4
    86          2
    87          4
    88          8
    89         41
    90         32
    91         67
    92         32
    93         19
    94         15
    95          6
    96         31
    97          3
    98          1
    99          0
   100          0
   101          3
   102         11
   103         30
   104         48
   105        142
   106         53
   107         21
   108          3
   109          4
   111         29
   112          2
   115         70
   116         53
   117         91
   118        262
   119         31
   120          7
   121         52
   122          7
   123          0
   126          0
   127          2
   128         12
   129         34
   130        225
   131         94
   132         23
   133          4
   134          1
   142          6
   144        149
   145         44
   146         11
   147          3
   148          1
   149          0
   156          5
   157          4
   158         17
   159        125
   160        291
   161         37
   162         31
   163         12
   164          2
   165          0
   169          0
   171          0
   172          4
   173         25
   174          4
   187        242
   188        980
   189        126
   190          9
   191          0