##TITLE=Library Entry 47797
##JCAMP-DX=Revision 4.10 
##DATA TYPE=MASS SPECTRUM
##SAMPLE DESCRIPTION=A.A.Kutin, Moscow, Russia
##NAMES=HP
##CAS NAME=Imidazol-2(2H)-one, 4-methyl-1,3-diphenyl-1,3-dihydro-
##MOLFORM=C16H14N2O
##CAS REGISTRY NO=50871-95-9
##MP= -300
##BP= -300
##MW= 250
##$RETENTION INDEX=0
##$CONDENSED SPECTRUM=NO
##NPOINTS= 172
##XYDATA=(XY..XY) 1 
    33          0
    34          0
    37         12
    38         37
    39        117
    40         24
    41         20
    42         27
    43          6
    44          5
    45          0
    46          0
    48          0
    50        116
    51        409
    52         50
    53          8
    54         12
    55          5
    56          7
    57          3
    59          2
    61          4
    62         14
    63         54
    64         56
    65         40
    66          6
    67          2
    68          2
    69          2
    70          9
    71          1
    74         26
    75         29
    77        999
    78         75
    79          5
    80          1
    81          1
    82          1
    83          1
    84          1
    85          0
    86          1
    87          1
    88          3
    89         17
    90         20
    91         69
    92         10
    93          9
    94          1
    95          0
    96          0
    97          1
    98          1
    99          0
   100          0
   101          4
   103        141
   104        129
   105         75
   106         16
   107          5
   108          1
   109          1
   110          2
   111          1
   112          0
   113          1
   114          2
   115          6
   117        140
   118        715
   119        104
   120          9
   121          2
   122          0
   123          0
   125         42
   128         16
   130        415
   131        144
   132         16
   133          1
   134          5
   135          1
   136          0
   137          0
   138          0
   139          0
   140          0
   141          0
   142          1
   143          2
   144         10
   145          5
   146          5
   147          3
   148          0
   149          0
   151          1
   152          2
   153          1
   154          0
   155          1
   156          0
   157          1
   158          4
   159          0
   160          0
   161          0
   162          0
   163          0
   164          0
   165          1
   166          0
   167          1
   168          0
   169          0
   170          1
   171         13
   172          4
   173         16
   174          2
   175          0
   176          0
   177          0
   178          0
   179          1
   180          5
   181          1
   182          0
   187          0
   189          0
   190          0
   191          0
   192          0
   193          1
   194          1
   195          0
   196          0
   203          0
   204          1
   205          2
   206          3
   207          4
   208          1
   209          1
   210          0
   212          0
   217          0
   218          1
   219          5
   221        114
   222         20
   223          2
   224          0
   233          1
   234          1
   235          0
   238          0
   241          0
   242          0
   243          0
   244          0
   249        226
   250        982
   251        194
   252         18
   253          1