##TITLE=Library Entry 36226
##JCAMP-DX=Revision 4.10 
##DATA TYPE=MASS SPECTRUM
##SAMPLE DESCRIPTION=NIST Mass Spectrometry Data Center, 1990.
##NAMES=HP
##CAS NAME=Cyclohexane, 1,1,3,5-tetramethyl-, trans-
##MOLFORM=C10H20
##CAS REGISTRY NO=50876-31-8
##MP= -300
##BP= -300
##MW= 140
##$RETENTION INDEX=932
##$CONDENSED SPECTRUM=NO
##NPOINTS= 40
##XYDATA=(XY..XY) 1 
    14          6
    15          9
    27         62
    28         12
    29         75
    32          3
    39        160
    40         42
    41        381
    42         59
    43        103
    51         18
    52         10
    53         77
    54         10
    55        463
    56        156
    57        138
    58          6
    65         25
    67         93
    69        999
    70         70
    71          8
    77         25
    78          6
    79         26
    80          5
    81         41
    82          5
    83        660
    84        126
    85         17
    91         13
    95          6
    97         16
   109         10
   125        779
   126         72
   140          8