##TITLE=Library Entry 37315
##JCAMP-DX=Revision 4.10 
##DATA TYPE=MASS SPECTRUM
##SAMPLE DESCRIPTION=Exported from NIST MS Search
##NAMES=HP
##CAS NAME=Cyclopentane, 1,1,3,3-tetramethyl-
##MOLFORM=C9H18
##CAS REGISTRY NO=50876-33-0
##MP= -300
##BP= -300
##MW= 126
##$RETENTION INDEX=773
##$CONDENSED SPECTRUM=NO
##NPOINTS= 77
##XYDATA=(XY..XY) 1 
    24          1
    26         18
    27        346
    28         82
    29        289
    30          7
    37          7
    38         15
    39        321
    40         53
    41        680
    42        173
    43        210
    44          8
    45          3
    46          8
    47          5
    48          5
    49          1
    50         11
    51         34
    52         15
    53        103
    54         28
    55        839
    56        349
    57        601
    58         25
    59          1
    61          1
    62          2
    63          7
    64          1
    65         16
    66          7
    67         46
    68         24
    69        609
    70        999
    71        222
    72         10
    73          1
    74          1
    75          1
    76          1
    77         20
    78          5
    79         18
    80          6
    81         13
    82          4
    83         83
    84         10
    85          1
    89          1
    90          1
    91          7
    92          1
    93          3
    94          1
    95         15
    96          2
    97        159
    98         17
    99          1
   105          1
   106          1
   107          1
   108          1
   109          2
   110          8
   111        531
   112         42
   113          2
   125          1
   126          4
   127          1