##TITLE=Library Entry 46242
##JCAMP-DX=Revision 4.10 
##DATA TYPE=MASS SPECTRUM
##SAMPLE DESCRIPTION=A.A.Kutin, Moscow, Russia
##NAMES=HP
##CAS NAME=N'-(Benzylidene)-3-nitrobenzohydrazide
##MOLFORM=C14H11N3O3
##CAS REGISTRY NO=50882-42-3
##MP= -300
##BP= -300
##MW= 269
##$RETENTION INDEX=0
##$CONDENSED SPECTRUM=NO
##NPOINTS= 74
##XYDATA=(XY..XY) 1 
    37         46
    38        106
    39        448
    40         22
    41        117
    42         24
    43        108
    44         22
    46         48
    48          2
    49         39
    50        918
    51        473
    52         88
    53         40
    54         11
    55         26
    56          9
    57         16
    59          7
    61         22
    62        177
    63        421
    64        203
    65        549
    66         46
    67          4
    68          1
    69          8
    70          6
    72          8
    73         33
    74        269
    75        346
    76        999
    77        214
    78         39
    79          6
    80          1
    81          4
    88         25
    89        419
    90        226
    91        440
    92         33
    93          1
    98          1
    99          3
   102         37
   103        132
   104        523
   105         67
   106          4
   115          0
   117          2
   118         36
   119         84
   120         24
   121          4
   122         19
   123          3
   134         12
   135          2
   136          1
   150        336
   151         19
   152          3
   165          7
   166         53
   167          6
   176          1
   192          0
   223          0
   269          2