##TITLE=Library Entry 31566
##JCAMP-DX=Revision 4.10 
##DATA TYPE=MASS SPECTRUM
##SAMPLE DESCRIPTION=NIST Mass Spectrometry Data Center, 1994
##NAMES=HP
##CAS NAME=.alpha.-Chloroethyl chloroformate
##MOLFORM=C3H4Cl2O2
##CAS REGISTRY NO=50893-53-3
##MP= -300
##BP= -300
##MW= 142
##$RETENTION INDEX=0
##$CONDENSED SPECTRUM=NO
##NPOINTS= 47
##XYDATA=(XY..XY) 1 
     4          0
    12          3
    13          7
    14         25
    15         52
    16          4
    24          2
    25         13
    26         85
    27        304
    28         58
    29         81
    32          1
    35         66
    36         15
    37         23
    38          4
    40          1
    41          6
    42         22
    43        139
    44         51
    45          9
    47          7
    48         10
    49          5
    50          3
    51          2
    59          1
    60          6
    61         12
    62          1
    63        999
    64         34
    65        313
    66          5
    79         21
    81          7
    99         11
   101          7
   103          1
   107        267
   108         10
   109         87
   110          2
   127          3
   129          2