##TITLE=Library Entry 78606
##JCAMP-DX=Revision 4.10 
##DATA TYPE=MASS SPECTRUM
##SAMPLE DESCRIPTION=V.G.Zaikin, TIPS, Russian Acad. Sci.
##NAMES=HP
##CAS NAME=trans-3,5-Diphenyl-4-nitro-2-isoxazoline
##MOLFORM=C15H12N2O3
##CAS REGISTRY NO=50899-24-6
##MP= -300
##BP= -300
##MW= 268
##$RETENTION INDEX=0
##$CONDENSED SPECTRUM=NO
##NPOINTS= 35
##XYDATA=(XY..XY) 1 
    50        220
    51        560
    52         80
    62         60
    63        200
    64         50
    65        100
    74         60
    75         70
    76        130
    77        980
    78         80
    88         30
    89        180
    90         60
    91        460
    92         40
   102         30
   103         90
   105        999
   106         90
   116         60
   119         40
   144         40
   165        160
   189        120
   190         40
   191        130
   192         40
   193         70
   194        110
   221         70
   222        100
   268         10
   269          2