##TITLE=Library Entry 40401
##JCAMP-DX=Revision 4.10 
##DATA TYPE=MASS SPECTRUM
##SAMPLE DESCRIPTION=Patti Price, Georgia Bureau of Investigation, Decatur,
 Georgia
##NAMES=HP
##CAS NAME=Methadyl acetate
##MOLFORM=C23H31NO2
##CAS REGISTRY NO=509-74-0
##MP= -300
##BP= -300
##MW= 353
##$RETENTION INDEX=0
##$CONDENSED SPECTRUM=NO
##NPOINTS= 148
##XYDATA=(XY..XY) 1 
    41          1
    42         14
    43         80
    44         22
    45          1
    47          1
    48          1
    49          1
    50          2
    51          4
    53          2
    55          1
    56         16
    57         12
    58          5
    59          2
    65          3
    68          2
    70         22
    71         17
    72        999
    73         39
    74          2
    77         13
    78          3
    79          1
    81          1
    82         10
    83          4
    84          1
    85          9
    86          7
    87          2
    89          3
    91         52
    92          4
    93          2
    94          4
    96          5
    97          3
   101          1
   102          3
   103          8
   105         21
   106          3
   107          2
   115         30
   116          4
   117          4
   118          2
   119          5
   126          2
   127          9
   128         18
   129         46
   130         10
   131          6
   134          2
   139          5
   141          2
   142          2
   143          4
   144          2
   145          2
   146          2
   147         30
   148          3
   150          2
   151          4
   152         23
   153          4
   158          4
   159          2
   160          7
   161          2
   163          5
   164          8
   165         67
   166         17
   167         18
   168          3
   171          4
   176          7
   177          6
   178         61
   179         33
   180          9
   181          2
   182         11
   183          2
   189         12
   190         11
   191         24
   192         14
   193         21
   194          5
   195          3
   196          2
   202         10
   203         10
   204          8
   205          6
   206          4
   207         62
   208         16
   209          2
   216          5
   218          2
   219          8
   220          3
   222          7
   223          7
   224         12
   225        263
   226         43
   227          3
   234          3
   236         10
   237          3
   247          1
   248          5
   249          3
   250          3
   251          2
   253         20
   254          8
   265         83
   266         25
   267         14
   268          2
   272          2
   278         16
   279          3
   292          2
   293         13
   294         75
   295         15
   303          4
   310         66
   311         14
   312          2
   324          5
   338        113
   339         25
   340          3
   352          5
   353         23
   354          6