##TITLE=Library Entry 28208
##JCAMP-DX=Revision 4.10 
##DATA TYPE=MASS SPECTRUM
##SAMPLE DESCRIPTION=HOME OFFICE, CENTRAL RES. EST., ALDERMASTON, BERKS., U.
K.
##NAMES=HP
##CAS NAME=Dimenoxadol
##MOLFORM=C20H25NO3
##CAS REGISTRY NO=509-78-4
##MP= -300
##BP= -300
##MW= 327
##$RETENTION INDEX=0
##$CONDENSED SPECTRUM=NO
##NPOINTS= 52
##XYDATA=(XY..XY) 1 
    36         80
    39        150
    40         80
    41        390
    42        190
    43        520
    44        360
    45        100
    51        120
    53         50
    55        390
    56        290
    57        590
    58        999
    59         50
    60        140
    65         80
    67        110
    69        320
    70        160
    71        440
    73        100
    76         60
    77        370
    79         70
    81        140
    82         80
    83        260
    84         70
    85        170
    91        110
    95        130
    96         80
    97        170
    98         60
    99         80
   105        590
   106         70
   107         70
   108        110
   109         60
   111        100
   125         80
   150         70
   152         70
   165        280
   166        100
   167        370
   168         60
   193        230
   211        280
   212         90