##TITLE=Library Entry 91058
##JCAMP-DX=Revision 4.10 
##DATA TYPE=MASS SPECTRUM
##SAMPLE DESCRIPTION=N.W. Davies, Centr. Sci. Lab., Univ. Tasmania, Hobart,
 Australia
##NAMES=HP
##CAS NAME=Pholcodine
##MOLFORM=C23H30N2O4
##CAS REGISTRY NO=509-67-1
##MP= -300
##BP= -300
##MW= 398
##$RETENTION INDEX=3131
##$CONDENSED SPECTRUM=NO
##NPOINTS= 80
##XYDATA=(XY..XY) 1 
    26          6
    27         23
    28          1
    29         36
    30         28
    31          5
    32          1
    39          9
    40          1
    41         30
    42        137
    43         15
    44         49
    45          9
    51          4
    53          7
    54         12
    55         49
    56         93
    57         27
    58         13
    59          5
    63          4
    65          6
    67          4
    68          7
    69          2
    70         62
    71          5
    72          5
    77         10
    78          3
    81         24
    82         10
    83          7
    84          7
    85          6
    86          4
    87          7
    91          7
    94          8
    96          5
    98          8
    99          4
   100        831
   101         55
   102          4
   103          4
   112         13
   113          7
   114        999
   115         83
   116          8
   124         12
   127          6
   128          7
   129          4
   131          4
   139          5
   141          6
   144          4
   152          6
   153          4
   162          6
   165          5
   168          4
   169          3
   171          3
   175          6
   181          4
   184          3
   199          9
   214          3
   268          3
   284          4
   285          4
   312          4
   370          5
   398         56
   399         17