##TITLE=Library Entry 17848
##JCAMP-DX=Revision 4.10 
##DATA TYPE=MASS SPECTRUM
##SAMPLE DESCRIPTION=J.T.LARKINS U.S. DEPT. OF COMMERCE, WASHINGTON, D.C., U
SA
##NAMES=HP
##CAS NAME=Methane, tetranitro-
##MOLFORM=CN4O8
##CAS REGISTRY NO=509-14-8
##MP= -300
##BP= -300
##MW= 196
##$RETENTION INDEX=0
##$CONDENSED SPECTRUM=NO
##NPOINTS= 7
##XYDATA=(XY..XY) 1 
    16        876
    26        222
    30         19
    42        140
    46        999
   104        366
   150        191