##TITLE=Library Entry 85503
##JCAMP-DX=Revision 4.10 
##DATA TYPE=MASS SPECTRUM
##SAMPLE DESCRIPTION=Patti Price, Georgia Bureau of Investigation, Decatur,
 Georgia
##NAMES=HP
##CAS NAME=Gelsemine
##MOLFORM=C20H22N2O2
##CAS REGISTRY NO=509-15-9
##MP= -300
##BP= -300
##MW= 322
##$RETENTION INDEX=2850
##$CONDENSED SPECTRUM=NO
##NPOINTS= 175
##XYDATA=(XY..XY) 1 
    42        128
    52         12
    54         11
    55         48
    56         14
    59          7
    63         22
    64         14
    65         61
    66         15
    67         49
    68         26
    69         10
    70         76
    71          9
    72          3
    73          1
    74          4
    75         15
    76         29
    77        158
    78         41
    79         59
    80         27
    81         39
    82         79
    83         23
    84         20
    87          5
    89         49
    90         30
    91        116
    92         36
    93        120
    94         72
    95         16
    96         14
    98         25
    99          5
   101         26
   102         27
   103         58
   104         38
   105         34
   106         54
   107         74
   108        999
   109        103
   110          6
   111          4
   112          4
   114         10
   115         66
   116         63
   117        141
   118         56
   119         47
   120        169
   121         67
   122         29
   123          6
   126         14
   127         30
   128         65
   129         43
   130        121
   131         37
   132        112
   133        132
   134        161
   135         16
   136         10
   138          5
   139         25
   140         19
   143         25
   144         59
   145         74
   146        108
   147         41
   148         33
   149         21
   151         19
   152         26
   153         20
   154         33
   155         14
   156         18
   157         11
   158         76
   159         67
   160         33
   161         24
   162         29
   163          8
   164         43
   165         26
   166         30
   167         58
   168         45
   170         42
   171         16
   172         13
   174          7
   177         13
   178         35
   179         15
   180         57
   181         13
   182         17
   183         18
   184         13
   185         31
   188          5
   190         28
   191         24
   192         17
   193         17
   194         35
   195         14
   196         71
   197         59
   198         18
   199          7
   202          2
   203          7
   204         27
   206         32
   207         21
   208         36
   209         18
   210         28
   211         20
   212          4
   215         10
   216         12
   217         16
   219         10
   220         29
   221         16
   222         52
   223         41
   225          4
   230         15
   233         10
   234         50
   235         36
   236         55
   238         10
   239         11
   245          5
   246         13
   248         32
   249         20
   250         49
   251        102
   252         27
   260         33
   261         36
   262         10
   263          7
   264          8
   266          2
   274          3
   277          4
   278          4
   279        233
   280         44
   292          2
   293         15
   295          2
   321          4
   322        264
   323         44
   324          9