##TITLE=Library Entry 2702
##JCAMP-DX=Revision 4.10 
##DATA TYPE=MASS SPECTRUM
##SAMPLE DESCRIPTION=R.T.HOLMAN,UNIVERSITY OF MINNESOTA
##NAMES=HP
##CAS NAME=9-Octadecenal
##MOLFORM=C18H34O
##CAS REGISTRY NO=5090-41-5
##MP= -300
##BP= -300
##MW= 266
##$RETENTION INDEX=1997
##$CONDENSED SPECTRUM=NO
##NPOINTS= 66
##XYDATA=(XY..XY) 1 
    26         11
    27        260
    28         55
    29        470
    30         11
    31         22
    39        190
    40         36
    41        999
    42        140
    43        580
    44        140
    45         15
    51         11
    52         11
    53        110
    54        270
    55        780
    56        200
    57        270
    58         22
    65         22
    66         26
    67        340
    68        180
    69        360
    70        160
    71         80
    72         11
    77         26
    78         11
    79         84
    80         67
    81        230
    82        180
    83        220
    84        100
    85         40
    91         15
    93         51
    94         40
    95        150
    96        120
    97        130
    98        170
    99         18
   107         26
   108         26
   109         58
   110         36
   111         69
   112         55
   121         51
   122         22
   123         22
   124         18
   125         22
   126         15
   135         26
   136         11
   137         11
   138         15
   149         11
   152         11
   248         33
   266         22