##TITLE=Library Entry 100532
##JCAMP-DX=Revision 4.10 
##DATA TYPE=MASS SPECTRUM
##SAMPLE DESCRIPTION=NIST Mass Spectrometry Data Center, 2010
##NAMES=HP
##CAS NAME=(2R,8R,8aS)-8,8a-Dimethyl-2-(prop-1-en-2-yl)-1,2,3,7,8,8a-hexahyd
ronaphthalene
##MOLFORM=C15H22
##CAS REGISTRY NO=5090-61-9
##MP= -300
##BP= -300
##MW= 202
##$RETENTION INDEX=1511
##$CONDENSED SPECTRUM=NO
##NPOINTS= 109
##XYDATA=(XY..XY) 1 
    27         20
    28          3
    29         20
    30          1
    37          1
    38          2
    39         77
    40         13
    41        131
    42          8
    50          7
    51         37
    52         15
    53         68
    54          5
    55         66
    56          4
    57          6
    58          3
    62          3
    63         23
    64         13
    65         77
    66         15
    67         55
    68         13
    69         58
    70          7
    72          6
    73          1
    74          2
    75          5
    76          9
    77        165
    78         51
    79        134
    80         29
    81         69
    83         19
    84          4
    85          3
    86          3
    87          2
    88          1
    89         11
    90          3
    91        304
    92         82
    93        165
    94         31
    95         52
    96          7
   101          3
   102         11
   103         49
   104         33
   105        367
   106        106
   107        114
   110          5
   114          1
   115        123
   116         46
   117        182
   118        116
   119        999
   120        160
   121        124
   126          3
   127         26
   128         86
   129         80
   130         35
   131        238
   132         59
   133         76
   134        178
   135         27
   141         23
   142         17
   143         39
   144         22
   145        264
   146         61
   147         39
   152          5
   153          5
   154          2
   155          5
   156          4
   157         11
   158          8
   159        125
   160        122
   161        449
   162         58
   163          4
   165          2
   168          1
   169          1
   170          1
   172          3
   173         21
   174          8
   187        144
   188         23
   201          2
   202        286
   203         48