##TITLE=Library Entry 63249
##JCAMP-DX=Revision 4.10 
##DATA TYPE=MASS SPECTRUM
##SAMPLE DESCRIPTION=E.Pittenauer ET AL, Org.Mass Spectr.,26,595 (1991)
##NAMES=HP
##CAS NAME=4-(2-Phenylethyl)pyridazine
##MOLFORM=C12H12N2
##CAS REGISTRY NO=50901-49-0
##MP= -300
##BP= -300
##MW= 184
##$RETENTION INDEX=0
##$CONDENSED SPECTRUM=NO
##NPOINTS= 32
##XYDATA=(XY..XY) 1 
    41         21
    49          1
    50         34
    51         76
    52         19
    53          8
    62          1
    63         51
    64          6
    65         48
    66         14
    67          4
    74          3
    75          3
    76          3
    77         38
    78         14
    89         18
    90          1
    91        999
    92         88
   102          6
   103         13
   104          8
   115         16
   127          6
   128         18
   153          8
   154          1
   183         13
   184        267
   185         38