##TITLE=Library Entry 66373
##JCAMP-DX=Revision 4.10 
##DATA TYPE=MASS SPECTRUM
##SAMPLE DESCRIPTION=NIST Mass Spectrometry Data Center
##NAMES=HP
##CAS NAME=(2R,3R,4aR,5S,8aS)-2-Hydroxy-4a,5-dimethyl-3-(prop-1-en-2-yl)-2,3
,4,4a,5,6-hexahydronaphthalen-1(8aH)-one
##MOLFORM=C15H22O2
##CAS REGISTRY NO=5090-89-1
##MP= -300
##BP= -300
##MW= 234
##$RETENTION INDEX=1777
##$CONDENSED SPECTRUM=NO
##NPOINTS= 155
##XYDATA=(XY..XY) 1 
    27         33
    28          6
    29         66
    30          8
    31         10
    37          1
    38          3
    39        141
    40         25
    41        279
    42         17
    43         96
    44          6
    45          6
    50          9
    51         52
    52         26
    53        177
    54         22
    55        185
    56         39
    57         56
    58         14
    59          9
    60          4
    61          2
    62          3
    63         19
    64          7
    65        127
    66         48
    67        204
    68         43
    69        138
    70         18
    71         22
    72          7
    73          3
    74          2
    75          4
    76          4
    77        420
    78         94
    79        354
    80         84
    81        211
    82         72
    83        153
    84         78
    85         46
    87          3
    88          2
    89         11
    90          4
    91        669
    92        104
    93        999
    94        169
    95        202
    96         30
    97         89
    98         51
    99         33
   100         15
   101          4
   102          8
   103         35
   104         12
   105        265
   106        157
   107        897
   108        423
   109        628
   110        139
   111         16
   112         34
   113         32
   114          9
   115         39
   116         11
   117         38
   118         24
   119        178
   120        122
   121        203
   122        108
   123        140
   124         38
   126         13
   127          9
   128         51
   129         23
   130          8
   131        105
   132         39
   133         85
   134         28
   135         94
   136         56
   137        126
   138         39
   141          6
   142          6
   143         15
   144          9
   145         82
   146         32
   147         57
   148         97
   149         96
   150        163
   151         30
   156          3
   157         14
   158         11
   159         55
   160         19
   161         29
   162         14
   163         37
   164         24
   165         17
   166         26
   170          1
   171          7
   172          7
   173        134
   174         30
   176          7
   177        105
   178         24
   183         14
   184          2
   185          4
   186          1
   187         47
   188         35
   191         76
   192         17
   198          7
   199          3
   200          1
   201         43
   202          7
   203         12
   204          4
   205        119
   206         39
   215          1
   216         42
   217          7
   219         19
   220          2
   234         71
   235         12