##TITLE=Library Entry 9977
##JCAMP-DX=Revision 4.10 
##DATA TYPE=MASS SPECTRUM
##SAMPLE DESCRIPTION=Chemical Concepts
##NAMES=HP
##CAS NAME=Hexanoic acid, (2-hexanoylaminoethyl)-amide
##MOLFORM=C14H28N2O2
##CAS REGISTRY NO=50905-12-9
##MP= -300
##BP= -300
##MW= 256
##$RETENTION INDEX=0
##$CONDENSED SPECTRUM=NO
##NPOINTS= 126
##XYDATA=(XY..XY) 1 
    26         14
    27        148
    28         86
    29        258
    30        576
    31         17
    35         22
    36        102
    37          7
    38         34
    39         58
    40         16
    41        258
    42        176
    43        999
    44        267
    45         22
    46          2
    50          2
    51          5
    52          3
    53         14
    54         27
    55        132
    56         99
    57         55
    58        226
    59         50
    60         17
    61         12
    63          2
    65          3
    66          2
    67          9
    68         12
    69         43
    70        108
    71        270
    72         69
    73        322
    74         17
    75          1
    76          2
    77          3
    78          2
    79          4
    80          3
    81         13
    82          6
    83         13
    84         41
    85        231
    86        823
    87        223
    88         13
    89          1
    91          3
    92          5
    93          3
    94          2
    95          4
    96          8
    97         18
    98         44
    99        408
   100        264
   101        111
   102         22
   103          5
   104          3
   105          2
   107          1
   109          3
   110          5
   111          9
   112         46
   113         89
   114         18
   115         21
   116        281
   117         23
   118          1
   123          5
   124          2
   125          4
   126         25
   127          7
   128         66
   129        362
   130         37
   131          3
   135          3
   137          2
   138          1
   139         10
   140         25
   141        258
   142         91
   143         13
   144         99
   145          8
   157         72
   158         15
   159         11
   160          2
   167          2
   171         27
   172          3
   181          2
   182          5
   183          2
   185         14
   186          2
   195          2
   200        155
   201         20
   202          2
   213         28
   214          7
   227         21
   228          3
   238          2
   241          2
   256         10
   257         10
   258          2