##TITLE=Library Entry 58648
##JCAMP-DX=Revision 4.10 
##DATA TYPE=MASS SPECTRUM
##SAMPLE DESCRIPTION=Leung Pu, NIH, Bethesda, Maryland, U.S.
##NAMES=HP
##CAS NAME=5-[2-Chlorophenyl]tetraazole
##MOLFORM=C7H5ClN4
##CAS REGISTRY NO=50907-46-5
##MP= -300
##BP= -300
##MW= 180
##$RETENTION INDEX=0
##$CONDENSED SPECTRUM=NO
##NPOINTS= 89
##XYDATA=(XY..XY) 1 
    42         59
    43         82
    44         22
    45          1
    47         27
    48         14
    49        111
    50        330
    51        164
    52         56
    53         37
    54          2
    55          3
    56          0
    57          2
    58          2
    60         48
    61        227
    62        457
    63        392
    64         87
    65         31
    66         13
    67          3
    69          8
    70          2
    71         10
    72         40
    73        214
    74        177
    75        350
    76        122
    77         25
    78          5
    79          1
    83          2
    84         60
    85        114
    86        153
    87        176
    88        106
    89        999
    90        353
    91         29
    92          3
    95          2
    96         22
    97        111
    98         38
    99         67
   100         33
   101         21
   102        199
   103         21
   104          0
   105          1
   108          4
   109          5
   110         14
   111         62
   112         16
   113         21
   114          4
   115          1
   116         23
   117         99
   118         12
   120          1
   121          1
   122        129
   123         91
   124        369
   125         51
   126        108
   127          6
   136          2
   137        178
   138        182
   139         69
   140         60
   141          4
   152        796
   154        297
   155         19
   180        449
   181         41
   182        148
   183         13
   184          0