##TITLE=Library Entry 24867
##JCAMP-DX=Revision 4.10 
##DATA TYPE=MASS SPECTRUM
##SAMPLE DESCRIPTION=NIST Mass Spectrometry Data Center, 1990.
##NAMES=HP
##CAS NAME=1-Bromo-3,5,5-trimethylhexane
##MOLFORM=C9H19Br
##CAS REGISTRY NO=50915-80-5
##MP= -300
##BP= -300
##MW= 206
##$RETENTION INDEX=0
##$CONDENSED SPECTRUM=NO
##NPOINTS= 45
##XYDATA=(XY..XY) 1 
    15          7
    26          7
    27         69
    28          3
    29         79
    39         96
    41        327
    42         31
    43         96
    50          4
    51         12
    52          5
    53         40
    54          4
    55        235
    56        429
    57        999
    58         45
    65          6
    66          3
    67         17
    68          3
    69        176
    70         37
    71         25
    77          5
    79          7
    81          6
    82          2
    83         17
    93          5
    95          7
   107          9
   109         10
   111         44
   112          3
   121          2
   135         13
   137         11
   148          4
   149         44
   150          8
   151         39
   191         14
   193         11