##TITLE=Library Entry 32475
##JCAMP-DX=Revision 4.10 
##DATA TYPE=MASS SPECTRUM
##SAMPLE DESCRIPTION=D.HENNEBERG, MAX-PLANCK INSTITUTE, MULHEIM, WEST GERMAN
Y
##NAMES=HP
##CAS NAME=Cyclopropene, 1-butyl-2-ethyl-
##MOLFORM=C9H16
##CAS REGISTRY NO=50915-91-8
##MP= -300
##BP= -300
##MW= 124
##$RETENTION INDEX=0
##$CONDENSED SPECTRUM=NO
##NPOINTS= 68
##XYDATA=(XY..XY) 1 
    23          1
    24          0
    25          2
    26         13
    27        279
    29        196
    34          1
    35          1
    37         11
    38         17
    39        290
    40         68
    41        498
    42         56
    43         76
    45          1
    47          2
    48          2
    49          2
    50         17
    51         57
    52         36
    53        198
    54        109
    55        286
    56         25
    57          7
    59          0
    60          0
    61          2
    62          6
    63         17
    64          4
    65         63
    66         39
    67        999
    68        118
    69         32
    70          8
    72          0
    74          1
    75          6
    76          1
    77         58
    78         11
    79         83
    80         29
    81        143
    82        334
    83         28
    85          2
    89          0
    91         17
    92          3
    93         32
    94          9
    95        268
    96         30
    99          0
   105          1
   107          2
   109         54
   110          2
   111          0
   123          1
   124         32
   125          2
   126          0