##TITLE=Library Entry 19000
##JCAMP-DX=Revision 4.10 
##DATA TYPE=MASS SPECTRUM
##SAMPLE DESCRIPTION=JACSAT,99(19)6347(1977); 2; S.J. CRISTOL
##NAMES=HP
##CAS NAME=Cyclopropane, 1-chloro-1-methyl-
##MOLFORM=C4H7Cl
##CAS REGISTRY NO=50915-28-1
##MP= -300
##BP= -300
##MW= 90
##$RETENTION INDEX=0
##$CONDENSED SPECTRUM=NO
##NPOINTS= 7
##XYDATA=(XY..XY) 1 
    39        440
    40        308
    41        536
    53        235
    55        999
    90        310
    92        128