##TITLE=Library Entry 4169
##JCAMP-DX=Revision 4.10 
##DATA TYPE=MASS SPECTRUM
##SAMPLE DESCRIPTION=Exported from NIST MS Search
##NAMES=HP
##CAS NAME=Annotine
##MOLFORM=C16H21NO3
##CAS REGISTRY NO=5096-59-3
##MP= -300
##BP= -300
##MW= 275
##$RETENTION INDEX=0
##$CONDENSED SPECTRUM=NO
##NPOINTS= 153
##XYDATA=(XY..XY) 1 
    41        999
    42        428
    43        542
    44        446
    45         53
    50         64
    51        250
    52        135
    53        410
    54        207
    55        535
    56        114
    57        150
    58         28
    59         17
    60         28
    62         25
    63        107
    64         53
    65        221
    66         89
    67        196
    68        171
    69        185
    70         89
    71         64
    72         28
    73         28
    74         17
    75         28
    76         35
    77        350
    78        125
    79        185
    80        107
    81        110
    82         64
    83         71
    84         28
    85         25
    86         14
    87         10
    89         53
    90         35
    91        242
    92         71
    93         89
    94         71
    95         64
    96         53
    97         42
    98         10
    99         10
   101         10
   102         39
   103         89
   104         60
   105         71
   106         64
   107         53
   108         46
   109         64
   110         28
   111         35
   112         10
   113         21
   114         10
   115        125
   116         71
   117        178
   118        107
   119         42
   120        107
   121         64
   122         78
   123         64
   124         25
   127         25
   128         64
   129         78
   130        321
   131        160
   132        114
   133         64
   134         78
   135         35
   136         64
   137         35
   141         28
   142        100
   143        339
   144        321
   145        100
   146        114
   147         39
   148         78
   149        107
   150        160
   151         39
   152         32
   153         10
   154         35
   155         17
   156         64
   157         39
   158        196
   159        114
   160        135
   161         35
   162         89
   163         35
   164         25
   165         17
   167         25
   168         35
   169         25
   170        992
   171        185
   172        660
   173        107
   174        142
   175         28
   176         35
   178         10
   184         57
   185         21
   186         57
   187         17
   188        142
   189         42
   190         64
   192         21
   198         25
   200         17
   202         17
   203         10
   204         17
   212         42
   213         17
   214         42
   216         17
   230         21
   231         35
   234         10
   242         25
   256         17
   257        214
   258        507
   259         89
   260         25
   274         53
   275        178
   276         28