##TITLE=Library Entry 99110
##JCAMP-DX=Revision 4.10 
##DATA TYPE=MASS SPECTRUM
##SAMPLE DESCRIPTION=A.A.Kutin, Moscow, Russia
##NAMES=HP
##CAS NAME=5H-Tetrazol-5-one, 1,2-dihydro-1-phenyl-
##MOLFORM=C7H6N4O
##CAS REGISTRY NO=5097-82-5
##MP= -300
##BP= -300
##MW= 162
##$RETENTION INDEX=0
##$CONDENSED SPECTRUM=NO
##NPOINTS= 27
##XYDATA=(XY..XY) 1 
    33         28
    37         77
    38         84
    39         95
    40        140
    41         25
    43         78
    44         35
    46          2
    50        111
    51        137
    52         39
    53          3
    61          2
    62         59
    64        386
    65         41
    74          6
    77        128
    90         25
    91        421
    92         25
   117          2
   119        999
   120         25
   162        195
   163          9