##TITLE=Library Entry 49281
##JCAMP-DX=Revision 4.10 
##DATA TYPE=MASS SPECTRUM
##SAMPLE DESCRIPTION=Chemical Concepts
##NAMES=HP
##CAS NAME=1,4-Cyclohexadiene-1-carboxylic acid, methyl ester
##MOLFORM=C8H10O2
##CAS REGISTRY NO=50983-21-6
##MP= -300
##BP= -300
##MW= 138
##$RETENTION INDEX=1324
##$CONDENSED SPECTRUM=NO
##NPOINTS= 81
##XYDATA=(XY..XY) 1 
    26         13
    27        102
    28          6
    29         15
    30          2
    31          5
    36          1
    37         10
    38         28
    39        123
    40         10
    41         21
    42          2
    43          9
    44          2
    45         23
    46          0
    49          6
    50         84
    51        195
    52         93
    53         74
    54          7
    55          6
    56          0
    57          1
    58          2
    59        133
    60          8
    61          4
    62          5
    63         18
    64          4
    65         16
    66          5
    67         17
    68          1
    69          3
    70          0
    71          5
    72          0
    73          3
    74         17
    75         23
    76         17
    77        748
    78        317
    79        999
    80         71
    81          5
    82          0
    83          1
    84          1
    85          0
    91         77
    92         10
    93         66
    94          7
    95         15
    96          2
    99          3
   104          5
   105        251
   106         51
   107        295
   108         23
   109          8
   110          9
   111          1
   119          1
   120          0
   121          1
   122          1
   123         29
   124          2
   135          1
   136         46
   137        824
   138        574
   139         55
   140          5