##TITLE=Library Entry 21139
##JCAMP-DX=Revision 4.10 
##DATA TYPE=MASS SPECTRUM
##SAMPLE DESCRIPTION=Exported from NIST MS Search
##NAMES=HP
##CAS NAME=1,1'-Bicyclohexyl, 2-methyl-, cis-
##MOLFORM=C13H24
##CAS REGISTRY NO=50991-08-7
##MP= -300
##BP= -300
##MW= 180
##$RETENTION INDEX=0
##$CONDENSED SPECTRUM=NO
##NPOINTS= 122
##XYDATA=(XY..XY) 1 
    36          1
    37          2
    38          6
    39        214
    40         40
    41        607
    42         84
    43         80
    44          3
    45          1
    46          1
    47          1
    48          1
    49          1
    50          5
    51         20
    52         15
    53        110
    54        148
    55        999
    56         63
    57         14
    58          1
    59          1
    60          1
    61          1
    62          1
    63          4
    64          1
    65         27
    66         26
    67        342
    68        100
    69        105
    70         13
    71          2
    72          1
    73          1
    74          1
    75          1
    76          1
    77         34
    78          9
    79         49
    80         19
    81        314
    82        354
    83        188
    84         14
    85          1
    86          1
    87          1
    88          1
    89          1
    90          1
    91         16
    92          3
    93         12
    94          6
    95         56
    96        642
    97        939
    98         74
    99          3
   100          1
   101          1
   102          1
   103          1
   104          1
   105          3
   106          1
   107          4
   108          4
   109         45
   110         21
   111         18
   112          2
   113          1
   114          1
   115          1
   116          1
   117          1
   118          1
   119          1
   120          1
   121          1
   122          3
   123         14
   124          4
   125          1
   126          1
   127          1
   128          1
   129          1
   130          1
   131          1
   132          1
   133          1
   134          1
   135          1
   136          1
   137          2
   138          2
   139          1
   149          1
   150          1
   151          1
   152          2
   153          1
   163          1
   164          1
   165          2
   166          1
   175          1
   176          1
   177          1
   178          1
   179          1
   180        122
   181         18
   182          1
   183          1