##TITLE=Library Entry 51940
##JCAMP-DX=Revision 4.10 
##DATA TYPE=MASS SPECTRUM
##SAMPLE DESCRIPTION=Exported from NIST MS Search
##NAMES=HP
##CAS NAME=1,1'-Bicyclohexyl, 2-(1-methylethyl)-, cis-
##MOLFORM=C15H28
##CAS REGISTRY NO=50991-15-6
##MP= -300
##BP= -300
##MW= 208
##$RETENTION INDEX=0
##$CONDENSED SPECTRUM=NO
##NPOINTS= 127
##XYDATA=(XY..XY) 1 
    36          1
    37          2
    38          5
    39        185
    40         35
    41        770
    42         53
    43        251
    44          9
    45          1
    46          1
    47          1
    48          1
    49          1
    50          4
    51         17
    52         14
    53        110
    54        136
    55        585
    56         53
    57        140
    58          7
    59          1
    60          1
    61          1
    62          1
    63          3
    64          1
    65         30
    66         42
    67        350
    68         66
    69        641
    70         41
    71          9
    72          1
    73          1
    74          1
    75          1
    76          1
    77         43
    78         12
    79         74
    80         46
    81        264
    82        214
    83        999
    84         69
    85          4
    86          1
    87          1
    88          1
    89          1
    90          1
    91         24
    92          5
    93         20
    94          8
    95        158
    96         54
    97        148
    98         12
    99          1
   100          1
   101          1
   102          1
   103          2
   104          1
   105          5
   106          1
   107          8
   108          6
   109        243
   110         25
   111         11
   112          2
   113          1
   114          1
   115          1
   116          1
   117          1
   118          1
   119          1
   120          1
   121          6
   122          7
   123         48
   124        159
   125        202
   126         20
   127          1
   128          1
   129          1
   130          1
   131          1
   132          1
   133          1
   134          1
   135          5
   136          2
   137          2
   138          2
   139          1
   140          1
   141          1
   148          1
   149          2
   150          1
   151          2
   152          1
   153          1
   163          1
   164        158
   165        553
   166         78
   167          5
   168          1
   178          1
   179          1
   180          1
   193          1
   206          1
   207          1
   208         29
   209          5
   210          1