##TITLE=Library Entry 88125
##JCAMP-DX=Revision 4.10 
##DATA TYPE=MASS SPECTRUM
##SAMPLE DESCRIPTION=Exported from NIST MS Search
##NAMES=HP
##CAS NAME=1,1'-Bicyclohexyl, 2-ethyl-, trans-
##MOLFORM=C14H26
##CAS REGISTRY NO=50991-13-4
##MP= -300
##BP= -300
##MW= 194
##$RETENTION INDEX=0
##$CONDENSED SPECTRUM=NO
##NPOINTS= 118
##XYDATA=(XY..XY) 1 
    36          1
    37          2
    38          6
    39        246
    40         44
    41        916
    42         93
    43        133
    44          5
    45          1
    46          1
    47          1
    48          1
    49          1
    50          5
    51         23
    52         18
    53        138
    54        174
    55        877
    56         76
    57         51
    58          3
    59          1
    60          1
    61          1
    62          1
    63          4
    64          2
    65         37
    66         36
    67        435
    68        100
    69        942
    70         63
    71          7
    72          1
    73          1
    74          1
    75          1
    76          1
    77         49
    78         13
    79         78
    80         39
    81        373
    82        273
    83        359
    84         27
    85          2
    86          1
    87          1
    88          1
    89          1
    90          1
    91         26
    92          5
    93         20
    94          8
    95        126
    96        113
    97         72
    98          7
    99          1
   100          1
   101          1
   102          1
   103          2
   104          1
   105          4
   106          1
   107          7
   108          7
   109        118
   110        830
   111        999
   112         88
   113          4
   114          1
   115          1
   116          1
   117          1
   118          1
   119          1
   120          1
   121          3
   122          4
   123         17
   124         11
   125          8
   126          1
   127          1
   128          1
   129          1
   130          1
   131          1
   132          1
   133          1
   134          1
   135          1
   136          1
   137          6
   138          3
   139          1
   140          1
   149          1
   150          1
   151          3
   152          2
   153          1
   163          1
   164          5
   165         63
   166         10
   167          1
   178          1
   179          1
   180          1