##TITLE=Library Entry 81228
##JCAMP-DX=Revision 4.10 
##DATA TYPE=MASS SPECTRUM
##SAMPLE DESCRIPTION=Chemical Concepts
##NAMES=HP
##CAS NAME=2-Azetidinone, 1-phenyl-
##MOLFORM=C9H9NO
##CAS REGISTRY NO=5099-95-6
##MP= -300
##BP= -300
##MW= 147
##$RETENTION INDEX=0
##$CONDENSED SPECTRUM=NO
##NPOINTS= 69
##XYDATA=(XY..XY) 1 
    26         15
    27         42
    28         19
    29          1
    36          0
    37         10
    38         25
    39         44
    40          7
    41          8
    42         17
    43          1
    44          0
    48          0
    49          2
    50         34
    51        109
    52         25
    53          2
    54          1
    55         14
    56          0
    59          0
    60          0
    61          4
    62         10
    63         36
    64         50
    65         25
    66          3
    67          0
    69          0
    73          2
    74         13
    75         10
    76         15
    77        270
    78         37
    79          3
    80          0
    86          0
    87          1
    88          2
    89          3
    90         11
    91        126
    92         11
    93         21
    94          2
    99          0
   100          0
   102          1
   103          3
   104        566
   105        999
   106         78
   107          2
   116          0
   117          8
   118          9
   119        325
   120         27
   121          1
   128          0
   146          1
   147        850
   148         84
   149          6
   150          0