##TITLE=Library Entry 51941
##JCAMP-DX=Revision 4.10 
##DATA TYPE=MASS SPECTRUM
##SAMPLE DESCRIPTION=Exported from NIST MS Search
##NAMES=HP
##CAS NAME=1,1'-Bicyclohexyl, 2-(1-methylethyl)-, trans-
##MOLFORM=C15H28
##CAS REGISTRY NO=50991-16-7
##MP= -300
##BP= -300
##MW= 208
##$RETENTION INDEX=0
##$CONDENSED SPECTRUM=NO
##NPOINTS= 120
##XYDATA=(XY..XY) 1 
    36          1
    37          2
    38          5
    39        190
    40         35
    41        776
    42         55
    43        253
    44          9
    45          1
    46          1
    47          1
    48          1
    49          1
    50          4
    51         18
    52         14
    53        114
    54        135
    55        619
    56         61
    57        148
    58          7
    59          1
    60          1
    61          1
    62          1
    63          3
    64          1
    65         31
    66         29
    67        353
    68         61
    69        693
    70         48
    71         10
    72          1
    73          1
    74          1
    75          1
    76          1
    77         42
    78         12
    79         74
    80         43
    81        272
    82        180
    83        999
    84         71
    85          4
    86          1
    87          1
    88          1
    89          1
    90          1
    91         24
    92          5
    93         20
    94          8
    95        155
    96         69
    97        138
    98         11
    99          1
   100          1
   101          1
   102          1
   103          2
   104          1
   105          4
   106          1
   107          8
   108          6
   109        237
   110         26
   111         10
   112          1
   113          1
   114          1
   115          1
   116          1
   117          1
   118          1
   119          1
   120          1
   121          5
   122          6
   123         43
   124        182
   125        279
   126         29
   127          2
   128          1
   129          1
   130          1
   131          1
   132          1
   133          1
   134          1
   135          3
   136          1
   137          2
   138          1
   139          1
   140          1
   149          1
   150          1
   151          1
   152          1
   153          1
   163          1
   164        108
   165        460
   166         62
   167          4
   168          1
   178          1
   179          1
   180          1
   193          1