##TITLE=Library Entry 16609
##JCAMP-DX=Revision 4.10 
##DATA TYPE=MASS SPECTRUM
##SAMPLE DESCRIPTION=Japan AIST/NIMC Database- Spectrum MS-NW-7999
##NAMES=HP
##CAS NAME=(+)-.alpha.-(2,4,5,7-Tetranitro-9-fluorenylideneaminoxy)propionic
 acid
##MOLFORM=C16H9N5O11
##CAS REGISTRY NO=50996-73-1
##MP= -300
##BP= -300
##MW= 447
##$RETENTION INDEX=0
##$CONDENSED SPECTRUM=NO
##NPOINTS= 303
##XYDATA=(XY..XY) 1 
    12         24
    13         20
    14         71
    15        254
    16         99
    17          5
    18         19
    19          1
    24          5
    25         16
    26         53
    27        141
    28        205
    29        329
    30        685
    31         16
    32          4
    36          3
    37          6
    38         18
    39         38
    40          9
    41         31
    42         72
    43        562
    44        999
    45        353
    46         29
    47          7
    49          4
    50         36
    51         38
    52         33
    53         70
    54         13
    55         73
    56          7
    57          3
    59          8
    60         10
    61         26
    62         84
    63         92
    64         27
    65         12
    66         13
    67         24
    68         20
    69         73
    70          8
    71          4
    72         32
    73         44
    74        167
    75         84
    76         55
    77         27
    78          9
    79          8
    80          6
    81         11
    82         24
    83          2
    84          4
    85         25
    86        213
    87        105
    88        122
    89         25
    90         13
    91          6
    92          5
    93          5
    94          2
    95          2
    96          2
    97          7
    98        109
    99         87
   100         81
   101         25
   102         10
   103          4
   104         12
   105          4
   106          2
   107          2
   108          2
   109         16
   110        147
   111         85
   112        120
   113         42
   114         17
   115          6
   116         13
   117          4
   118          4
   120          6
   121          6
   122         42
   123         67
   124        100
   125         38
   126         21
   127          9
   128          9
   129          4
   130          3
   131          1
   132          3
   133          9
   134         40
   135         79
   136        165
   137         78
   138         53
   139         29
   140         10
   141          8
   142         10
   143          4
   144          5
   145          5
   146         29
   147         28
   148         35
   149         24
   150         55
   151        128
   152         39
   153         18
   154          9
   155          5
   156          4
   157          2
   158          5
   159          6
   160         15
   161         12
   162        198
   163        307
   164        147
   165         41
   166         16
   167         25
   168          9
   169          6
   170          9
   171          4
   172          4
   173          4
   174          7
   175         11
   176         16
   177         11
   178         30
   179         87
   180         42
   181         25
   182         31
   183          7
   184          4
   185          2
   187          2
   188          3
   189         19
   190         54
   191        409
   192        170
   193        101
   194         44
   195         98
   196         18
   197          7
   198          4
   199          2
   200          2
   201          1
   202          2
   203          2
   204          4
   205          5
   206         38
   207        119
   208         37
   209         24
   210         16
   211          9
   212          3
   213          3
   214          5
   215          2
   216         29
   217          4
   218          4
   219          3
   220          6
   221         63
   222         51
   223         28
   224         10
   225         16
   226          9
   227          8
   228          3
   229          1
   230          1
   231          2
   233          2
   234         18
   235         26
   236         99
   237         95
   238        211
   239         62
   240         14
   241          5
   242          3
   243          2
   249          3
   250          4
   251          7
   252         11
   253         38
   254         51
   255         52
   256         49
   257          8
   258          2
   263          6
   264          6
   265          5
   266          5
   267         40
   268         33
   269          9
   270          6
   271          3
   274          2
   275          2
   278          2
   279          9
   280        127
   281         26
   282         72
   283         16
   284         23
   285          7
   286          3
   293          4
   294          2
   295          3
   296          4
   297          4
   298          4
   299         10
   300         31
   301          6
   302          2
   309          5
   310          4
   311          5
   312         10
   313        891
   314        361
   315         61
   316          9
   317          2
   324          2
   326        175
   327         33
   328          9
   329         36
   330         15
   331          5
   338          2
   339          9
   340          4
   342          2
   343         13
   344          7
   345          3
   355          2
   356          3
   357          2
   358          8
   359        184
   360         92
   361         16
   362          4
   375          8
   376          3
   386          2
   401          5
   402        238
   403         43
   404         11
   405          2
   417          2
   431          4
   447         11
   448          4