##TITLE=Library Entry 36008
##JCAMP-DX=Revision 4.10 
##DATA TYPE=MASS SPECTRUM
##SAMPLE DESCRIPTION=Exported from NIST MS Search
##NAMES=HP
##CAS NAME=1,1'-Bicyclohexyl, 2-ethyl-, cis-
##MOLFORM=C14H26
##CAS REGISTRY NO=50991-12-3
##MP= -300
##BP= -300
##MW= 194
##$RETENTION INDEX=0
##$CONDENSED SPECTRUM=NO
##NPOINTS= 129
##XYDATA=(XY..XY) 1 
    36          1
    37          2
    38          6
    39        251
    40         46
    41        935
    42         96
    43        134
    44          5
    45          1
    46          1
    47          1
    48          1
    49          1
    50          5
    51         24
    52         18
    53        138
    54        175
    55        883
    56         74
    57         52
    58          3
    59          1
    60          1
    61          1
    62          1
    63          5
    64          2
    65         38
    66         36
    67        430
    68         99
    69        999
    70         64
    71          6
    72          1
    73          1
    74          1
    75          1
    76          1
    77         50
    78         13
    79         78
    80         42
    81        420
    82        384
    83        342
    84         26
    85          2
    86          1
    87          1
    88          1
    89          1
    90          1
    91         26
    92          5
    93         20
    94          7
    95        124
    96         75
    97         59
    98          6
    99          1
   100          1
   101          1
   102          1
   103          2
   104          1
   105          4
   106          1
   107          7
   108          6
   109         90
   110        707
   111        981
   112         86
   113          4
   114          1
   115          1
   116          1
   117          1
   118          1
   119          1
   120          1
   121          3
   122          4
   123         15
   124         17
   125         13
   126          1
   127          1
   128          1
   129          1
   130          1
   131          1
   132          1
   133          1
   134          1
   135          1
   136          1
   137          8
   138          3
   139          1
   140          1
   141          1
   142          1
   143          1
   144          1
   145          1
   146          1
   147          1
   148          1
   149          1
   150          1
   151          2
   152          2
   153          1
   163          1
   164          8
   165         95
   166         14
   167          1
   177          1
   178          1
   179          1
   194        102
   195         16
   196          1