##TITLE=Library Entry 21140
##JCAMP-DX=Revision 4.10 
##DATA TYPE=MASS SPECTRUM
##SAMPLE DESCRIPTION=Exported from NIST MS Search
##NAMES=HP
##CAS NAME=1,1'-Bicyclohexyl, 2-methyl-, trans-
##MOLFORM=C13H24
##CAS REGISTRY NO=50991-09-8
##MP= -300
##BP= -300
##MW= 180
##$RETENTION INDEX=0
##$CONDENSED SPECTRUM=NO
##NPOINTS= 122
##XYDATA=(XY..XY) 1 
    36          1
    37          2
    38          6
    39        220
    40         41
    41        625
    42         85
    43         82
    44          3
    45          1
    46          1
    47          1
    48          1
    49          1
    50          5
    51         21
    52         15
    53        111
    54        150
    55        999
    56         66
    57         16
    58          1
    59          1
    60          1
    61          1
    62          1
    63          4
    64          1
    65         27
    66         27
    67        358
    68         95
    69        110
    70         14
    71          2
    72          1
    73          1
    74          1
    75          1
    76          1
    77         34
    78          9
    79         50
    80         20
    81        286
    82        253
    83        194
    84         15
    85          1
    86          1
    87          1
    88          1
    89          1
    90          1
    91         17
    92          3
    93         13
    94          6
    95         63
    96        782
    97        999
    98         78
    99          4
   100          1
   101          1
   102          1
   103          1
   104          1
   105          3
   106          1
   107          4
   108          4
   109         65
   110         18
   111         14
   112          2
   113          1
   114          1
   115          1
   116          1
   117          1
   118          1
   119          1
   120          1
   121          1
   122          2
   123         12
   124          5
   125          1
   126          1
   127          1
   128          1
   129          1
   130          1
   131          1
   132          1
   133          1
   134          1
   135          1
   136          1
   137          3
   138          2
   139          1
   149          1
   150          1
   151          2
   152          2
   153          1
   163          1
   164          1
   165          2
   166          1
   175          1
   176          1
   177          1
   178          1
   179          1
   180         54
   181          8
   182          1
   183          1