##TITLE=Library Entry 56496
##JCAMP-DX=Revision 4.10 
##DATA TYPE=MASS SPECTRUM
##SAMPLE DESCRIPTION=Sigma Chemical Company
##NAMES=HP
##CAS NAME=Procainamide
##MOLFORM=C13H21N3O
##CAS REGISTRY NO=51-06-9
##MP= -300
##BP= -300
##MW= 235
##$RETENTION INDEX=2219
##$CONDENSED SPECTRUM=NO
##NPOINTS= 42
##XYDATA=(XY..XY) 1 
    41         13
    42         34
    43         12
    44         11
    50          1
    52          4
    54          5
    56         28
    57         13
    58         99
    59          3
    63          7
    64          7
    65         67
    66          8
    68          1
    69          2
    70         16
    71         33
    72         13
    75          1
    76          1
    84         16
    86        999
    87         51
    91         10
    92         80
    93          5
    99        233
   100         20
   113          3
   115          2
   118          2
   120        137
   121         13
   132          1
   137          2
   163         28
   164          3
   206          3
   233          2
   235          3