##TITLE=Library Entry 17629
##JCAMP-DX=Revision 4.10 
##DATA TYPE=MASS SPECTRUM
##SAMPLE DESCRIPTION=J.E. WILKINSON S-CUBED, SAN DIEGO, CA.
##NAMES=HP
##CAS NAME=Sesamex
##MOLFORM=C15H22O6
##CAS REGISTRY NO=51-14-9
##MP= -300
##BP= -300
##MW= 298
##$RETENTION INDEX=0
##$CONDENSED SPECTRUM=NO
##NPOINTS= 118
##XYDATA=(XY..XY) 1 
    45        999
    46         25
    47          6
    48          0
    49          6
    50         82
    51        100
    52        159
    53        164
    54         25
    55         30
    56         14
    57         50
    58         21
    59        203
    60         15
    61         17
    62         23
    63         24
    64          5
    65         14
    66         16
    67          7
    68          0
    69        103
    70         28
    72        312
    73        252
    74         21
    75         15
    76         22
    77         26
    78         37
    79         50
    80         53
    81         35
    82         17
    83          1
    84          0
    85          1
    86          7
    87         45
    88          6
    89         18
    90          1
    91          1
    92          3
    93          2
    94          1
    95          7
    96          0
    97          0
    98          0
    99          0
   100          1
   101         20
   102          0
   103          5
   104          7
   105          6
   106          7
   107         25
   108          8
   109          3
   110          0
   111          0
   112          0
   113          0
   114          0
   115          0
   116          0
   117         31
   118          0
   119          0
   120          0
   121          6
   122          0
   123          0
   124          5
   125          0
   127          0
   128          0
   129          0
   131          0
   132          0
   133         12
   134          1
   135         12
   137        265
   138        367
   139         26
   140          1
   145          0
   147          0
   148          0
   149          1
   150          5
   151          0
   152          4
   153          0
   160          0
   161         33
   162         46
   163         20
   164         81
   165         10
   166          0
   170          0
   175          1
   178          2
   197          0
   198          0
   199          0
   200          0
   225          0
   255          0
   256          8
   257          0