##TITLE=Library Entry 97975
##JCAMP-DX=Revision 4.10 
##DATA TYPE=MASS SPECTRUM
##SAMPLE DESCRIPTION=NIST Mass Spectrometry Data Center, 1990.
##NAMES=HP
##CAS NAME=1H-Benzimidazole
##MOLFORM=C7H6N2
##CAS REGISTRY NO=51-17-2
##MP= -300
##BP= -300
##MW= 118
##$RETENTION INDEX=1431
##$CONDENSED SPECTRUM=NO
##NPOINTS= 54
##XYDATA=(XY..XY) 1 
    13          1
    14          2
    15          1
    17          0
    18          0
    25          2
    26          8
    27         12
    28         48
    29          0
    36          4
    37         38
    38         55
    39         52
    40         11
    41         23
    42          2
    43          1
    44          3
    45          8
    49          6
    50         21
    51         20
    52         57
    53          4
    54          1
    59         32
    60          6
    61         27
    62         50
    63        162
    64        136
    65         36
    66          5
    67          3
    73          1
    74          5
    75          6
    76          7
    77          3
    78          8
    79          2
    86          3
    87          8
    88         10
    89         13
    90         85
    91        343
    92         26
    93          2
   117         35
   118        999
   119         82
   120          4