##TITLE=Library Entry 67447
##JCAMP-DX=Revision 4.10 
##DATA TYPE=MASS SPECTRUM
##SAMPLE DESCRIPTION=NIST Mass Spectrometry Data Center, 1998.
##NAMES=HP
##CAS NAME=Scopolamine
##MOLFORM=C17H21NO4
##CAS REGISTRY NO=51-34-3
##MP= -300
##BP= -300
##MW= 303
##$RETENTION INDEX=2304
##$CONDENSED SPECTRUM=NO
##NPOINTS= 118
##XYDATA=(XY..XY) 1 
    15          6
    26          2
    27         20
    28          5
    29         24
    30         13
    31         49
    32          2
    37          1
    38          4
    39         68
    40         14
    41        142
    42        410
    43         49
    44         56
    45          4
    49          1
    50         11
    51         45
    52         15
    53         45
    54         35
    55         87
    56         55
    57        115
    58         34
    59          2
    60          4
    61          1
    62          7
    63         29
    64         11
    65         80
    66         27
    67         95
    68        121
    69         49
    70         68
    71          7
    72         16
    73          3
    74          3
    75          4
    76          6
    77        177
    78         60
    79        116
    80         43
    81        200
    82        139
    83         40
    84         43
    85          3
    86         14
    87          2
    88          1
    89         64
    90         93
    91        192
    92         26
    93         88
    94        999
    95        107
    96         95
    97        258
    98         35
    99          5
   100          1
   101          2
   102         13
   103        253
   104         48
   105         10
   106         27
   107         57
   108        558
   109        108
   110        143
   111         26
   112         11
   113          2
   114          3
   115          2
   116          1
   117          2
   118         56
   119         10
   120        145
   121        116
   122         35
   123          6
   124          8
   125          1
   126         20
   127          2
   128          1
   131          3
   132          1
   135          5
   136        392
   137        153
   138        838
   139         77
   140          6
   141          1
   154        283
   155         30
   156          4
   157          1
   214          4
   215          1
   285          2
   286          3
   287          1
   303        140
   304         27
   305          3