##TITLE=Library Entry 55730
##JCAMP-DX=Revision 4.10 
##DATA TYPE=MASS SPECTRUM
##SAMPLE DESCRIPTION=Japan AIST/NIMC Database- Spectrum MS-NW-6906
##NAMES=HP
##CAS NAME=Hydroxyproline
##MOLFORM=C5H9NO3
##CAS REGISTRY NO=51-35-4
##MP= -300
##BP= -300
##MW= 131
##$RETENTION INDEX=0
##$CONDENSED SPECTRUM=NO
##NPOINTS= 78
##XYDATA=(XY..XY) 1 
    14          4
    15         26
    16          1
    17          3
    18         11
    19          1
    25          2
    26         13
    27         58
    28        145
    29         53
    30        177
    31         32
    32          3
    33          2
    34          2
    36          1
    37          7
    38         13
    39         52
    40         26
    41        378
    42        120
    43        178
    44         25
    45         35
    46          4
    47          3
    49          1
    50          2
    51          3
    52          6
    53          5
    54         12
    55         44
    56         67
    57         40
    58         98
    59         17
    60          3
    63          1
    64          1
    65          4
    66          9
    67         25
    68        350
    69        241
    70         19
    71          2
    72          1
    73         26
    74          5
    79          1
    80          1
    81          1
    82          2
    83          4
    84         23
    85          6
    86        999
    87        181
    88         10
    89          1
    93          6
    94          7
    95          6
    96          1
    97          1
   100          1
   101          1
   102          2
   111          6
   112          4
   113          1
   114          1
   130          1
   131          6
   132          2