##TITLE=Library Entry 5052
##JCAMP-DX=Revision 4.10 
##DATA TYPE=MASS SPECTRUM
##SAMPLE DESCRIPTION=A.S.Moskovkin,I.M.Karnaukh, Russian Center on Disaster
 Medicine
##NAMES=HP
##CAS NAME=1,3,6,8-Tetraazatricyclo(4.4.1.1(3,8))dodecane
##MOLFORM=C8H16N4
##CAS REGISTRY NO=51-46-7
##MP= -300
##BP= -300
##MW= 168
##$RETENTION INDEX=0
##$CONDENSED SPECTRUM=NO
##NPOINTS= 83
##XYDATA=(XY..XY) 1 
    24          6
    25         25
    26        158
    27        130
    28        126
    29        147
    30         55
    38         24
    39         65
    40         60
    41        683
    42        999
    43        483
    44          8
    45          3
    49         17
    50          5
    51         17
    52         41
    53         24
    54        349
    55        208
    56        550
    57        475
    58        458
    59         41
    60          3
    66          4
    67         12
    68         58
    69        150
    70        241
    71        100
    72         14
    73         13
    77          7
    78          6
    79          3
    80          7
    81         49
    82         99
    83        416
    84        267
    85        375
    86        154
    94          4
    95         25
    96         25
    97        632
    98        132
    99        950
   100        108
   101          3
   104          5
   105          2
   107          1
   108          1
   109         16
   110         58
   111        383
   112         57
   113         24
   114          5
   115          4
   117          4
   118          1
   119          1
   124         15
   125         91
   126        424
   127         54
   131         28
   132         17
   133         12
   137          3
   138         42
   139        324
   140        400
   141         41
   167         13
   168        916
   169         94
   170          4