##TITLE=Library Entry 51018
##JCAMP-DX=Revision 4.10 
##DATA TYPE=MASS SPECTRUM
##SAMPLE DESCRIPTION=Exported from NIST MS Search
##NAMES=HP
##CAS NAME=Histamine
##MOLFORM=C5H9N3
##CAS REGISTRY NO=51-45-6
##MP= -300
##BP= -300
##MW= 111
##$RETENTION INDEX=1499
##$CONDENSED SPECTRUM=NO
##NPOINTS= 52
##XYDATA=(XY..XY) 1 
    15         13
    16         13
    26         22
    27         34
    28        151
    29         23
    30        465
    31          8
    37          5
    38         11
    39         32
    40         29
    41         33
    42         31
    43         10
    50          2
    51          7
    52         32
    53         10
    54        140
    55        114
    56         23
    57          3
    58          1
    60          2
    63          1
    64          1
    65          3
    66          7
    67          7
    68          8
    69          8
    70          1
    71          2
    77          2
    78          1
    79          2
    80          1
    81        340
    82        999
    83         64
    84          3
    85          1
    91          2
    92          1
    93         12
    94          9
    95          4
   109          5
   110          9
   111         30
   112          3