##TITLE=Library Entry 63666
##JCAMP-DX=Revision 4.10 
##DATA TYPE=MASS SPECTRUM
##SAMPLE DESCRIPTION=Japan AIST/NIMC Database- Spectrum MS-NW-5991
##NAMES=HP
##CAS NAME=Dibenzylamine, N-(2-chloroethyl)-
##MOLFORM=C16H18ClN
##CAS REGISTRY NO=51-50-3
##MP= -300
##BP= -300
##MW= 259
##$RETENTION INDEX=0
##$CONDENSED SPECTRUM=NO
##NPOINTS= 83
##XYDATA=(XY..XY) 1 
    27         15
    28          2
    30          3
    35          3
    36         11
    37          1
    38          4
    39         24
    40          2
    41         11
    42         26
    43          1
    44          2
    45          2
    49          1
    50          6
    51         17
    52          5
    53          2
    54          2
    55          1
    56          2
    62          3
    63         18
    64          5
    65         88
    66          4
    74          1
    75          2
    76          3
    77         14
    78          6
    79          3
    89         16
    90         10
    91        999
    92         94
    93          4
   103          4
   104          9
   105          9
   106          6
   107          1
   111          3
   115          1
   117          5
   118         15
   119          2
   120          5
   130          3
   132         10
   133          2
   146          1
   152          1
   165          4
   166          2
   167          2
   168          6
   170          2
   178          1
   179          1
   180          2
   181         39
   182         15
   183          2
   184          3
   194          1
   196          2
   197          1
   208          1
   209          2
   210        705
   211        123
   212         10
   222          2
   223          2
   224          9
   225          2
   258          2
   259         30
   260          7
   261          9
   262          2