##TITLE=Library Entry 107680
##JCAMP-DX=Revision 4.10 
##DATA TYPE=MASS SPECTRUM
##SAMPLE DESCRIPTION=Japan AIST/NIMC Database- Spectrum MS-IW-3765
##NAMES=HP
##CAS NAME=Dopamine
##MOLFORM=C8H11NO2
##CAS REGISTRY NO=51-61-6
##MP= -300
##BP= -300
##MW= 153
##$RETENTION INDEX=0
##$CONDENSED SPECTRUM=NO
##NPOINTS= 86
##XYDATA=(XY..XY) 1 
    15          2
    18          1
    26          4
    27         21
    28         33
    29          9
    30        860
    31         17
    38          7
    39         51
    40         12
    41         15
    42         13
    43         12
    44          7
    47          1
    49          2
    50         23
    51        131
    52         25
    53         34
    54          6
    55         22
    56          2
    57          1
    61          3
    62          9
    63         20
    64          9
    65         21
    66         17
    67         16
    68          4
    69          3
    70          1
    71          1
    74          5
    75          6
    76          9
    77        163
    78         72
    79         15
    80          5
    81          7
    82          2
    88          1
    89          9
    90          4
    91          5
    92          3
    93          3
    94         11
    95          9
    96          4
    97          1
   103          1
   104          5
   105         34
   106         33
   107         28
   108          4
   109          4
   110          7
   116          1
   117          2
   119          1
   120          1
   121          2
   122          5
   123        381
   124        999
   125         76
   126          7
   132          2
   133          1
   134          5
   135          8
   136         13
   137          2
   149          2
   150          2
   151          9
   152          5
   153        216
   154         19
   155          2