##TITLE=Library Entry 44849
##JCAMP-DX=Revision 4.10 
##DATA TYPE=MASS SPECTRUM
##SAMPLE DESCRIPTION=Japan AIST/NIMC Database- Spectrum MS-NW-2061
##NAMES=HP
##CAS NAME=D,L-p-Fluorophenylalanine
##MOLFORM=C9H10FNO2
##CAS REGISTRY NO=51-65-0
##MP= -300
##BP= -300
##MW= 183
##$RETENTION INDEX=0
##$CONDENSED SPECTRUM=NO
##NPOINTS= 114
##XYDATA=(XY..XY) 1 
    12          1
    15         13
    16          3
    17          1
    18          3
    26          4
    27         18
    28        271
    29         20
    30         25
    31          9
    33          4
    37          4
    38          9
    39         34
    40          3
    41         12
    42         34
    43         19
    44         21
    45          8
    46        111
    47          2
    49          2
    50         18
    51         22
    52          5
    53          2
    54          2
    55          1
    56         12
    57         44
    58          5
    59         13
    60          1
    61          6
    62         13
    63         33
    64          6
    65          7
    66          1
    67          5
    68          9
    69         15
    70          8
    71          1
    73          1
    74        999
    75         47
    76          8
    77          4
    78          2
    80          2
    81         13
    82          5
    83        109
    84          8
    85          2
    86          2
    87          4
    88          2
    89         23
    90          8
    91         36
    92          4
    93          2
    94          5
    95         11
    96         12
    97          3
    98          1
    99          1
   100          1
   101         36
   102          5
   103          1
   104          2
   105          1
   106          2
   107         36
   108         30
   109        642
   110        177
   111         17
   112          1
   115          3
   116          5
   117         13
   118         37
   119          5
   120         11
   121         27
   122         32
   123          4
   125          1
   133          2
   134         10
   135         38
   136         85
   137        109
   138        211
   139         18
   145          1
   147          4
   148          8
   149          6
   150          3
   163          1
   164         13
   165         21
   166          6
   181          3
   183         18
   184          2