##TITLE=Library Entry 28418
##JCAMP-DX=Revision 4.10 
##DATA TYPE=MASS SPECTRUM
##SAMPLE DESCRIPTION=Tox21 Consortium/NIST Mass Spectrometry Data Center, 20
12
##NAMES=HP
##CAS NAME=Meclofenoxate
##MOLFORM=C12H16ClNO3
##CAS REGISTRY NO=51-68-3
##MP= -300
##BP= -300
##MW= 257
##$RETENTION INDEX=1780
##$CONDENSED SPECTRUM=NO
##NPOINTS= 81
##XYDATA=(XY..XY) 1 
    15          3
    18          1
    26          1
    27          3
    28          6
    29          6
    30         14
    31          1
    37          1
    38          3
    39          3
    40          1
    41          4
    42         61
    43         19
    44         14
    45          3
    49          1
    50         10
    51          6
    52          1
    53          1
    54          2
    55          3
    56         21
    57         14
    58        999
    59         38
    60          1
    61          2
    62          3
    63         11
    64          3
    65          2
    70         10
    71         80
    72         19
    73         13
    74          7
    75         44
    76         10
    77         11
    78          2
    84          1
    85          4
    86          8
    87          3
    88          1
    89          1
    92          1
    98          1
    99         21
   100          2
   101          7
   102          1
   106          1
   107          1
   110          1
   111         69
   112          6
   113         29
   114          3
   115          2
   126          2
   127          5
   128         14
   129          4
   130          4
   139          2
   140          1
   141         21
   142          2
   143          7
   144          1
   178          1
   213          2
   215          1
   220          1
   257          5
   258          1
   259          2