##TITLE=Library Entry 15659
##JCAMP-DX=Revision 4.10 
##DATA TYPE=MASS SPECTRUM
##SAMPLE DESCRIPTION=Japan AIST/NIMC Database- Spectrum MS-NW-1668
##NAMES=HP
##CAS NAME=Urethane
##MOLFORM=C3H7NO2
##CAS REGISTRY NO=51-79-6
##MP= -300
##BP= -300
##MW= 89
##$RETENTION INDEX=838
##$CONDENSED SPECTRUM=NO
##NPOINTS= 37
##XYDATA=(XY..XY) 1 
    12          1
    13          3
    14         15
    15         52
    16         58
    17         75
    18        284
    19         35
    25          3
    26         50
    27        274
    28        102
    29        223
    30         25
    31        402
    32          7
    33          1
    41          3
    42         18
    43        106
    44        999
    45        701
    46         92
    47          3
    59          2
    60          1
    61         53
    62        843
    63         12
    64          4
    71         10
    72          1
    74        138
    75          4
    88          1
    89         45
    90          5