##TITLE=Library Entry 17432
##JCAMP-DX=Revision 4.10 
##DATA TYPE=MASS SPECTRUM
##SAMPLE DESCRIPTION=Drug Lab
##NAMES=HP
##CAS NAME=Phenelzine
##MOLFORM=C8H12N2
##CAS REGISTRY NO=51-71-8
##MP= -300
##BP= -300
##MW= 136
##$RETENTION INDEX=1330
##$CONDENSED SPECTRUM=NO
##NPOINTS= 43
##XYDATA=(XY..XY) 1 
    40          3
    41          8
    42          2
    43         12
    44         23
    45        999
    46         18
    50         20
    51         50
    52         13
    53          5
    57          4
    58          1
    61          2
    62          9
    63         28
    64          6
    65         70
    66          5
    74          6
    75          4
    76          5
    77         54
    78         24
    79         23
    80          2
    86          1
    89         19
    90          8
    91        122
    92         30
    93          2
   102          4
   103         26
   104         15
   105         20
   106          3
   116          1
   117          5
   118          7
   119          2
   136         20
   137          1