##TITLE=Library Entry 1026
##JCAMP-DX=Revision 4.10 
##DATA TYPE=MASS SPECTRUM
##SAMPLE DESCRIPTION=Japan AIST/NIMC Database- Spectrum MS-NW-4778
##NAMES=HP
##CAS NAME=Cystamine
##MOLFORM=C4H12N2S2
##CAS REGISTRY NO=51-85-4
##MP= -300
##BP= -300
##MW= 152
##$RETENTION INDEX=1410
##$CONDENSED SPECTRUM=NO
##NPOINTS= 89
##XYDATA=(XY..XY) 1 
    14          3
    15         17
    16          3
    17          9
    18          3
    26          5
    27         33
    28         66
    29          9
    30        999
    31         13
    32          4
    33          2
    34          4
    39          3
    40          9
    41         24
    42         92
    43         87
    44        454
    45         59
    46         23
    47         16
    48         14
    49          1
    50          1
    54          3
    55          3
    56          4
    57          7
    58         11
    59         29
    60         24
    61         12
    62          6
    63          2
    64         12
    65          1
    66          1
    67          1
    68          1
    69          3
    70          3
    71          3
    72          1
    73          3
    74         14
    75         37
    76         26
    77        244
    78         36
    79         12
    80          2
    81          4
    82          1
    83          1
    85          1
    86          2
    87          1
    88          5
    89          3
    91          9
    92          9
    93         25
    94         19
    95          2
    96          2
    97          1
   101          3
   102          6
   103          7
   104          1
   105          2
   106         68
   107          5
   108          4
   109        223
   110          9
   111         21
   112          1
   123         50
   124          4
   125          5
   133          1
   135         28
   136          2
   137          3
   138          1
   152          4