##TITLE=Library Entry 91063
##JCAMP-DX=Revision 4.10 
##DATA TYPE=MASS SPECTRUM
##SAMPLE DESCRIPTION=Japan AIST/NIMC Database- Spectrum MS-NW-9946
##NAMES=HP
##CAS NAME=Propanedioic acid, diethyl-
##MOLFORM=C7H12O4
##CAS REGISTRY NO=510-20-3
##MP= -300
##BP= -300
##MW= 160
##$RETENTION INDEX=0
##$CONDENSED SPECTRUM=NO
##NPOINTS= 108
##XYDATA=(XY..XY) 1 
    12          1
    14          2
    15         16
    16          8
    17         10
    18         41
    22          2
    25          1
    26         28
    27        298
    28         96
    29        353
    30          9
    31         38
    32          7
    37          7
    38         20
    39        261
    40         40
    41        515
    42         74
    43        395
    44        294
    45        540
    46         16
    47          8
    49          4
    50         10
    51         17
    52          7
    53         91
    54         24
    55        563
    56         36
    57        265
    58         13
    59         99
    60         14
    61          3
    62          2
    63          5
    64          1
    65          9
    66          7
    67         36
    68         50
    69        356
    70         39
    71        110
    72         15
    73        281
    74         19
    75          6
    77          2
    78          1
    79          2
    80          1
    81         46
    82         11
    83        204
    84         20
    85         37
    86        468
    87        277
    88        300
    89         13
    90          2
    91          1
    92          1
    94          1
    95         48
    96         48
    97         73
    98        134
    99        474
   100         26
   101        985
   102         55
   103          5
   104          1
   109          1
   110          1
   111          1
   112          2
   113        221
   114        999
   115        123
   116        275
   117        101
   118          6
   119          1
   124          1
   125          1
   127         18
   128          2
   129          1
   131         26
   132        769
   133         44
   134          7
   135          1
   141          1
   142          9
   143         36
   144          3
   145          2
   161         36
   162          3