##TITLE=Library Entry 84478
##JCAMP-DX=Revision 4.10 
##DATA TYPE=MASS SPECTRUM
##SAMPLE DESCRIPTION=Exported from NIST MS Search
##NAMES=HP
##CAS NAME=Lup-20(30)-en-28-oic acid, 19.beta.-hydroxy-3-oxo-, .gamma.-lacto
ne
##MOLFORM=C30H44O3
##CAS REGISTRY NO=510-78-1
##MP= -300
##BP= -300
##MW= 452
##$RETENTION INDEX=0
##$CONDENSED SPECTRUM=NO
##NPOINTS= 140
##XYDATA=(XY..XY) 1 
   103         94
   104         69
   105        913
   106        327
   107        999
   108        310
   109        715
   110        155
   111        137
   112          8
   113         17
   115         77
   116         69
   117        206
   118        129
   119        827
   120        344
   121        749
   122        275
   123        456
   124        120
   125        749
   126        163
   127        310
   128        112
   129        129
   130         60
   131        370
   132        137
   133        560
   134        413
   135        586
   136        250
   137        448
   138        241
   139        465
   140         94
   141         77
   142         34
   143        172
   144         86
   145        431
   146        155
   147        387
   148        189
   149        327
   150        310
   151        275
   152        275
   153        120
   154         43
   155         60
   156         34
   157        163
   158         86
   159        370
   160        137
   161        344
   162        137
   163        336
   164        112
   165        129
   166         25
   167         34
   168          8
   169         69
   170         34
   171        189
   172         69
   173        370
   174        137
   175        275
   176        120
   177        293
   178         69
   179         34
   197         34
   199        146
   200         69
   201        198
   202         69
   203        198
   204        172
   205        991
   206        232
   207        241
   208         25
   209          8
   211          8
   213         77
   214         17
   215         69
   216         17
   217        172
   218         86
   219        172
   220        172
   221        258
   222         86
   223          8
   225          8
   227          8
   229         25
   230         86
   231        215
   232        120
   233        129
   234         69
   235         25
   239          8
   241          8
   243          8
   244          8
   245         60
   246         25
   247         17
   253          8
   255          8
   257         86
   258          8
   259         25
   281        120
   282          8
   283          8
   284          8
   297          8
   299          8
   351          8
   352          8
   353        275
   354        155
   355         69
   365         34
   366        336
   367        431
   368        137
   369          8
   370          8
   380          8
   381         17