##TITLE=Library Entry 22483
##JCAMP-DX=Revision 4.10 
##DATA TYPE=MASS SPECTRUM
##SAMPLE DESCRIPTION=NIST Mass Spectrometry Data Center
##NAMES=HP
##CAS NAME=Ethyl 6-isocyanatohexanoate
##MOLFORM=C9H15NO3
##CAS REGISTRY NO=5100-36-7
##MP= -300
##BP= -300
##MW= 185
##$RETENTION INDEX=0
##$CONDENSED SPECTRUM=NO
##NPOINTS= 71
##XYDATA=(XY..XY) 1 
    11         27
    15         37
    18         22
    20          3
    24          4
    26         38
    27        400
    28        101
    29        599
    30         46
    37          3
    38         25
    39        351
    40         80
    41        929
    42        477
    43        388
    44         94
    45         38
    46         10
    51          9
    52          9
    53         99
    54        120
    55        705
    56        999
    57        107
    58         33
    60        505
    61        258
    66          4
    67        180
    68        288
    69        937
    70        534
    71         83
    72          3
    73        232
    74         16
    79          5
    81          5
    82         91
    83        285
    84        191
    85        390
    86         24
    87          8
    88        761
    89         35
    95        158
    96        464
    97         95
    98        187
    99         30
   100         29
   101        183
   110         16
   111        399
   112        162
   113         62
   114         48
   127          3
   128        132
   129         25
   130         64
   138         25
   139        320
   140        521
   141         41
   142         34
   143          3