##TITLE=Library Entry 78294
##JCAMP-DX=Revision 4.10 
##DATA TYPE=MASS SPECTRUM
##SAMPLE DESCRIPTION=ASES Database, Dalian Institute, P.R. China
##NAMES=HP
##CAS NAME=3-Phenyl-4-benzoylamino-4,5(1H)-dihydro-1,2,4-triazole-5-one
##MOLFORM=C15H12N4O2
##CAS REGISTRY NO=51003-52-2
##MP= -300
##BP= -300
##MW= 280
##$RETENTION INDEX=0
##$CONDENSED SPECTRUM=NO
##NPOINTS= 26
##XYDATA=(XY..XY) 1 
    44         30
    50        149
    51        297
    52         29
    62         20
    63         29
    64         19
    73         19
    74         40
    75        148
    76        620
    77         91
    78         40
    91         39
   103        129
   104         59
   105        999
   106        128
   118         39
   119         29
   121         20
   132         10
   145         19
   161         50
   223          9
   280        268