##TITLE=Library Entry 39990
##JCAMP-DX=Revision 4.10 
##DATA TYPE=MASS SPECTRUM
##SAMPLE DESCRIPTION=Chuck Anderson, Aldrich Chemical Co.
##NAMES=HP
##CAS NAME=(1S,2S)-(+)-N-Methylpseudoephedrine
##MOLFORM=C11H17NO
##CAS REGISTRY NO=51018-28-1
##MP= -300
##BP= -300
##MW= 179
##$RETENTION INDEX=0
##$CONDENSED SPECTRUM=NO
##NPOINTS= 81
##XYDATA=(XY..XY) 1 
    14          0
    15         16
    17          2
    18         14
    20          1
    26          8
    27         28
    28         35
    29         25
    30         12
    31          0
    32          0
    35          0
    36          5
    37          5
    38          9
    39         18
    40          5
    41         13
    42        105
    43         24
    44         55
    45          3
    46          1
    49          3
    50         34
    51         66
    52         19
    53          5
    54         12
    55         19
    56         93
    57         21
    58         32
    59          1
    61          2
    62          3
    63          8
    64          1
    65          4
    66          0
    68          5
    70         52
    71         98
    72        999
    73         52
    74         15
    75          7
    76          6
    77        182
    78         31
    79         14
    80          0
    84          0
    86          0
    89          4
    90          1
    91         14
    92          1
   102          2
   103          3
   104          0
   105        145
   106        136
   107         12
   115          8
   116          2
   117         12
   118          6
   119          0
   120          1
   130          0
   131          0
   132          0
   133          1
   134          1
   144          0
   146          2
   148          1
   160          0
   161          0