##TITLE=Library Entry 49112
##JCAMP-DX=Revision 4.10 
##DATA TYPE=MASS SPECTRUM
##SAMPLE DESCRIPTION=G.ECKHARDT ORG. CHEM. INST., UNIV. OF BONN, BONN, F.R.G
##NAMES=HP
##CAS NAME=Tricyclo[3.3.1.1(3,7)]decanone, 4-hydroxy-, (1.alpha.,3.beta.,4.b
eta.,5.alpha.,7.beta.)-
##MOLFORM=C10H14O2
##CAS REGISTRY NO=51020-64-5
##MP= -300
##BP= -300
##MW= 166
##$RETENTION INDEX=0
##$CONDENSED SPECTRUM=NO
##NPOINTS= 39
##XYDATA=(XY..XY) 1 
    40        252
    41        323
    43         83
    44         98
    51         68
    53        142
    54         65
    55        249
    57        175
    65         74
    66        142
    67        249
    68         89
    70        203
    71         95
    77        178
    78        585
    79        999
    80        323
    81        314
    82         55
    83        135
    91        222
    92        231
    93        132
    94        135
    95        237
    96        708
    97        123
   105         74
   107         58
   109        160
   120        123
   138        601
   139         64
   148        252
   164         74
   166        523
   167         58