##TITLE=Library Entry 48801
##JCAMP-DX=Revision 4.10 
##DATA TYPE=MASS SPECTRUM
##SAMPLE DESCRIPTION=G.ECKHARDT ORG. CHEM. INST., UNIV. OF BONN, BONN, F.R.G
##NAMES=HP
##CAS NAME=Tricyclo[3.3.1.1(3,7)]decanone, 4-hydroxy-, (1.alpha.,3.beta.,4.a
lpha.,5.alpha.,7.beta.)-
##MOLFORM=C10H14O2
##CAS REGISTRY NO=51020-65-6
##MP= -300
##BP= -300
##MW= 166
##$RETENTION INDEX=0
##$CONDENSED SPECTRUM=NO
##NPOINTS= 38
##XYDATA=(XY..XY) 1 
    40        579
    41        268
    43         68
    44        284
    51         61
    53        129
    54         63
    55        221
    57        116
    58         58
    65         61
    66        161
    67        205
    68         71
    70        129
    71         55
    73         61
    77        158
    78        632
    79        999
    80        263
    81        239
    83         76
    91        189
    92        237
    93        142
    94         92
    95        147
    96        368
    97         79
   105         63
   109         89
   120        113
   121         53
   138        353
   148        247
   164        121
   166        321