##TITLE=Library Entry 14112
##JCAMP-DX=Revision 4.10 
##DATA TYPE=MASS SPECTRUM
##SAMPLE DESCRIPTION=LAC, NIDDK, NIH, Bethesda, MD 20892
##NAMES=HP
##CAS NAME=4,6,8(14)-Cholestatriene
##MOLFORM=C27H42
##CAS REGISTRY NO=51028-26-3
##MP= -300
##BP= -300
##MW= 366
##$RETENTION INDEX=0
##$CONDENSED SPECTRUM=NO
##NPOINTS= 229
##XYDATA=(XY..XY) 1 
    41        398
    42        112
    43        999
    44        215
    45        109
    49         12
    51         36
    53         69
    54         36
    55        391
    56        114
    57        259
    58         64
    59        120
    60         31
    65         38
    66         14
    67        140
    68         42
    69        273
    70         70
    71        164
    72         28
    73         35
    74         31
    77         86
    78         32
    79        130
    80         13
    81        186
    82         73
    83        133
    84         59
    85         76
    86         12
    87         28
    91        163
    92         25
    93         98
    94         32
    95        159
    96         37
    97        136
    98         45
    99         97
   103         28
   105        123
   106         28
   107         95
   108         39
   109        112
   110         54
   111         86
   112         35
   113         38
   115         76
   116         30
   117         52
   118         13
   119         61
   120         14
   121         92
   122         44
   123         63
   124         47
   125         48
   126         31
   127         43
   128         65
   129         97
   130         27
   131         86
   132         12
   133         67
   134         31
   135         90
   136         37
   137         80
   138         33
   139         33
   140         14
   141         90
   142         49
   143         94
   144         17
   145         96
   146         16
   147         58
   148         12
   149         85
   150         33
   151         48
   152         42
   153         50
   154         40
   155         84
   156         23
   157         89
   158         38
   159         73
   160         18
   161         72
   162         17
   163         55
   164         31
   165         81
   166         34
   167         64
   168         35
   169         72
   170         16
   171         60
   172         33
   173         63
   174         36
   175         48
   176         30
   177         53
   178         37
   179         49
   180         28
   181         62
   182         17
   183         70
   184         17
   185         48
   186         16
   187         42
   188         41
   189         43
   190         20
   191         46
   192         15
   193         44
   194         43
   195         60
   196         26
   197         72
   198         17
   199        177
   200         33
   201         35
   202         16
   203         35
   204         15
   205         40
   206         31
   207         49
   208         16
   209         56
   210         34
   211         69
   212         44
   213         73
   214         34
   215         42
   216         17
   217         19
   218         14
   219         61
   220         13
   221         28
   223         40
   225         51
   226         45
   227         85
   228         35
   229         43
   230         17
   231         18
   232         14
   233         17
   235         16
   237         35
   238         27
   239         48
   240         34
   241         37
   242         30
   243         37
   244         32
   245         33
   246         17
   247         44
   248         15
   249         31
   251         38
   252         34
   253        424
   254        117
   255         36
   256         14
   257         30
   259         16
   260         13
   261         14
   263         18
   265         36
   266         13
   267        125
   268         39
   269         45
   275         12
   276         15
   279         12
   294         13
   295         54
   296         32
   297         25
   298         12
   308         12
   309         40
   310         14
   321         12
   322         12
   323         37
   324         13
   349         12
   350         32
   351        123
   352         61
   353         12
   362         12
   363         16
   364         36
   365         72
   366        351
   367        135
   368         31