##TITLE=Library Entry 30028
##JCAMP-DX=Revision 4.10 
##DATA TYPE=MASS SPECTRUM
##SAMPLE DESCRIPTION=A.A.Kutin, Moscow, Russia
##NAMES=HP
##CAS NAME=Hexanedihydrazide, 2,2,3,3,4,4,5,5-octafluoro-
##MOLFORM=C6H6F8N4O2
##CAS REGISTRY NO=5102-51-2
##MP= -300
##BP= -300
##MW= 318
##$RETENTION INDEX=0
##$CONDENSED SPECTRUM=NO
##NPOINTS= 219
##XYDATA=(XY..XY) 1 
    33         94
    34          5
    35          3
    36         16
    37          3
    38          8
    39         10
    40         39
    41         16
    42         39
    43        208
    44        214
    45         23
    46         53
    47         43
    48          7
    49         11
    50         69
    51        103
    52          4
    53          3
    54          5
    55         17
    56         10
    58        424
    59        999
    60         47
    61         42
    62         31
    63         19
    64          7
    65         14
    66        122
    67         24
    69        402
    70         16
    71         21
    72          3
    73         14
    74         31
    75         39
    76         26
    77         33
    78         22
    79         15
    80         36
    81        151
    82         28
    83         11
    84          3
    85          1
    86          2
    87          2
    88          2
    89          6
    90         22
    91         54
    92         80
    93        150
    94         24
    95         24
    96         27
    97         93
    98          9
   100        424
   101         17
   102          2
   103          3
   104          5
   105         10
   106          7
   107         13
   108         45
   109        266
   110        219
   111        157
   112         83
   113         65
   114          7
   115          3
   116          9
   117          3
   118          3
   119         55
   120         15
   121          9
   122         12
   123         40
   124         22
   125         13
   126         10
   127         10
   128         33
   129         12
   131        242
   132         10
   133          8
   134          4
   135          8
   136          8
   137          3
   138         12
   139          7
   140         80
   141         31
   142         37
   143         33
   144         21
   145          5
   146          6
   147          3
   148          0
   149          3
   150          9
   151         21
   152          6
   153         44
   154          6
   155          3
   156          1
   157          6
   158         13
   159         14
   160         65
   161         61
   162         51
   163         13
   164          1
   165          0
   166          5
   167          1
   169         36
   170          6
   171         11
   172         12
   173         15
   174          5
   175          2
   176         13
   177          4
   178         22
   179          2
   180          2
   181         17
   182          2
   183          5
   185          1
   186          2
   187          0
   189         13
   190          7
   191         22
   192        192
   193         13
   194          5
   195          1
   196          7
   197          2
   199          3
   200          5
   201         14
   202          2
   203          6
   204          4
   205          1
   206          3
   207          0
   208          1
   209         11
   210          5
   211         49
   212          4
   213          8
   214          0
   216          7
   218          0
   219          4
   220         33
   221         31
   222          2
   223          2
   224          0
   225          2
   226          2
   228          0
   229          2
   231         39
   232          1
   233          1
   234          2
   235          0
   237          2
   239         17
   240         18
   241         39
   242         15
   243          2
   244         15
   245          1
   248          9
   249          8
   250          4
   251          2
   256          5
   257          5
   258          8
   259         90
   260         82
   261          5
   271          1
   287         35
   288          3
   303          1
   314          4
   315          6
   316         10
   318        416
   319         30
   320          2