##TITLE=Library Entry 76887
##JCAMP-DX=Revision 4.10 
##DATA TYPE=MASS SPECTRUM
##SAMPLE DESCRIPTION=Chemical Concepts
##NAMES=HP
##CAS NAME=Hydrindantin
##MOLFORM=C18H10O6
##CAS REGISTRY NO=5103-42-4
##MP= -300
##BP= -300
##MW= 322
##$RETENTION INDEX=0
##$CONDENSED SPECTRUM=NO
##NPOINTS= 260
##XYDATA=(XY..XY) 1 
    25          5
    26         15
    27         28
    28         65
    29         38
    30         15
    31          9
    33          0
    34          1
    35          0
    36         10
    37         96
    38        161
    39         58
    40          3
    41          8
    42          2
    43         28
    44         19
    45          6
    46          0
    47          0
    48          6
    49         52
    50        503
    51        225
    52         98
    53         35
    54          2
    55          7
    56          2
    57         11
    58         10
    59          3
    60         10
    61         30
    62         42
    63         38
    64          5
    65         10
    66         30
    67         12
    68          1
    69          6
    70          1
    71          2
    72          5
    73         39
    74        143
    75        112
    76        905
    77        519
    78         82
    79         10
    80          1
    81          9
    82          3
    83          2
    84          4
    85          9
    86         13
    87         11
    88        116
    89         42
    90          8
    91          8
    92          4
    93          4
    94          1
    95          1
    96          1
    97          2
    98          3
    99          2
   100          0
   101          3
   102          4
   103         16
   104        999
   105        779
   106        106
   107          7
   108          0
   109          1
   110          3
   111          3
   112          2
   113          1
   114          1
   115          6
   116          4
   117         10
   118          3
   119          3
   120          2
   121          4
   122          2
   123          0
   124          0
   125          0
   126          0
   127          1
   128          2
   129          3
   130          1
   131          5
   132        328
   133        192
   134        218
   135         20
   136          3
   137          1
   138          0
   139          1
   140          0
   141          1
   142          0
   143          2
   144         36
   145          7
   146         15
   147          8
   148          3
   149         23
   150          3
   151          2
   152          3
   153          1
   154          0
   155          1
   156          0
   157          1
   158          1
   159          2
   160        109
   161         46
   162        710
   163         74
   164         10
   165          5
   166          1
   167          1
   168          0
   169          0
   171          1
   172          2
   173          5
   174          7
   175          5
   176          4
   177          5
   178          2
   179          1
   180          1
   181          1
   182          0
   183          0
   185          0
   186          0
   187          1
   188          5
   189          9
   190         25
   191          5
   192          2
   193          2
   194          1
   195          1
   197          0
   198          0
   199          0
   200          3
   201          5
   202          1
   203          2
   204          2
   205          1
   206          1
   207          0
   208          0
   209          0
   210          0
   213          0
   214          0
   215          1
   216          1
   217          1
   218          5
   219          1
   220          2
   221          2
   222          1
   223          0
   224          0
   225          0
   227          0
   228          0
   229          0
   230          0
   231          0
   232          0
   233          1
   234          1
   235          0
   236          0
   237          0
   238          1
   239          1
   240          0
   242          0
   244          0
   245          0
   246          1
   247          1
   248          8
   249         10
   250          2
   251          0
   256          0
   258          0
   259          0
   260          0
   261          0
   262          0
   263          0
   264          0
   265          1
   266          0
   267          0
   268          0
   272          0
   275          1
   276          1
   277         14
   278          5
   279          1
   283          0
   285          0
   286          0
   287          0
   288          0
   289          0
   290          0
   291          0
   292          0
   293          2
   294          2
   295          0
   303          0
   304         13
   305          2
   306          0
   307          0
   316          0
   319          0
   320          0
   321          0
   322         70
   323         15
   324          2