##TITLE=Library Entry 76931
##JCAMP-DX=Revision 4.10 
##DATA TYPE=MASS SPECTRUM
##SAMPLE DESCRIPTION=ASES Database, Dalian Institute, P.R. China
##NAMES=HP
##CAS NAME=2-Benzoyl-2-anil-thioacetic acide p-methylanilide
##MOLFORM=C22H18N2OS
##CAS REGISTRY NO=51040-04-1
##MP= -300
##BP= -300
##MW= 358
##$RETENTION INDEX=0
##$CONDENSED SPECTRUM=NO
##NPOINTS= 18
##XYDATA=(XY..XY) 1 
    77        657
    91        261
   104        999
   105        578
   123         69
   149        100
   150        208
   182         20
   209        129
   221         20
   253         89
   255         19
   325         20
   326         29
   330         19
   358        290
   359        100
   360         40