##TITLE=Library Entry 61338
##JCAMP-DX=Revision 4.10 
##DATA TYPE=MASS SPECTRUM
##SAMPLE DESCRIPTION=LAC, NIDDK, NIH, Bethesda, MD 20892
##NAMES=HP
##CAS NAME=Butyric acid, 4-(carboxyamino)-, N-benzyl ester
##MOLFORM=C12H15NO4
##CAS REGISTRY NO=5105-78-2
##MP= -300
##BP= -300
##MW= 237
##$RETENTION INDEX=0
##$CONDENSED SPECTRUM=NO
##NPOINTS= 98
##XYDATA=(XY..XY) 1 
    41         58
    42         28
    43         32
    44         24
    45         55
    46          4
    47          3
    48          1
    49         12
    50         27
    51         69
    52         21
    53         10
    54          6
    55         15
    56         48
    57          8
    58          2
    59          5
    60         20
    61          3
    62         11
    63         41
    64         15
    65        152
    66          9
    67          1
    68          2
    69         16
    70          3
    71          2
    72          1
    73         15
    74         15
    75          5
    76          7
    77        117
    78         28
    79        156
    80         15
    81          1
    82          4
    83          5
    84         98
    85         30
    86         47
    87          8
    89         62
    90         62
    91        999
    92         86
    93          3
    95          0
    97          1
    98          0
   100         11
   101          3
   102         49
   103         12
   104          7
   105         20
   106          8
   107        226
   108        599
   109         46
   110          3
   111          1
   112         25
   113          3
   114          5
   115          0
   116          0
   117          2
   118          1
   119          0
   120          7
   121          1
   128          1
   130          4
   131          1
   132          1
   133          0
   134          1
   136          1
   145          0
   146          7
   147          0
   149          0
   151          1
   167          0
   172          0
   180          1
   181          0
   194          1
   219          3
   237         33
   238          6
   239          1