##TITLE=Library Entry 51281
##JCAMP-DX=Revision 4.10 
##DATA TYPE=MASS SPECTRUM
##SAMPLE DESCRIPTION=VERIFIN - Methodology B1-1979
##NAMES=HP
##CAS NAME=4-Isopropyl-2,6,7-trioxa-1-phosphabicyclo[2.2.2]octane 1-oxide
##MOLFORM=C7H13O4P
##CAS REGISTRY NO=51052-72-3
##MP= -300
##BP= -300
##MW= 192
##$RETENTION INDEX=1947
##$CONDENSED SPECTRUM=NO
##NPOINTS= 43
##XYDATA=(XY..XY) 1 
    27        100
    28         90
    29         60
    32         10
    39        290
    40         50
    41        400
    42         30
    43        150
    44         20
    47         40
    51         10
    52         30
    53         80
    54         70
    55        130
    56         60
    65         40
    66         10
    67        950
    68        100
    69        210
    70         30
    77         20
    79        730
    80        150
    81        170
    82        999
    83        120
    93         70
    94         60
    97         20
    99        180
   113         80
   121          7
   123         30
   147        150
   149         50
   150         40
   164        320
   165        240
   177         80
   192         90