##TITLE=Library Entry 7289
##JCAMP-DX=Revision 4.10 
##DATA TYPE=MASS SPECTRUM
##SAMPLE DESCRIPTION=Chemical Concepts
##NAMES=HP
##CAS NAME=Methyl 2-hydroxydodecanoate
##MOLFORM=C13H26O3
##CAS REGISTRY NO=51067-85-7
##MP= -300
##BP= -300
##MW= 230
##$RETENTION INDEX=1632
##$CONDENSED SPECTRUM=NO
##NPOINTS= 91
##XYDATA=(XY..XY) 1 
    25         18
    26         51
    27        327
    28         58
    29        507
    30         55
    31        118
    33        101
    39         91
    40         39
    41        777
    42        187
    43        999
    44        220
    45         56
    51         30
    52         42
    53         76
    54         67
    55        923
    56        134
    57        550
    58         59
    59        179
    60          9
    61         46
    62          2
    65          4
    66         28
    67        165
    68         85
    69        803
    70        102
    71        279
    72         23
    73         59
    74        210
    75         48
    76         30
    77         44
    78         50
    79         42
    80         23
    81        107
    82         68
    83        703
    84         75
    85         46
    86          4
    87        214
    88         14
    89         57
    90        424
    91         33
    92         23
    93         43
    94         15
    95         71
    96         57
    97        714
    98        101
   100         22
   101         18
   102          2
   103        132
   104         20
   105         19
   108         14
   109         39
   110         35
   111        176
   112         15
   116         18
   117         23
   118          2
   119          0
   125         14
   126         51
   127         54
   128         20
   129         20
   130         21
   133         13
   141         39
   142          9
   143          1
   169         10
   171        390
   172         70
   185         31
   186         27