##TITLE=Library Entry 30578
##JCAMP-DX=Revision 4.10 
##DATA TYPE=MASS SPECTRUM
##SAMPLE DESCRIPTION=Chemical Concepts
##NAMES=HP
##CAS NAME=1,3-Dioxolane, 2,2-dimethyl-4,5-bis(methoxymethyl)-
##MOLFORM=C9H18O4
##CAS REGISTRY NO=51064-64-3
##MP= -300
##BP= -300
##MW= 190
##$RETENTION INDEX=0
##$CONDENSED SPECTRUM=NO
##NPOINTS= 116
##XYDATA=(XY..XY) 1 
    26         10
    27         79
    28         18
    29        122
    30          8
    31        123
    33        176
    34          3
    35          3
    36          1
    37          1
    38          4
    39         61
    40         13
    41        153
    42         31
    43        584
    44         31
    45        534
    46         14
    47          7
    48          3
    49          3
    50          1
    51          3
    52          2
    53         28
    54          5
    55        108
    56         13
    57         54
    58         83
    59        999
    60         44
    61         12
    63          4
    65          3
    67          3
    68         31
    69         92
    70         15
    71         59
    72          9
    73        238
    74         15
    75         55
    76          3
    77          3
    78          2
    79          2
    81          3
    82          2
    83         50
    84         11
    85        224
    86         15
    87        555
    88         29
    89          7
    91          5
    92          2
    93          2
    95         21
    96          3
    97          6
    98          1
    99         10
   100         25
   101         30
   102          4
   103          3
   104          2
   105          3
   107          2
   108          1
   109          2
   111          3
   112          2
   113         39
   114          5
   115        446
   116         34
   117         15
   118          2
   119          2
   120          1
   121          2
   122          1
   123          1
   124          1
   125          1
   126          2
   127         40
   128          5
   129          8
   130          2
   131         29
   132          5
   133          5
   134          1
   135          2
   141          3
   142          2
   143         67
   144          8
   145        672
   146         62
   147         14
   158          3
   159          2
   160          1
   161         33
   162          4
   175        507
   176         51
   177          8