##TITLE=Library Entry 67725
##JCAMP-DX=Revision 4.10 
##DATA TYPE=MASS SPECTRUM
##SAMPLE DESCRIPTION=NIST Mass Spectrometry Data Center, 1990.
##NAMES=HP
##CAS NAME=6-Methyl-2-heptyne
##MOLFORM=C8H14
##CAS REGISTRY NO=51065-64-6
##MP= -300
##BP= -300
##MW= 110
##$RETENTION INDEX=0
##$CONDENSED SPECTRUM=NO
##NPOINTS= 44
##XYDATA=(XY..XY) 1 
    15         14
    26         19
    27        168
    28         42
    29         89
    37         10
    38         33
    39        306
    40         69
    41        464
    42         46
    43         75
    44          7
    50         56
    51        105
    52         57
    53        237
    54        106
    55        231
    56        132
    57        115
    58          5
    61          6
    62         17
    63         35
    64          9
    65         98
    66         43
    67        429
    68         91
    69         20
    70         12
    77         60
    78         14
    79         76
    80         25
    81        118
    82         21
    91         34
    93         53
    95        999
    96         76
   109          5
   110          9