##TITLE=Library Entry 18148
##JCAMP-DX=Revision 4.10 
##DATA TYPE=MASS SPECTRUM
##SAMPLE DESCRIPTION=V.A.Korolev, Moscow, Russia
##NAMES=HP
##CAS NAME=2-(2-Methoxy-5-nitrophenyl)acetic acid
##MOLFORM=C9H9NO5
##CAS REGISTRY NO=51073-04-2
##MP= -300
##BP= -300
##MW= 211
##$RETENTION INDEX=0
##$CONDENSED SPECTRUM=NO
##NPOINTS= 91
##XYDATA=(XY..XY) 1 
    30         76
    37         37
    38        131
    39        451
    40         82
    41         61
    42         31
    43         53
    44         62
    45        466
    46         62
    47          2
    50        373
    51        999
    52        199
    53        195
    54         43
    55         68
    56          3
    57          5
    59         38
    60          5
    61         32
    62        144
    63        348
    64         99
    65        346
    66        135
    67         34
    68         16
    69         25
    70          2
    73         11
    74         93
    75         87
    76        140
    77        744
    78        490
    79        205
    80         38
    81         22
    82         11
    83          3
    85         10
    86         26
    87         27
    88         11
    89        291
    90        361
    91        296
    92         75
    93         66
    94         75
    95         14
    96          3
    98          8
   103          6
   104         12
   105        205
   106        100
   107         60
   108         36
   109         68
   110          6
   118          5
   119         25
   120        105
   121        106
   122         26
   123          5
   125          2
   133         11
   134         13
   135         20
   136        101
   137        406
   138         34
   139          1
   149         24
   150         12
   152        123
   153         11
   164          6
   165          5
   166        204
   167         83
   168          6
   194         32
   195          8
   211        103
   212          9