##TITLE=Library Entry 67336
##JCAMP-DX=Revision 4.10 
##DATA TYPE=MASS SPECTRUM
##SAMPLE DESCRIPTION=CARL DJERASSI DEPT OF CHEM STANFORD UNIV STANFORD CALIF
 94305
##NAMES=HP
##CAS NAME=Methane, sec-butoxyphenoxy-
##MOLFORM=C11H16O2
##CAS REGISTRY NO=5107-69-7
##MP= -300
##BP= -300
##MW= 180
##$RETENTION INDEX=0
##$CONDENSED SPECTRUM=NO
##NPOINTS= 31
##XYDATA=(XY..XY) 1 
    41        130
    42         10
    43         20
    45         30
    50         20
    51         90
    52         10
    53         10
    55         20
    56         10
    57        260
    58         20
    59         10
    63         10
    64         10
    65         50
    66         50
    76         10
    77        260
    78         20
    79         30
    87         30
    94        999
    95         60
   107        270
   108         20
   124         20
   150         70
   151         30
   180         70
   181         10