##TITLE=Library Entry 82531
##JCAMP-DX=Revision 4.10 
##DATA TYPE=MASS SPECTRUM
##SAMPLE DESCRIPTION=Japan AIST/NIMC Database- Spectrum MS-IW-4927
##NAMES=HP
##CAS NAME=Thionicotinic acid
##MOLFORM=C6H5NOS
##CAS REGISTRY NO=51087-03-7
##MP= -300
##BP= -300
##MW= 139
##$RETENTION INDEX=0
##$CONDENSED SPECTRUM=NO
##NPOINTS= 74
##XYDATA=(XY..XY) 1 
    15          1
    25          2
    26          9
    27         15
    28          7
    29          1
    32          7
    33          7
    34          4
    36          2
    37          9
    38         13
    39         26
    40          4
    41          9
    42          7
    43         19
    44          5
    45          6
    48          2
    49         17
    50         99
    51        302
    52         38
    53         15
    54          2
    55          2
    56          5
    57          4
    58          3
    60          3
    61          8
    62          2
    63          1
    64          1
    66          1
    67          6
    68          7
    69          8
    70          1
    71          1
    74          1
    75         10
    76         14
    77         19
    78        739
    79         44
    80          1
    81          3
    82          3
    83          7
    84          2
    86          4
    93          3
    94          2
    95          1
    96          1
    98          1
   100          1
   105          8
   106        999
   107         74
   108          4
   110          5
   111          2
   122          3
   123         11
   124          1
   125          2
   126         12
   127          1
   139         45
   140          3
   141          3