##TITLE=Library Entry 63512
##JCAMP-DX=Revision 4.10 
##DATA TYPE=MASS SPECTRUM
##SAMPLE DESCRIPTION=A.A.Kutin, Moscow, Russia
##NAMES=HP
##CAS NAME=Pyridino[3,4-b]indol-1(2H)-one, 3,4-dihydro-6-benzyloxy-
##MOLFORM=C18H16N2O2
##CAS REGISTRY NO=51086-22-7
##MP= -300
##BP= -300
##MW= 292
##$RETENTION INDEX=0
##$CONDENSED SPECTRUM=NO
##NPOINTS= 190
##XYDATA=(XY..XY) 1 
    33          1
    34          1
    36          0
    39         73
    40         27
    41         17
    42          3
    43          2
    44          6
    45          1
    50         12
    51         39
    52         17
    53          9
    54          2
    55          2
    56          1
    57          1
    58          0
    59          0
    61          1
    62         15
    63         64
    65        161
    66          8
    67          2
    68          0
    69          0
    70          0
    71          0
    72          0
    74          6
    75         13
    76         12
    77         27
    78          6
    80         20
    81          2
    82          0
    83          0
    84          0
    85          0
    86          1
    87          5
    89        130
    91        999
    92         61
    93          2
    94          0
    95          0
    96          0
    98          0
    99          1
   100          4
   101         13
   102         10
   103          6
   104          2
   105          5
   106          1
   107          0
   108          0
   109          0
   111          0
   112          0
   114         10
   115         18
   116         46
   117         18
   118          6
   119          1
   120          0
   121          0
   122          0
   123          0
   125          0
   126          2
   127          5
   128         14
   129          5
   130          5
   131          1
   132          0
   133          0
   135          0
   139          0
   140          1
   141          0
   142          2
   143         17
   144        141
   145         25
   146          3
   147          0
   149          0
   150          0
   151          0
   152          1
   153          4
   154          1
   155          4
   156          4
   157          3
   158          2
   159          0
   160          0
   163          0
   164          0
   165          1
   166          0
   167          0
   168          0
   169          0
   170          0
   171         14
   172         70
   173         80
   174          9
   175          0
   176          0
   177          0
   178          1
   179          0
   180          0
   181          0
   182          0
   183          2
   184          2
   185          0
   186          0
   187          0
   188          0
   189          0
   190          0
   191          0
   192          0
   193          0
   194          0
   198          0
   199          4
   201        514
   202         62
   203          6
   204          2
   205          1
   206          1
   207          0
   208          0
   213          0
   214          0
   215          2
   216          0
   217          0
   218          0
   219          0
   220          1
   221          0
   222          0
   230          0
   231          0
   232          0
   233          0
   234          1
   235          1
   236          3
   237          0
   246          0
   247          0
   248          0
   249          1
   250          0
   261          0
   262          0
   263          4
   264          1
   265          0
   271          0
   273          0
   274          0
   275          0
   282          0
   287          0
   288          0
   289          0
   290          1
   292        220
   293         42
   294          5
   295          0
   298          0