##TITLE=Library Entry 85413
##JCAMP-DX=Revision 4.10 
##DATA TYPE=MASS SPECTRUM
##SAMPLE DESCRIPTION=Chemical Concepts
##NAMES=HP
##CAS NAME=Methanebis(3,4-dimethyl-2-pyrrolyl)-
##MOLFORM=C13H18N2
##CAS REGISTRY NO=5109-25-1
##MP= -300
##BP= -300
##MW= 202
##$RETENTION INDEX=0
##$CONDENSED SPECTRUM=NO
##NPOINTS= 76
##XYDATA=(XY..XY) 1 
    27         32
    28         52
    29         14
    39         86
    40         23
    41         95
    42         28
    51         35
    52         28
    53         62
    54         23
    55         16
    63         19
    65         58
    66         31
    67         64
    77         83
    78         31
    79         68
    80         98
    81         21
    85         22
    86         27
    91         38
    92         53
    93        188
    94        474
    95        602
    96         77
   100         27
   101         81
   104         19
   105         16
   106        119
   107        558
   108        999
   109        136
   110         16
   115         23
   117         24
   118         27
   119         15
   120         19
   128         14
   130         38
   131         34
   132         20
   142         18
   143         28
   144         52
   145         35
   146         18
   154         18
   156         48
   157         25
   158         42
   159         19
   160         22
   168         20
   169         46
   170         79
   171         60
   172         40
   174         16
   183         31
   184         46
   185         82
   186         46
   187        301
   188         51
   197         16
   199         33
   201        238
   202        957
   203        170
   204         15