##TITLE=Library Entry 11631
##JCAMP-DX=Revision 4.10 
##DATA TYPE=MASS SPECTRUM
##SAMPLE DESCRIPTION=A.A.Kutin, Moscow, Russia
##NAMES=HP
##CAS NAME=Androst-1,4,16-triene-3,20-dione, 11,22-diacetoxy-9-fluoro-
##MOLFORM=C25H29FO6
##CAS REGISTRY NO=51092-17-2
##MP= -300
##BP= -300
##MW= 444
##$RETENTION INDEX=0
##$CONDENSED SPECTRUM=NO
##NPOINTS= 230
##XYDATA=(XY..XY) 1 
    41         18
    43        999
    44         19
    45         13
    53         23
    55         18
    59         11
    65         27
    67         14
    73         86
    77         96
    78         32
    79         63
    81         11
    91        195
    92         36
    93         43
    94         11
    95         18
    97         11
   101         34
   103         35
   104         10
   105         77
   106         48
   107         69
   108         20
   109         69
   115         74
   116         28
   117         42
   119         47
   120         32
   121        488
   122        372
   123         76
   125         12
   127         32
   128         57
   129         53
   130         28
   131         57
   132         23
   133        107
   134         86
   135        182
   136         38
   137         25
   138         12
   139         28
   141         39
   142         28
   143         53
   144         20
   145         74
   146         85
   147        181
   148         44
   149         67
   150         17
   151         37
   152         40
   153         49
   154         13
   155         39
   156         17
   157         37
   158         34
   159        121
   160        209
   161        132
   162         53
   163         70
   164         24
   165         69
   166         17
   167         20
   169         34
   170         23
   171        103
   172         36
   173         58
   174         17
   175         89
   176         26
   177         57
   178         46
   179         53
   180         30
   181         27
   182         18
   183         65
   184         42
   185         57
   186         28
   187         64
   188         27
   189         79
   190         33
   191         56
   192         21
   193         51
   194         14
   195         38
   196         20
   197         32
   198         60
   199         28
   200         13
   201         51
   202         31
   203        136
   204         40
   205         44
   206         26
   207         46
   208         36
   209         48
   210         16
   211         24
   212         12
   213         22
   215         20
   216         16
   217         19
   218         16
   219         48
   220         27
   221        134
   222         38
   223         39
   224         23
   225         55
   226         17
   227         16
   228         11
   229         13
   230         15
   231         18
   232         14
   233         50
   234         30
   235         63
   236         19
   237         33
   238         19
   239         35
   240         14
   241         15
   243         31
   245         22
   246         13
   247         45
   248         59
   249         49
   250         18
   251         21
   252         15
   253         16
   255         13
   259         13
   261         87
   262         47
   263        171
   264         44
   265         33
   267         34
   268         14
   271         12
   273         14
   275         22
   276         34
   277         19
   279         26
   280         16
   281         56
   282         21
   283         63
   284         11
   285         11
   287         25
   289         48
   290         15
   291         83
   292         19
   293         17
   294         15
   295         11
   296         18
   297         15
   301         19
   303         11
   304         47
   305         24
   306         24
   307         36
   309         62
   310         14
   311        114
   312         27
   321         15
   322         65
   323         29
   324         20
   325         10
   327         21
   329         61
   330         16
   339         20
   340         18
   342         15
   349         17
   364        371
   365        221
   366         37
   367         19
   369         11
   371        401
   372         96
   373         15
   381         27
   382        318
   383         85
   384         32
   387         11
   401         31
   402         26
   444        290
   445         95
   446         15