##TITLE=Library Entry 36486
##JCAMP-DX=Revision 4.10 
##DATA TYPE=MASS SPECTRUM
##SAMPLE DESCRIPTION=H.Maurer, J.Chromatogr.,530,307(1990)
##NAMES=HP
##CAS NAME=Butanamide, 2-bromo-2-ethyl-
##MOLFORM=C6H12BrNO
##CAS REGISTRY NO=511-70-6
##MP= -300
##BP= -300
##MW= 193
##$RETENTION INDEX=1210
##$CONDENSED SPECTRUM=NO
##NPOINTS= 38
##XYDATA=(XY..XY) 1 
    51         29
    52         22
    53        128
    54         51
    55        383
    56         36
    57         11
    58         11
    65          7
    66          7
    67         40
    69        999
    70        102
    71        405
    72         22
    79          7
    80          7
    81          7
    82         15
    83         47
    84          7
    96          7
    97         36
    98         33
   107         44
   109         33
   114        522
   115         22
   121          7
   148         36
   149         58
   150        175
   151         66
   152        128
   164         15
   165        679
   167        639
   168         18