##TITLE=Library Entry 71183
##JCAMP-DX=Revision 4.10 
##DATA TYPE=MASS SPECTRUM
##SAMPLE DESCRIPTION=Chemical Concepts
##NAMES=HP
##CAS NAME=Pridinol
##MOLFORM=C20H25NO
##CAS REGISTRY NO=511-45-5
##MP= -300
##BP= -300
##MW= 295
##$RETENTION INDEX=2301
##$CONDENSED SPECTRUM=NO
##NPOINTS= 142
##XYDATA=(XY..XY) 1 
    26          1
    27         12
    28         16
    29         12
    30         12
    31          0
    33          0
    34          0
    37         24
    38          1
    39          7
    40         11
    42         60
    43         68
    44         13
    45         23
    46          0
    50          7
    51         30
    52          4
    53          4
    54          9
    55         54
    56         30
    57         11
    58          2
    59          0
    60          0
    62          0
    63          3
    64          1
    65          3
    66          0
    67          2
    68          4
    69         17
    70         10
    71          1
    73          0
    74          1
    75          2
    76          5
    77        124
    78         19
    79          4
    80          1
    81          1
    82          5
    83         10
    84         38
    85         95
    86          5
    87          0
    88          0
    89          2
    90          1
    91         16
    92          1
    94          1
    95          0
    96         11
    97         16
    98        999
    99         66
   100          1
   101          0
   102          2
   103          5
   104          1
   105        120
   106          9
   107          0
   108          0
   110          5
   111          4
   112         38
   113         33
   114          7
   115          7
   116          0
   117          0
   118          0
   119          0
   120          3
   121          0
   126          1
   127          1
   128          1
   129          0
   131          0
   132          0
   133          1
   138          0
   139          1
   141          0
   142          0
   143          0
   144          0
   146          0
   149          0
   150          0
   151          1
   152          6
   153          2
   154          2
   155          1
   161          0
   162          0
   163          0
   164          0
   165          7
   166          1
   167          1
   174          0
   176          0
   177          0
   178          4
   179          3
   180          3
   181          2
   182          1
   183         13
   184          7
   185          0
   186          0
   189          0
   191          0
   192          0
   193          0
   195          0
   196          0
   200          0
   216          0
   217          1
   218         16
   219          2
   277          0
   278          0
   294          5
   295         64
   296         12
   297          1