##TITLE=Library Entry 109865
##JCAMP-DX=Revision 4.10 
##DATA TYPE=MASS SPECTRUM
##SAMPLE DESCRIPTION=Patti Price, Georgia Bureau of Investigation, Decatur,
 Georgia
##NAMES=HP
##CAS NAME=Ergotaman-3',6',18-trione, 9,10-dihydro-12'-hydroxy-2'-methyl-5'-
(phenylmethyl)-, (5'.alpha.,10.alpha.)-
##MOLFORM=C33H37N5O5
##CAS REGISTRY NO=511-12-6
##MP= -300
##BP= -300
##MW= 583
##$RETENTION INDEX=0
##$CONDENSED SPECTRUM=NO
##NPOINTS= 150
##XYDATA=(XY..XY) 1 
    38          3
    39         50
    40         16
    41        100
    42         51
    43         61
    44         29
    45          4
    48          6
    50          9
    51         31
    52         11
    53          8
    54         10
    55         32
    56         10
    57          2
    62          5
    63         29
    64         16
    65        116
    66         11
    67          8
    68         74
    69         52
    70        385
    71         19
    72          2
    74          3
    75          6
    76          8
    77         54
    78         34
    79         16
    80          4
    81         13
    82          5
    83          7
    84          2
    89         31
    90         19
    91        400
    92         73
    93          7
    94          4
    95          2
    96         27
    97         15
    98          6
   101          3
   102         13
   103         47
   104         38
   105          6
   113          2
   115          7
   116          5
   117         13
   118         17
   119         11
   120         43
   121          5
   123          2
   124          6
   125        999
   126         68
   127         25
   128         43
   129          8
   130          6
   131         73
   132         15
   134          3
   135          2
   139          4
   140          3
   141          4
   142          2
   143          2
   144         21
   145          4
   146         11
   147          2
   151          5
   152         31
   153        545
   154         93
   155         27
   156          6
   157          3
   160          4
   165          2
   166          4
   167         34
   168         15
   169          6
   170          4
   172          7
   173          9
   174          4
   175          2
   176         10
   180          4
   181          6
   182          8
   183          5
   184          3
   192          2
   193          2
   194          5
   195          7
   196          2
   197         10
   198          2
   199          2
   200         13
   201         13
   202          5
   204          2
   205          3
   207          4
   208          5
   209          9
   210          3
   215          4
   223         22
   224          6
   225         12
   226          3
   232          3
   243          8
   244        263
   245         42
   246          4
   250          3
   251         17
   252          5
   253          2
   268          2
   269         28
   270          7
   271          7
   272          2
   286          2
   293          3
   295          2
   296          3
   314         15
   315          2
   321          4