##TITLE=Library Entry 35729
##JCAMP-DX=Revision 4.10 
##DATA TYPE=MASS SPECTRUM
##SAMPLE DESCRIPTION=DR GLENN PATTERSON
##NAMES=HP
##CAS NAME=9,19-Cyclolanost-25-en-3-ol, 24-methyl-, (3.beta.,24S)-
##MOLFORM=C31H52O
##CAS REGISTRY NO=511-61-5
##MP= -300
##BP= -300
##MW= 440
##$RETENTION INDEX=0
##$CONDENSED SPECTRUM=NO
##NPOINTS= 108
##XYDATA=(XY..XY) 1 
    39         70
    41        659
    42         50
    43        420
    53         90
    55        849
    56         70
    57        200
    67        380
    68         60
    69        999
    70        110
    71        100
    77        120
    79        340
    80         50
    81        619
    82        100
    83        310
    91        320
    92         80
    93        509
    94        150
    95        959
    96        160
    97        170
   105        400
   106        120
   107        579
   108        140
   109        569
   110         70
   111         80
   117        100
   118         50
   119        380
   120        270
   121        480
   122        200
   123        390
   124         70
   125        130
   131        150
   132         70
   133        340
   134        260
   135        400
   136        100
   137        120
   143         50
   145        190
   146         70
   147        350
   148        190
   149        250
   157         50
   159        190
   160         70
   161        280
   162         90
   163        190
   171         50
   173        220
   174         70
   175        400
   176         80
   177        140
   185         50
   187        160
   188         60
   189        130
   191         50
   201        140
   202         70
   203        240
   204         70
   205         50
   215         80
   216         40
   217         70
   218         50
   219         60
   220         40
   227         50
   229         60
   243         40
   255         50
   269         40
   273         50
   285         70
   286         50
   297        100
   300        280
   301         80
   325         80
   353        130
   354         40
   379        140
   380         50
   393         40
   407        340
   408        130
   422        270
   423         90
   425        200
   426         80
   440        140
   441         40