##TITLE=Library Entry 35979
##JCAMP-DX=Revision 4.10 
##DATA TYPE=MASS SPECTRUM
##SAMPLE DESCRIPTION=Exported from NIST MS Search
##NAMES=HP
##CAS NAME=2H-1,6-Benzoxazocin-5(6H)-one, 3,4-dihydro-
##MOLFORM=C10H11NO2
##CAS REGISTRY NO=51110-93-1
##MP= -300
##BP= -300
##MW= 177
##$RETENTION INDEX=0
##$CONDENSED SPECTRUM=NO
##NPOINTS= 16
##XYDATA=(XY..XY) 1 
    18        141
    28        180
    39        150
    41        502
    45         52
    52        222
    65         85
    69        999
    80        118
    91         36
    92         36
    93         34
   109        767
   120         46
   135         23
   177        186