##TITLE=Library Entry 25894
##JCAMP-DX=Revision 4.10 
##DATA TYPE=MASS SPECTRUM
##SAMPLE DESCRIPTION=Exported from NIST MS Search
##NAMES=HP
##CAS NAME=Pentane, 1-bromo-3-methyl-
##MOLFORM=C6H13Br
##CAS REGISTRY NO=51116-73-5
##MP= -300
##BP= -300
##MW= 164
##$RETENTION INDEX=0
##$CONDENSED SPECTRUM=NO
##NPOINTS= 65
##XYDATA=(XY..XY) 1 
    15          4
    26         13
    27        151
    28         30
    29        262
    30          6
    38          8
    39        106
    40         15
    41        439
    42         37
    43        229
    44          8
    50          9
    51         14
    52          5
    53         33
    54         10
    55        454
    56        192
    57        999
    58         44
    67          7
    68          1
    69        199
    70         12
    71          5
    79          3
    80          1
    81          2
    82          1
    83         13
    84        283
    85        620
    86         40
    91          6
    92          1
    93         10
    94          1
    95         10
    97          1
    98          1
    99          1
   103          3
   104          6
   105         13
   106          4
   107         42
   108          4
   109         40
   110          1
   119          2
   121          5
   123          3
   134          3
   135         34
   136          5
   137         33
   138          2
   149          1
   151          1
   164         61
   165          4
   166         59
   167          4