##TITLE=Library Entry 33431
##JCAMP-DX=Revision 4.10 
##DATA TYPE=MASS SPECTRUM
##SAMPLE DESCRIPTION=NIST Mass Spectrometry Data Center
##NAMES=HP
##CAS NAME=Fragranyl acetate
##MOLFORM=C12H20O2
##CAS REGISTRY NO=51117-22-7
##MP= -300
##BP= -300
##MW= 196
##$RETENTION INDEX=1345
##$CONDENSED SPECTRUM=NO
##NPOINTS= 73
##XYDATA=(XY..XY) 1 
    26          2
    27         30
    28          6
    29         26
    30          1
    31          3
    37          1
    38          4
    39         99
    40         41
    41        157
    42         35
    43        427
    44         10
    45          2
    50          8
    51         22
    52         13
    53        145
    54         11
    55         68
    56          7
    57          4
    60          1
    61          5
    62          2
    63          7
    64          2
    65         34
    66         19
    67        522
    68        999
    69        133
    70          6
    71          3
    73         10
    74          1
    77         53
    78         12
    79         71
    80         31
    81         53
    82          8
    83          3
    85          3
    91         51
    92         25
    93        270
    94         59
    95         24
    96          5
    97          3
    98          3
   103          2
   104          1
   105         15
   106          7
   107        161
   108        198
   109         55
   110          5
   111          3
   119          2
   120          2
   121        143
   122         14
   123          3
   128          1
   135          3
   136         16
   137          2
   140          1
   154          1