##TITLE=Library Entry 33445
##JCAMP-DX=Revision 4.10 
##DATA TYPE=MASS SPECTRUM
##SAMPLE DESCRIPTION=NIST Mass Spectrometry Data Center
##NAMES=HP
##CAS NAME=Fragranyl 2-methylbutyrate
##MOLFORM=C15H26O2
##CAS REGISTRY NO=51117-24-9
##MP= -300
##BP= -300
##MW= 238
##$RETENTION INDEX=1575
##$CONDENSED SPECTRUM=NO
##NPOINTS= 80
##XYDATA=(XY..XY) 1 
    26          2
    27         29
    28         11
    29         83
    30          2
    31          3
    38          1
    39         80
    40         33
    41        275
    42         25
    43         27
    44          1
    45          4
    47          1
    50          3
    51         11
    52         10
    53        108
    54         12
    55         97
    56         25
    57        340
    58         12
    59          2
    60          1
    63          2
    64          1
    65         26
    66         14
    67        351
    68        999
    69        116
    70          7
    71          2
    74          3
    77         41
    78          8
    79         70
    80         25
    81         82
    82         14
    83          5
    84          2
    85        100
    86          6
    87          3
    91         43
    92         24
    93        242
    94         72
    95         43
    96          7
    98          1
   102          2
   103         16
   105         12
   106          8
   107        176
   108        207
   109         60
   110          6
   111          1
   113          1
   118          1
   119          5
   120          2
   121        194
   122         19
   123         14
   124          1
   135          5
   136         32
   137          6
   138          3
   141          1
   142          1
   153          3
   170          1
   238          2