##TITLE=Library Entry 35655
##JCAMP-DX=Revision 4.10 
##DATA TYPE=MASS SPECTRUM
##SAMPLE DESCRIPTION=NIST Mass Spectrometry Data Center
##NAMES=HP
##CAS NAME=Lavandulyl isobutyrate
##MOLFORM=C14H24O2
##CAS REGISTRY NO=51117-20-5
##MP= -300
##BP= -300
##MW= 224
##$RETENTION INDEX=1418
##$CONDENSED SPECTRUM=NO
##NPOINTS= 84
##XYDATA=(XY..XY) 1 
    26          1
    27         34
    28          6
    29         19
    31          2
    38          2
    39         75
    40         18
    41        385
    42         29
    43        479
    44         16
    45          1
    50          3
    51         13
    52          8
    53         77
    54          8
    55         54
    56          8
    57         13
    59          2
    63          3
    65         29
    66         13
    67        188
    68        455
    69        999
    70         60
    71        392
    72         16
    73          2
    77         53
    78          9
    79         93
    80        230
    81         90
    82         33
    83          9
    84          4
    85         14
    86          2
    89          9
    90          1
    91         68
    92        124
    93        914
    94        113
    95         45
    96          5
    97          3
   103          4
   104          2
   105         50
   106         10
   107        115
   108         30
   109         11
   111          2
   113          1
   114          1
   117          2
   119         15
   120         11
   121        435
   122         43
   123         53
   124          5
   135         11
   136        174
   137         31
   138          3
   139          2
   142         26
   143          3
   151          1
   153          3
   154          4
   155         17
   156          3
   161          4
   181          1
   224          9
   225          2