##TITLE=Library Entry 20295
##JCAMP-DX=Revision 4.10 
##DATA TYPE=MASS SPECTRUM
##SAMPLE DESCRIPTION=Exported from NIST MS Search
##NAMES=HP
##CAS NAME=Cyclohexaneethanol, .beta.,4-dimethyl-, cis-
##MOLFORM=C10H20O
##CAS REGISTRY NO=5113-95-1
##MP= -300
##BP= -300
##MW= 156
##$RETENTION INDEX=1812
##$CONDENSED SPECTRUM=NO
##NPOINTS= 57
##XYDATA=(XY..XY) 1 
    17         12
    26          6
    27        103
    28         39
    29        169
    30          9
    31        111
    32          6
    39        125
    40         24
    41        390
    42         99
    43        111
    45         16
    51         14
    52          7
    53         67
    54         85
    55        999
    56         72
    57        129
    58        165
    59         30
    60          6
    65         16
    66         13
    67        174
    68        161
    69        580
    70         49
    71         30
    74         10
    77         20
    78          7
    79         31
    80         12
    81        468
    82        125
    83        222
    84         17
    91         10
    93         12
    94         35
    95        345
    96        486
    97        298
    98         24
   107          5
   109         78
   110         34
   113         12
   123         89
   124         14
   125         67
   126          6
   138        155
   139         16