##TITLE=Library Entry 84960
##JCAMP-DX=Revision 4.10 
##DATA TYPE=MASS SPECTRUM
##SAMPLE DESCRIPTION=M. IKEDA
##NAMES=HP
##CAS NAME=Pyridinium, 1-amino-2-methyl-, hydroxide, inner salt
##MOLFORM=C6H8N2
##CAS REGISTRY NO=51135-75-2
##MP= -300
##BP= -300
##MW= 108
##$RETENTION INDEX=0
##$CONDENSED SPECTRUM=NO
##NPOINTS= 25
##XYDATA=(XY..XY) 1 
    41         60
    42         40
    43         60
    44         90
    50         90
    51        190
    52        120
    53         90
    54         40
    55         20
    63         60
    64         40
    65        580
    66        200
    67         70
    77         90
    78        150
    79         70
    80        140
    81         60
    91         30
    92        600
    93        270
   108        999
   109        100