##TITLE=Library Entry 87503
##JCAMP-DX=Revision 4.10 
##DATA TYPE=MASS SPECTRUM
##SAMPLE DESCRIPTION=Chemical Concepts
##NAMES=HP
##CAS NAME=2-Cyclohexen-1-one, 5-methyl-2-(1-methylethyl)-
##MOLFORM=C10H16O
##CAS REGISTRY NO=5113-66-6
##MP= -300
##BP= -300
##MW= 152
##$RETENTION INDEX=1251
##$CONDENSED SPECTRUM=NO
##NPOINTS= 73
##XYDATA=(XY..XY) 1 
    26          8
    27        128
    28         52
    29         57
    38          8
    39        214
    40         33
    41        278
    42         35
    43        112
    44         11
    45         13
    50         19
    51         38
    52         21
    53        104
    54         26
    55         97
    56         16
    57         26
    59          4
    61          9
    62          6
    63         17
    64          6
    65         49
    66         40
    67        395
    68         97
    69         97
    70         19
    74          1
    76          5
    77         68
    78         12
    79         67
    80         24
    81        201
    82        149
    83         25
    84          8
    91         49
    92         19
    93         27
    94         29
    95        603
    96         55
    97         44
    98          4
   103          1
   105         10
   107         23
   108         26
   109        174
   110        999
   111         76
   112          9
   117          3
   119         51
   120          3
   121          7
   122          1
   123         97
   124         92
   125         10
   134         16
   135          7
   137        323
   138         33
   151         48
   152        702
   153         97
   154          0