##TITLE=Library Entry 72843
##JCAMP-DX=Revision 4.10 
##DATA TYPE=MASS SPECTRUM
##SAMPLE DESCRIPTION=NIST Mass Spectrometry Data Center, 1994
##NAMES=HP
##CAS NAME=4-Benzyl-4-hydroxypiperidine
##MOLFORM=C12H17NO
##CAS REGISTRY NO=51135-96-7
##MP= -300
##BP= -300
##MW= 191
##$RETENTION INDEX=0
##$CONDENSED SPECTRUM=NO
##NPOINTS= 89
##XYDATA=(XY..XY) 1 
    15         17
    18          7
    26          2
    27         74
    28        236
    29         79
    30        313
    38         14
    39        150
    40         26
    41         93
    42        927
    43        366
    44         51
    50         30
    51         92
    52         25
    53         62
    54         15
    55         58
    56        237
    57        164
    58         13
    62         16
    63         64
    64         23
    65        203
    66         18
    67         15
    68         13
    69          7
    70         20
    71        131
    72         25
    73          6
    75          9
    76          9
    77         49
    78         21
    79         11
    80         33
    81          6
    82        204
    83         18
    84          6
    85         14
    89         49
    91        368
    92         54
    96         12
    98         41
    99        156
   100        999
   101         61
   102         12
   103         11
   104          9
   105         14
   112         10
   113          6
   115         62
   116         17
   117         12
   118          6
   127         10
   128         30
   129         36
   130          9
   131         23
   132          7
   133          6
   134         35
   139          6
   141         12
   143          7
   144          9
   158         70
   159          7
   167         18
   168         43
   169         50
   170         14
   171         20
   172         20
   173        141
   174         27
   190         12
   191         37
   192          6