##TITLE=Library Entry 59423
##JCAMP-DX=Revision 4.10 
##DATA TYPE=MASS SPECTRUM
##SAMPLE DESCRIPTION=A. J. HORNG
##NAMES=HP
##CAS NAME=2-Propanone, 1-ethoxy-3-phenyl-
##MOLFORM=C11H14O2
##CAS REGISTRY NO=51149-73-6
##MP= -300
##BP= -300
##MW= 178
##$RETENTION INDEX=0
##$CONDENSED SPECTRUM=NO
##NPOINTS= 76
##XYDATA=(XY..XY) 1 
    12          4
    13          5
    14         24
    15         49
    16          7
    17         29
    18         97
    19          2
    24          2
    25          3
    26         36
    27        164
    28         59
    29        331
    30         16
    31        828
    32         10
    33          2
    37          7
    38         22
    39        136
    40         12
    41         60
    42         24
    43         31
    44         16
    45         20
    46          3
    47          2
    49          3
    50         33
    51        117
    52         38
    53         18
    54          2
    55          9
    56          4
    57          8
    58          6
    59        875
    60         30
    61         15
    62         38
    63        104
    64         33
    65        233
    66         14
    67          3
    69          4
    70          2
    71          3
    73          4
    74         15
    75         11
    76          8
    77         59
    78         29
    79         16
    80          2
    85          4
    86          6
    87          6
    88          4
    89         60
    90         43
    91        999
    92         98
    93          6
    95          6
   132          5
   133         10
   134        283
   135         30
   136          2
   178         74
   179          9