##TITLE=Library Entry 30006
##JCAMP-DX=Revision 4.10 
##DATA TYPE=MASS SPECTRUM
##SAMPLE DESCRIPTION=Chemical Concepts
##NAMES=HP
##CAS NAME=Cyclohexanemethanol, .alpha.,.alpha.,4-trimethyl-, trans-
##MOLFORM=C10H20O
##CAS REGISTRY NO=5114-00-1
##MP= -300
##BP= -300
##MW= 156
##$RETENTION INDEX=1161
##$CONDENSED SPECTRUM=NO
##NPOINTS= 78
##XYDATA=(XY..XY) 1 
    26          1
    27         41
    28         23
    29         44
    30          0
    31         47
    32          5
    38          0
    39         34
    40         15
    41         75
    42         13
    43         65
    44          1
    45         15
    46          0
    50          1
    51          3
    52          1
    53         14
    54         10
    55         85
    56         10
    57          6
    58        104
    59        999
    60         32
    61          2
    62          0
    63          0
    65          4
    66          1
    67         26
    68          7
    69         18
    70          5
    71         11
    72          0
    73          0
    77          5
    78          1
    79          8
    80          1
    81         69
    82          8
    83         22
    84          1
    85          0
    86          0
    91          2
    92          0
    93          3
    94          1
    95         16
    96         54
    97         20
    98          2
    99          0
   103          0
   105          0
   107          0
   108          0
   109          1
   110          0
   111          0
   112          0
   121          0
   122          0
   123         63
   124          6
   125          0
   137          2
   138          1
   139          2
   140          0
   141         24
   142          2
   156          0