##TITLE=Library Entry 5638
##JCAMP-DX=Revision 4.10 
##DATA TYPE=MASS SPECTRUM
##SAMPLE DESCRIPTION=J.VOTH UNIV. OF CALIFORNIA, DAVIS, CALIFORNIA, 95616, U
SA
##NAMES=HP
##CAS NAME=2-Heptanone, 1-ethoxy-
##MOLFORM=C9H18O2
##CAS REGISTRY NO=51149-70-3
##MP= -300
##BP= -300
##MW= 158
##$RETENTION INDEX=1068
##$CONDENSED SPECTRUM=NO
##NPOINTS= 81
##XYDATA=(XY..XY) 1 
    12          1
    13          3
    14         21
    15         83
    16          3
    17          2
    18          7
    19          5
    25          1
    26         44
    27        447
    28        125
    29        590
    30         23
    31        689
    32          7
    33          3
    37          3
    38         10
    39        143
    40         26
    41        289
    42        221
    43        999
    44         42
    45         22
    46          2
    47          2
    50          3
    51         15
    52          6
    53         31
    54         14
    55        229
    56        168
    57         42
    58        130
    59        555
    60         22
    61          4
    62          2
    63          3
    65          3
    66          1
    67          7
    68          4
    69         54
    70         22
    71        431
    72         36
    73          8
    74          2
    75          1
    77          1
    79          1
    80          3
    81          9
    83          9
    84         15
    85         11
    86          4
    87          3
    88          1
    93          1
    95          4
    96          3
    97          3
    98         18
    99        611
   100         41
   101          4
   102         17
   103          1
   111          1
   114        101
   115         12
   116          1
   141          0
   143          1
   158          1
   159          1