##TITLE=Library Entry 39075
##JCAMP-DX=Revision 4.10 
##DATA TYPE=MASS SPECTRUM
##SAMPLE DESCRIPTION=J.VOTH UNIV. OF CALIFORNIA, DAVIS, CALIFORNIA, 95616, U
SA
##NAMES=HP
##CAS NAME=3-Heptanone, 1,1-diethoxy-
##MOLFORM=C11H22O3
##CAS REGISTRY NO=51149-69-0
##MP= -300
##BP= -300
##MW= 202
##$RETENTION INDEX=0
##$CONDENSED SPECTRUM=NO
##NPOINTS= 100
##XYDATA=(XY..XY) 1 
    12          2
    13          5
    14         30
    15        155
    16          5
    17          4
    18         26
    19         26
    25          3
    26         66
    27        466
    28        111
    29        752
    30         24
    31        102
    32          1
    37          2
    38          7
    39        101
    40         19
    41        209
    42         92
    43        289
    44        199
    45         78
    46          9
    47        407
    48          5
    49          2
    50          4
    51         17
    52          7
    53         40
    54         29
    55        112
    56         46
    57        406
    58         74
    59         10
    60          9
    61         16
    62          1
    63          2
    65          2
    66          2
    67          5
    68          5
    69         44
    70         44
    71        999
    72        102
    73         21
    74          3
    75        289
    76         10
    77          4
    79          3
    81          8
    82          4
    83         13
    84          9
    85        924
    86         70
    87          8
    88          6
    89         20
    95          2
    97          6
    98          2
    99        576
   100         34
   101         14
   102          2
   103        516
   104         29
   105          3
   110          3
   111          8
   112          3
   113          2
   114        221
   115         19
   116          5
   117         16
   127         46
   128          6
   129          2
   131          2
   145         22
   146          2
   155          1
   156          3
   157         64
   158          7
   159          5
   173         76
   174          7
   201          1
   202         14
   203          1