##TITLE=Library Entry 43955
##JCAMP-DX=Revision 4.10 
##DATA TYPE=MASS SPECTRUM
##SAMPLE DESCRIPTION=Chemical Concepts
##NAMES=HP
##CAS NAME=Chloramphenicol, 3TMS derivative
##MOLFORM=C20H36Cl2N2O5Si3
##CAS REGISTRY NO=51146-99-7
##MP= -300
##BP= -300
##MW= 538
##$RETENTION INDEX=0
##$CONDENSED SPECTRUM=NO
##NPOINTS= 344
##XYDATA=(XY..XY) 1 
    41          6
    42          3
    43         34
    44         32
    45        132
    46          9
    47         16
    48          0
    49          1
    50          1
    51          2
    52          1
    53          2
    54          2
    55          6
    56          1
    57          5
    58         11
    59         27
    60          3
    61          5
    62          0
    63          5
    64          0
    65          8
    66          1
    67          2
    68          0
    69          3
    70         27
    71          4
    72         21
    73        999
    74        145
    75        134
    76         17
    77         11
    78          5
    79          5
    80          1
    81          2
    82          5
    83          2
    84          4
    85          3
    86          5
    87          3
    88         11
    89          9
    90          6
    91          5
    92          2
    93         85
    94          5
    95         33
    96          3
    97          2
    98        245
    99         15
   100         17
   101         16
   102         12
   103         66
   104         12
   105          6
   106          3
   107          3
   108          1
   109          2
   110          0
   111          1
   112          1
   113          1
   114          6
   115         13
   116        232
   117         32
   118         78
   119          7
   120          6
   121          2
   122          5
   123          2
   124          4
   125          1
   126          3
   127          4
   128          6
   129          6
   130          7
   131         15
   132          4
   133         20
   134          7
   135          6
   136          5
   137          2
   138          0
   139          1
   140          5
   141          4
   142         14
   143         61
   144          7
   145          5
   146          1
   147        162
   148         28
   149         17
   150         16
   151         19
   152         21
   153          8
   154         15
   155          1
   156          8
   157          2
   158          1
   159          1
   160          1
   161          4
   162          8
   163         17
   164          7
   165          3
   166          1
   167         14
   168          2
   169          5
   170         12
   171          2
   172          2
   173          0
   174          3
   175          5
   176          5
   177          8
   178         25
   179          6
   180          6
   181          1
   182          1
   183          0
   184          1
   185          1
   186          1
   187          1
   188          2
   189          2
   190         10
   191         31
   192         11
   193          5
   194         20
   195          4
   196          2
   197          1
   198          1
   199          0
   200          1
   201          0
   202          1
   203          2
   204         11
   205          9
   206         17
   207          6
   208         55
   209         12
   210          4
   211          1
   212         23
   213          3
   214         16
   215          3
   216          4
   217          2
   218          1
   219          1
   220          1
   221          2
   222          2
   223          1
   224        166
   225         70
   226         43
   227          5
   228          7
   229          1
   230         11
   231          3
   232          1
   233          1
   234          1
   235          2
   236          1
   237          2
   238          2
   239          0
   241          0
   242          2
   243          1
   244         71
   245         15
   246          8
   247          1
   248          1
   249          1
   250          5
   251          5
   252          2
   253          1
   254          0
   256          0
   257          0
   258          0
   260          0
   262          0
   263          1
   264          7
   265          2
   266          2
   267          2
   268          0
   269          0
   270          0
   271          0
   272          0
   273          0
   274          0
   275          0
   277          3
   278          8
   279         36
   280         10
   281         21
   282          4
   283          2
   284          0
   285          0
   286          0
   287          0
   290          0
   291          0
   292          1
   293          0
   294          0
   295          0
   296          0
   297        284
   298         71
   299         30
   300          4
   301          1
   302          0
   304          0
   305          0
   306          1
   307          2
   309          3
   310          1
   311          1
   313          1
   314        395
   315         91
   316        280
   317         60
   318         61
   319         14
   320          4
   321          0
   322          3
   323          1
   324          1
   325          1
   326          0
   327          0
   330          0
   331          1
   332          0
   333          0
   337          0
   338          0
   339          1
   340          0
   341          0
   342          0
   346          0
   347          0
   348          0
   349          0
   351          3
   352          0
   353          0
   355          0
   361          1
   362          0
   363          1
   364          0
   365          2
   377          0
   384          3
   385          3
   386          1
   387          1
   388          0
   389          0
   393          1
   394          0
   395          0
   400          0
   405          0
   409          0
   415          0
   419          1
   420          0
   421          1
   425          0
   426          0
   433          2
   434          0
   435          8
   436          2
   437          4
   438          1
   439          0
   440          0
   451          1
   452          0
   453          0
   455          1
   456          0
   493          6
   494          1
   495          4
   496          1
   497          1
   503          0
   523         16
   524          5
   525         13
   526          4
   527          3
   528          1