##TITLE=Library Entry 30961
##JCAMP-DX=Revision 4.10 
##DATA TYPE=MASS SPECTRUM
##SAMPLE DESCRIPTION=R. SELF, AGRIC. RES. COUNC., FOOD RES. INST., NORWICH,
 U
##NAMES=HP
##CAS NAME=Desulphosinigrin
##MOLFORM=C10H17NO6S
##CAS REGISTRY NO=5115-81-1
##MP= -300
##BP= -300
##MW= 279
##$RETENTION INDEX=0
##$CONDENSED SPECTRUM=NO
##NPOINTS= 144
##XYDATA=(XY..XY) 1 
    31        232
    33         51
    34        116
    35         11
    36         60
    37         40
    38         71
    39        255
    40        110
    41        589
    42        284
    43        914
    44        785
    45        468
    46         93
    47        172
    48         52
    49         27
    50         34
    51         54
    52         77
    53         95
    54        116
    55        361
    56        292
    57        555
    58        198
    59        261
    60        999
    61        617
    62         64
    63         67
    64        147
    65         42
    66        134
    67        378
    68        256
    69        544
    70        139
    71        376
    72        221
    73        939
    74        267
    75         82
    76        286
    77         86
    78         54
    79         35
    80         22
    81         75
    82         49
    83        104
    84        125
    85        482
    86        162
    87        288
    88         63
    89         95
    90         36
    91        130
    92         31
    93         23
    94         15
    95         35
    96         44
    97        176
    98        103
    99        184
   100        118
   101        189
   102        129
   103        217
   104         38
   105         43
   106          7
   107          9
   108          8
   109         40
   110         49
   111         54
   112         42
   113         56
   114         44
   115         75
   116         77
   117        130
   118         45
   119         99
   120         22
   121         10
   122          9
   123          4
   124         16
   125         27
   126         40
   127        144
   128         47
   129         47
   130         29
   131         42
   132         26
   133         36
   135         11
   136          5
   137          7
   138         11
   139         13
   140         16
   141         15
   142         33
   143         23
   144         62
   145        272
   146         35
   147         35
   148          7
   149         26
   150         31
   151         13
   152          8
   153         10
   155         11
   156         16
   157          7
   158         16
   159         12
   160         24
   161         11
   162         18
   163        133
   164         13
   165          7
   167          8
   168          8
   169         48
   170          4
   171         20
   175         11
   176          9
   178         12
   187          5
   194          5
   213          7
   262         18