##TITLE=Library Entry 68405
##JCAMP-DX=Revision 4.10 
##DATA TYPE=MASS SPECTRUM
##SAMPLE DESCRIPTION=Exported from NIST MS Search
##NAMES=HP
##CAS NAME=Benzo[c]thiophene, octahydro-, trans-
##MOLFORM=C8H14S
##CAS REGISTRY NO=51153-54-9
##MP= -300
##BP= -300
##MW= 142
##$RETENTION INDEX=0
##$CONDENSED SPECTRUM=NO
##NPOINTS= 96
##XYDATA=(XY..XY) 1 
    39         40
    40         53
    41        384
    42         33
    43         19
    44          2
    45        263
    46         80
    47         90
    48          6
    49          5
    50         23
    51         54
    52         25
    53        139
    54        131
    55        180
    56         10
    57          7
    58         33
    59         61
    60         88
    61         46
    62         11
    63         15
    64          3
    65         52
    66         35
    67        405
    68        117
    69         14
    70          3
    71         28
    72          8
    73         42
    74         12
    75          5
    76          2
    77         50
    78         17
    79        158
    80         58
    81        211
    82         27
    83          3
    84         10
    85         73
    86         20
    87         21
    88          4
    89          2
    90          1
    91         35
    92          6
    93        137
    94         89
    95        999
    96        135
    97         25
    98          4
    99         44
   100         10
   101          8
   102          1
   103          1
   104          1
   105          4
   106          1
   107         19
   108        415
   109         99
   110          7
   111          5
   112          1
   113         12
   114          7
   115          1
   116          1
   121          1
   122          1
   123          1
   125          1
   126          1
   127         12
   128          1
   129          1
   134          1
   135          1
   139          1
   140          1
   141          9
   142        392
   143         38
   144         19
   145          2
   146          1