##TITLE=Library Entry 41382
##JCAMP-DX=Revision 4.10 
##DATA TYPE=MASS SPECTRUM
##SAMPLE DESCRIPTION=STER PREG TMSI L 00 0000 E M.HORN
##NAMES=HP
##CAS NAME=3,17,20-Trihydroxypregnan-11-one, (3.alpha.,5.beta.,20S)-, 2TMS d
erivative
##MOLFORM=C27H50O4Si2
##CAS REGISTRY NO=51166-36-0
##MP= -300
##BP= -300
##MW= 494
##$RETENTION INDEX=0
##$CONDENSED SPECTRUM=NO
##NPOINTS= 255
##XYDATA=(XY..XY) 1 
    41        264
    42         34
    43        434
    44         80
    45        294
    46         21
    47        109
    48          9
    49          9
    50         14
    51         20
    53         84
    54         20
    55        400
    56         44
    57         80
    58         44
    59        129
    60         34
    61        164
    62         20
    63         20
    64         14
    65         40
    66         24
    67        309
    68         54
    69        204
    70         29
    71         60
    72         80
    73        999
    74        320
    75        999
    76        149
    77        254
    78         40
    79        369
    80         54
    81        360
    82         49
    83        120
    84         29
    85         60
    86          9
    87         34
    88          9
    89         74
    90         34
    91        354
    92         64
    93        380
    94        109
    95        294
    96         54
    97        280
    98         29
    99         24
   100          9
   101        100
   102         20
   103         69
   104         20
   105        340
   106         89
   107        320
   108         89
   109        174
   110         54
   111         40
   112         14
   113         24
   114         11
   115         64
   116         40
   117        999
   118        300
   119        494
   120         80
   121        220
   122         64
   123        134
   124         29
   125         24
   127         29
   128         20
   129        180
   130         80
   131        154
   132         40
   133        180
   134         44
   135         84
   136         69
   137         49
   138         14
   139         29
   141         34
   142         44
   143        204
   144         49
   145        200
   146         49
   147        200
   148         60
   149        120
   150         44
   151         24
   153         14
   155         60
   156         40
   157        184
   158         49
   159        120
   160         49
   161        109
   162         29
   163         49
   164         11
   165         40
   166         14
   167         20
   168         20
   169         64
   170         24
   171         74
   172         29
   173         96
   174         36
   175        107
   176         29
   177        104
   178         32
   179         24
   181         36
   182         14
   183         40
   184         20
   185         49
   186         20
   187         49
   188         24
   189         38
   190         21
   191         60
   192         14
   193         34
   194         14
   195         49
   196         21
   197         44
   198         21
   199         40
   200         14
   201         40
   202         16
   203         24
   204         14
   205         40
   206         14
   207         47
   208         14
   209         40
   210         14
   211        109
   212         20
   213         40
   214         20
   215         31
   216         14
   217         20
   218         14
   219         24
   221         24
   222          9
   223         24
   224         14
   225         24
   226         14
   227         49
   228         24
   229         71
   230         60
   231         34
   232        168
   233         40
   234          9
   235         20
   237         14
   239         14
   241         44
   242         24
   243         76
   244         21
   245         29
   247          9
   249          9
   251         29
   252         20
   253         24
   254         10
   255         14
   257         20
   258          9
   259         11
   260         11
   261          9
   263         20
   265         14
   267         11
   268         20
   269        104
   270         49
   271        174
   272         40
   273          9
   281         29
   286        149
   287        999
   288        200
   289         29
   291          9
   296         60
   297         34
   299         20
   314         34
   315         14
   317          9
   332         20
   333          9
   342         20
   343         14
   345         27
   350          9
   359         31
   360         29
   361         14
   371          9
   376         60
   377         49
   378         20
   386         40
   387         14
   389         40
   404        104
   405         29
   406         11
   449          9
   450         27
   451         10
   476          9
   479          9
   494         94
   495         40
   496         20