##TITLE=Library Entry 49577
##JCAMP-DX=Revision 4.10 
##DATA TYPE=MASS SPECTRUM
##SAMPLE DESCRIPTION=M.L.SAMUELSSON INST. ORG. CHEM., UNIV., GOTEBORG, SWEDE
N
##NAMES=HP
##CAS NAME=1,3,6,9b-Tetraazaphenalene-4-carbonitrile, 9-bromo-2-(dibromometh
yl)-
##MOLFORM=C11H4Br3N5
##CAS REGISTRY NO=51168-38-8
##MP= -300
##BP= -300
##MW= 443
##$RETENTION INDEX=0
##$CONDENSED SPECTRUM=NO
##NPOINTS= 48
##XYDATA=(XY..XY) 1 
    26         80
    27        210
    28         20
    29         90
    41        130
    43        130
    44        220
    47         70
    51         80
    52         80
    55        120
    56         60
    57        180
    63         90
    64        420
    65         60
    67         50
    69        100
    70         50
    71         90
    76         90
    77         90
    79        370
    80        999
    81        360
    82        980
    83        300
    85        180
    88         70
    89         80
    90         50
    95         60
    97         70
   140         60
   167        180
   183         90
   284         70
   286        200
   287        140
   288        140
   289        120
   364        120
   366        270
   368        140
   443         60
   445        180
   447        180
   449         60