##TITLE=Library Entry 16896
##JCAMP-DX=Revision 4.10 
##DATA TYPE=MASS SPECTRUM
##SAMPLE DESCRIPTION=Exported from NIST MS Search
##NAMES=HP
##CAS NAME=Hexadecane, 1-methoxy-13-methyl-
##MOLFORM=C18H38O
##CAS REGISTRY NO=51166-34-8
##MP= -300
##BP= -300
##MW= 270
##$RETENTION INDEX=0
##$CONDENSED SPECTRUM=NO
##NPOINTS= 72
##XYDATA=(XY..XY) 1 
    41        486
    42        115
    43        971
    44         13
    45        999
    46         23
    47         13
    51         13
    53         39
    54         92
    55        757
    56        468
    57        510
    58         65
    66         10
    67        118
    68        221
    69        644
    70        592
    71        605
    72         36
    74         31
    79         18
    80         10
    81         71
    82        210
    83        663
    84        784
    85        413
    86         34
    87         57
    95         44
    96         89
    97        681
    98        131
    99         50
   100         10
   101         10
   109         15
   110         26
   111        315
   112         57
   113         31
   120         13
   124         21
   125        163
   126         50
   127         21
   137         13
   138         18
   139         71
   140         31
   141         10
   143         10
   152         10
   153         31
   154         18
   155         13
   166         34
   167         65
   168         36
   169         13
   182         13
   183          5
   194         73
   195        155
   196         28
   209         10
   210         26
   227         31
   238         78
   239         18