##TITLE=Library Entry 89964
##JCAMP-DX=Revision 4.10 
##DATA TYPE=MASS SPECTRUM
##SAMPLE DESCRIPTION=Chemical Concepts
##NAMES=HP
##CAS NAME=1-Bromocyclobutanecarboxylic acid, methyl ester
##MOLFORM=C6H9BrO2
##CAS REGISTRY NO=51175-79-2
##MP= -300
##BP= -300
##MW= 192
##$RETENTION INDEX=0
##$CONDENSED SPECTRUM=NO
##NPOINTS= 134
##XYDATA=(XY..XY) 1 
    25          4
    26         62
    27        167
    28         48
    29         51
    30          4
    31         11
    37          5
    38         14
    39        116
    40         14
    41         76
    42         17
    43         29
    44         10
    45         44
    46          1
    49          6
    50         33
    51         58
    52         28
    53        418
    54        126
    55        167
    56         15
    57         28
    58         12
    59        260
    60          8
    61          2
    62          1
    63          2
    64          2
    65          8
    66          2
    67          7
    68          4
    69         13
    70          6
    71         33
    72         12
    73          4
    74          3
    75          2
    76          3
    77          7
    78          2
    79          5
    80         10
    81        340
    82         56
    83         49
    84          7
    85        153
    86          8
    87         14
    89          2
    90          2
    91          7
    92          2
    93          4
    94          4
    95          4
    96          3
    97         12
    98          4
    99          8
   100          1
   101          1
   102          2
   103          1
   104          4
   105         50
   106          6
   107         55
   108          2
   109          4
   110          1
   111          3
   112          5
   113        999
   114         88
   115         17
   116          3
   117          5
   118          2
   119          4
   120          7
   121          4
   122          6
   123          2
   124          2
   125          2
   126          1
   127          3
   128          3
   129          5
   130          3
   131          3
   132          5
   133        236
   134         17
   135        221
   136         15
   137          4
   138          2
   139          1
   140          1
   141          5
   142          2
   143          3
   144          3
   145          7
   146         42
   147          3
   148         39
   149          3
   151          8
   160         20
   161         36
   162         23
   163         46
   164        159
   165         25
   166        149
   167         11
   177         10
   178          2
   179         11
   180          1
   192         22
   193          5
   194         22
   195          3