##TITLE=Library Entry 19827
##JCAMP-DX=Revision 4.10 
##DATA TYPE=MASS SPECTRUM
##SAMPLE DESCRIPTION=NIST Mass Spectrometry Data Center
##NAMES=HP
##CAS NAME=N-Acryloylmorpholine
##MOLFORM=C7H11NO2
##CAS REGISTRY NO=5117-12-4
##MP= -300
##BP= -300
##MW= 141
##$RETENTION INDEX=0
##$CONDENSED SPECTRUM=NO
##NPOINTS= 69
##XYDATA=(XY..XY) 1 
    12          2
    14         15
    15        105
    16          3
    18          4
    19          3
    24          1
    26        140
    27        653
    28        495
    29        240
    30        111
    31         33
    37          4
    38          7
    39         14
    40         23
    41         83
    42        282
    43         45
    44         30
    45         20
    50          2
    51          4
    52         13
    53         32
    55        999
    56        802
    57        136
    58         24
    59         11
    65          1
    66          2
    67          6
    68         69
    69         30
    70         89
    72         31
    73          3
    74         10
    80          5
    81          6
    82         40
    83         72
    84         33
    86        341
    87         25
    88          1
    94          5
    96        101
    97         29
    98         35
    99         20
   100         13
   109         42
   110         56
   111         62
   112         85
   113         28
   114          7
   124          2
   126        234
   127         15
   128          1
   139          1
   140         61
   141        148
   142         12
   143          1