##TITLE=Library Entry 107221
##JCAMP-DX=Revision 4.10 
##DATA TYPE=MASS SPECTRUM
##SAMPLE DESCRIPTION=Richard Turcotte. Direction des laboratoires d'expertis
es et d'analyses alimentaires, Quebec, Canada.
##NAMES=HP
##CAS NAME=Cyclopropanecarboxylic acid, 2,2-dimethyl-3-(2-methyl-1-propenyl)
-, (3-phenoxyphenyl)methyl ester, (1R-cis)-
##MOLFORM=C23H26O3
##CAS REGISTRY NO=51186-88-0
##MP= -300
##BP= -300
##MW= 350
##$RETENTION INDEX=0
##$CONDENSED SPECTRUM=NO
##NPOINTS= 102
##XYDATA=(XY..XY) 1 
    41         73
    42          3
    43         66
    50          9
    51         40
    52          5
    53         27
    54          3
    55         53
    56          4
    57         15
    59          3
    62          2
    63         17
    64          9
    65         33
    66          3
    67         44
    68          6
    69         35
    70          3
    71          5
    74          2
    75          4
    76          9
    77        107
    78         26
    79         56
    80          6
    81        185
    82         18
    83         28
    84          2
    85          6
    89         61
    90         36
    91         58
    92         10
    93         40
    94         11
    95         41
    96          5
    97          7
   103          5
   105         18
   106          4
   107         46
   108         14
   109         26
   110          8
   111          5
   115         47
   116          5
   117          2
   121         45
   122         12
   123        999
   124        104
   125         13
   127         24
   128         32
   129         27
   130          2
   131          3
   135          2
   137          2
   139         23
   140          4
   141         32
   142          5
   144          4
   149         11
   151         12
   152         26
   153         52
   154         30
   155         27
   156          2
   157          3
   164          2
   165         40
   166          8
   167         18
   168         63
   169         27
   170          4
   181         51
   182         17
   183        622
   184        159
   185         19
   197         14
   198         24
   199          2
   200          4
   249          2
   250          7
   251          7
   269          5
   294          2
   350         28
   351          8