##TITLE=Library Entry 33298
##JCAMP-DX=Revision 4.10 
##DATA TYPE=MASS SPECTRUM
##SAMPLE DESCRIPTION=NIST Mass Spectrometry Data Center
##NAMES=HP
##CAS NAME=Fragranyl isovaalerate
##MOLFORM=C15H26O2
##CAS REGISTRY NO=51193-03-4
##MP= -300
##BP= -300
##MW= 238
##$RETENTION INDEX=1580
##$CONDENSED SPECTRUM=NO
##NPOINTS= 104
##XYDATA=(XY..XY) 1 
    26          2
    27         37
    28         10
    29         57
    30          1
    31          3
    32          1
    37          1
    38          2
    39        101
    40         37
    41        394
    42         55
    43         98
    44          5
    45          6
    50          3
    51         14
    52         11
    53        131
    54         13
    55         87
    56         15
    57        290
    58         16
    59         13
    60          7
    61          2
    62          1
    63          4
    64          1
    65         31
    66         16
    67        385
    68        999
    69        371
    70         25
    71          9
    72          1
    73          1
    75          1
    76          1
    77         47
    78         10
    79         72
    80         83
    81        103
    82         17
    83         10
    84          7
    85        207
    86         12
    87          2
    91         44
    92         53
    93        332
    94         86
    95         48
    96          7
    97          4
    98          3
    99          1
   100          2
   101          2
   103         12
   104          1
   105         15
   106          7
   107        173
   108        204
   109         62
   110          9
   111          4
   112          1
   113          3
   117          1
   119          6
   120          1
   121        201
   122         20
   123         12
   125          1
   126          1
   127          2
   128          2
   129          1
   133          1
   134          1
   135          8
   136         56
   137         14
   138          1
   139          2
   150          1
   153          3
   154          5
   155          1
   163          1
   167          2
   168          1
   169          2
   170          1
   182          1
   238          1