##TITLE=Library Entry 23131
##JCAMP-DX=Revision 4.10 
##DATA TYPE=MASS SPECTRUM
##SAMPLE DESCRIPTION=A. J. HORNG
##NAMES=HP
##CAS NAME=2-Pentanone, 1-ethoxy-4,4-dimethyl-
##MOLFORM=C9H18O2
##CAS REGISTRY NO=51193-45-4
##MP= -300
##BP= -300
##MW= 158
##$RETENTION INDEX=0
##$CONDENSED SPECTRUM=NO
##NPOINTS= 89
##XYDATA=(XY..XY) 1 
    13          2
    14         14
    15         63
    16          2
    17          8
    18          2
    19          3
    25          0
    26         20
    27        204
    28         64
    29        373
    30         13
    31        336
    32          4
    33          3
    37          2
    38          6
    39         97
    40         16
    41        233
    42         33
    43        194
    44         10
    45         21
    46          0
    47          2
    50          3
    51         15
    52          5
    53         29
    54          6
    55         67
    56         83
    57        999
    58        109
    59        348
    60         12
    61          3
    62          1
    63          2
    64          1
    65          3
    66          1
    67          7
    68          1
    69         24
    70          5
    71        141
    72          8
    73          5
    74          2
    75          1
    77          3
    78          0
    79          2
    81          4
    82          1
    83         25
    84          1
    85          2
    86          3
    87          3
    91          1
    93          1
    95          4
    96          1
    97         19
    98          5
    99        321
   100         21
   101          3
   102          9
   103          1
   109          1
   110          2
   111          5
   112          0
   113          0
   114         65
   115          7
   125          0
   127          0
   139         24
   140          2
   143         13
   144          1
   158          0
   159          0