##TITLE=Library Entry 28404
##JCAMP-DX=Revision 4.10 
##DATA TYPE=MASS SPECTRUM
##SAMPLE DESCRIPTION=NIST Mass Spectrometry Data Center, 1998.
##NAMES=HP
##CAS NAME=Cyclopentolate
##MOLFORM=C17H25NO3
##CAS REGISTRY NO=512-15-2
##MP= -300
##BP= -300
##MW= 291
##$RETENTION INDEX=2014
##$CONDENSED SPECTRUM=NO
##NPOINTS= 114
##XYDATA=(XY..XY) 1 
    14          1
    15          7
    26          7
    27         25
    28         40
    29         34
    30         31
    31          5
    32          1
    37          4
    38          8
    39         39
    40          9
    41         79
    42        134
    43         57
    44         76
    45         21
    46          2
    49          3
    50         12
    51         20
    52          5
    53          9
    54          5
    55        119
    56         85
    57         64
    58        999
    59         86
    60          2
    61          5
    62         14
    63         37
    64         14
    65         30
    66          3
    67         40
    68          3
    69          5
    70         34
    71        549
    72        350
    73         18
    74          3
    75          3
    76          2
    77         24
    78          7
    79         22
    80          2
    81          1
    83          6
    84         34
    85         25
    86          9
    87          7
    88         19
    89        148
    90        133
    91        124
    92         10
    93          1
    97          1
   101          1
   102          3
   103         10
   104          4
   105         10
   106          2
   107          8
   108          1
   113          1
   114          1
   115         17
   116          5
   117         10
   118        119
   119         14
   120          1
   127          5
   128          8
   129         11
   130          2
   131         11
   132          2
   133          2
   135          1
   136          1
   141          2
   142          2
   143          1
   145          6
   146          2
   152          1
   153          1
   155          2
   157          7
   158          5
   162         18
   163         16
   164          2
   173          1
   175          1
   203          2
   205          1
   206          1
   207         89
   208         12
   209          1
   249          1
   262          5
   263          1
   291          1