##TITLE=Library Entry 67221
##JCAMP-DX=Revision 4.10 
##DATA TYPE=MASS SPECTRUM
##SAMPLE DESCRIPTION=Exported from NIST MS Search
##NAMES=HP
##CAS NAME=Tricyclo[2.2.1.0(2,6)]heptane, 1,7-dimethyl-7-(4-methyl-3-penteny
l)-, (-)-
##MOLFORM=C15H24
##CAS REGISTRY NO=512-61-8
##MP= -300
##BP= -300
##MW= 204
##$RETENTION INDEX=1420
##$CONDENSED SPECTRUM=NO
##NPOINTS= 84
##XYDATA=(XY..XY) 1 
    26          6
    27        101
    28         40
    29        115
    39        136
    40         22
    41        606
    42         29
    43        151
    45         15
    50          7
    51         35
    52         17
    53        125
    54         14
    55        258
    56         27
    57         23
    63         11
    64         10
    65         80
    66         41
    67        150
    68         23
    69        415
    70         35
    71          9
    75         12
    77        225
    78         52
    79        310
    80         40
    81         85
    82         80
    83         29
    89         13
    90          8
    91        298
    92         87
    93        850
    94        999
    95        480
    96         52
    97         11
   103         21
   104         12
   105        212
   106         75
   107        344
   108        145
   109        110
   110         19
   115         12
   116          7
   117         19
   118          5
   119        162
   120        120
   121        390
   122        225
   123         40
   129          5
   131          9
   133         85
   134         44
   135         70
   136         26
   137         62
   138         10
   147         25
   148         40
   149         25
   150          6
   161        105
   162         15
   163          6
   175         14
   176         32
   177          5
   189        110
   190         19
   204        175
   205         30
   206          2