##TITLE=Library Entry 3346
##JCAMP-DX=Revision 4.10 
##DATA TYPE=MASS SPECTRUM
##SAMPLE DESCRIPTION=A.Swigar, R.Silverstein, Monoterpenes,1981
##NAMES=HP
##CAS NAME=Ascaridole
##MOLFORM=C10H16O2
##CAS REGISTRY NO=512-85-6
##MP= -300
##BP= -300
##MW= 168
##$RETENTION INDEX=1244
##$CONDENSED SPECTRUM=NO
##NPOINTS= 70
##XYDATA=(XY..XY) 1 
    31         43
    38         49
    39        496
    40         96
    41        999
    42        172
    43        566
    45         43
    50         52
    51        114
    52         58
    53        225
    54         82
    55        479
    56         92
    57         71
    58         34
    59         45
    63         45
    65         84
    66         47
    67        170
    68         60
    69        684
    70        150
    77        125
    78         43
    79        172
    80         54
    81        182
    82        161
    83        170
    84         94
    85         62
    91        161
    92         45
    93         75
    94         32
    95        103
    96         34
    97        189
    98        124
    99        116
   100         34
   105         51
   107        225
   108         69
   109         73
   110         69
   111         71
   115         28
   117         41
   119         69
   121         58
   122         51
   123         43
   125        335
   126        110
   132         22
   133         19
   134         41
   135        238
   136         30
   137         21
   139        287
   140         51
   150         99
   151         30
   153         22
   168        125