##TITLE=Library Entry 50206
##JCAMP-DX=Revision 4.10 
##DATA TYPE=MASS SPECTRUM
##SAMPLE DESCRIPTION=Exported from NIST MS Search
##NAMES=HP
##CAS NAME=Cyclopentanecarboxylic acid, 1-methyl-3-(1-methylethyl)-, cis-
##MOLFORM=C10H18O2
##CAS REGISTRY NO=512-77-6
##MP= -300
##BP= -300
##MW= 170
##$RETENTION INDEX=0
##$CONDENSED SPECTRUM=NO
##NPOINTS= 113
##XYDATA=(XY..XY) 1 
    15          6
    18          5
    26          4
    27        109
    28         49
    29         90
    30          3
    31          7
    32          9
    36          3
    38          4
    39        120
    40         22
    41        357
    42         49
    43        303
    44         11
    45         40
    46          3
    47          4
    50          5
    51         17
    52          9
    53         70
    54         23
    55        341
    56        100
    57         83
    58          8
    59         31
    60         65
    61         11
    62          2
    63          5
    65         22
    66         11
    67        130
    68         31
    69        564
    70         79
    71         29
    72         21
    73         91
    74         23
    75          3
    77         27
    78          6
    79         46
    80        123
    81        999
    82        107
    83        257
    84        361
    85         40
    86          9
    87        559
    88        396
    89         24
    90         15
    91         16
    92          6
    93         13
    94          9
    95         35
    96         42
    97         50
    98         48
    99         35
   100         77
   101         14
   102          8
   103          3
   105          6
   106          2
   107         19
   108         43
   109        239
   110         49
   111         67
   112          7
   113         39
   114         15
   115         12
   116          2
   117          2
   119          4
   121          8
   122          7
   123         27
   124         11
   125        127
   126         18
   127        211
   128        132
   129         50
   130          5
   137         19
   138          3
   141          2
   142          7
   149          2
   150          2
   151          3
   152         51
   153          8
   155         85
   156          9
   164          2
   166          5
   168          3
   169          2
   170         40
   171          7