##TITLE=Library Entry 71738
##JCAMP-DX=Revision 4.10 
##DATA TYPE=MASS SPECTRUM
##SAMPLE DESCRIPTION=A.Pleshkova, Moscow,Russia
##NAMES=HP
##CAS NAME=2,4,6(1H,3H,5H)-Pyrimidinetrione, 5,5-diethyl-1-phenyl-3-(trimeth
ylsilyl)-
##MOLFORM=C17H24N2O3Si
##CAS REGISTRY NO=51209-95-1
##MP= -300
##BP= -300
##MW= 332
##$RETENTION INDEX=0
##$CONDENSED SPECTRUM=NO
##NPOINTS= 74
##XYDATA=(XY..XY) 1 
    14          5
    15         23
    16         11
    28         31
    29         38
    30          9
    39         26
    40          6
    41         60
    42         11
    43         13
    44          4
    45          4
    50          5
    51         55
    52         23
    53         14
    54          4
    55        113
    56          5
    59         19
    60          5
    61          6
    65         41
    66          5
    67         16
    68          3
    69         64
    70          5
    72         33
    73        615
    74         11
    75         99
    76         11
    77         86
    78         11
    79         36
    83        261
    84         24
    85          5
    86         30
    87          4
    91         33
    92         11
    93          9
    96          3
    97         34
    98        999
    99         62
   100        160
   101         14
   102          4
   118         11
   119        503
   120         11
   127          6
   128          3
   132         13
   133          4
   137         16
   138          5
   198         56
   199          9
   213        604
   214         64
   215         16
   303         50
   304         44
   317        898
   318         91
   319          6
   332        710
   333         63
   334          8