##TITLE=Library Entry 57724
##JCAMP-DX=Revision 4.10 
##DATA TYPE=MASS SPECTRUM
##SAMPLE DESCRIPTION=D.HENNEBERG, MAX-PLANCK INSTITUTE, MULHEIM, WEST GERMAN
Y
##NAMES=HP
##CAS NAME=Heptanoic acid, 2-methyl-, methyl ester
##MOLFORM=C9H18O2
##CAS REGISTRY NO=51209-78-0
##MP= -300
##BP= -300
##MW= 158
##$RETENTION INDEX=1067
##$CONDENSED SPECTRUM=NO
##NPOINTS= 56
##XYDATA=(XY..XY) 1 
    26         14
    27        198
    28         78
    29        224
    30          7
    31          3
    32          2
    33          1
    37          5
    38         18
    39        168
    40         32
    41        336
    42        119
    43        206
    44          6
    45         32
    50          2
    51          8
    52          3
    53         29
    54         10
    55        156
    56         98
    57        379
    58         19
    59        164
    60          5
    61          2
    65          1
    67          6
    68          4
    69         61
    70         11
    71          6
    73         25
    74         27
    83         12
    84         12
    85          0
    87         78
    88        999
    89          3
    97          7
    98         11
    99         18
   100          0
   101        218
   102         16
   115         56
   116          2
   127         42
   128          1
   129          2
   143          9
   158          3