##TITLE=Library Entry 53943
##JCAMP-DX=Revision 4.10 
##DATA TYPE=MASS SPECTRUM
##SAMPLE DESCRIPTION=Chuck Anderson, Aldrich Chemical Co.
##NAMES=HP
##CAS NAME=(S)-(+)-1-(2-Pyrrolidinylmethyl)-pyrrolidine
##MOLFORM=C9H18N2
##CAS REGISTRY NO=51207-66-0
##MP= -300
##BP= -300
##MW= 154
##$RETENTION INDEX=0
##$CONDENSED SPECTRUM=NO
##NPOINTS= 49
##XYDATA=(XY..XY) 1 
    15          9
    18          2
    26          3
    27         31
    28        100
    29         29
    30         38
    31          0
    32          1
    38          0
    39         22
    40          5
    41         58
    42        111
    43         46
    44          8
    51          1
    52          1
    53          9
    54         13
    55         60
    56         22
    57         35
    58          1
    65          0
    67          6
    68         30
    69          8
    70        520
    71         27
    72          2
    80          6
    81          1
    82         31
    83         24
    84        999
    85        225
    86         18
    87          0
    94          0
    95          0
    96          3
    97          0
    98          0
   110          3
   111          1
   123          0
   124          0
   125          0