##TITLE=Library Entry 79143
##JCAMP-DX=Revision 4.10 
##DATA TYPE=MASS SPECTRUM
##SAMPLE DESCRIPTION=Institute of Organic Chemistry, Novosibirsk, USSR 1988
##NAMES=HP
##CAS NAME=4,5-Dihydro-4,4-pentamethylene-2-phenyl-1,3-oxazin-6-one
##MOLFORM=C15H17NO2
##CAS REGISTRY NO=51219-66-0
##MP= -300
##BP= -300
##MW= 243
##$RETENTION INDEX=0
##$CONDENSED SPECTRUM=NO
##NPOINTS= 16
##XYDATA=(XY..XY) 1 
    41         31
    43         30
    77        362
    78         25
    81         41
    96         23
   105        999
   106        101
   122         59
   123          9
   187         21
   200         21
   215         50
   216          9
   243         49
   244         11