##TITLE=Library Entry 51223
##JCAMP-DX=Revision 4.10 
##DATA TYPE=MASS SPECTRUM
##SAMPLE DESCRIPTION=NIST Mass Spectrometry Data Center
##NAMES=HP
##CAS NAME=Henicosanal
##MOLFORM=C21H42O
##CAS REGISTRY NO=51227-32-8
##MP= -300
##BP= -300
##MW= 310
##$RETENTION INDEX=2332
##$CONDENSED SPECTRUM=NO
##NPOINTS= 69
##XYDATA=(XY..XY) 1 
    27         27
    29         91
    39         38
    40         12
    41        468
    42         78
    43        652
    44        163
    45         46
    53         31
    54         79
    55        584
    56        184
    57        787
    58         47
    66        101
    67        391
    68        513
    69        495
    70        188
    71        446
    72         72
    79         46
    80         42
    81        399
    82        999
    83        554
    84        127
    85        199
    86         27
    94         37
    95        402
    96        736
    97        469
    98         42
    99         63
   100         14
   109        244
   110        235
   111        192
   112         51
   113         30
   122         21
   123        179
   124        150
   125         88
   126         31
   137        107
   138         83
   139         28
   140         14
   151         30
   152         45
   165         14
   166         23
   180         25
   194         22
   196         11
   210         13
   235         16
   236         37
   237          8
   249         11
   264         58
   265         13
   266         25
   292        142
   293         22
   310         10