##TITLE=Library Entry 39616
##JCAMP-DX=Revision 4.10 
##DATA TYPE=MASS SPECTRUM
##SAMPLE DESCRIPTION=Exported from NIST MS Search
##NAMES=HP
##CAS NAME=DL-Norvaline, methyl ester
##MOLFORM=C6H13NO2
##CAS REGISTRY NO=51220-50-9
##MP= -300
##BP= -300
##MW= 131
##$RETENTION INDEX=0
##$CONDENSED SPECTRUM=NO
##NPOINTS= 29
##XYDATA=(XY..XY) 1 
    15         51
    18         26
    27         49
    28        104
    29         57
    30        475
    31         12
    33         59
    39         28
    41         34
    42         59
    43         65
    44        100
    45          2
    49          8
    51          2
    53          2
    54          8
    55         53
    56         44
    57         14
    59         12
    60         16
    70         16
    72        999
    73         49
    74         14
    88        159
   132         16