##TITLE=Library Entry 278
##JCAMP-DX=Revision 4.10 
##DATA TYPE=MASS SPECTRUM
##SAMPLE DESCRIPTION=Chemical Concepts
##NAMES=HP
##CAS NAME=Formamide, N-(4,6-diamino-5-pyrimidinyl)-
##MOLFORM=C5H7N5O
##CAS REGISTRY NO=5122-36-1
##MP= -300
##BP= -300
##MW= 153
##$RETENTION INDEX=0
##$CONDENSED SPECTRUM=NO
##NPOINTS= 116
##XYDATA=(XY..XY) 1 
    26          5
    27         78
    28        999
    29        136
    30         14
    31          1
    34          0
    35          4
    36         29
    37          1
    38         25
    39         31
    40         38
    41         25
    42         78
    43        790
    44        147
    45         79
    46          3
    48          0
    49          1
    50          1
    51          3
    52          6
    53        185
    54        230
    55        194
    56         75
    57          4
    58          0
    59          1
    61          0
    63          0
    64          3
    65         13
    66         37
    67         26
    68         21
    69         14
    70        219
    71        353
    72         13
    73          1
    75          0
    76          1
    77          2
    78          2
    79          2
    80         17
    81         65
    82         24
    83          9
    84          1
    85          1
    86          2
    87          0
    89          0
    90          0
    91          1
    92          4
    93          2
    94          2
    95          1
    96          8
    97        200
    98        118
    99          5
   100          1
   101          1
   102          2
   103          2
   104          0
   105          0
   106          1
   107         29
   108         59
   109         11
   110          6
   111          1
   112          2
   113          1
   114          1
   115          0
   116          0
   117          0
   118          1
   119          5
   121          0
   122          2
   123          5
   124        114
   125        824
   126         58
   127          2
   128          0
   129          3
   130          0
   133          0
   134          5
   135        107
   136         44
   137          3
   138          0
   139          0
   142          0
   143          0
   145          0
   147          0
   148          0
   149          0
   150          1
   151         15
   152         31
   153        679
   154         60
   155          3