##TITLE=Library Entry 55664
##JCAMP-DX=Revision 4.10 
##DATA TYPE=MASS SPECTRUM
##SAMPLE DESCRIPTION=Exported from NIST MS Search
##NAMES=HP
##CAS NAME=DL-Norleucine, methyl ester
##MOLFORM=C7H15NO2
##CAS REGISTRY NO=51220-79-2
##MP= -300
##BP= -300
##MW= 145
##$RETENTION INDEX=0
##$CONDENSED SPECTRUM=NO
##NPOINTS= 33
##XYDATA=(XY..XY) 1 
    15         57
    18         28
    26          2
    27         79
    28        142
    29         81
    30        651
    31         16
    33         83
    39         44
    41        114
    42         77
    43        142
    44        161
    45          8
    53          4
    54         12
    55         16
    56        102
    57         34
    59         16
    60         24
    67          4
    69         69
    70         12
    72          2
    74         16
    84         14
    86        999
    87         69
    88        159
    89          8
   146         16