##TITLE=Library Entry 14013
##JCAMP-DX=Revision 4.10 
##DATA TYPE=MASS SPECTRUM
##SAMPLE DESCRIPTION=Div. of Experiment Therapeutics WRAIR, WRAMC, Washingto
n DC 20307
##NAMES=HP
##CAS NAME=4'-[[4-Amino-3-cyanophenyl]thio]acetanilide
##MOLFORM=C15H13N3OS
##CAS REGISTRY NO=51221-62-6
##MP= -300
##BP= -300
##MW= 283
##$RETENTION INDEX=0
##$CONDENSED SPECTRUM=NO
##NPOINTS= 123
##XYDATA=(XY..XY) 1 
    41         25
    42         58
    43        999
    44         12
    45         62
    50         19
    51         30
    52         57
    53         24
    54         16
    57          2
    58          4
    60          5
    61          6
    62         27
    63        117
    64         53
    65         53
    66         12
    67          4
    69         38
    70         31
    71         16
    72          4
    74          4
    75          5
    76         11
    77         11
    78         29
    79          9
    80         65
    81          5
    82          6
    84          1
    87          2
    88         11
    89         15
    90         62
    91         30
    92          8
    93         10
    94          6
    95         20
    96         26
    97         21
    98          5
    99         18
   101          1
   104          3
   105         60
   106         11
   114          4
   115         12
   116          9
   117         10
   118         14
   121          4
   122         22
   123         11
   124         72
   125         10
   126          6
   127          6
   131          4
   133          5
   134         19
   136          5
   140          7
   141          4
   142          7
   143          1
   148          4
   149         47
   150         10
   151          4
   152          7
   153          7
   154          5
   155          8
   159          1
   161          5
   168          7
   169          9
   170          1
   174          1
   179         13
   180          5
   181         27
   182          5
   185          1
   186          7
   187          5
   192          3
   196         26
   197          7
   198          5
   200          1
   206          8
   207         13
   208         36
   209        109
   210         17
   211         10
   212          7
   213         25
   214          9
   215          5
   223         10
   224         16
   225         12
   226          5
   238          2
   239         10
   240        114
   241        398
   242         70
   243         20
   244          1
   282          5
   283        321
   284         75
   285         25
   286          4