##TITLE=Library Entry 60298
##JCAMP-DX=Revision 4.10 
##DATA TYPE=MASS SPECTRUM
##SAMPLE DESCRIPTION=Exported from NIST MS Search
##NAMES=HP
##CAS NAME=Glutamine, N-(2-acetamido-2-deoxy-.beta.-D-glucopyranosyl)-N2-car
boxy-, dibenzyl ester, 3',4',6'-triacetate, L-
##MOLFORM=C34H41N3O13
##CAS REGISTRY NO=5123-47-7
##MP= -300
##BP= -300
##MW= 699
##$RETENTION INDEX=0
##$CONDENSED SPECTRUM=NO
##NPOINTS= 143
##XYDATA=(XY..XY) 1 
    71         25
    72         43
    73         26
    74         13
    75          8
    76          7
    77        148
    78         46
    79        294
    80         66
    81         33
    82         30
    83         48
    84        205
    85         36
    86         17
    87         17
    88         20
    89         37
    90         41
    91        999
    92         99
    93         19
    94         11
    95         14
    96         59
    97         54
    98         71
    99         28
   100         20
   101         38
   102         16
   103          7
   104         35
   105         25
   106        206
   107        258
   108         43
   109         20
   110         30
   111         42
   112         24
   113         89
   114         33
   115         12
   121          7
   122         35
   123         31
   124         25
   125         23
   126         45
   127         20
   128         16
   129         12
   130         11
   135         14
   136         10
   137         13
   138         53
   139         90
   140         83
   141         26
   142         14
   143         54
   144         15
   145          9
   149          7
   150         81
   151         25
   152         14
   153         12
   154         19
   155         17
   156         35
   157         28
   158         14
   165         13
   166         16
   167         30
   168         53
   169         10
   174         24
   175          5
   180          6
   181         48
   182         14
   183         10
   184          7
   198         23
   199         54
   200         14
   209         13
   210         30
   211          8
   226         12
   228         18
   229         12
   241         64
   242         24
   243          7
   262          7
   269         14
   270         30
   285          6
   286         10
   287         10
   288          6
   303          6
   329         12
   330         54
   331         12
   341          6
   345          7
   358         15
   398         13
   412          7
   413         14
   414          7
   457          1
   465          2
   466          1
   471          1
   473          2
   474          1
   498          1
   500          1
   501          1
   502          1
   507          4
   520          0
   521          0
   531          1
   532          1
   564          2
   565          1
   580          3
   581          2
   591          3
   592          2
   639          1
   640          2
   641          1
   699          2