##TITLE=Library Entry 58044
##JCAMP-DX=Revision 4.10 
##DATA TYPE=MASS SPECTRUM
##SAMPLE DESCRIPTION=J.N.C.WHYTE FISHERIES RES. BOARD, VANCOUVER, CANADA
##NAMES=HP
##CAS NAME=D-Gluconic acid, 2,3,4,5-tetra-O-methyl-6-O-(2,3,4,6-tetra-O-meth
yl-.alpha.-D-galactopyranosyl)-, methyl ester
##MOLFORM=C21H40O12
##CAS REGISTRY NO=51236-49-8
##MP= -300
##BP= -300
##MW= 484
##$RETENTION INDEX=0
##$CONDENSED SPECTRUM=NO
##NPOINTS= 52
##XYDATA=(XY..XY) 1 
    45        354
    59        103
    71        340
    73        149
    75        455
    88        999
    89        198
    99        114
   101        741
   102        108
   103        108
   111        373
   115         81
   119        158
   125         29
   127        108
   129        182
   131         57
   133         34
   141         24
   143         59
   145         54
   147         43
   149         21
   153         21
   155         65
   159        288
   171         27
   173         10
   175         12
   185        237
   187        381
   191        103
   203         43
   217         46
   219        138
   229          8
   231          5
   233          8
   235         10
   249        607
   250         70
   263         13
   273          8
   275          6
   292          5
   293         13
   309        239
   310         32
   319          8
   337         16
   351          5