##TITLE=Library Entry 58038
##JCAMP-DX=Revision 4.10 
##DATA TYPE=MASS SPECTRUM
##SAMPLE DESCRIPTION=J.N.C.WHYTE FISHERIES RES. BOARD, VANCOUVER, CANADA
##NAMES=HP
##CAS NAME=D-Gluconic acid, 2,3,5,6-tetra-O-methyl-4-O-(2,3,4,6-tetra-O-meth
yl-.alpha.-D-glucopyranosyl)-, methyl ester
##MOLFORM=C21H40O12
##CAS REGISTRY NO=51236-46-5
##MP= -300
##BP= -300
##MW= 484
##$RETENTION INDEX=0
##$CONDENSED SPECTRUM=NO
##NPOINTS= 54
##XYDATA=(XY..XY) 1 
    45        349
    59        150
    71        256
    73        129
    75        421
    88        999
    89        271
    95         69
    99         90
   101        566
   102         51
   103         24
   111        448
   115         72
   119        111
   123         27
   125         45
   127        123
   129         45
   131         28
   133         13
   141         24
   143         39
   145         54
   147         12
   149         45
   153         24
   155        135
   157         36
   159         27
   173         18
   175          9
   185        162
   187        475
   203         12
   205          6
   217         84
   219         66
   231         51
   235         30
   249        331
   250         51
   263         24
   309        171
   310         27
   319          6
   322          5
   325          5
   349          7
   351          5
   381         12
   407          9
   439          4
   453          2