##TITLE=Library Entry 57976
##JCAMP-DX=Revision 4.10 
##DATA TYPE=MASS SPECTRUM
##SAMPLE DESCRIPTION=J.N.C.WHYTE FISHERIES RES. BOARD, VANCOUVER, CANADA
##NAMES=HP
##CAS NAME=D-Gluconic acid, 2,3,5,6-tetra-O-methyl-4-O-(2,3,4,6-tetra-O-meth
yl-.beta.-D-galactopyranosyl)-, methyl ester
##MOLFORM=C21H40O12
##CAS REGISTRY NO=51236-47-6
##MP= -300
##BP= -300
##MW= 484
##$RETENTION INDEX=0
##$CONDENSED SPECTRUM=NO
##NPOINTS= 49
##XYDATA=(XY..XY) 1 
    45        433
    59        180
    71        326
    73        146
    75        400
    88        999
    89        303
    99        120
   101        606
   102         83
   103         53
   111        366
   115        100
   119        150
   125         63
   127        126
   129         90
   131         46
   133         26
   141         80
   143         83
   145         93
   147         60
   149         63
   153         60
   155        120
   157         86
   159         83
   185        220
   187        333
   203         20
   205         33
   217        110
   219        124
   235         33
   249        366
   250         76
   263         16
   293         10
   309        180
   310         56
   319         10
   322          3
   325          5
   349         28
   351         14
   381         20
   407         13
   439          4