##TITLE=Library Entry 58180
##JCAMP-DX=Revision 4.10 
##DATA TYPE=MASS SPECTRUM
##SAMPLE DESCRIPTION=J.N.C.WHYTE FISHERIES RES. BOARD, VANCOUVER, CANADA
##NAMES=HP
##CAS NAME=Propanoic acid, 3-methoxy-2-[(2,3,4,6-tetra-O-methyl-.alpha.-D-ma
nnopyranosyl)oxy]-, methyl ester, (R)-
##MOLFORM=C15H28O9
##CAS REGISTRY NO=51236-43-2
##MP= -300
##BP= -300
##MW= 352
##$RETENTION INDEX=0
##$CONDENSED SPECTRUM=NO
##NPOINTS= 23
##XYDATA=(XY..XY) 1 
    45        247
    71        163
    72         35
    73         93
    75        372
    88        999
    89        127
   101        488
   102         67
   111         67
   117        186
   127         39
   131         32
   141         11
   143         13
   145         20
   149         23
   155         23
   177        790
   187         88
   190         51
   219         72
   251          1