##TITLE=Library Entry 97529
##JCAMP-DX=Revision 4.10 
##DATA TYPE=MASS SPECTRUM
##SAMPLE DESCRIPTION=NIST Mass Spectrometry Data Center, 2010
##NAMES=HP
##CAS NAME=1-Methyl-3-phenylpropylamine, N-trifluoroacetyl-
##MOLFORM=C12H14F3NO
##CAS REGISTRY NO=51241-62-4
##MP= -300
##BP= -300
##MW= 245
##$RETENTION INDEX=0
##$CONDENSED SPECTRUM=NO
##NPOINTS= 131
##XYDATA=(XY..XY) 1 
    15          2
    26          1
    27         14
    28         22
    29          5
    30          2
    31          1
    38          3
    39         35
    40          5
    41         26
    42         24
    43          9
    44         28
    45         21
    46          1
    47         14
    50         15
    51         47
    52         12
    53         10
    54         12
    55          6
    56          6
    57          4
    59          7
    61          1
    62          6
    63         28
    64          9
    65        106
    66         17
    67          1
    69        114
    70         35
    72        100
    73          4
    74          9
    75          7
    76          8
    77        103
    78         68
    79         57
    80          4
    82          1
    84          3
    86          1
    87          2
    89         31
    91        593
    92        207
    93         28
    94          5
    96          7
    97         12
    98          7
    99          1
   101          2
   102         15
   103         75
   104         80
   105        205
   106         22
   107          3
   109          2
   110          2
   113         11
   114         14
   115        101
   117        999
   118        100
   119          5
   120          7
   121          4
   122          2
   123          1
   124          1
   126         39
   127          8
   128         13
   129         17
   130         13
   131        102
   132        607
   133        100
   134          8
   135          1
   136          1
   138          1
   140        379
   141        486
   142         24
   143          3
   144          1
   146          7
   147          2
   148          1
   150          1
   151          1
   152          5
   153          9
   154         53
   155          3
   158          9
   159          2
   160          1
   161          1
   164          1
   166          1
   167          1
   168          1
   174          1
   176        259
   177         32
   178         23
   179          3
   182          1
   184          2
   186          1
   187          1
   193          1
   202          9
   203          2
   212          1
   213          1
   228          4
   230         51
   231          6
   245        366
   246         51
   247          4