##TITLE=Library Entry 80321
##JCAMP-DX=Revision 4.10 
##DATA TYPE=MASS SPECTRUM
##SAMPLE DESCRIPTION=NIST Mass Spectrometry Data Center, 1990.
##NAMES=HP
##CAS NAME=5,9-Tetradecadiyne
##MOLFORM=C14H22
##CAS REGISTRY NO=51255-61-9
##MP= -300
##BP= -300
##MW= 190
##$RETENTION INDEX=0
##$CONDENSED SPECTRUM=NO
##NPOINTS= 71
##XYDATA=(XY..XY) 1 
    15         11
    18          7
    26         39
    27        380
    28         27
    29        158
    37          6
    38         31
    39        356
    40         89
    41        581
    42         40
    43        146
    44          4
    50         54
    51        175
    52        214
    53        385
    54         46
    55        313
    56         19
    57         10
    62         16
    63         60
    64         20
    65        160
    66         59
    67        334
    68         24
    69         47
    74          8
    75         12
    76         23
    77        231
    78        102
    79        355
    80         62
    81         84
    82          8
    89         22
    91        699
    92        103
    93        171
    94         26
    95         65
    96         11
   102         11
   103         73
   105        999
   106        134
   107         49
   108          5
   115         51
   116         22
   117         91
   118         36
   119        259
   120         46
   121         20
   128          9
   129          7
   131         26
   133        138
   134        109
   135         19
   145          9
   147        112
   148         16
   161         40
   162          6
   175         12