##TITLE=Library Entry 7497
##JCAMP-DX=Revision 4.10 
##DATA TYPE=MASS SPECTRUM
##SAMPLE DESCRIPTION=Div. of Experiment Therapeutics WRAIR, WRAMC, Washingto
n DC 20307
##NAMES=HP
##CAS NAME=4-Cholesten-3-ol, acetate
##MOLFORM=C29H48O2
##CAS REGISTRY NO=51260-27-6
##MP= -300
##BP= -300
##MW= 428
##$RETENTION INDEX=0
##$CONDENSED SPECTRUM=NO
##NPOINTS= 145
##XYDATA=(XY..XY) 1 
    41        132
    43        999
    44         17
    45          2
    49          0
    51          0
    53         20
    55        186
    57         92
    58          3
    65          5
    67         55
    68          9
    69         73
    70          8
    71         46
    72          2
    77         16
    79         68
    81        104
    83         39
    84          0
    85          6
    91         41
    93         51
    95         92
    96          6
    97         26
    98          1
    99          1
   103          1
   104          0
   105         42
   106         21
   107         59
   108         28
   109         44
   110          7
   111          6
   113          0
   115          2
   117         10
   119         22
   120          6
   121         29
   122         19
   123         21
   124          5
   125          2
   127          2
   129          3
   131         11
   132          1
   133         23
   134         10
   135         15
   136          2
   137          5
   142          0
   143          3
   145         10
   146          2
   147         18
   148          4
   149         11
   150          0
   151          4
   155          0
   157          2
   158          0
   159         10
   160          5
   161         41
   162         12
   163          9
   164          1
   165          1
   169          0
   171          2
   173          5
   174          3
   175          7
   176         10
   177          9
   178          2
   179          0
   185          2
   187          5
   188          2
   189          5
   190          3
   191          1
   193          2
   199          2
   201          3
   202          1
   203         41
   204          7
   205          2
   206          2
   213          3
   215          5
   217          3
   219          1
   220          0
   229          2
   231         10
   232          5
   233          2
   245          0
   246          3
   247          2
   255          3
   259          2
   260          2
   261          0
   262          0
   273          4
   274          3
   287          3
   289          0
   301         11
   302          2
   314          9
   315         16
   316         51
   317         10
   318          0
   319          0
   328          4
   329          2
   353          2
   355          1
   357          4
   359          0
   368         12
   369          3
   371          5
   372          1
   385          5
   386        162
   387         44
   388          6
   428          6
   429          1