##TITLE=Library Entry 8856
##JCAMP-DX=Revision 4.10 
##DATA TYPE=MASS SPECTRUM
##SAMPLE DESCRIPTION=Japan AIST/NIMC Database- Spectrum MS-NW-3531
##NAMES=HP
##CAS NAME=4-Ethyl-1-hexyn-3-ol
##MOLFORM=C8H14O
##CAS REGISTRY NO=51277-03-3
##MP= -300
##BP= -300
##MW= 126
##$RETENTION INDEX=0
##$CONDENSED SPECTRUM=NO
##NPOINTS= 74
##XYDATA=(XY..XY) 1 
    14          1
    15          9
    17          3
    18         10
    25          3
    26         21
    27        169
    28         13
    29        218
    30          4
    31          9
    32          1
    36          2
    37          4
    38          9
    39         94
    40         12
    41        253
    42         72
    43        999
    44         31
    45          6
    49          1
    50          9
    51         22
    52          9
    53         34
    54          9
    55        259
    56        190
    57         69
    58          7
    59          3
    61          1
    62          2
    63          5
    64          1
    65         11
    66         12
    67         28
    68          7
    69         74
    70        178
    71        266
    72         22
    73          1
    74          1
    75          1
    77         35
    78          6
    79         35
    80          9
    81         11
    82          9
    83         72
    84        134
    85         10
    86          1
    91          9
    92          1
    93         34
    94          3
    95         13
    96          4
    97         87
    98         43
    99          3
   100          1
   107          3
   108          2
   109          1
   111         30
   112          3
   125          3