##TITLE=Library Entry 51440
##JCAMP-DX=Revision 4.10 
##DATA TYPE=MASS SPECTRUM
##SAMPLE DESCRIPTION=Exported from NIST MS Search
##NAMES=HP
##CAS NAME=Cyclohexane, (2-methoxyethyl)-
##MOLFORM=C9H18O
##CAS REGISTRY NO=51284-32-3
##MP= -300
##BP= -300
##MW= 142
##$RETENTION INDEX=1070
##$CONDENSED SPECTRUM=NO
##NPOINTS= 80
##XYDATA=(XY..XY) 1 
    15         33
    18          3
    26          4
    27         82
    28         31
    29         89
    30          3
    31         27
    32          1
    33          9
    38          4
    39        117
    40         19
    41        290
    42         29
    43         44
    44          3
    45        578
    46         14
    47          3
    50          5
    51         14
    52          8
    53         58
    54        218
    55        440
    56         32
    57          7
    58         18
    59         20
    60         17
    61          2
    62          1
    63          3
    65         15
    66         33
    67        660
    68        201
    69        122
    70          8
    71         25
    72          2
    74         15
    75          6
    76          1
    77         17
    78          5
    79         38
    80         47
    81        801
    82        999
    83        113
    84          6
    85          3
    91          6
    92          1
    93          7
    94          3
    95        146
    96         15
    97         17
    98          2
   103          2
   104          4
   105          2
   107          2
   108          2
   109         31
   110        791
   111         82
   112          5
   113          1
   114          2
   115          1
   116          1
   117          1
   124          1
   125          1
   142          3
   143          4