##TITLE=Library Entry 36029
##JCAMP-DX=Revision 4.10 
##DATA TYPE=MASS SPECTRUM
##SAMPLE DESCRIPTION=D.HENNEBERG, MAX-PLANCK INSTITUTE, MULHEIM, WEST GERMAN
Y
##NAMES=HP
##CAS NAME=Cyclohexane, (1,2-dimethylpropyl)-
##MOLFORM=C11H22
##CAS REGISTRY NO=51284-29-8
##MP= -300
##BP= -300
##MW= 154
##$RETENTION INDEX=1295
##$CONDENSED SPECTRUM=NO
##NPOINTS= 96
##XYDATA=(XY..XY) 1 
    25          0
    26          2
    27         86
    28         17
    29        100
    30          1
    32          2
    33          0
    34          0
    36          7
    37          0
    38          0
    39         81
    40          9
    41        318
    42         50
    43        375
    44          7
    45          2
    46          0
    47          0
    48          0
    50          1
    51          7
    52          5
    53         35
    54         49
    55        682
    56         44
    57         72
    58          4
    59          0
    60          1
    61          1
    62          0
    63          1
    64          0
    65          7
    66          7
    67        151
    68         36
    69        999
    70        296
    71        200
    72         10
    73          0
    75          0
    76          0
    77          8
    78          2
    79         10
    80          8
    81        105
    82        189
    83        290
    84         20
    85          1
    87          0
    88          0
    91          2
    92          0
    93          1
    94          0
    95         23
    96          2
    97         21
    98          2
    99          0
   101          0
   103          0
   104          0
   105          0
   106          0
   107          0
   108          0
   109          4
   110        338
   111        739
   112         70
   113          3
   115          0
   116          0
   117          0
   123          0
   125          1
   126          0
   137          5
   138          0
   139          1
   149          2
   150          0
   152          0
   153          0
   154         33
   155          4
   156          0