##TITLE=Library Entry 44741
##JCAMP-DX=Revision 4.10 
##DATA TYPE=MASS SPECTRUM
##SAMPLE DESCRIPTION=NIST Mass Spectrometry Data Center
##NAMES=HP
##CAS NAME=Tridecanoic acid, 12-methyl-, methyl ester
##MOLFORM=C15H30O2
##CAS REGISTRY NO=5129-58-8
##MP= -300
##BP= -300
##MW= 242
##$RETENTION INDEX=1686
##$CONDENSED SPECTRUM=NO
##NPOINTS= 135
##XYDATA=(XY..XY) 1 
    15          9
    26          1
    27         39
    28         10
    29         77
    30          2
    31          4
    33          1
    38          1
    39         48
    40         12
    41        318
    42         77
    43        470
    44         17
    45         17
    51          2
    52          1
    53         26
    54         24
    55        359
    56         79
    57        190
    58         12
    59        125
    60          4
    61          3
    63          1
    65          5
    66          2
    67         37
    68         15
    69        156
    70         25
    71         49
    72          4
    73         26
    74        999
    75        148
    76          9
    77          3
    78          1
    79         11
    80          3
    81         29
    82         11
    83        100
    84         34
    85         27
    87        699
    88         60
    89          5
    91          2
    93         10
    94          2
    95         26
    96          8
    97         89
    98         31
    99          7
   100          3
   101         72
   102          7
   103          1
   105          1
   107          8
   108          2
   109         14
   110          6
   111         36
   112         11
   113          4
   114          1
   115         20
   116          9
   117          1
   121          9
   122          1
   123          8
   124          3
   125         14
   126          3
   127          1
   129         65
   130         16
   131          2
   135          7
   136          1
   137          5
   138          1
   139          6
   140          3
   141          1
   143        165
   144         17
   145          1
   149          7
   150          1
   151          2
   153          4
   154          1
   157         39
   158          4
   159          1
   166          2
   167          4
   168          2
   169          1
   171         13
   172          2
   177          7
   178          1
   185         30
   186          5
   187          3
   191          1
   192          1
   193          2
   195          4
   196          1
   199        219
   200         31
   201          5
   209          2
   211         25
   212          4
   213         19
   214          2
   215          1
   227          2
   228          1
   241          1
   242         28
   243          6
   244          1