##TITLE=Library Entry 44518
##JCAMP-DX=Revision 4.10 
##DATA TYPE=MASS SPECTRUM
##SAMPLE DESCRIPTION=R.T.HOLMAN,UNIVERSITY OF MINNESOTA
##NAMES=HP
##CAS NAME=Tetradecanoic acid, 12-methyl-, methyl ester
##MOLFORM=C16H32O2
##CAS REGISTRY NO=5129-66-8
##MP= -300
##BP= -300
##MW= 256
##$RETENTION INDEX=1788
##$CONDENSED SPECTRUM=NO
##NPOINTS= 185
##XYDATA=(XY..XY) 1 
    26         10
    27        192
    28        103
    29        576
    30         15
    31         20
    32          2
    38          3
    39        158
    40         34
    41        881
    42        180
    43        689
    44         31
    45         38
    46          1
    47          1
    48          1
    49          1
    50          3
    51          7
    52          6
    53         73
    54         54
    55        745
    56        186
    57        553
    58         32
    59        242
    60         12
    61          5
    62          1
    63          2
    65         12
    66          6
    67         90
    68         35
    69        355
    70         79
    71        107
    72          9
    73         49
    74        999
    75        169
    76         10
    77         11
    78          4
    79         24
    80          7
    81         67
    82         20
    83        197
    84         52
    85         51
    86          5
    87        734
    88         73
    89          7
    90          1
    91          7
    92          2
    93         19
    94          5
    95         49
    96         18
    97        158
    98         45
    99         16
   100          6
   101         67
   102          8
   103          3
   104          2
   105          7
   106          2
   107         16
   108          4
   109         26
   110         10
   111         79
   112         13
   113         10
   114          3
   115         40
   116         11
   117          2
   118          1
   119          2
   120          1
   121         22
   122          5
   123         13
   124          6
   125         33
   126          6
   127          3
   128          2
   129         62
   130         16
   131          2
   132          1
   133          2
   134          1
   135         19
   136          3
   137          7
   138          3
   139         16
   140          3
   141          3
   142          2
   143        129
   144         14
   145          2
   146          1
   147          1
   148          1
   149          9
   150          2
   151          3
   152          3
   153         14
   154          6
   155          6
   157         24
   158          4
   159          1
   161          2
   162          2
   163          2
   164          1
   165          2
   166          1
   167          8
   168          3
   169          2
   170          1
   171         19
   172          4
   173          1
   177         28
   178          6
   179          1
   180          2
   181          2
   182          2
   183          2
   185         18
   186          5
   187          1
   191          5
   192          1
   193          1
   194          2
   195         23
   196          4
   197          2
   199         84
   200         16
   201         12
   202          2
   203          1
   205          1
   206          1
   207          2
   208          1
   209          4
   210          1
   211          1
   213         65
   214         11
   215          1
   223          2
   224          2
   225         28
   226          6
   227         28
   228          4
   229          1
   239          1
   241          3
   242          1
   256         73
   257         14
   258          1