##TITLE=Library Entry 44779
##JCAMP-DX=Revision 4.10 
##DATA TYPE=MASS SPECTRUM
##SAMPLE DESCRIPTION=R.T.HOLMAN,UNIVERSITY OF MINNESOTA
##NAMES=HP
##CAS NAME=Undecanoic acid, 10-methyl-, methyl ester
##MOLFORM=C13H26O2
##CAS REGISTRY NO=5129-56-6
##MP= -300
##BP= -300
##MW= 214
##$RETENTION INDEX=1471
##$CONDENSED SPECTRUM=NO
##NPOINTS= 91
##XYDATA=(XY..XY) 1 
    27         58
    28         23
    29         85
    31          6
    39         70
    40         15
    41        330
    42         73
    43        330
    44         13
    45         17
    51          7
    52          5
    53         32
    54         22
    55        310
    56         58
    57        460
    58          8
    59        140
    60          5
    65         11
    66          5
    67         39
    68         16
    69        170
    70         23
    71         35
    73         25
    74        999
    75        130
    76          8
    77         14
    78         10
    79         26
    80         11
    81         31
    82         23
    83         92
    84         33
    85         24
    87        630
    88         53
    89          6
    91         37
    92         19
    93         21
    94          6
    95         25
    96         10
    97         63
    98         27
    99          6
   101         54
   102          7
   103          5
   105         30
   106         16
   107         11
   108          5
   109         18
   111         20
   112          7
   115         25
   116         10
   117          8
   119         18
   121         10
   123          5
   125         13
   129         63
   130         12
   131          6
   133         10
   134         13
   139         10
   140          7
   143        160
   144         14
   149         17
   157         18
   167         12
   171        120
   172         14
   173          5
   183         60
   184          8
   185         22
   199          7
   214        120
   215         19