##TITLE=Library Entry 44743
##JCAMP-DX=Revision 4.10 
##DATA TYPE=MASS SPECTRUM
##SAMPLE DESCRIPTION=Chemical Concepts
##NAMES=HP
##CAS NAME=Pentadecanoic acid, 14-methyl-, methyl ester
##MOLFORM=C17H34O2
##CAS REGISTRY NO=5129-60-2
##MP= -300
##BP= -300
##MW= 270
##$RETENTION INDEX=1883
##$CONDENSED SPECTRUM=NO
##NPOINTS= 116
##XYDATA=(XY..XY) 1 
    25          4
    26          4
    27         58
    28          8
    29        130
    30          5
    31         10
    33          1
    34          1
    36          0
    38          3
    39         36
    41        254
    42         76
    43        460
    44          9
    45         14
    46          0
    47          0
    48          2
    49          1
    50          2
    51          0
    52          1
    53         16
    54         30
    55        226
    56         66
    57        157
    58         15
    59         75
    60          4
    61          2
    62          1
    64          1
    65          3
    66          5
    67         28
    68         17
    69        132
    70         24
    71         58
    72          4
    73          8
    74        999
    75        195
    76         14
    77          1
    79          5
    80          5
    81         24
    82         15
    83         81
    84         32
    85         30
    86          3
    87        578
    88         52
    89          3
    90          1
    91          1
    92          2
    93          4
    94          3
    95         16
    96          9
    97         57
    98         26
    99          9
   100          5
   101         41
   102          5
   103          0
   105          1
   106          0
   107          4
   108          1
   109         10
   110          4
   111         20
   112          4
   113          4
   114          3
   115         14
   116          7
   117          2
   118          1
   119          0
   128          4
   129         41
   130          8
   141          2
   143         86
   144         12
   145          1
   146          1
   147          1
   157          8
   158          1
   171         20
   172          1
   185         26
   186          3
   199         20
   200          4
   213          9
   214          1
   227         35
   228          6
   229          0
   239          7
   240          3
   241          6
   242          1
   270         31
   271          6