##TITLE=Library Entry 25932
##JCAMP-DX=Revision 4.10 
##DATA TYPE=MASS SPECTRUM
##SAMPLE DESCRIPTION=V.Zaikin,Topchiev Inst.Petrochem.Synth.,Moscow
##NAMES=HP
##CAS NAME=Pivalic acid, 2-methylpropyl ester
##MOLFORM=C9H18O2
##CAS REGISTRY NO=5129-38-4
##MP= -300
##BP= -300
##MW= 158
##$RETENTION INDEX=932
##$CONDENSED SPECTRUM=NO
##NPOINTS= 58
##XYDATA=(XY..XY) 1 
    22          2
    25          2
    26         19
    27         30
    28         11
    29         81
    30          2
    31          4
    35          8
    36         59
    37          4
    38         18
    39         61
    40         18
    41        207
    42         25
    43         22
    44          2
    45          3
    49          6
    50         33
    51         48
    52        104
    53         18
    54          3
    55         26
    56        247
    57        999
    58         52
    59         30
    60          1
    69          7
    70         13
    71         22
    72          3
    73         10
    75          4
    76          3
    77          2
    78         25
    79        193
    80         12
    82          1
    83          1
    85        377
    86         24
    87         38
    88          2
    96          2
   101          3
   102          5
   103        336
   104         23
   105          2
   115         28
   116          2
   133          1
   143          3