##TITLE=Library Entry 10527
##JCAMP-DX=Revision 4.10 
##DATA TYPE=MASS SPECTRUM
##SAMPLE DESCRIPTION=Chemical Concepts
##NAMES=HP
##CAS NAME=3-Undecene-2,5,10-trione, 6,6-dimethyl-
##MOLFORM=C13H20O3
##CAS REGISTRY NO=51298-67-0
##MP= -300
##BP= -300
##MW= 224
##$RETENTION INDEX=0
##$CONDENSED SPECTRUM=NO
##NPOINTS= 170
##XYDATA=(XY..XY) 1 
    26         12
    27         52
    28         11
    29         36
    30          1
    31          5
    37          1
    38          3
    39         75
    40         17
    41        282
    42         26
    43        999
    44         22
    45         11
    46          0
    47          0
    49          0
    50          4
    51         13
    52          6
    53         36
    54         20
    55         80
    56         42
    57         15
    58         15
    59         19
    60          1
    61          0
    62          1
    63          6
    64          2
    65         17
    66          5
    67         37
    68         10
    69        667
    70         80
    71        125
    72          6
    73          1
    74          1
    75          1
    76          0
    77         23
    78          5
    79         19
    80          4
    81         18
    82         12
    83         15
    84          4
    85         11
    86          1
    87          1
    88          0
    89          1
    90          0
    91         24
    92          5
    93         19
    94          3
    95         17
    96          7
    97         65
    98        759
    99         46
   100          5
   101          2
   102          0
   103          3
   104          1
   105         13
   106          4
   107         19
   108         16
   109        422
   110         38
   111         17
   112          5
   113          4
   114          0
   115          3
   116          1
   117          3
   118          0
   119         10
   120          3
   121         36
   122         20
   123         19
   124          3
   125         50
   126          5
   127        160
   128         15
   129          2
   130          1
   131          3
   132          1
   133          6
   134          1
   135         21
   136         17
   137          7
   138          2
   139         15
   140         62
   141         10
   142          1
   143          0
   144          0
   145          6
   146          1
   147          4
   148          6
   149         23
   150         20
   151          7
   152          2
   153          4
   154          1
   155          3
   157          0
   158          0
   159          0
   160          0
   161          1
   162          0
   163         77
   164         23
   165          6
   166          3
   167          5
   168          2
   169          0
   173          1
   175          0
   176          0
   177          3
   178         10
   179          3
   180          1
   181          6
   182          2
   183          1
   184          0
   185          0
   189          1
   191         10
   192          1
   193          1
   194          0
   195          4
   196         10
   197          2
   198          0
   204          0
   205          0
   206         38
   207          7
   208          1
   209          0
   210          0
   222          0
   223          0
   224          2
   225          1
   226          0