##TITLE=Library Entry 9043
##JCAMP-DX=Revision 4.10 
##DATA TYPE=MASS SPECTRUM
##SAMPLE DESCRIPTION=NIST Mass Spectrometry Data Center, 1990.
##NAMES=HP
##CAS NAME=Propyl 2-ethylbutanoate
##MOLFORM=C9H18O2
##CAS REGISTRY NO=5129-46-4
##MP= -300
##BP= -300
##MW= 158
##$RETENTION INDEX=1005
##$CONDENSED SPECTRUM=NO
##NPOINTS= 42
##XYDATA=(XY..XY) 1 
    26         22
    27        203
    28         34
    29        170
    30         11
    31         24
    39        181
    40         43
    41        428
    42        157
    43        999
    44         35
    45         36
    47         11
    53         31
    55        302
    56         22
    57         94
    58          9
    59         43
    68          9
    69         68
    70        139
    71        813
    72         57
    73        208
    74         14
    75         13
    83         16
    85          7
    87        288
    88        383
    89        166
    99        624
   100         44
   101         56
   115         17
   117        720
   118         46
   129         42
   130        184
   131         15