##TITLE=Library Entry 15931
##JCAMP-DX=Revision 4.10 
##DATA TYPE=MASS SPECTRUM
##SAMPLE DESCRIPTION=NIST Mass Spectrometry Data Center
##NAMES=HP
##CAS NAME=N-Methoxymethyl-N-methylformamide
##MOLFORM=C4H9NO2
##CAS REGISTRY NO=5129-79-3
##MP= -300
##BP= -300
##MW= 103
##$RETENTION INDEX=913
##$CONDENSED SPECTRUM=NO
##NPOINTS= 33
##XYDATA=(XY..XY) 1 
    15          4
    18         18
    27         21
    28        209
    29        225
    30        106
    31          8
    32         15
    33         20
    40         20
    41         33
    42        669
    43        169
    44        999
    45        916
    46         29
    56         17
    58         22
    60         66
    61          8
    65          8
    71         15
    72        722
    73        284
    74         20
    75         16
    78          7
    88        984
    89         19
    90          5
   102          7
   103         40
   104         13