##TITLE=Library Entry 44721
##JCAMP-DX=Revision 4.10 
##DATA TYPE=MASS SPECTRUM
##SAMPLE DESCRIPTION=R.T.HOLMAN,UNIVERSITY OF MINNESOTA
##NAMES=HP
##CAS NAME=Dodecanoic acid, 10-methyl-, methyl ester
##MOLFORM=C14H28O2
##CAS REGISTRY NO=5129-65-7
##MP= -300
##BP= -300
##MW= 228
##$RETENTION INDEX=1580
##$CONDENSED SPECTRUM=NO
##NPOINTS= 103
##XYDATA=(XY..XY) 1 
    26         10
    27        100
    28         30
    29        240
    30         10
    31         10
    39        100
    40         20
    41        490
    42         90
    43        300
    44         10
    45         20
    51         10
    53         40
    54         30
    55        380
    56        110
    57        270
    58         10
    59        140
    60         10
    65         10
    67         50
    68         30
    69        250
    70         50
    71         70
    72         10
    73         40
    74        999
    75        170
    76         10
    77         10
    79         20
    80         10
    81         50
    82         20
    83        190
    84         50
    85         40
    87        700
    88         70
    89         10
    91         10
    93         20
    94         10
    95         40
    96         30
    97        130
    98         40
    99         10
   100         10
   101         70
   102         10
   107         20
   108         10
   109         20
   110         10
   111         40
   112         10
   113         10
   114         10
   115         40
   116         20
   119         10
   121         10
   123         20
   124         10
   125         30
   126         10
   129         80
   130         20
   139         20
   140         10
   143        210
   144         20
   149         50
   150         10
   154         10
   157         20
   158         10
   163         10
   167         40
   168         10
   171         30
   172         10
   173         20
   177         10
   179         10
   181         10
   185        120
   186         20
   195         10
   197         70
   198         10
   199         70
   200         10
   213         10
   214         10
   228        170
   229         60
   230         10