##TITLE=Library Entry 5609
##JCAMP-DX=Revision 4.10 
##DATA TYPE=MASS SPECTRUM
##SAMPLE DESCRIPTION=AIR PRODUCTS & CHEMICALS, INC BOX 538, ALLENTOWN, PA 18
105, D M PAREES
##NAMES=HP
##CAS NAME=N-propyl-butyramide
##MOLFORM=C7H15NO
##CAS REGISTRY NO=5129-73-7
##MP= -300
##BP= -300
##MW= 129
##$RETENTION INDEX=1127
##$CONDENSED SPECTRUM=NO
##NPOINTS= 28
##XYDATA=(XY..XY) 1 
    30        695
    31         15
    39        161
    40         31
    41        396
    42        128
    43        999
    44        268
    54         25
    55         70
    56         32
    57         20
    58         82
    59         73
    60         52
    69         12
    71        478
    72        109
    73        110
    86        193
    88         47
   100         86
   101        331
   102         18
   114         90
   128          7
   129         67
   130          9