##TITLE=Library Entry 44767
##JCAMP-DX=Revision 4.10 
##DATA TYPE=MASS SPECTRUM
##SAMPLE DESCRIPTION=NIST Mass Spectrometry Data Center
##NAMES=HP
##CAS NAME=Methyl 6-methyloctanoate
##MOLFORM=C10H20O2
##CAS REGISTRY NO=5129-62-4
##MP= -300
##BP= -300
##MW= 172
##$RETENTION INDEX=1193
##$CONDENSED SPECTRUM=NO
##NPOINTS= 102
##XYDATA=(XY..XY) 1 
    15         22
    26          5
    27         80
    28         31
    29        170
    30          6
    31         11
    33          3
    37          1
    38          3
    39        117
    40         23
    41        437
    42         85
    43        286
    44         12
    45         32
    46          1
    47          1
    48          1
    49          1
    50          4
    51         10
    52          5
    53         51
    54         23
    55        641
    56        130
    57        288
    58         15
    59        235
    60          8
    61          3
    62          1
    63          2
    65          7
    66          3
    67         47
    68         26
    69        204
    70         29
    71         29
    72          4
    73         58
    74        999
    75         82
    76          7
    77          6
    78          1
    79         12
    80          2
    81         66
    82         15
    83        348
    84         53
    85         14
    87        676
    88         66
    89          6
    91          3
    92          1
    93          9
    94          7
    95          9
    96        312
    97         86
    98         25
    99         19
   100          3
   101         57
   102         11
   103          1
   107          6
   108          1
   109          2
   110          6
   111        126
   112         41
   113          5
   115        158
   116         19
   117         13
   118          1
   121          2
   122         56
   123        128
   124         13
   125         26
   126          2
   129         13
   130          1
   139          6
   140         15
   141         47
   142          5
   143         58
   144          5
   154          1
   157          3
   171          1
   172          1
   173          1