##TITLE=Library Entry 44788
##JCAMP-DX=Revision 4.10 
##DATA TYPE=MASS SPECTRUM
##SAMPLE DESCRIPTION=R. RYHAGE KAROLINSKA INSTITUTET, STOCKHOLM
##NAMES=HP
##CAS NAME=Heptadecanoic acid, 16-methyl-, methyl ester
##MOLFORM=C19H38O2
##CAS REGISTRY NO=5129-61-3
##MP= -300
##BP= -300
##MW= 298
##$RETENTION INDEX=2077
##$CONDENSED SPECTRUM=NO
##NPOINTS= 165
##XYDATA=(XY..XY) 1 
    15          4
    17         10
    18         34
    26          2
    27         13
    28          9
    29         28
    31          3
    39         13
    40          4
    41        100
    42         26
    43        200
    44         49
    45          7
    53          8
    54         14
    55        170
    56         62
    57        180
    58         14
    59         52
    60          9
    61          6
    64          3
    65          3
    66          2
    67         35
    68         21
    69        170
    70         43
    71         98
    72          8
    73         27
    74        999
    75        230
    76         14
    77          7
    78          2
    79         11
    80          5
    81         44
    82         21
    83        140
    84         49
    85         61
    86          5
    87        760
    88         75
    89          8
    93         10
    94          5
    95         34
    96         19
    97        110
    98         44
    99         19
   100         10
   101         75
   102         10
   103          2
   106          2
   107         10
   108          3
   109         25
   110         10
   111         54
   112         17
   113         12
   114          4
   115         27
   116         12
   117          3
   120          2
   121         14
   122          5
   123         15
   124          6
   125         26
   126          7
   127          6
   128          2
   129         65
   130         17
   131          3
   135         13
   136          3
   137          9
   138          4
   139         15
   140          4
   141          4
   143        150
   144         17
   145          3
   151          5
   152          3
   153         10
   154          3
   155          3
   157         22
   158          4
   163          6
   164          2
   165          3
   166          3
   167         10
   168          3
   169          2
   171         11
   172          3
   177          4
   179          2
   180          2
   181          5
   182          2
   183          2
   185         23
   186          6
   191          3
   193          2
   195          3
   196          2
   197          2
   198          3
   199         36
   200          8
   201          4
   202          9
   207          3
   209          3
   213         18
   214          4
   222          3
   223          4
   224          4
   225          2
   227          7
   228          2
   233          3
   237          2
   241         13
   242          5
   243          4
   249          5
   250          2
   251          5
   255         80
   256         17
   257          3
   264          2
   265          3
   266          2
   267         20
   268          2
   269         14
   270          3
   279          2
   283          2
   284          2
   285          2
   297          2
   298        150
   299         33
   300          4