##TITLE=Library Entry 18967
##JCAMP-DX=Revision 4.10 
##DATA TYPE=MASS SPECTRUM
##SAMPLE DESCRIPTION=Japan AIST/NIMC Database- Spectrum MS-NW-4318
##NAMES=HP
##CAS NAME=1-Propene, 1-chloro-2-methyl-
##MOLFORM=C4H7Cl
##CAS REGISTRY NO=513-37-1
##MP= -300
##BP= -300
##MW= 90
##$RETENTION INDEX=601
##$CONDENSED SPECTRUM=NO
##NPOINTS= 59
##XYDATA=(XY..XY) 1 
    12          1
    13          2
    14          4
    15         16
    24          1
    25          4
    26         35
    27        232
    28         43
    29        198
    30          5
    31          1
    35          3
    36          8
    37         35
    38         55
    39        486
    40         33
    41        166
    42         12
    43          9
    44          4
    45          2
    47          9
    48          9
    49         48
    50         53
    51         61
    52         22
    53        286
    54        208
    55        999
    56         44
    57          4
    58          1
    59          3
    60          4
    61         14
    62         71
    63         17
    64         21
    65          4
    71          2
    72          3
    73         17
    74          7
    75        158
    76          8
    77         64
    78          2
    79          7
    85          1
    87          2
    88          2
    89         19
    90        412
    91         25
    92        131
    93          7