##TITLE=Library Entry 16681
##JCAMP-DX=Revision 4.10 
##DATA TYPE=MASS SPECTRUM
##SAMPLE DESCRIPTION=NIST Mass Spectrometry Data Center, 1998.
##NAMES=HP
##CAS NAME=2-(Ethylsulfonyl)ethanol
##MOLFORM=C4H10O3S
##CAS REGISTRY NO=513-12-2
##MP= -300
##BP= -300
##MW= 138
##$RETENTION INDEX=0
##$CONDENSED SPECTRUM=NO
##NPOINTS= 69
##XYDATA=(XY..XY) 1 
    14          3
    15         15
    16          1
    18          1
    25          1
    26         36
    27        256
    28        123
    29        350
    30          9
    31         74
    32          3
    33          3
    34          2
    35          1
    39          3
    40          2
    41         23
    42         28
    43        148
    44         44
    45        999
    46        178
    47         29
    48         37
    49         12
    50         12
    51          1
    55          5
    56          7
    57          4
    58          6
    59         11
    60          2
    61          3
    62          7
    63         65
    64         11
    65         67
    66        131
    67         18
    68          6
    74          1
    75          5
    76          7
    77         27
    78          6
    79          2
    80        114
    81          4
    82          6
    83          8
    91          2
    92          5
    93         14
    94         25
    95        223
    96          8
    97         10
   107          1
   108         26
   109         20
   110         12
   111         25
   112          1
   113          1
   121          1
   137          4
   139          2