##TITLE=Library Entry 72545
##JCAMP-DX=Revision 4.10 
##DATA TYPE=MASS SPECTRUM
##SAMPLE DESCRIPTION=NIST Mass Spectrometry Data Center, 2009
##NAMES=HP
##CAS NAME=Tripropyl phosphate
##MOLFORM=C9H21O4P
##CAS REGISTRY NO=513-08-6
##MP= -300
##BP= -300
##MW= 224
##$RETENTION INDEX=1379
##$CONDENSED SPECTRUM=NO
##NPOINTS= 80
##XYDATA=(XY..XY) 1 
    15          1
    26          2
    27         38
    28          7
    29         21
    30          2
    31         10
    37          1
    38          2
    39         27
    40          6
    41        112
    42         30
    43        206
    44          9
    45          5
    47          4
    54          2
    55          4
    56          1
    57         10
    58          4
    59         12
    61          1
    63          1
    65         12
    71          1
    73          1
    77          2
    79          1
    81         25
    82         34
    83         16
    91          1
    93          4
    94          1
    95          3
    96          3
    97          1
    98         33
    99        999
   100          2
   101          9
   105         10
   106          1
   107          3
   108          1
   109          2
   111         76
   112         27
   113         34
   114          1
   121          1
   123        162
   124          7
   125         95
   126          2
   127          1
   137          2
   138          3
   139         40
   140         42
   141        295
   142         10
   143          2
   151          1
   153         64
   154          3
   155          7
   165          3
   167          6
   181          3
   182          7
   183        104
   184          7
   185          1
   195          4
   209          2
   223          1
   224          2