##TITLE=Library Entry 72471
##JCAMP-DX=Revision 4.10 
##DATA TYPE=MASS SPECTRUM
##SAMPLE DESCRIPTION=Chemical Concepts
##NAMES=HP
##CAS NAME=Triisopropylphosphate
##MOLFORM=C9H21O4P
##CAS REGISTRY NO=513-02-0
##MP= -300
##BP= -300
##MW= 224
##$RETENTION INDEX=1180
##$CONDENSED SPECTRUM=NO
##NPOINTS= 101
##XYDATA=(XY..XY) 1 
    25          0
    26          6
    27         87
    28          2
    29          6
    30          0
    31         16
    36          0
    37          5
    38         10
    39         70
    40         20
    41        183
    42         74
    43        354
    44         16
    45        153
    46          3
    47          4
    48          0
    49          0
    51          0
    53          1
    54          0
    55          1
    56          0
    57          3
    58          8
    59         69
    60          2
    61          0
    62          0
    63          0
    65          8
    66          0
    67          1
    68          2
    69          3
    70          0
    71          2
    77          0
    78          0
    79          1
    80          0
    81         39
    82         12
    83          3
    85          1
    87          4
    88          0
    89          0
    91          0
    92          0
    93          1
    94          0
    95          1
    96          1
    97          0
    99        999
   100          2
   101          8
   103          0
   105          3
   106          0
   107          3
   108          1
   109          1
   113          0
   117          0
   120          0
   121          0
   122          1
   123         76
   124          8
   125        682
   126         16
   127          8
   134          0
   135          0
   137          0
   138          1
   139         48
   140         70
   141        160
   142          6
   143          1
   151          0
   165          0
   166          0
   167         67
   168          4
   169          0
   181          5
   182          3
   183         31
   184          2
   185          0
   209         13
   210          1
   223          0
   225          0