##TITLE=Library Entry 23595
##JCAMP-DX=Revision 4.10 
##DATA TYPE=MASS SPECTRUM
##SAMPLE DESCRIPTION=Japan AIST/NIMC Database- Spectrum MS-NW-3790
##NAMES=HP
##CAS NAME=2-Butanethiol
##MOLFORM=C4H10S
##CAS REGISTRY NO=513-53-1
##MP= -300
##BP= -300
##MW= 90
##$RETENTION INDEX=675
##$CONDENSED SPECTRUM=NO
##NPOINTS= 57
##XYDATA=(XY..XY) 1 
    14          2
    15         18
    25          2
    26         35
    27        274
    28         68
    29        709
    30         15
    32          7
    33         15
    34         16
    35         95
    36          2
    37         10
    38         17
    39        179
    40         24
    41        962
    42         64
    43         40
    44         11
    45         80
    46         18
    47        135
    48          8
    49         12
    50         18
    51         17
    52          5
    53         28
    54          8
    55        124
    56        209
    57        999
    58         46
    59         78
    60        124
    61        794
    62         33
    63         36
    64          1
    68          1
    69          6
    70          1
    71          8
    72          1
    73          8
    74          5
    75         54
    76          4
    77          2
    88          2
    89          5
    90        750
    91         40
    92         34
    93          2