##TITLE=Library Entry 2457
##JCAMP-DX=Revision 4.10 
##DATA TYPE=MASS SPECTRUM
##SAMPLE DESCRIPTION=Japan AIST/NIMC Database- Spectrum MS-NW-3789
##NAMES=HP
##CAS NAME=1-Propanethiol, 2-methyl-
##MOLFORM=C4H10S
##CAS REGISTRY NO=513-44-0
##MP= -300
##BP= -300
##MW= 90
##$RETENTION INDEX=686
##$CONDENSED SPECTRUM=NO
##NPOINTS= 58
##XYDATA=(XY..XY) 1 
    14          4
    15         25
    16          1
    25          1
    26         15
    27        273
    28         46
    29        240
    30          6
    32         18
    33          9
    34          9
    35          8
    36          1
    37         12
    38         26
    39        220
    40         39
    41        999
    42        124
    43        878
    44         30
    45        111
    46        120
    47        375
    48        338
    49        103
    50         23
    51         11
    52          3
    53         19
    54          8
    55        110
    56        710
    57        360
    58         16
    59         23
    60          6
    61         21
    62          1
    68          2
    69          8
    70          1
    71         11
    72          2
    73          9
    74          9
    75         68
    76         11
    77          4
    85          1
    87          3
    88          2
    89          9
    90        644
    91         35
    92         28
    93          1