##TITLE=Library Entry 32905
##JCAMP-DX=Revision 4.10 
##DATA TYPE=MASS SPECTRUM
##SAMPLE DESCRIPTION=Japan AIST/NIMC Database- Spectrum MS-NW-4073
##NAMES=HP
##CAS NAME=1,3-Butadiene, 2,3-dimethyl-
##MOLFORM=C6H10
##CAS REGISTRY NO=513-81-5
##MP= -300
##BP= -300
##MW= 82
##$RETENTION INDEX=611
##$CONDENSED SPECTRUM=NO
##NPOINTS= 44
##XYDATA=(XY..XY) 1 
    14          2
    15         17
    26         11
    27        108
    28         19
    29         27
    31          2
    36          2
    37         25
    38         55
    39        568
    40        120
    41        582
    42        109
    43         44
    44          1
    49          8
    50         40
    51         62
    52         34
    53        171
    54        318
    55         58
    56         21
    57          2
    60          2
    61          9
    62         13
    63         24
    64          5
    65        126
    66         35
    67        999
    68         57
    69         12
    70          3
    77         22
    78          5
    79         60
    80          9
    81        126
    82        700
    83         50
    84          3