##TITLE=Library Entry 15094
##JCAMP-DX=Revision 4.10 
##DATA TYPE=MASS SPECTRUM
##SAMPLE DESCRIPTION=Chuck Anderson, Aldrich Chemical Co.
##NAMES=HP
##CAS NAME=2-Butanamine, (S)-
##MOLFORM=C4H11N
##CAS REGISTRY NO=513-49-5
##MP= -300
##BP= -300
##MW= 73
##$RETENTION INDEX=0
##$CONDENSED SPECTRUM=NO
##NPOINTS= 44
##XYDATA=(XY..XY) 1 
    14          2
    15         28
    16          0
    17          2
    18        147
    19          0
    25          1
    26         18
    27         95
    28        109
    29         54
    30         89
    31          1
    32          1
    33          0
    36          0
    37          2
    38          6
    39         38
    40         14
    41        145
    42        108
    43         45
    44        999
    45         32
    46          0
    49          0
    50          3
    51          4
    52          4
    53          6
    54          9
    55         34
    56         35
    57         22
    58        147
    59          5
    68          0
    70          7
    71          1
    72         40
    73         16
    74         12
    75          0