##TITLE=Library Entry 1890
##JCAMP-DX=Revision 4.10 
##DATA TYPE=MASS SPECTRUM
##SAMPLE DESCRIPTION=Japan AIST/NIMC Database- Spectrum MS-NW-2725
##NAMES=HP
##CAS NAME=1-Propene, 2,3-dibromo-
##MOLFORM=C3H4Br2
##CAS REGISTRY NO=513-31-5
##MP= -300
##BP= -300
##MW= 198
##$RETENTION INDEX=852
##$CONDENSED SPECTRUM=NO
##NPOINTS= 74
##XYDATA=(XY..XY) 1 
    12          2
    13          2
    14          6
    15          2
    24          2
    25          9
    26         22
    27         11
    28          1
    29          1
    31          1
    36         10
    37         76
    38        148
    39        999
    40        138
    41          8
    42          7
    43          2
    44          2
    50          2
    51          4
    52          1
    53          3
    55          1
    57          4
    65          2
    66          1
    67          1
    75          1
    77         11
    78          9
    79         48
    80         15
    81         49
    82         15
    91          5
    92          3
    93         81
    94          5
    95         74
    96          1
    99          1
   100          2
   101          1
   104          4
   105          9
   106          4
   107         10
   116          1
   117         12
   118          5
   119        884
   120         32
   121        860
   122         29
   123          9
   125          1
   157         10
   158          3
   159         11
   160          4
   161          1
   162          2
   171          2
   173          4
   175          2
   197          3
   198        195
   199         10
   200        382
   201         14
   202        188
   203          6