##TITLE=Library Entry 50555
##JCAMP-DX=Revision 4.10 
##DATA TYPE=MASS SPECTRUM
##SAMPLE DESCRIPTION=NIST Mass Spectrometry Data Center, 2010
##NAMES=HP
##CAS NAME=Bicyclo[3.1.0]hexan-2-one, 5-(1-methylethyl)-
##MOLFORM=C9H14O
##CAS REGISTRY NO=513-20-2
##MP= -300
##BP= -300
##MW= 138
##$RETENTION INDEX=1156
##$CONDENSED SPECTRUM=NO
##NPOINTS= 59
##XYDATA=(XY..XY) 1 
    26          5
    27         96
    29         22
    31          5
    37          5
    38         27
    39        234
    40         47
    41        311
    42         46
    43        169
    44          8
    46          4
    47          5
    50         36
    51         70
    52         38
    53        153
    54         81
    55        425
    56         56
    57         13
    61          9
    62         13
    63         35
    64          7
    65        107
    66         73
    67        538
    68        197
    69         96
    70        100
    72          5
    77         93
    78         27
    79        217
    80         31
    81        999
    82        197
    83        128
    84         10
    91         35
    92         23
    94        107
    95        586
    96        649
    97        192
    98          7
   103          4
   104          3
   105         48
   109        100
   110         74
   113          3
   120         54
   123        174
   124         19
   138        116
   139          6