##TITLE=Library Entry 23107
##JCAMP-DX=Revision 4.10 
##DATA TYPE=MASS SPECTRUM
##SAMPLE DESCRIPTION=Japan AIST/NIMC Database- Spectrum MS-NW-8320
##NAMES=HP
##CAS NAME=Butane, 2-iodo-
##MOLFORM=C4H9I
##CAS REGISTRY NO=513-48-4
##MP= -300
##BP= -300
##MW= 184
##$RETENTION INDEX=777
##$CONDENSED SPECTRUM=NO
##NPOINTS= 29
##XYDATA=(XY..XY) 1 
    14          1
    15          6
    26         15
    27        126
    28         38
    29        538
    30         11
    37          3
    38          7
    39        110
    40         12
    41        467
    42         33
    43          9
    51          7
    52          2
    53         13
    54          4
    55         43
    56         19
    57        999
    58         44
    59          1
   127         38
   128         15
   141          1
   155          5
   184        112
   185          5