##TITLE=Library Entry 5466
##JCAMP-DX=Revision 4.10 
##DATA TYPE=MASS SPECTRUM
##SAMPLE DESCRIPTION=Japan AIST/NIMC Database- Spectrum MS-IW-6297
##NAMES=HP
##CAS NAME=2-Propanone, 1,1-dichloro-
##MOLFORM=C3H4Cl2O
##CAS REGISTRY NO=513-88-2
##MP= -300
##BP= -300
##MW= 126
##$RETENTION INDEX=707
##$CONDENSED SPECTRUM=NO
##NPOINTS= 54
##XYDATA=(XY..XY) 1 
    12          1
    13          3
    14          9
    15        120
    16          1
    24          1
    25          6
    26         21
    27         83
    28          9
    29          8
    35          5
    36         10
    37          9
    38          9
    39          7
    40          1
    41          8
    42         31
    43        999
    44         34
    45          4
    47         15
    48         27
    49         17
    50          9
    51          4
    53          2
    55          2
    60          4
    61          8
    62          9
    63         57
    64          3
    65         17
    73          1
    75          1
    76         17
    77          3
    78          6
    79          1
    82          3
    83         59
    84          3
    85         38
    87          6
    91         31
    92          2
    93          9
    97          1
   125          2
   126          5
   127          2
   128          3