##TITLE=Library Entry 7160
##JCAMP-DX=Revision 4.10 
##DATA TYPE=MASS SPECTRUM
##SAMPLE DESCRIPTION=RESEARCH LABORATORY, STATE ALCOHOL MONOPOLY ALKO, HELSI
NKI, FINLAND; IRMA NYKANEN ET AL
##NAMES=HP
##CAS NAME=Bicyclo[3.1.0]hexan-3-ol, 4-methyl-1-(1-methylethyl)-
##MOLFORM=C10H18O
##CAS REGISTRY NO=513-23-5
##MP= -300
##BP= -300
##MW= 154
##$RETENTION INDEX=1168
##$CONDENSED SPECTRUM=NO
##NPOINTS= 82
##XYDATA=(XY..XY) 1 
    26         13
    27        268
    28        101
    29        268
    30         13
    31         41
    37          3
    38         13
    39        300
    40         51
    41        882
    42         93
    43        999
    44         37
    45         65
    50         13
    51         62
    52         31
    53        220
    54         75
    55        889
    56        103
    57        151
    58        158
    59         27
    61          3
    62          3
    63         17
    64          3
    65         86
    66         37
    67        534
    68        268
    69        365
    70        265
    71        165
    72         20
    77        200
    78         34
    79        500
    80         96
    81        675
    82        110
    83        148
    84         55
    85         20
    89          6
    91        186
    92        200
    93        834
    94        155
    95        755
    96        113
    97         82
    98         17
    99         27
   103          6
   105         48
   106         27
   107        206
   108         34
   109         86
   110        320
   111         93
   112         17
   113          3
   115          3
   117          3
   119         31
   121        368
   122         41
   123          3
   124          3
   125          3
   134          6
   135          6
   136        110
   137         17
   138          3
   139          3
   154          6
   155          0