##TITLE=Library Entry 23281
##JCAMP-DX=Revision 4.10 
##DATA TYPE=MASS SPECTRUM
##SAMPLE DESCRIPTION=NIST Mass Spectrometry Data Center, 1992
##NAMES=HP
##CAS NAME=Propane, 1-iodo-2-methyl-
##MOLFORM=C4H9I
##CAS REGISTRY NO=513-38-2
##MP= -300
##BP= -300
##MW= 184
##$RETENTION INDEX=768
##$CONDENSED SPECTRUM=NO
##NPOINTS= 50
##XYDATA=(XY..XY) 1 
    12          2
    13          5
    14         23
    15         88
    16          2
    24          0
    26         55
    27        274
    28         60
    29        642
    30         14
    37         32
    38         83
    39        447
    40        105
    41        886
    42         93
    43         34
    44          0
    48          0
    49          7
    50         24
    51         20
    52          5
    53         23
    54          0
    55         66
    56          0
    57        999
    58         42
    59          0
    64          0
    71          0
   127        152
   128         24
   129          0
   139          4
   140          6
   141         28
   142          6
   151          0
   152          1
   153          1
   154          0
   165          0
   167          0
   169         14
   170          0
   184        162
   185          8