##TITLE=Library Entry 7246
##JCAMP-DX=Revision 4.10 
##DATA TYPE=MASS SPECTRUM
##SAMPLE DESCRIPTION=NIST Mass Spectrometry Data Center
##NAMES=HP
##CAS NAME=Acetic acid, 10-chlorodecyl ester
##MOLFORM=C12H23ClO2
##CAS REGISTRY NO=51309-11-6
##MP= -300
##BP= -300
##MW= 234
##$RETENTION INDEX=1699
##$CONDENSED SPECTRUM=NO
##NPOINTS= 137
##XYDATA=(XY..XY) 1 
    14          3
    15         27
    16          1
    17          1
    18          2
    25          1
    26          6
    27         78
    28         34
    29        118
    30          4
    31         10
    32          1
    35          1
    36          3
    37          1
    38          3
    39         90
    40         19
    41        369
    42        149
    43        999
    44         35
    45          9
    49         13
    50          2
    51          9
    52          3
    53         43
    54         89
    55        489
    56        198
    57         84
    58         39
    59          8
    61        403
    62         13
    63         24
    64          2
    65         15
    66         14
    67        157
    68        229
    69        361
    70        167
    71         52
    72          4
    73         75
    74          4
    75          9
    76          6
    77         16
    78          4
    79         18
    80          7
    81        121
    82        169
    83        255
    84         85
    85         13
    86          2
    87         13
    88          5
    89          7
    90         20
    91         75
    92         10
    93         26
    94          4
    95         81
    96         86
    97        185
    98         61
    99          4
   100          1
   101         21
   102          7
   103          7
   104        282
   105         44
   106         93
   107         14
   108          2
   109         62
   110         40
   111         35
   112          9
   113          1
   115          3
   116         67
   117         23
   118         84
   119         16
   120         27
   121          4
   123          4
   124          1
   125          8
   126          3
   127          1
   128          1
   129          4
   130         12
   131         23
   132         38
   133         12
   134         12
   135          2
   136          1
   137          6
   138          5
   139          3
   140          1
   143          1
   144          7
   145         16
   146         96
   147         14
   148         31
   149          3
   150          1
   158          1
   159          1
   161          1
   162          2
   164          1
   172          2
   173          1
   174         19
   175          3
   176          7
   177          1
   181          1
   189          1
   190          1
   191          1
   219          1