##TITLE=Library Entry 17363
##JCAMP-DX=Revision 4.10 
##DATA TYPE=MASS SPECTRUM
##SAMPLE DESCRIPTION=Institute of Chemistry, SAS, Bratislava, Slovakia
##NAMES=HP
##CAS NAME=Methyl-2,3,4,6-tetra-O-methyl-5-thio.beta.d-glucopyranoside
##MOLFORM=C11H22O5S
##CAS REGISTRY NO=51306-28-6
##MP= -300
##BP= -300
##MW= 266
##$RETENTION INDEX=0
##$CONDENSED SPECTRUM=NO
##NPOINTS= 40
##XYDATA=(XY..XY) 1 
    45        999
    47         57
    55         26
    57         16
    58         51
    59         70
    60         74
    71        164
    73        132
    75        668
    83        259
    85        184
    87         27
    88        926
    90         89
   101        403
   102         47
   115         24
   117         10
   118         15
   119         11
   127         20
   128         15
   131         41
   132         39
   133        145
   145          9
   146         10
   147          9
   157          7
   158          8
   160         19
   171          8
   176          3
   189         22
   202          3
   203          2
   234         20
   235          0
   266         36