##TITLE=Library Entry 86682
##JCAMP-DX=Revision 4.10 
##DATA TYPE=MASS SPECTRUM
##SAMPLE DESCRIPTION=Exported from NIST MS Search
##NAMES=HP
##CAS NAME=2H-1,2,3-Triazole-4-carboxylic acid, 2-(2-fluorophenyl)-
##MOLFORM=C9H6FN3O2
##CAS REGISTRY NO=51306-44-6
##MP= -300
##BP= -300
##MW= 207
##$RETENTION INDEX=0
##$CONDENSED SPECTRUM=NO
##NPOINTS= 36
##XYDATA=(XY..XY) 1 
    51         27
    52         24
    53          9
    56         61
    61         30
    62         67
    63         24
    68         21
    69         45
    70          9
    73         24
    74         30
    75        174
    76         12
    81         91
    82        305
    83         91
    89         67
    94         21
    95        440
    96         30
   107         76
   108        116
   109        999
   110        198
   122         39
   134         52
   135         58
   136        311
   137         39
   162         30
   180         36
   190        140
   207        935
   208        581
   209         55