##TITLE=Library Entry 76847
##JCAMP-DX=Revision 4.10 
##DATA TYPE=MASS SPECTRUM
##SAMPLE DESCRIPTION=NIST Mass Spectrometry Data Center
##NAMES=HP
##CAS NAME=10-Chloro-1-decanol
##MOLFORM=C10H21ClO
##CAS REGISTRY NO=51309-10-5
##MP= -300
##BP= -300
##MW= 192
##$RETENTION INDEX=1560
##$CONDENSED SPECTRUM=NO
##NPOINTS= 87
##XYDATA=(XY..XY) 1 
    15          3
    19          4
    28          8
    29         97
    30         12
    31        316
    32          5
    33          1
    38          1
    39         19
    40         21
    41        352
    42        380
    43          7
    44         54
    45         39
    46          2
    52          1
    53         43
    54        238
    55        404
    56        652
    57        118
    58          9
    59          7
    66         39
    67        415
    68        743
    69        601
    70        387
    71         59
    72          4
    73         40
    74          2
    76         16
    78          4
    79         13
    80         13
    81        291
    82        399
    83        581
    84        189
    85         18
    86          1
    87          4
    88          2
    89         18
    90         56
    95        171
    96        142
    97        243
    98         42
    99          3
   101          1
   102          3
   104        999
   106        331
   109        145
   110         89
   111         54
   112         10
   113          1
   116          5
   117         37
   118        224
   119         12
   120         71
   123          7
   124          1
   125          7
   126          1
   130         10
   131         29
   132         55
   133         10
   134         18
   136          1
   137          4
   138          3
   139          2
   144          7
   145         18
   146        161
   147         20
   148         51
   149          5
   174          1