##TITLE=Library Entry 76529
##JCAMP-DX=Revision 4.10 
##DATA TYPE=MASS SPECTRUM
##SAMPLE DESCRIPTION=D. Rasala, Inst. Chem., Pedagogical Univ., Kielce, Pola
nd
##NAMES=HP
##CAS NAME=2-Pyridinecarbonitrile, 3-nitro-
##MOLFORM=C6H3N3O2
##CAS REGISTRY NO=51315-07-2
##MP= -300
##BP= -300
##MW= 149
##$RETENTION INDEX=0
##$CONDENSED SPECTRUM=NO
##NPOINTS= 15
##XYDATA=(XY..XY) 1 
    50        230
    51        370
    52        100
    63         40
    64         50
    75        270
    76        750
    77         90
    78         50
    91        130
   103        999
   104         80
   119         50
   149        450
   150         35