##TITLE=Library Entry 82183
##JCAMP-DX=Revision 4.10 
##DATA TYPE=MASS SPECTRUM
##SAMPLE DESCRIPTION=Exported from NIST MS Search
##NAMES=HP
##CAS NAME=Benzamide, N-(3-phenylbenzo[b]thien-2-yl)-
##MOLFORM=C21H15NOS
##CAS REGISTRY NO=51324-21-1
##MP= -300
##BP= -300
##MW= 329
##$RETENTION INDEX=0
##$CONDENSED SPECTRUM=NO
##NPOINTS= 70
##XYDATA=(XY..XY) 1 
    52         10
    63          5
    69          5
    70          4
    71          7
    75          4
    76          8
    77        220
    78         32
    79          5
    86          1
    87          4
    88          2
    89          2
   105        999
   106         67
   107          4
   113          4
   114          4
   115          4
   116          4
   121         10
   122          5
   125          4
   126          4
   127          4
   128          4
   137          4
   138          4
   139          7
   140          2
   145          4
   146          5
   150          4
   151          8
   152         25
   153          7
   164         10
   165          8
   166         27
   167          5
   169          4
   170          2
   171          4
   172          2
   177          8
   178          7
   188          4
   190         22
   191          8
   192          4
   194          2
   195          2
   196          2
   197          2
   198          2
   208          2
   209          2
   222         28
   223         82
   224         37
   225         11
   226         11
   227          2
   228          2
   328         10
   329        765
   330        174
   331         50
   332         11