##TITLE=Library Entry 87428
##JCAMP-DX=Revision 4.10 
##DATA TYPE=MASS SPECTRUM
##SAMPLE DESCRIPTION=Exported from NIST MS Search
##NAMES=HP
##CAS NAME=1H-Pyrrole-2,5-dione, 1,1'-(1,2-ethanediyl)bis-
##MOLFORM=C10H8N2O4
##CAS REGISTRY NO=5132-30-9
##MP= -300
##BP= -300
##MW= 220
##$RETENTION INDEX=0
##$CONDENSED SPECTRUM=NO
##NPOINTS= 21
##XYDATA=(XY..XY) 1 
    26        110
    27         60
    28        140
    40         10
    41         20
    44         10
    53         70
    54        130
    55         60
    56        100
    57         30
    82        140
    95         10
   110        999
   111         90
   123        790
   124         90
   138         10
   139         20
   220        110
   221         10