##TITLE=Library Entry 55130
##JCAMP-DX=Revision 4.10 
##DATA TYPE=MASS SPECTRUM
##SAMPLE DESCRIPTION=Chemical Concepts
##NAMES=HP
##CAS NAME=1-Butanol, 4-[(tetrahydro-2H-pyran-2-yl)oxy]-
##MOLFORM=C9H18O3
##CAS REGISTRY NO=51326-51-3
##MP= -300
##BP= -300
##MW= 174
##$RETENTION INDEX=1395
##$CONDENSED SPECTRUM=NO
##NPOINTS= 64
##XYDATA=(XY..XY) 1 
    27         57
    29         74
    30          2
    31        121
    33          1
    39         43
    41        113
    42         67
    43         73
    44         29
    45         18
    46          0
    47          5
    49          0
    50          0
    51          0
    52          1
    53         17
    54         16
    55        574
    56         97
    57        101
    60          0
    61          0
    65          2
    66          0
    67        123
    68          1
    69          7
    70         10
    71         64
    72          6
    73        620
    74         36
    75          2
    77          2
    80          0
    81          1
    82          0
    83        104
    84        111
    85        999
    86         51
    87          7
    88          5
    89         22
    90          1
    91         15
    92          0
    95          0
    97          1
    99          7
   100          9
   101        212
   102         13
   103         14
   104          0
   113          0
   114          0
   115          8
   116          8
   118          0
   143          0
   144          1