##TITLE=Library Entry 1337
##JCAMP-DX=Revision 4.10 
##DATA TYPE=MASS SPECTRUM
##SAMPLE DESCRIPTION=Japan AIST/NIMC Database- Spectrum MS-IW-5860
##NAMES=HP
##CAS NAME=1-(Alpha-aminotoluene-p-sulfonyl)-3-butylurea
##MOLFORM=C12H19N3O3S
##CAS REGISTRY NO=51327-18-5
##MP= -300
##BP= -300
##MW= 285
##$RETENTION INDEX=0
##$CONDENSED SPECTRUM=NO
##NPOINTS= 176
##XYDATA=(XY..XY) 1 
    12          1
    14          3
    15         18
    16          6
    17          1
    25          2
    26         25
    27        150
    28        244
    29        134
    30        999
    31         56
    32          5
    33          3
    34          8
    35          1
    36          9
    37          9
    38         19
    39         92
    40         23
    41        288
    42         76
    43        200
    44        191
    45         15
    46         11
    47          1
    48         13
    49          3
    50         34
    51         44
    52         23
    53         16
    54         14
    55         71
    56        169
    57         56
    58         22
    59          5
    60          4
    61          5
    62          6
    63         24
    64         43
    65         12
    66          9
    67          5
    68          5
    69          6
    70         30
    71         19
    72         48
    73        212
    74         48
    75         13
    76         31
    77        106
    78         40
    79         20
    80          5
    81          2
    82          7
    83          3
    84          4
    85          2
    86          1
    87         13
    88          6
    89        137
    90         26
    91         21
    92          8
    93         11
    94          5
    95          6
    96          1
    97          3
    98         35
    99          6
   100         15
   101         18
   102          8
   103         22
   104         47
   105         88
   106        139
   107         49
   108          6
   109          5
   110          3
   111         12
   112          4
   115          7
   116          4
   117          4
   118          8
   119          5
   120         10
   121         11
   122         13
   123          8
   124          7
   125          3
   126          1
   129         15
   130         20
   131         18
   132        309
   133         31
   134          4
   135          9
   136          6
   137          6
   138          7
   139          3
   140          2
   141         12
   142          1
   143          9
   144          1
   146          2
   147         14
   148         12
   149          3
   150          1
   152          3
   153          3
   154          1
   155          1
   157          7
   158          5
   161          1
   162          4
   163          1
   164          1
   165          3
   166          1
   167          2
   168          5
   169          1
   170         16
   171          2
   172         52
   173          7
   180          2
   181          1
   182          1
   183          3
   184          6
   185         37
   186          6
   187          2
   194          1
   196         17
   197          2
   198          1
   199          1
   204          6
   205          1
   211          5
   212         72
   213          9
   214          5
   225          1
   228         12
   229          2
   230          1
   238          4
   242          1
   243          2
   254          1
   256          1
   285         26
   286          5
   287          2