##TITLE=Library Entry 90594
##JCAMP-DX=Revision 4.10 
##DATA TYPE=MASS SPECTRUM
##SAMPLE DESCRIPTION=Chemical Concepts
##NAMES=HP
##CAS NAME=1,1,3,5-Cyclohexanetetracarboxylic acid, 4-oxo-, tetramethyl este
r
##MOLFORM=C14H18O9
##CAS REGISTRY NO=51334-56-6
##MP= -300
##BP= -300
##MW= 330
##$RETENTION INDEX=0
##$CONDENSED SPECTRUM=NO
##NPOINTS= 152
##XYDATA=(XY..XY) 1 
    26         10
    27         69
    28         73
    29         46
    30         14
    31         32
    36         12
    39         87
    40         31
    41         92
    42         50
    43         90
    44         61
    45         81
    47         20
    51         14
    52         11
    53         57
    54         25
    55        352
    56         43
    57         81
    58         18
    59        426
    60         64
    65         36
    66         21
    67         35
    68         64
    69        251
    70         29
    71         53
    72         26
    73         28
    74         18
    75         46
    76         10
    77         36
    79         32
    80         12
    81         63
    82         26
    83         57
    84         18
    85         87
    86         18
    87         38
    88         42
    89         14
    91         26
    92         30
    93         45
    94         19
    95         53
    96         18
    97         27
    98        101
    99         62
   100        101
   101        141
   102         15
   104         13
   105         26
   106         10
   107         19
   108         18
   109         19
   111         31
   112         20
   113        999
   114         79
   115         97
   116         12
   117         18
   118         10
   119         22
   120         77
   121         61
   122         16
   123         19
   124         18
   125         24
   126         62
   127         33
   128         12
   129         30
   130         10
   131         10
   132        108
   133         17
   135         32
   137         12
   139         33
   141         29
   143         12
   145        699
   146         81
   147         33
   151         50
   152         52
   153        148
   154         29
   155         17
   156         68
   157        105
   158         41
   159         23
   165          9
   169         10
   178         33
   179        185
   180         43
   181         53
   182         34
   184         71
   185         69
   186         24
   187         14
   195         10
   197         13
   199         11
   202         10
   205         23
   207        123
   208         22
   210         50
   211        366
   212         80
   213        100
   214         17
   216         55
   217         11
   218         11
   219         11
   220          9
   223         11
   234          9
   235         13
   238         32
   239        108
   240         21
   244         29
   245         79
   246         10
   267         90
   268         15
   270         26
   298        116
   299         80
   300         15
   302         12
   330         33