##TITLE=Library Entry 38973
##JCAMP-DX=Revision 4.10 
##DATA TYPE=MASS SPECTRUM
##SAMPLE DESCRIPTION=J. M. PECHINE
##NAMES=HP
##CAS NAME=Cyclohexane, 1-bromo-2-methoxy-, cis-
##MOLFORM=C7H13BrO
##CAS REGISTRY NO=51332-48-0
##MP= -300
##BP= -300
##MW= 192
##$RETENTION INDEX=0
##$CONDENSED SPECTRUM=NO
##NPOINTS= 31
##XYDATA=(XY..XY) 1 
    27         89
    28         45
    29         59
    31         21
    39         97
    40         13
    41        259
    42         21
    43         44
    45        122
    51         10
    53         48
    54         18
    55         50
    58         94
    59         10
    67         25
    69         17
    71        999
    72         46
    77         13
    79         38
    80         10
    81        667
    82         48
    83         21
    84         13
    85         34
   113         60
   192        216
   194        209