##TITLE=Library Entry 13838
##JCAMP-DX=Revision 4.10 
##DATA TYPE=MASS SPECTRUM
##SAMPLE DESCRIPTION=J. Klune, Insect Chem. Ecol. Lab., USDA, Beltsville, MD
 20705
##NAMES=HP
##CAS NAME=3-Hexadecanol acetate
##MOLFORM=C18H36O2
##CAS REGISTRY NO=51354-27-9
##MP= -300
##BP= -300
##MW= 284
##$RETENTION INDEX=0
##$CONDENSED SPECTRUM=NO
##NPOINTS= 143
##XYDATA=(XY..XY) 1 
    41        239
    42         71
    43        999
    44         38
    45          9
    47          1
    49          1
    51          1
    52          0
    53         15
    54         39
    55        243
    56        116
    57        221
    58         60
    59         48
    60          3
    61         55
    62          1
    63          1
    65          3
    66          5
    67         59
    68         46
    69        175
    70        109
    71        101
    72         17
    73         26
    74          1
    77          3
    78          1
    79          9
    80          4
    81         41
    82         80
    83        161
    84         71
    85         62
    86          7
    87          6
    88          0
    91          2
    92          0
    93          3
    94          2
    95         33
    96         67
    97        189
    98         46
    99         16
   100          9
   101        257
   102         14
   103          9
   104          0
   105          1
   106          0
   107          2
   108          1
   109         17
   110         32
   111        121
   112         32
   113         10
   114          2
   115          2
   116         36
   117          4
   118          0
   119          0
   121          1
   122          1
   123          7
   124         20
   125         72
   126         24
   127          5
   128          1
   129          1
   130          0
   131          0
   135          0
   136          0
   137          4
   138         13
   139         27
   140         15
   141          3
   142          0
   144          4
   145          1
   149          0
   151          1
   152          9
   153         12
   154         10
   155          2
   165          1
   166         14
   167         10
   168         12
   169          2
   178          0
   179          1
   180          4
   181          6
   182          4
   183          1
   193          1
   194          6
   195         24
   196         19
   197          3
   198          0
   205          1
   206          2
   208          3
   209          1
   210          4
   211          6
   212          1
   213          5
   214          0
   220          1
   222         13
   223          3
   224        290
   225         69
   226         13
   227          4
   228          0
   240          0
   241          4
   242          0
   253          1
   255         22
   256          4
   263          3
   266          1
   267          1
   268          0
   284          1