##TITLE=Library Entry 10799
##JCAMP-DX=Revision 4.10 
##DATA TYPE=MASS SPECTRUM
##SAMPLE DESCRIPTION=J. Klune, Insect Chem. Ecol. Lab., USDA, Beltsville, MD
 20705
##NAMES=HP
##CAS NAME=3-Tetradecanol acetate
##MOLFORM=C16H32O2
##CAS REGISTRY NO=51354-23-5
##MP= -300
##BP= -300
##MW= 256
##$RETENTION INDEX=0
##$CONDENSED SPECTRUM=NO
##NPOINTS= 118
##XYDATA=(XY..XY) 1 
    41        153
    42         48
    43        999
    44         29
    45          7
    47          0
    51          0
    53         10
    54         21
    55        151
    56        102
    57        151
    58         58
    59         47
    60          2
    61         51
    62          0
    63          0
    65          2
    66          2
    67         32
    68         27
    69        128
    70        112
    71         82
    72         14
    73         31
    74          1
    77          1
    79          6
    80          2
    81         23
    82         49
    83        141
    84         78
    85         56
    86          6
    87         10
    91          1
    93          2
    94          1
    95         15
    96         45
    97        188
    98         55
    99         11
   100          9
   101        312
   102         19
   103         11
   105          0
   107          1
   108          1
   109         10
   110         24
   111        135
   112         39
   113          6
   114          1
   115          1
   116         46
   117          4
   119          0
   121          3
   122          0
   123          2
   124         12
   125         54
   126         24
   127          5
   128          0
   129          1
   130          0
   135          1
   137          1
   138         14
   139         15
   140         22
   141          3
   142          0
   144          5
   145          0
   149          0
   152          3
   153          7
   154          6
   155          1
   156          0
   166          6
   167         29
   168         23
   169          3
   170          0
   178          0
   180          1
   182          4
   183          5
   184          0
   185          6
   186          0
   192          5
   193          2
   194          1
   195          0
   196        233
   197         50
   198         11
   199          3
   208          0
   209          0
   210          3
   211          3
   213          3
   227         24
   228          3
   238          0
   239          0
   256          1