##TITLE=Library Entry 11973
##JCAMP-DX=Revision 4.10 
##DATA TYPE=MASS SPECTRUM
##SAMPLE DESCRIPTION=J. Klune, Insect Chem. Ecol. Lab., USDA, Beltsville, MD
 20705
##NAMES=HP
##CAS NAME=5-Tetradecanol acetate
##MOLFORM=C16H32O2
##CAS REGISTRY NO=51354-25-7
##MP= -300
##BP= -300
##MW= 256
##$RETENTION INDEX=0
##$CONDENSED SPECTRUM=NO
##NPOINTS= 107
##XYDATA=(XY..XY) 1 
    41        163
    42         52
    43        999
    44         35
    45          8
    51          0
    53          9
    54         23
    55        135
    56         85
    57        136
    58         68
    59         35
    60          3
    61         28
    62          0
    65          2
    66          3
    67         28
    68         24
    69        124
    70         82
    71         62
    72          6
    73          2
    77          2
    79          5
    80          2
    81         21
    82         35
    83        161
    84         57
    85         38
    86         10
    87          6
    91          0
    93          1
    94          1
    95         11
    96         26
    97        113
    98         38
    99          7
   100          5
   101         16
   102         26
   103         12
   104          0
   107          0
   108          0
   109          6
   110         20
   111         52
   112         30
   113          5
   114          1
   115          5
   121          1
   123          2
   124         12
   125         35
   126         15
   127          4
   128          5
   129        305
   130         23
   131          2
   135          0
   137          1
   138         15
   139         60
   140         14
   141          2
   142          0
   144         11
   145          1
   152          3
   153          6
   154          7
   155          8
   156          9
   157          8
   158          0
   166          1
   167          3
   168         15
   169          2
   170          7
   171          8
   172          3
   192          2
   193          1
   194          3
   195          1
   196        243
   197         56
   198          6
   199         28
   200          3
   208          1
   210          1
   211          2
   213          4
   214          0
   238          1
   239          2
   256          2