##TITLE=Library Entry 13463
##JCAMP-DX=Revision 4.10 
##DATA TYPE=MASS SPECTRUM
##SAMPLE DESCRIPTION=J. Klune, Insect Chem. Ecol. Lab., USDA, Beltsville, MD
 20705
##NAMES=HP
##CAS NAME=6-Tetradecanol acetate
##MOLFORM=C16H32O2
##CAS REGISTRY NO=51354-26-8
##MP= -300
##BP= -300
##MW= 256
##$RETENTION INDEX=0
##$CONDENSED SPECTRUM=NO
##NPOINTS= 129
##XYDATA=(XY..XY) 1 
    41        186
    42         63
    43        999
    44         15
    45          8
    47          0
    49          0
    51          1
    52          0
    53         11
    54         29
    55        171
    56        123
    57        164
    58         95
    59         51
    60          2
    61         47
    62          1
    65          2
    66          4
    67         34
    68         28
    69        188
    70        117
    71         84
    72         10
    73          1
    77          4
    78          0
    79          5
    80          2
    81         23
    82         55
    83        270
    84         82
    85         43
    86          7
    87          1
    89          0
    91          1
    93          1
    94          1
    95         11
    96         38
    97        131
    98         71
    99         24
   100         34
   101         16
   102         28
   103         32
   104          1
   105          0
   107          0
   108          0
   109          4
   110         22
   111         85
   112         39
   113          9
   114         10
   115         28
   116          2
   117          0
   119          0
   121          1
   122          0
   123          2
   124         30
   125        258
   126         44
   127          7
   128          1
   129          3
   130          1
   135          0
   136          0
   137          0
   138         11
   139         20
   140         17
   141         16
   142         31
   143        186
   144         16
   145          1
   149          0
   152          4
   153         10
   154          8
   155          1
   156         13
   157         15
   158         16
   159          2
   166          2
   167          5
   168         26
   169          4
   170          0
   171          0
   181          0
   184          1
   185         47
   186          8
   187          0
   192          3
   193          1
   194          1
   195          1
   196        423
   197        129
   198         14
   199          1
   200          0
   208          0
   209          0
   210          2
   211          2
   212          1
   213          7
   214          1
   238          2
   239          7
   240          1
   255          0
   256          7
   257          1