##TITLE=Library Entry 19321
##JCAMP-DX=Revision 4.10 
##DATA TYPE=MASS SPECTRUM
##SAMPLE DESCRIPTION=R.T.HOLMAN,UNIVERSITY OF MINNESOTA
##NAMES=HP
##CAS NAME=Cyclopropaneoctanoic acid, 2-octyl-, methyl ester, trans-
##MOLFORM=C20H38O2
##CAS REGISTRY NO=5135-07-9
##MP= -300
##BP= -300
##MW= 310
##$RETENTION INDEX=0
##$CONDENSED SPECTRUM=NO
##NPOINTS= 167
##XYDATA=(XY..XY) 1 
    26         10
    27        170
    28         45
    29        320
    30         10
    31         15
    32          7
    39        140
    40         29
    41        740
    42        150
    43        550
    44         22
    45         36
    51          9
    52          7
    53         91
    54        200
    55        999
    56        280
    57        310
    58         18
    59        180
    60         16
    61         11
    65         22
    66         18
    67        300
    68        190
    69        610
    70        220
    71        120
    72         11
    73         47
    74        450
    75         69
    76          7
    77         22
    78          9
    79         62
    80         36
    81        260
    82        160
    83        440
    84        320
    85         87
    86          7
    87        320
    88         80
    89         11
    91         20
    92          7
    93         38
    94         44
    95        200
    96        320
    97        380
    98        250
    99         40
   100          9
   101         87
   102         11
   105         11
   107         25
   108         29
   109        110
   110        180
   111        200
   112         69
   113         25
   114         36
   115         65
   116         11
   119         22
   120         11
   121         36
   122         18
   123        110
   124         87
   125        100
   126         31
   127         29
   128         51
   129         47
   130         18
   133         18
   134         18
   135         51
   136         18
   137         69
   138        110
   139        120
   140         25
   141         58
   142         25
   143         69
   144         13
   147         18
   148         15
   149         22
   150         11
   151         47
   152         76
   153         80
   154         27
   155         22
   156          9
   157         40
   158          9
   161         15
   162          7
   163         11
   164          7
   165         40
   166         45
   167         25
   168         25
   169         16
   170          7
   171         44
   172          9
   175          9
   177          7
   178         11
   179         25
   180         51
   181         20
   182          7
   183         25
   184          7
   185         44
   186         11
   193         16
   194         95
   195         25
   196          7
   197         18
   198          7
   199         18
   200          5
   207         15
   208         20
   209          7
   211          7
   212          7
   213         15
   214          7
   221         15
   222         16
   223          7
   227         11
   228          7
   234         44
   235         27
   236        120
   237         33
   249         18
   250         22
   260         25
   261         15
   267          9
   279        460
   280        190
   281         31
   282          7
   310         84
   311         18