##TITLE=Library Entry 58913
##JCAMP-DX=Revision 4.10 
##DATA TYPE=MASS SPECTRUM
##SAMPLE DESCRIPTION=Chemical Concepts
##NAMES=HP
##CAS NAME=Glycine, N-formyl-, phenylmethyl ester
##MOLFORM=C10H11NO3
##CAS REGISTRY NO=51354-16-6
##MP= -300
##BP= -300
##MW= 193
##$RETENTION INDEX=0
##$CONDENSED SPECTRUM=NO
##NPOINTS= 85
##XYDATA=(XY..XY) 1 
    26          3
    27         11
    28         76
    29         38
    30        220
    31          5
    37          3
    38         11
    39         68
    40          6
    41         18
    42          6
    43          2
    44          1
    45          1
    46          1
    49          2
    50         32
    51         70
    52         20
    53          6
    54          0
    55          1
    56          2
    57          1
    58        197
    59         78
    60          3
    61          4
    62         14
    63         46
    64         14
    65        138
    66          7
    69          0
    72          8
    73          1
    74          8
    75          6
    76          7
    77         77
    78         18
    79         29
    80          2
    81          0
    84          0
    85          1
    86         10
    87          2
    88          1
    89         36
    90         27
    91        999
    92         80
    93          3
   103          0
   104         25
   105         21
   106          4
   107         26
   108         95
   109          6
   110          0
   114          0
   115          1
   116          0
   118          1
   119          0
   120          3
   122          0
   143          0
   144          0
   151          0
   152          0
   157          2
   158          2
   159          0
   163          2
   164          0
   165         16
   166          1
   167          0
   193         13
   194          2
   195          0