##TITLE=Library Entry 6178
##JCAMP-DX=Revision 4.10 
##DATA TYPE=MASS SPECTRUM
##SAMPLE DESCRIPTION=Chemical Concepts
##NAMES=HP
##CAS NAME=Globulol
##MOLFORM=C15H26O
##CAS REGISTRY NO=51371-47-2
##MP= -300
##BP= -300
##MW= 222
##$RETENTION INDEX=1583
##$CONDENSED SPECTRUM=NO
##NPOINTS= 123
##XYDATA=(XY..XY) 1 
    26         17
    27        177
    28         75
    29        202
    30          5
    31         19
    32          9
    39        187
    40         23
    41        623
    42         41
    43        999
    44         28
    45         38
    50          3
    51         36
    52         24
    53        161
    54         35
    55        354
    56         35
    57         63
    58         35
    59         34
    62          3
    63          8
    64          6
    65         73
    66         31
    67        333
    68         40
    69        452
    70         37
    71        196
    72         15
    73         13
    75          3
    76          3
    77        155
    78         34
    79        254
    80         57
    81        435
    82        216
    83        150
    84         31
    85         69
    86         10
    89          6
    90          5
    91        190
    92         41
    93        300
    94         98
    95        342
    96        125
    97         68
    98         78
    99         16
   103         15
   104          8
   105        217
   106         62
   107        306
   108        205
   109        412
   110         46
   111        116
   112         12
   115         10
   116          4
   117         15
   118          7
   119        130
   120         43
   121        224
   122        274
   123        132
   124         39
   125        162
   126         30
   127         24
   128          6
   131         11
   132          5
   133        103
   134         45
   135        170
   136         73
   137         37
   138         22
   139         17
   140          5
   145          9
   146          8
   147        126
   148         99
   149         85
   150         17
   151         25
   152          8
   159          6
   160         13
   161        278
   162         62
   163         29
   164         18
   165         32
   166         12
   175         41
   176         19
   178          8
   179         34
   188          4
   189        139
   190         23
   203          5
   204        166
   205         32
   207         29
   208          4
   222         29
   223          5