##TITLE=Library Entry 59125
##JCAMP-DX=Revision 4.10 
##DATA TYPE=MASS SPECTRUM
##SAMPLE DESCRIPTION=V.Zaikin,Topchiev Inst.Petrochem.Synth.,Moscow
##NAMES=HP
##CAS NAME=Pentyl phenylacetate
##MOLFORM=C13H18O2
##CAS REGISTRY NO=5137-52-0
##MP= -300
##BP= -300
##MW= 206
##$RETENTION INDEX=1533
##$CONDENSED SPECTRUM=NO
##NPOINTS= 71
##XYDATA=(XY..XY) 1 
    27         54
    28          5
    29         87
    30          4
    31          2
    36          3
    37          3
    38         20
    39        123
    40         21
    41        174
    42         50
    43        586
    44         18
    45          6
    46          3
    49          3
    50         31
    51         49
    52         16
    53         11
    54          3
    55         74
    56          6
    57         28
    58          2
    61          8
    62         22
    63         66
    64         24
    65        168
    66          9
    67          3
    68          5
    69         17
    70         27
    71        101
    72          3
    73          2
    74          3
    75          5
    76          3
    77         12
    78          7
    79          5
    81          2
    83          3
    85          4
    86          3
    87          4
    88          3
    89         68
    90         63
    91        999
    92        258
    93         17
   105          8
   106          3
   107          3
   115         41
   118         18
   119         21
   120          3
   131          3
   135          4
   136        164
   137         56
   138          4
   192          3
   206         24
   207          3