##TITLE=Library Entry 57373
##JCAMP-DX=Revision 4.10 
##DATA TYPE=MASS SPECTRUM
##SAMPLE DESCRIPTION=Albert Lebedev, Moscow State University, Russia
##NAMES=HP
##CAS NAME=2,4,6-Triazido-3,5-dichloropyridine
##MOLFORM=C5Cl2N10
##CAS REGISTRY NO=51379-63-6
##MP= -300
##BP= -300
##MW= 270
##$RETENTION INDEX=0
##$CONDENSED SPECTRUM=NO
##NPOINTS= 76
##XYDATA=(XY..XY) 1 
    36         53
    37         42
    38        113
    42          5
    47        242
    49         87
    50         34
    59         34
    61         34
    62         45
    63          8
    64         68
    66         18
    68          5
    71         18
    73        442
    74         21
    75        145
    76         60
    78         55
    82         26
    84         16
    85        113
    87        999
    88         47
    89        305
    90         18
    93          8
    94         18
    96          5
    97         13
    98          3
    99        121
   100          8
   101         42
   102         13
   103          3
   106         16
   108         26
   110         11
   111         34
   113         16
   120         53
   122         34
   123          5
   125         26
   127          8
   132          8
   134         26
   135          5
   136         18
   138          3
   146         34
   147          3
   148         24
   151         11
   153          8
   155          3
   167          5
   169          5
   172         11
   174          5
   193         21
   197          5
   205          3
   228          5
   230          3
   242         11
   244          7
   246          2
   270        308
   271         25
   272        197
   273         18
   274         34
   275          3