##TITLE=Library Entry 56810
##JCAMP-DX=Revision 4.10 
##DATA TYPE=MASS SPECTRUM
##SAMPLE DESCRIPTION=Div. of Experiment Therapeutics WRAIR, WRAMC, Washingto
n DC 20307
##NAMES=HP
##CAS NAME=1-[p-[Benzyloxy]phenyl]-3-[4-[[2-[diethylamino]ethyl]amino]-6-met
hyl-2-pyrimidinyl]guanidine
##MOLFORM=C25H33N7O
##CAS REGISTRY NO=51387-77-0
##MP= -300
##BP= -300
##MW= 447
##$RETENTION INDEX=0
##$CONDENSED SPECTRUM=NO
##NPOINTS= 78
##XYDATA=(XY..XY) 1 
    41         16
    42         43
    43         40
    44         50
    51         13
    52          9
    53         21
    54         13
    55          7
    56         35
    57          4
    58         78
    63         14
    64          3
    65         53
    66         17
    67         25
    68         11
    70         12
    71         11
    72         17
    77          2
    79          2
    80         30
    82          4
    83         11
    84         21
    86        999
    87         28
    91        160
    92         10
    93          6
    95          4
    97          3
    98          3
    99         38
   100         46
   105         15
   106          7
   108        127
   109         39
   120         13
   124          6
   125         32
   133          3
   134         27
   135          9
   136          6
   137         54
   149          6
   150         20
   151         35
   162         50
   176        193
   177          8
   199         19
   200          4
   215         12
   224          7
   249         47
   253          2
   257         62
   258         18
   269         11
   283         10
   348        107
   349        152
   350         27
   356         72
   357         18
   361         41
   362          8
   375          9
   376          3
   418         21
   419          3
   447         28
   448          7