##TITLE=Library Entry 69527
##JCAMP-DX=Revision 4.10 
##DATA TYPE=MASS SPECTRUM
##SAMPLE DESCRIPTION=Div. of Experiment Therapeutics WRAIR, WRAMC, Washingto
n DC 20307
##NAMES=HP
##CAS NAME=1-[3,4-Dichlorophenyl]-3-[4-[[1-isobutyl-3-piperidyl]amino]-6-met
hyl-2-pyrimidinyl]guanidine
##MOLFORM=C21H29Cl2N7
##CAS REGISTRY NO=51387-26-9
##MP= -300
##BP= -300
##MW= 449
##$RETENTION INDEX=0
##$CONDENSED SPECTRUM=NO
##NPOINTS= 107
##XYDATA=(XY..XY) 1 
    41         80
    42        129
    43         67
    44         41
    53         13
    54          6
    55         37
    56         24
    57         31
    58          6
    65          1
    66         14
    67         38
    68         33
    69         15
    70         28
    71          1
    79          2
    80         17
    81         10
    82         40
    83         18
    84         27
    90          1
    92          5
    93          3
    94         16
    96        999
    97         67
    98          7
   100         12
   106          3
   108         41
   109         17
   111         27
   119          3
   120          2
   123         37
   124         29
   125         48
   126          7
   133          6
   134         10
   135          2
   136         17
   137         13
   139        756
   140         63
   141          1
   145         11
   147         10
   149         51
   150         33
   151          9
   158          2
   161         25
   162          6
   163         21
   165          1
   174          7
   175          3
   176         20
   177         13
   178          3
   186         12
   187         10
   188         11
   189         20
   191         12
   194          3
   195          1
   203         45
   204         12
   206          3
   214          6
   216          8
   220         14
   245         11
   277          6
   279          1
   294         21
   295          1
   296         17
   298          1
   308          1
   310          7
   311        301
   313        244
   314         40
   315         25
   316          3
   320          1
   323          9
   325          6
   335          1
   346          3
   360          2
   377          8
   379          1
   389         11
   391          8
   406         12
   408          8
   449         15
   450          6
   451          9
   453          1