##TITLE=Library Entry 70974
##JCAMP-DX=Revision 4.10 
##DATA TYPE=MASS SPECTRUM
##SAMPLE DESCRIPTION=Div. of Experiment Therapeutics WRAIR, WRAMC, Washingto
n DC 20307
##NAMES=HP
##CAS NAME=1-[3,4-Dichlorophenyl]-3-[4-methyl-6-[[2-piperidinoethyl]amino]-2
-pyrimidinyl]guanidine
##MOLFORM=C19H25Cl2N7
##CAS REGISTRY NO=51387-13-4
##MP= -300
##BP= -300
##MW= 421
##$RETENTION INDEX=0
##$CONDENSED SPECTRUM=NO
##NPOINTS= 87
##XYDATA=(XY..XY) 1 
    41         89
    42         91
    43         38
    44         62
    45          0
    52          0
    53          6
    54          8
    55         91
    56         16
    57          4
    58          0
    66         11
    67         25
    68         11
    69         30
    70         39
    71          0
    73          0
    75          1
    79          3
    80          2
    81          3
    82         10
    83         10
    84          4
    85          0
    88          0
    90          0
    92          1
    93          2
    94          1
    95          4
    96         25
    98        999
    99         53
   100          1
   107          2
   108         19
   109         13
   110          5
   111         67
   112         11
   120          3
   121          2
   124         12
   125          8
   126          0
   134          7
   135          4
   137         21
   138          1
   142          0
   145          5
   147          3
   149          4
   150         11
   151          7
   161          5
   162          9
   163          5
   176          5
   186          3
   187          2
   188          1
   189          1
   277          5
   279          0
   294          2
   306          2
   308          0
   309          0
   310          9
   311         88
   312         18
   313         56
   314          9
   315          9
   320          1
   322          1
   323          7
   324          2
   325          4
   421          5
   422          1
   423          3
   425          0