##TITLE=Library Entry 4777
##JCAMP-DX=Revision 4.10 
##DATA TYPE=MASS SPECTRUM
##SAMPLE DESCRIPTION=Div. of Experiment Therapeutics WRAIR, WRAMC, Washingto
n DC 20307
##NAMES=HP
##CAS NAME=1-[4-Bromo-.alpha.,.alpha.,.alpha.-trifluoro-m-tolyl]-3-[4-[hexay
dro-4-methyl-1H-1,4-diazepin-1-yl]-6-methyl-2-pyrimidinyl]guanidine
##MOLFORM=C19H23BrF3N7
##CAS REGISTRY NO=51387-57-6
##MP= -300
##BP= -300
##MW= 485
##$RETENTION INDEX=0
##$CONDENSED SPECTRUM=NO
##NPOINTS= 232
##XYDATA=(XY..XY) 1 
    41         76
    42        999
    43        352
    44        149
    45          5
    49          6
    50          4
    51          6
    52         13
    53         36
    54         56
    55         72
    57        553
    58        236
    59          7
    62          3
    63         10
    64          3
    66        119
    67        175
    68         76
    70        410
    71         97
    72         33
    75         19
    77          3
    79         42
    80         27
    82        278
    83         47
    84        260
    85         28
    86          4
    88          5
    89         11
    90          4
    92         27
    93         28
    94         29
    95         39
    97        468
    98         41
    99         10
   103          8
   105          7
   106         15
   108        202
   109        201
   111        132
   113         29
   117          5
   118          5
   120         55
   121         20
   122         28
   123         47
   124         54
   125         73
   126          4
   131          5
   132         16
   133         23
   134         44
   135         75
   137        251
   138        145
   139         23
   140          5
   144         75
   145          9
   147         17
   149        144
   150        128
   151        135
   152         15
   153          3
   158         24
   159          5
   160         17
   162        185
   163        114
   164        178
   165         38
   166          5
   169          3
   172          3
   174         29
   176         90
   177         52
   178         29
   179         16
   181          5
   185         11
   186         16
   187          3
   188         17
   190         95
   191         16
   192         10
   193          6
   199          8
   200          5
   202         17
   204         32
   206         21
   216          9
   217          9
   218          9
   219          4
   220         20
   222         17
   223         18
   225         26
   226          4
   227          3
   231         10
   233         17
   234          7
   235          8
   239         27
   241         28
   242          9
   244          8
   245         15
   247         30
   248          5
   252          8
   264         14
   265         30
   266          8
   267         37
   268          4
   277         12
   279          4
   281          4
   292          6
   294         17
   304          5
   305          6
   306         11
   307          5
   322          3
   323         32
   324          7
   332          5
   333          5
   346          6
   347          3
   349          3
   350          3
   356          4
   357          3
   358          8
   359          3
   360          9
   361          5
   362          4
   370          4
   372         34
   373         22
   374         33
   375         21
   384         40
   385         65
   386         44
   387         88
   388         35
   389        123
   391        125
   392         15
   396          7
   398         46
   399         17
   400         44
   401         81
   402        257
   403         98
   404        229
   405         37
   406         10
   408          6
   410         13
   411         16
   412         22
   413         24
   414         27
   415         76
   416         47
   417         64
   418         34
   419          7
   424          9
   425          6
   426         14
   427         26
   428        313
   429         69
   430        310
   431         63
   432         10
   438          3
   439         10
   440         10
   441         18
   442         16
   443         13
   444         18
   445          8
   446         11
   453         14
   455         23
   456         27
   457         19
   458         26
   459         13
   466         11
   467         12
   468         14
   469         15
   470         43
   471         25
   472         44
   473          2
   474          0
   475          0
   484         27
   485        195
   486         61
   487        195
   488         62
   489         20
   490          3