##TITLE=Library Entry 39630
##JCAMP-DX=Revision 4.10 
##DATA TYPE=MASS SPECTRUM
##SAMPLE DESCRIPTION=AAFS Toxicology Section MS DB Committee, U. Alberta, Ca
nada
##NAMES=HP
##CAS NAME=Metoprolol
##MOLFORM=C15H25NO3
##CAS REGISTRY NO=51384-51-1
##MP= -300
##BP= -300
##MW= 267
##$RETENTION INDEX=0
##$CONDENSED SPECTRUM=NO
##NPOINTS= 151
##XYDATA=(XY..XY) 1 
    29          6
    30         87
    38          1
    39          3
    40          1
    41         13
    42          7
    43         18
    44          8
    45         31
    46          1
    50          1
    51          2
    52          2
    53          1
    54          1
    55          3
    56         36
    57         25
    58         17
    59          1
    60         12
    61          1
    62          1
    63          2
    64          1
    65          5
    66          1
    67          1
    68          1
    69          1
    70         12
    72        999
    73         52
    74          7
    75          1
    76          1
    77         24
    78          8
    79          5
    80          1
    81          1
    82          2
    83          1
    84          4
    85          1
    86          9
    87          1
    88          1
    89          5
    90          6
    91         18
    92          2
    93          1
    94          1
    95          1
    96          1
    97          1
    98          6
    99          1
   100         27
   101          3
   102         30
   103         10
   104          2
   105          5
   106          1
   107         48
   108          4
   109          1
   110          1
   112          1
   113          1
   114          3
   115          1
   116         24
   117          3
   118          1
   119          2
   120          3
   121          6
   122          1
   126          1
   127          1
   128          1
   129          1
   130          1
   131          1
   132          1
   133          6
   134          1
   135          3
   136          1
   137          1
   140          1
   141          1
   144          1
   145          1
   146          1
   147          1
   148          1
   149         12
   150          1
   151          1
   152          7
   153          1
   155          1
   156          1
   157          1
   159          6
   160          1
   161          1
   162          1
   163          2
   164          1
   165          2
   166          1
   167          1
   175          1
   176          1
   177          1
   178          1
   179          1
   180          1
   191          3
   192          1
   193          1
   194          2
   195          1
   197          1
   206          1
   207          1
   208          1
   223         64
   224         10
   225          1
   234          1
   235          1
   236          1
   237          1
   248          1
   249          2
   250          1
   252         19
   253          3
   254          1
   265          1
   266          3
   267         19
   268          4
   269          1