##TITLE=Library Entry 109313
##JCAMP-DX=Revision 4.10 
##DATA TYPE=MASS SPECTRUM
##SAMPLE DESCRIPTION=Div. of Experiment Therapeutics WRAIR, WRAMC, Washingto
n DC 20307
##NAMES=HP
##CAS NAME=1-[3,4-Dichlorophenyl]-3-[4-methyl-6-[1-propyl-3-piperidyl]amino]
-2-pyrimidinylguanidine
##MOLFORM=C20H27Cl2N7
##CAS REGISTRY NO=51387-23-6
##MP= -300
##BP= -300
##MW= 435
##$RETENTION INDEX=0
##$CONDENSED SPECTRUM=NO
##NPOINTS= 193
##XYDATA=(XY..XY) 1 
    41         66
    42        141
    43        113
    44         45
    45          1
    46          0
    49          2
    51          1
    52          0
    53         12
    54         10
    55         25
    56         23
    57         13
    58          7
    60          1
    61          0
    62          0
    63          2
    64          1
    66         17
    67         35
    68         27
    69          4
    70         52
    71          3
    72          7
    73          1
    74          1
    75          3
    77          1
    78          3
    79          1
    80         15
    81          3
    82         34
    83         14
    84         21
    86         25
    87          1
    88          2
    89          2
    90          3
    92          6
    93          4
    94          8
    96        656
    97         44
    98          5
    99          2
   101          1
   102          1
   103          0
   104          1
   105          1
   106          4
   107          2
   108         34
   109         15
   110         12
   111         17
   112          8
   115          0
   116          0
   117          2
   118          0
   119          3
   120          1
   122         12
   125        999
   126         69
   127          4
   129          1
   131          0
   132          1
   133          3
   134         11
   135          5
   137         10
   138          0
   139          1
   140          0
   143          1
   145          9
   147          8
   149         40
   150         35
   151          9
   152          0
   153          1
   154          0
   158          1
   159          3
   161         17
   163         19
   164          0
   165          2
   166          0
   167          1
   168          0
   172          1
   173          1
   174          4
   175          3
   176         18
   177         12
   178          1
   182          2
   186          8
   187          7
   188          7
   189         10
   191          4
   192          2
   194          2
   195          2
   196          0
   200          0
   201          0
   202          4
   203         14
   204         12
   205          2
   206          4
   209          3
   212          0
   214          3
   216          3
   217          3
   218          1
   219          1
   220          2
   229          0
   231          2
   243          0
   245          2
   248          1
   260          1
   267          0
   269          2
   271          1
   273          2
   275          1
   276          2
   277         10
   278          0
   279          5
   294         17
   296         14
   297          1
   298          1
   306          0
   308          1
   309          2
   310          6
   311        194
   313        127
   314         18
   315         21
   316          5
   317          7
   318          2
   320          2
   322          0
   323          1
   332          0
   334          0
   335          1
   337          2
   339          0
   341          0
   346          2
   348          1
   349          0
   350          0
   360          1
   362          0
   375          0
   377          0
   405          0
   406          1
   407          0
   408          1
   410          0
   420          1
   422          1
   424          0
   434          6
   435         11
   436          6
   437          7
   438          2
   439          1