##TITLE=Library Entry 69151
##JCAMP-DX=Revision 4.10 
##DATA TYPE=MASS SPECTRUM
##SAMPLE DESCRIPTION=Div. of Experiment Therapeutics WRAIR, WRAMC, Washingto
n DC 20307
##NAMES=HP
##CAS NAME=1-[3,4-Dichlorophenyl]-3-[4-[[1-isobutyl-4-piperidyl]amino]-6-met
hyl-2-pyrimidinyl]guanidine
##MOLFORM=C21H29Cl2N7
##CAS REGISTRY NO=51387-27-0
##MP= -300
##BP= -300
##MW= 449
##$RETENTION INDEX=0
##$CONDENSED SPECTRUM=NO
##NPOINTS= 148
##XYDATA=(XY..XY) 1 
    42        780
    43        160
    44        120
    45          3
    47          3
    49         31
    51         13
    53         33
    55        180
    56        102
    57         98
    58          9
    60          5
    63          5
    65         11
    66         26
    67        117
    68         60
    69         47
    70         53
    71         12
    73         15
    75          8
    77          3
    80         55
    82        216
    83         42
    84         51
    86         20
    88          4
    89          7
    90          9
    91          3
    92          7
    94         45
    96        999
    97         73
    98         29
   100         22
   102         11
   105          6
   106          7
   108         98
   109         40
   111         83
   112          9
   119          9
   120          8
   121          6
   123        106
   125        232
   126          5
   133         13
   134         21
   135         13
   136         23
   137         15
   138        192
   139        151
   140         34
   145         18
   146          3
   147         18
   149         51
   150         88
   151         77
   152          4
   159          4
   161         50
   162          7
   163         53
   165         13
   174          9
   175         11
   176         42
   177         77
   178          9
   186         24
   187         15
   188         23
   189         11
   190          9
   191          3
   194          8
   195          2
   196          3
   202         57
   203         50
   204         35
   206          6
   220         19
   221          7
   245         21
   277         11
   279          6
   294         31
   295          8
   296         21
   297          4
   309          3
   310         11
   311        125
   313        107
   314         13
   315         14
   318          2
   320         18
   322         12
   323          3
   324          6
   335          3
   337         49
   338          5
   339         36
   340          3
   341          3
   346         27
   347          8
   348         19
   350         86
   351         44
   352         26
   353         11
   354         12
   363         16
   364          8
   365         14
   366          3
   372          6
   377         16
   378         18
   379         12
   380         11
   389         23
   390          3
   391         15
   392         10
   394          3
   406         97
   407         22
   408         63
   409         13
   410         11
   449         74
   450         32
   451         46
   452         17
   453          9