##TITLE=Library Entry 2617
##JCAMP-DX=Revision 4.10 
##DATA TYPE=MASS SPECTRUM
##SAMPLE DESCRIPTION=J.CASSAN FACULTY OF SCIENCE, UNIV. OF NICE, NICE, FRANC
E
##NAMES=HP
##CAS NAME=Cyclohexanone, 4-methyl-, (2,4-dinitrophenyl)hydrazone
##MOLFORM=C13H16N4O4
##CAS REGISTRY NO=5138-32-9
##MP= -300
##BP= -300
##MW= 292
##$RETENTION INDEX=0
##$CONDENSED SPECTRUM=NO
##NPOINTS= 128
##XYDATA=(XY..XY) 1 
    37         29
    38        108
    39        533
    40         92
    41        999
    42        119
    43        132
    46         16
    50         28
    51        157
    52        383
    53        333
    54        666
    55        112
    56         19
    61         28
    62        141
    63        374
    64        149
    65        108
    66         69
    67        416
    68        114
    69        374
    70         28
    74         84
    75        316
    76        158
    77        241
    78        308
    79        308
    80         62
    81        299
    82         72
    83         39
    87         12
    88         44
    89         67
    90         84
    91        104
    92         94
    93        104
    94         49
    95        383
    96         44
   102         23
   103         53
   104         50
   105         36
   106         55
   107         29
   108         20
   109         10
   110         39
   111         12
   113        266
   114         20
   115         59
   116         67
   117         36
   118         25
   119         27
   120         14
   122        124
   123         11
   127         26
   128         79
   129         57
   130         59
   131         42
   132         24
   133         11
   135         18
   136         14
   137         13
   141         28
   142         24
   143         29
   144         28
   145         24
   146         10
   149         19
   152         92
   153         39
   154         14
   155         19
   156         29
   157         45
   158         24
   159         14
   162         13
   164         12
   165         62
   166         11
   167         14
   168         19
   169         14
   170         14
   171         16
   173         15
   175         29
   176         14
   177         17
   180         16
   181         28
   182         13
   183         27
   184         14
   189         17
   190         16
   191         15
   199         11
   202         19
   203         49
   204         15
   215          9
   216         16
   217         20
   219         20
   229          9
   245         10
   257         23
   258          8
   275          7
   276         14
   292        308
   293         52
   294          9