##TITLE=Library Entry 54534
##JCAMP-DX=Revision 4.10 
##DATA TYPE=MASS SPECTRUM
##SAMPLE DESCRIPTION=Div. of Experiment Therapeutics WRAIR, WRAMC, Washingto
n DC 20307
##NAMES=HP
##CAS NAME=1-[p-Chlorophenyl]-3-[4-[[4'-[dimethylamino]cyclohexyl]amino]-6-m
ethyl--2-pyrimidinyl]guanidine
##MOLFORM=C20H28ClN7
##CAS REGISTRY NO=51386-71-1
##MP= -300
##BP= -300
##MW= 401
##$RETENTION INDEX=0
##$CONDENSED SPECTRUM=NO
##NPOINTS= 145
##XYDATA=(XY..XY) 1 
    41        227
    42        432
    43        390
    44        245
    45         65
    46        101
    47         11
    49         12
    50         63
    51          5
    52         15
    53         77
    54         56
    55        161
    56        388
    57         93
    58        139
    60         34
    61         10
    63         17
    65         53
    66         97
    67        223
    68        112
    69         76
    70        152
    71        609
    72         46
    73         32
    75         50
    77         44
    79        107
    80         46
    81        155
    82        193
    83        150
    84        999
    85         97
    86         65
    90         12
    91         58
    92         61
    93         43
    94         47
    95         41
    96         83
    97        110
    98         28
    99         13
   106         15
   107         46
   108        191
   109        129
   110        375
   111        141
   112         11
   113         39
   121         10
   122         38
   123         91
   124        345
   125        634
   126        102
   127        223
   129         78
   133         27
   134         71
   135         42
   136         10
   137         41
   138         11
   148         26
   149        354
   150        350
   151        139
   152         67
   153         63
   163         95
   165        143
   174         25
   175         60
   176        330
   177         60
   178         42
   188         13
   190         44
   191         12
   203         41
   205         79
   228         10
   230        153
   231         12
   232         24
   234         64
   259         64
   260         99
   261         75
   262         43
   263         23
   275         82
   276        159
   277        134
   278         63
   279         41
   284         12
   286         12
   289         11
   298         10
   300         32
   301         63
   302         61
   303        147
   304         76
   305         47
   315        149
   316        142
   317         86
   318         52
   329         71
   330         35
   331         23
   338         22
   340         71
   341         10
   342         20
   343         25
   356         67
   357        661
   358        215
   359        218
   360         76
   361         30
   369        131
   370         24
   371         43
   372         28
   386        855
   387        221
   388        288
   389         69
   400         31
   401        764
   402        217
   403        257
   404         75