##TITLE=Library Entry 56947
##JCAMP-DX=Revision 4.10 
##DATA TYPE=MASS SPECTRUM
##SAMPLE DESCRIPTION=Div. of Experiment Therapeutics WRAIR, WRAMC, Washingto
n DC 20307
##NAMES=HP
##CAS NAME=1-[4-[[2-[Diethylamino]ethyl]amino]-6-methyl-2-pyrimidinyl]-3-[3,
4,5-trimethoxyphenyl]gunidine
##MOLFORM=C21H33N7O3
##CAS REGISTRY NO=51387-73-6
##MP= -300
##BP= -300
##MW= 431
##$RETENTION INDEX=0
##$CONDENSED SPECTRUM=NO
##NPOINTS= 111
##XYDATA=(XY..XY) 1 
    41          6
    42         24
    43         18
    44         30
    46          1
    49          3
    51          2
    53          5
    54          6
    55          7
    56         18
    57          2
    58         77
    59          2
    66         13
    67         16
    68          8
    69          8
    70          6
    71          7
    72         11
    74          3
    77          2
    79          8
    80          3
    81          6
    82          6
    83          6
    84         16
    86        999
    87         43
    92          5
    93          5
    94          1
    95          6
    96          4
    97          5
    98          2
    99         17
   100         30
   107          6
   108         20
   109         17
   110          7
   120          6
   121          4
   122          2
   123          3
   124          4
   125         79
   126          6
   133          4
   134          9
   135         10
   137         49
   138          6
   140         10
   148          2
   149          7
   150         20
   151         21
   152          2
   153          1
   154          3
   162         19
   163          3
   164          1
   165          8
   168         28
   169          6
   176         32
   177          2
   178          2
   179          1
   183         24
   184          2
   193         15
   194          7
   208         16
   210          1
   219          1
   221          1
   224          2
   249          7
   300          2
   312          1
   313          2
   315          6
   316          3
   317         27
   318          2
   328          5
   329          4
   331          1
   332         93
   333        107
   334         16
   342          2
   344          2
   345         45
   346          9
   359         10
   360          5
   385          3
   402         16
   403          5
   416          1
   417          1
   431         49
   432         12
   433          1