##TITLE=Library Entry 5177
##JCAMP-DX=Revision 4.10 
##DATA TYPE=MASS SPECTRUM
##SAMPLE DESCRIPTION=Div. of Experiment Therapeutics WRAIR, WRAMC, Washingto
n DC 20307
##NAMES=HP
##CAS NAME=1-[3,4-Dichlorophenyl]-3-[4-[1-ethyl-4-piperidyl]methyl]amino]-6-
methyl-2-pyrimidinyl]guannidine
##MOLFORM=C20H27Cl2N7
##CAS REGISTRY NO=51387-19-0
##MP= -300
##BP= -300
##MW= 435
##$RETENTION INDEX=0
##$CONDENSED SPECTRUM=NO
##NPOINTS= 192
##XYDATA=(XY..XY) 1 
    41        564
    42        999
    43        397
    44        150
    45          8
    46          8
    51          7
    53        142
    54        157
    55        745
    56        454
    57        230
    58        321
    63         27
    65         50
    66        135
    67        372
    68        186
    69        153
    70         74
    71         43
    72         78
    73         16
    75         28
    77         31
    78          7
    79        116
    80         86
    81        116
    82        289
    83        128
    84        324
    85         37
    88          8
    90         25
    91         34
    92         20
    93         60
    94         96
    95        139
    96        462
    97        176
    98         78
   104         14
   105          7
   106         18
   107         17
   108        372
   109        267
   110        602
   111         49
   112        183
   113          7
   117         97
   118         65
   120         76
   121         37
   122         66
   123        358
   124        832
   125        562
   126        189
   127         26
   130        231
   132          8
   133         41
   134         41
   135         69
   137        291
   138         94
   139         16
   145         96
   147         85
   149        145
   150        320
   151         42
   152         17
   153          9
   159         25
   161        162
   162        118
   163        172
   164        109
   165        193
   166          7
   167         17
   174         33
   175         38
   176         14
   177         34
   178          7
   179         16
   186         89
   187         45
   188         65
   189         52
   190        123
   191         35
   193         17
   202         33
   203         30
   204         32
   205         23
   210        105
   211         75
   212         20
   216         17
   218         27
   220         88
   221         19
   230         85
   232         18
   234         19
   245        107
   247          7
   259         43
   273         24
   274         11
   275         39
   277         31
   279          7
   289         51
   290          7
   291         16
   294        102
   295         21
   296         86
   306         36
   307         33
   308         26
   309         54
   310        170
   311        197
   312        116
   313        109
   314         20
   315         30
   323        169
   324        194
   325        139
   326        136
   327         38
   328          8
   334         85
   335         36
   336         80
   337         36
   338         38
   349         32
   350         25
   351        175
   352         36
   353         94
   354          7
   355         19
   362          7
   363         32
   364         52
   365         48
   366         54
   367         27
   368          7
   374          7
   376          8
   389        151
   390         26
   391         24
   392        122
   393         61
   394         71
   395         23
   401          7
   403         34
   405         27
   406        489
   407        129
   408        287
   409         60
   410         51
   417          1
   419          8
   420         65
   421         18
   422         45
   424          7
   434         52
   435        436
   436        230
   437        287
   438        135
   439         48
   440         18