##TITLE=Library Entry 53655
##JCAMP-DX=Revision 4.10 
##DATA TYPE=MASS SPECTRUM
##SAMPLE DESCRIPTION=Div. of Experiment Therapeutics WRAIR, WRAMC, Washingto
n DC 20307
##NAMES=HP
##CAS NAME=1-[3,5-Dichlorophenyl]-3-[4-methyl-6-[[2-[1-methyl-2-pyrrolidinyl
]ethyl]amino]-2-pyrimidinyl]guanidine
##MOLFORM=C19H25Cl2N7
##CAS REGISTRY NO=51387-53-2
##MP= -300
##BP= -300
##MW= 421
##$RETENTION INDEX=0
##$CONDENSED SPECTRUM=NO
##NPOINTS= 110
##XYDATA=(XY..XY) 1 
    41         50
    42        339
    43         82
    44         77
    53         14
    54         26
    55         44
    56         29
    57         21
    58         10
    63          4
    65          2
    66         32
    67         69
    68         34
    69         18
    70         35
    74          2
    75          2
    79         11
    80          6
    81          9
    82        106
    84        999
    85         42
    92          7
    93          7
    94          7
    95          2
    96         53
    97         29
    98        218
    99         10
   102          2
   107          2
   108         48
   109         58
   110         97
   111         30
   112         11
   120          7
   121          4
   122          4
   123          2
   124         39
   125         27
   127          4
   134         15
   135          9
   137         46
   138         49
   145         12
   147         10
   149         17
   150         25
   151         56
   152          7
   161         10
   162         15
   163         28
   164         53
   165          6
   176         17
   178          2
   179         12
   186          7
   187          8
   188          4
   204          8
   245          4
   289         26
   290          2
   291         10
   294         14
   295          8
   296         10
   297          2
   306          4
   307         38
   309         34
   310         12
   311         31
   312          9
   313         18
   320         18
   322         13
   323         26
   324        287
   325         20
   326        197
   327         30
   328         30
   329          2
   337         38
   338          8
   339         24
   340          2
   348         11
   350         10
   365         14
   367         10
   389          8
   406         14
   408         10
   420         16
   421         32
   422         18
   423         22
   424          5
   425          3