##TITLE=Library Entry 53627
##JCAMP-DX=Revision 4.10 
##DATA TYPE=MASS SPECTRUM
##SAMPLE DESCRIPTION=Div. of Experiment Therapeutics WRAIR, WRAMC, Washingto
n DC 20307
##NAMES=HP
##CAS NAME=1-[3,4-Dichlorophenyl]-3-[4-methyl-6-[[2-pyrrolidinoethyl]amino]-
2-pyrimidinyl]gunidine
##MOLFORM=C18H23Cl2N7
##CAS REGISTRY NO=51387-11-2
##MP= -300
##BP= -300
##MW= 407
##$RETENTION INDEX=0
##$CONDENSED SPECTRUM=NO
##NPOINTS= 95
##XYDATA=(XY..XY) 1 
    41         18
    42        216
    43         43
    44         11
    52          3
    53          7
    54         17
    55         87
    56         31
    57          4
    63          3
    66         17
    67         30
    68         13
    69         20
    70          7
    71          0
    73          1
    74          1
    75          2
    79          5
    80          4
    81          4
    82         18
    84        999
    85         46
    90          1
    92          3
    93          3
    94          1
    95          8
    96          7
    97        108
    98         13
    99          0
   106          0
   107          3
   108         26
   109         17
   110          2
   111          4
   120          4
   121          3
   122          0
   124         19
   125         12
   126          2
   133          3
   134          9
   135          5
   137         28
   138          2
   145          8
   147          4
   149          7
   150         18
   151          9
   152          0
   159          2
   161          8
   162         12
   163          7
   167          0
   176          7
   186          3
   187          4
   188          1
   189          3
   217          0
   277          4
   279          0
   294          4
   296          4
   306          4
   308          3
   309          3
   310         13
   311        104
   312         23
   313         71
   314         11
   315         11
   316          0
   320          2
   322          0
   323          9
   324          2
   325          6
   337          3
   406          3
   407         13
   408          4
   409          9
   410          1
   411          0