##TITLE=Library Entry 90952
##JCAMP-DX=Revision 4.10 
##DATA TYPE=MASS SPECTRUM
##SAMPLE DESCRIPTION=Div. of Experiment Therapeutics WRAIR, WRAMC, Washingto
n DC 20307
##NAMES=HP
##CAS NAME=Guanidine, N-[4-[[2-[bis(1-methylethyl)amino]ethyl]amino]-6-methy
l-2-pyrimidinyl]-N'-[4-bromo-3-(trifluoromethyl)phenyl]-
##MOLFORM=C21H29BrF3N7
##CAS REGISTRY NO=51387-63-4
##MP= -300
##BP= -300
##MW= 515
##$RETENTION INDEX=0
##$CONDENSED SPECTRUM=NO
##NPOINTS= 167
##XYDATA=(XY..XY) 1 
    41         27
    42         27
    43         91
    44         16
    45          0
    49          2
    51          1
    52          0
    53          3
    54          7
    55          3
    56         24
    57          4
    58          2
    60          0
    62          0
    63          0
    64          0
    66         11
    67         18
    68          7
    70         28
    72        185
    73          6
    75          1
    79          4
    80          2
    81          2
    82          7
    83          6
    84         12
    85          7
    86          3
    88          0
    89          0
    92          2
    93          2
    94          1
    95          6
    96          2
    97          3
    98          4
    99          0
   100          3
   105          0
   108         24
   109         10
   110          2
   112         11
   114        999
   115         67
   116          2
   118          0
   120          5
   121          2
   122          1
   124          7
   125          3
   127         42
   128         12
   129          1
   131          0
   132          1
   133          1
   134          6
   135          6
   137         37
   138          3
   139          1
   140          0
   144          6
   145          0
   147          0
   149          7
   151         15
   152          0
   158          1
   159          0
   160          1
   162         15
   163          3
   164          0
   165          0
   166          0
   174          1
   176         11
   177          0
   185          1
   186          1
   191          0
   192          0
   194          0
   199          1
   200          0
   201          0
   202          0
   206          0
   207          0
   208          0
   219          1
   220          0
   223          2
   225          2
   226          0
   233          0
   235          0
   239          2
   241          2
   245          0
   247          0
   250          0
   251          0
   252          0
   264          1
   265          2
   266          1
   267          2
   277          1
   279          0
   281          0
   292          0
   308          0
   321          1
   322          1
   335          0
   336          0
   355          0
   357          0
   359          0
   361          0
   372          0
   374          0
   384          3
   386          4
   387          1
   388          1
   389          7
   390          1
   391          7
   392          1
   398          4
   399          1
   400          5
   401          2
   402          1
   403          1
   404          0
   413          0
   414          1
   415          1
   416          1
   417          1
   419          0
   455          0
   457          0
   472          4
   473          0
   474          4
   475          0
   483          0
   500          1
   502          0
   514          0
   515          5
   516          2
   517          5
   518          1