##TITLE=Library Entry 64947
##JCAMP-DX=Revision 4.10 
##DATA TYPE=MASS SPECTRUM
##SAMPLE DESCRIPTION=HCACAV, 61(5)1755(1978); C. WENTRUP
##NAMES=HP
##CAS NAME=[1,2,3]Triazolo[1,5-a]pyrazine
##MOLFORM=C5H4N4
##CAS REGISTRY NO=51392-75-7
##MP= -300
##BP= -300
##MW= 120
##$RETENTION INDEX=1627
##$CONDENSED SPECTRUM=NO
##NPOINTS= 14
##XYDATA=(XY..XY) 1 
    37         90
    38        600
    39         95
    40         46
    41        160
    51         44
    52        115
    64        100
    65        590
    66         54
    92        999
    93         56
   120        590
   121         58