##TITLE=Library Entry 35199
##JCAMP-DX=Revision 4.10 
##DATA TYPE=MASS SPECTRUM
##SAMPLE DESCRIPTION=Chemical Concepts
##NAMES=HP
##CAS NAME=Bicyclo[2.2.1]heptan-2-one, 7,7-dimethyl-
##MOLFORM=C9H14O
##CAS REGISTRY NO=514-15-8
##MP= -300
##BP= -300
##MW= 138
##$RETENTION INDEX=1103
##$CONDENSED SPECTRUM=NO
##NPOINTS= 62
##XYDATA=(XY..XY) 1 
    26          6
    27        132
    28         20
    29         51
    30          1
    31          1
    37          2
    38         12
    39        233
    40         35
    41        302
    42         25
    43         28
    44          3
    45          3
    46          1
    50         10
    51         29
    52         16
    53        100
    54         29
    55        190
    56         18
    57          5
    62          2
    63          9
    64          2
    65         24
    66        253
    67        456
    68        142
    69        999
    70         95
    71          4
    72         20
    77         33
    78          9
    79         65
    80         16
    81        425
    82         57
    83         33
    84          2
    91         14
    92          3
    93         12
    94        134
    95        222
    96         59
    97         24
    98          1
   105          7
   107          8
   109         18
   110         95
   111          9
   120          2
   123         37
   124          3
   138        419
   139         35
   140          2