##TITLE=Library Entry 3408
##JCAMP-DX=Revision 4.10 
##DATA TYPE=MASS SPECTRUM
##SAMPLE DESCRIPTION=Chemical Concepts
##NAMES=HP
##CAS NAME=Bicyclo[3.1.1]heptane-2-methanol, 6,6-dimethyl-
##MOLFORM=C10H18O
##CAS REGISTRY NO=514-99-8
##MP= -300
##BP= -300
##MW= 154
##$RETENTION INDEX=1254
##$CONDENSED SPECTRUM=NO
##NPOINTS= 83
##XYDATA=(XY..XY) 1 
    27        431
    28        129
    29        250
    30          8
    31        173
    37          6
    39        392
    40         52
    41        999
    42         68
    43        249
    44          5
    45         13
    49          4
    50         23
    51         62
    52         35
    53        198
    54        136
    55        443
    56         59
    57        115
    58         15
    59         37
    61          3
    62          6
    63         21
    64          6
    65         71
    66         45
    67        760
    68        110
    69        914
    70         99
    71         20
    72         12
    73          4
    74          4
    75          6
    76          3
    77        124
    78         37
    79        277
    80        203
    81        623
    82        403
    83        111
    84         14
    85          8
    86          4
    89          5
    91         31
    92         49
    93        491
    94        105
    95        171
    96         57
    97         21
    98         31
    99         16
   100         11
   105         16
   107         74
   108         76
   109         21
   110         19
   111         47
   112         11
   119          0
   120          3
   121        160
   122         33
   123        670
   124         89
   125          5
   126         12
   134          2
   135          2
   136        105
   137         13
   138          1
   139         20
   154          6