##TITLE=Library Entry 66501
##JCAMP-DX=Revision 4.10 
##DATA TYPE=MASS SPECTRUM
##SAMPLE DESCRIPTION=Chemical Concepts
##NAMES=HP
##CAS NAME=Bicyclo[2.2.1]hept-2-ene, 2,7,7-trimethyl-
##MOLFORM=C10H16
##CAS REGISTRY NO=514-14-7
##MP= -300
##BP= -300
##MW= 136
##$RETENTION INDEX=906
##$CONDENSED SPECTRUM=NO
##NPOINTS= 75
##XYDATA=(XY..XY) 1 
    25          1
    26         16
    27        172
    29         87
    30          1
    37          4
    38         12
    39        236
    40         40
    41        219
    42         14
    43        105
    44          3
    45          1
    49          1
    50         23
    51         82
    52         32
    53         97
    54         13
    55         56
    56          3
    57          3
    58          7
    59          4
    61          2
    62          5
    63         26
    64          6
    65         87
    66         20
    67         52
    68         14
    69         10
    72          1
    73          1
    74          2
    75          6
    76          3
    77        266
    78         55
    79        291
    80        283
    81         47
    82          4
    89          9
    90          5
    91        271
    92        119
    93        999
    94        112
    95         11
    96          1
   101          1
   102          2
   103         17
   104          7
   105        105
   106         26
   107         82
   108        228
   109         21
   115          5
   116          2
   117          8
   118          1
   119         18
   121        513
   122         50
   123          4
   134          1
   135          3
   136        257
   137         29
   138          1