##TITLE=Library Entry 71694
##JCAMP-DX=Revision 4.10 
##DATA TYPE=MASS SPECTRUM
##SAMPLE DESCRIPTION=Patti Price, Georgia Bureau of Investigation, Decatur,
 Georgia
##NAMES=HP
##CAS NAME=Biperiden
##MOLFORM=C21H29NO
##CAS REGISTRY NO=514-65-8
##MP= -300
##BP= -300
##MW= 311
##$RETENTION INDEX=2257
##$CONDENSED SPECTRUM=NO
##NPOINTS= 84
##XYDATA=(XY..XY) 1 
    41         70
    42         71
    43         18
    44         42
    49          3
    50          1
    51         12
    52          2
    53          7
    54          6
    55         89
    56         29
    57          9
    58          1
    63          1
    65         15
    66         35
    67          7
    68          6
    69         18
    70         29
    71          1
    76          1
    77         59
    78         11
    79          9
    80          2
    81          1
    82          5
    83          8
    84         33
    85         30
    86          5
    89          1
    91         30
    92          3
    93          3
    94          1
    96         29
    97         13
    98        999
    99         76
   100          2
   102          1
   103          4
   104          1
   105         26
   106          2
   110          4
   111          4
   112         20
   113          3
   114         10
   115         11
   116          1
   117          1
   127          1
   128          7
   129          4
   130          1
   131          1
   133         13
   134          5
   141          1
   142          1
   143          2
   144          1
   152          1
   153          1
   165          1
   166          1
   167          1
   168          4
   216         13
   217          2
   218        148
   219         22
   220          1
   228          1
   244          3
   245          2
   293          1
   294          2
   311          1