##TITLE=Library Entry 72338
##JCAMP-DX=Revision 4.10 
##DATA TYPE=MASS SPECTRUM
##SAMPLE DESCRIPTION=Exported from NIST MS Search
##NAMES=HP
##CAS NAME=Cyclopropa[5,6]cholestane, 3-ethoxy-3',6-dihydro-, (3.beta.,5.alp
ha.,6.beta.)-
##MOLFORM=C30H52O
##CAS REGISTRY NO=51414-68-7
##MP= -300
##BP= -300
##MW= 428
##$RETENTION INDEX=0
##$CONDENSED SPECTRUM=NO
##NPOINTS= 229
##XYDATA=(XY..XY) 1 
    49          2
    50         14
    51         11
    52          7
    53         42
    54         11
    55        382
    56         65
    57        380
    58         34
    59         20
    60          2
    63          2
    64         50
    65         20
    66         24
    67        251
    68         51
    69        281
    70         51
    71        242
    72         40
    73         21
    74          5
    75          2
    76          5
    77         82
    78         40
    79        300
    80        100
    81        624
    82        100
    83        278
    84         35
    85        154
    86         21
    87         40
    88          7
    89          5
    90          7
    91        348
    92        131
    93        622
    94        300
    95        918
    96        114
    97        245
    98         58
    99        999
   100        185
   101         28
   102         28
   103         28
   104        588
   105        235
   106        697
   107        248
   108        465
   109         80
   110        797
   111         97
   112         54
   113         17
   114         34
   115         20
   116        237
   117         98
   118        514
   119        454
   120        648
   121        242
   122        242
   123        282
   124         64
   125        137
   126         27
   127         42
   128         22
   129         42
   130         22
   131        192
   132        100
   133        382
   134        297
   135        382
   136         91
   137        127
   138         57
   139         65
   140         11
   141         12
   142         11
   143         54
   144         25
   145        191
   146        120
   147        347
   148        128
   149        168
   150         31
   151         70
   152         34
   153         15
   154          7
   155         10
   156          7
   157         57
   158         28
   159        192
   160         71
   161        214
   162         91
   163        125
   164         27
   165         42
   166         80
   167         25
   168          2
   169         10
   170          5
   171         40
   172         32
   173        151
   174        100
   175        181
   176         51
   177         65
   178         17
   179         25
   180         38
   181         11
   182          2
   183         11
   184          2
   185         37
   186         21
   187         81
   188         35
   189        181
   190         37
   191         32
   192         10
   193         55
   194         15
   195          2
   197         11
   198          5
   199         35
   200         20
   201         44
   202         12
   203         50
   204         14
   205         28
   206         40
   207         40
   208          8
   223          5
   225          2
   226          4
   227         97
   228         38
   229         41
   230         14
   231         18
   232         11
   233         22
   234         17
   235          8
   241         25
   242         28
   243         35
   244          8
   245         25
   246         20
   247        145
   248         35
   249         11
   250          8
   267          8
   268          4
   269         90
   270         31
   271         15
   273         38
   274         34
   275         20
   276          8
   297          8
   298          5
   299          8
   300         22
   301        251
   302        182
   303         51
   304          8
   325         10
   326          5
   327        102
   328        154
   329        454
   330        234
   331         37
   332         10
   366          7
   367        151
   368         52
   369         15
   370          8
   371          7
   373          8
   374          8
   380          8
   381         17
   382        477
   383        182
   384         42
   385         14
   386          8
   387          7
   399         10
   400          7
   413         50
   414         21
   415          8
   427          5
   428        178
   429         60
   430         11