##TITLE=Library Entry 50304
##JCAMP-DX=Revision 4.10 
##DATA TYPE=MASS SPECTRUM
##SAMPLE DESCRIPTION=Chemical Concepts
##NAMES=HP
##CAS NAME=Bicyclo[2.2.1]heptan-2-one, 4-chloro-
##MOLFORM=C7H9ClO
##CAS REGISTRY NO=51417-66-4
##MP= -300
##BP= -300
##MW= 144
##$RETENTION INDEX=0
##$CONDENSED SPECTRUM=NO
##NPOINTS= 84
##XYDATA=(XY..XY) 1 
    26         21
    27        141
    29         15
    31          1
    35          4
    36         15
    37          9
    38         30
    39        258
    40         56
    41        244
    42         12
    43         17
    44          7
    45          1
    47          1
    49         21
    50         34
    51         70
    52         40
    53        159
    54         30
    55        272
    56          8
    57          7
    58          1
    60          5
    61         15
    62         10
    63         17
    64          5
    65         89
    66         61
    67        442
    68         28
    69          7
    70          2
    71          2
    72          1
    73          9
    74          5
    75         33
    76          5
    77         66
    78         17
    79        294
    80        532
    81        999
    82         67
    83          3
    84          1
    85          2
    86          0
    87          7
    88         63
    89          9
    90         20
    91          9
    92          1
    93          2
    95          3
    97          2
    99          2
   100         34
   101         30
   102         14
   103         14
   104          4
   105          4
   106          0
   107          4
   108        109
   109        280
   110         19
   111          1
   112          0
   113          0
   141          2
   142          0
   143          2
   144        239
   145         18
   146         63
   147          5