##TITLE=Library Entry 35381
##JCAMP-DX=Revision 4.10 
##DATA TYPE=MASS SPECTRUM
##SAMPLE DESCRIPTION=Exported from NIST MS Search
##NAMES=HP
##CAS NAME=6,10-Dodecadien-1-ol, 3,7,11-trimethyl-
##MOLFORM=C15H28O
##CAS REGISTRY NO=51411-24-6
##MP= -300
##BP= -300
##MW= 224
##$RETENTION INDEX=1696
##$CONDENSED SPECTRUM=NO
##NPOINTS= 70
##XYDATA=(XY..XY) 1 
    27         59
    28          2
    29         79
    30          2
    31         83
    39         63
    41        498
    42         37
    43        129
    44          6
    45         15
    53         91
    54          6
    55        229
    56         31
    57         59
    65         19
    66          4
    67        191
    68        109
    69        999
    70         75
    71         47
    72          2
    77         35
    78          6
    79         59
    80         25
    81        517
    82        119
    83         59
    84          8
    85         59
    86          4
    91         27
    93         35
    94         23
    95        328
    96         35
    97         15
    98          2
    99        169
   100          6
   105         15
   107         55
   108         13
   109        127
   110         23
   111         23
   112         10
   121         39
   122         19
   123        406
   124         57
   125          6
   134         25
   135          8
   137         65
   138         19
   139          4
   147         19
   149         19
   163         93
   164          6
   180          6
   181        219
   182         31
   209         19
   224         59
   225          6