##TITLE=Library Entry 6493
##JCAMP-DX=Revision 4.10 
##DATA TYPE=MASS SPECTRUM
##SAMPLE DESCRIPTION=Chemical Concepts
##NAMES=HP
##CAS NAME=1-Tetrazol-2-ylethanone
##MOLFORM=C3H4N4O
##CAS REGISTRY NO=51410-11-8
##MP= -300
##BP= -300
##MW= 112
##$RETENTION INDEX=0
##$CONDENSED SPECTRUM=NO
##NPOINTS= 27
##XYDATA=(XY..XY) 1 
    25          3
    26         14
    27         57
    28        173
    29         17
    30          1
    38          6
    39          9
    40         12
    41         86
    42        214
    43        999
    44         35
    45          3
    51          2
    52          1
    53          2
    54          1
    55         30
    56          4
    57          1
    69         13
    70          1
    71          7
    84          4
    85          1
   113         14