##TITLE=Library Entry 57321
##JCAMP-DX=Revision 4.10 
##DATA TYPE=MASS SPECTRUM
##SAMPLE DESCRIPTION=Chemical Concepts
##NAMES=HP
##CAS NAME=Cyclopentane, 1-bromo-2-fluoro-, cis-
##MOLFORM=C5H8BrF
##CAS REGISTRY NO=51422-72-1
##MP= -300
##BP= -300
##MW= 166
##$RETENTION INDEX=0
##$CONDENSED SPECTRUM=NO
##NPOINTS= 83
##XYDATA=(XY..XY) 1 
    26         24
    27         96
    29         38
    31         16
    33         50
    34          3
    37         15
    38         37
    39        211
    40         77
    41        670
    42         55
    43         32
    44         16
    45         18
    46         14
    47         12
    49          3
    50         13
    51         28
    52          6
    53         25
    54          6
    55         29
    56         13
    57         52
    58         14
    59        299
    60         35
    61          7
    62          9
    63         15
    64          5
    65         40
    66         30
    67        767
    68         49
    69         18
    70         13
    71         22
    72          7
    79          7
    80         10
    81          5
    82          9
    83         20
    84         11
    85        127
    86         70
    87        999
    88         54
    91          9
    92          3
    93          2
    95          3
    96          3
    97         13
    98          5
    99          3
   105          2
   106         27
   107          7
   108         28
   109          6
   111          7
   112          3
   113          4
   115          2
   119          8
   120          6
   121          7
   122          6
   124          7
   125          2
   126          8
   137          1
   138          2
   139          1
   140          2
   166         66
   167          4
   168         64
   169          3