##TITLE=Library Entry 89839
##JCAMP-DX=Revision 4.10 
##DATA TYPE=MASS SPECTRUM
##SAMPLE DESCRIPTION=V.A. KOPTYUG, ATLAS OF MS OF ORG. CMPDS., ED. 2
##NAMES=HP
##CAS NAME=4-Fluoro-6-aminopyrimidine
##MOLFORM=C4H4FN3
##CAS REGISTRY NO=51421-96-6
##MP= -300
##BP= -300
##MW= 113
##$RETENTION INDEX=0
##$CONDENSED SPECTRUM=NO
##NPOINTS= 76
##XYDATA=(XY..XY) 1 
    25          5
    26         10
    27         30
    28        177
    29         12
    30          2
    31         51
    32          5
    33          3
    37          2
    38         28
    39         44
    40         72
    41        234
    42         46
    43         52
    44         62
    45         14
    46         18
    47          2
    48          1
    49          1
    50          7
    51         20
    52         22
    53         20
    54          3
    55          8
    56          2
    57         10
    58         69
    59        136
    60         14
    61          1
    62          1
    63          2
    64          3
    65         14
    66         86
    67        118
    68         11
    69          9
    70         46
    71         28
    72          3
    73          2
    74          1
    75          2
    76          2
    77         13
    78          2
    79          2
    84          4
    85         42
    86         41
    87         22
    88          1
    89          1
    91          1
    92          9
    93          1
    94         14
    95          1
    96          1
    97         16
    98          2
    99          1
   101          1
   102          2
   103          2
   104          1
   105          2
   112         54
   113        999
   114         59
   115          4