##TITLE=Library Entry 50596
##JCAMP-DX=Revision 4.10 
##DATA TYPE=MASS SPECTRUM
##SAMPLE DESCRIPTION=J. M. PECHINE
##NAMES=HP
##CAS NAME=Cyclohexane, 1-bromo-2-fluoro-, cis-
##MOLFORM=C6H10BrF
##CAS REGISTRY NO=51422-74-3
##MP= -300
##BP= -300
##MW= 180
##$RETENTION INDEX=0
##$CONDENSED SPECTRUM=NO
##NPOINTS= 33
##XYDATA=(XY..XY) 1 
    27        107
    28         19
    29         35
    33         22
    39        146
    40         18
    41        265
    42         21
    46         22
    47         23
    50         16
    51         41
    52         15
    53         88
    54         48
    55        185
    57         19
    59        213
    65         25
    67         21
    72         55
    73         61
    77         26
    79         78
    80         30
    81        999
    82         74
    85         30
    99         12
   101        544
   102         36
   180        124
   182        121