##TITLE=Library Entry 16230
##JCAMP-DX=Revision 4.10 
##DATA TYPE=MASS SPECTRUM
##SAMPLE DESCRIPTION=V.A. KOPTYUG, ATLAS OF MS OF ORG. CMPDS., ED. 2
##NAMES=HP
##CAS NAME=Pyrimidine, 4-fluoro-6-dimethylamino-
##MOLFORM=C6H8FN3
##CAS REGISTRY NO=51421-97-7
##MP= -300
##BP= -300
##MW= 141
##$RETENTION INDEX=0
##$CONDENSED SPECTRUM=NO
##NPOINTS= 92
##XYDATA=(XY..XY) 1 
    24          1
    25          4
    26         18
    27         45
    28        171
    29         12
    30        372
    31         44
    32          9
    33         50
    36          1
    37          4
    38         11
    39         21
    40         27
    41         41
    42        261
    43         71
    44        999
    45         26
    46         18
    47          2
    48          2
    49          5
    50          5
    51         28
    52         83
    53         34
    54         19
    55         18
    56          6
    57         10
    58         19
    59         13
    60         28
    61          4
    62          3
    63          9
    64          3
    65          5
    66         19
    67         27
    68         20
    69         27
    70        112
    71        295
    72         39
    73          7
    74          3
    75          2
    76          3
    77         35
    78          7
    79         30
    80         26
    81         74
    82          6
    84         14
    85         17
    86         31
    87         16
    88          1
    89         12
    93         31
    94          4
    95         12
    96          3
    97        173
    98        153
    99        124
   100         11
   101          2
   102          2
   103          2
   104          1
   105          3
   106          2
   111         12
   112        705
   113        111
   114         18
   124         14
   125          9
   126        581
   127         43
   128         12
   138          9
   139          6
   140         87
   141        816
   142         59
   143          3