##TITLE=Library Entry 45625
##JCAMP-DX=Revision 4.10 
##DATA TYPE=MASS SPECTRUM
##SAMPLE DESCRIPTION=CRBRAT, 70( )239(1979); V. MIHALOV ET AL.
##NAMES=HP
##CAS NAME=.alpha.-D-Glucopyranosiduronamide, methyl 2,3-di-O-methyl-
##MOLFORM=C9H17NO6
##CAS REGISTRY NO=51432-85-0
##MP= -300
##BP= -300
##MW= 235
##$RETENTION INDEX=0
##$CONDENSED SPECTRUM=NO
##NPOINTS= 35
##XYDATA=(XY..XY) 1 
    45         51
    60         19
    69         17
    71         29
    73         64
    74         31
    75        999
    85         67
    87        129
    88        459
    89        179
    99        359
   100        259
   101        580
   102         75
   103         34
   112         63
   114         29
   117        899
   126         19
   127         25
   129         57
   130         35
   131         19
   133        619
   143         45
   144         35
   149        199
   161        379
   171         57
   172        139
   203         75
   204         39
   205         18
   235         21