##TITLE=Library Entry 85962
##JCAMP-DX=Revision 4.10 
##DATA TYPE=MASS SPECTRUM
##SAMPLE DESCRIPTION=NIST Mass Spectrometry Data Center, 1994
##NAMES=HP
##CAS NAME=5-Bromo-2-fluorotoluene
##MOLFORM=C7H6BrF
##CAS REGISTRY NO=51437-00-4
##MP= -300
##BP= -300
##MW= 188
##$RETENTION INDEX=0
##$CONDENSED SPECTRUM=NO
##NPOINTS= 78
##XYDATA=(XY..XY) 1 
    14          2
    15          8
    25          5
    26         24
    27         29
    31         70
    32          1
    33         17
    36          5
    37         44
    38         59
    39        109
    40          6
    43         24
    44         77
    48          5
    49         31
    50        114
    51         81
    52          8
    53          9
    54         28
    55          5
    56         33
    57        177
    58         10
    59         28
    60         10
    61         69
    62        113
    63        159
    64         16
    65          5
    68         26
    69         18
    70         11
    73         14
    74         52
    75         34
    76          8
    77          2
    78          2
    79         30
    80         35
    81        148
    82         52
    83        367
    84         45
    85         42
    86         32
    87         27
    88         12
    89         62
    90         11
    91          2
    92          6
    93         11
    94         25
    95         10
   104          7
   105         16
   107        199
   108        126
   109        999
   110         77
   111          4
   113          3
   117          5
   119          4
   141          2
   143          2
   161          4
   163          4
   187         40
   188        318
   189         60
   190        302
   191         25