##TITLE=Library Entry 86639
##JCAMP-DX=Revision 4.10 
##DATA TYPE=MASS SPECTRUM
##SAMPLE DESCRIPTION=NIST Mass Spectrometry Data Center
##NAMES=HP
##CAS NAME=4-Bromo-2-fluorotoluene
##MOLFORM=C7H6BrF
##CAS REGISTRY NO=51436-99-8
##MP= -300
##BP= -300
##MW= 188
##$RETENTION INDEX=0
##$CONDENSED SPECTRUM=NO
##NPOINTS= 93
##XYDATA=(XY..XY) 1 
    12          1
    13          1
    15          3
    17          1
    18          1
    25          2
    26         13
    27         17
    31         48
    33          8
    36          3
    37         26
    38         35
    39         67
    40          3
    41          1
    43         18
    44         62
    48          2
    49         16
    50         80
    51         49
    52          6
    53          7
    54         20
    55          5
    56         20
    57        127
    58          7
    59         23
    60          6
    61         43
    62         68
    63        104
    64         12
    65          2
    67          1
    68         24
    69         14
    70         12
    71          1
    72          1
    73         10
    74         33
    75         19
    76          3
    77          1
    78          1
    79         14
    80         23
    81         98
    82         29
    83        251
    84         37
    85         35
    86         22
    87         17
    88          8
    89         42
    90          7
    92          4
    93          9
    94         24
    95         12
   104          4
   105         12
   106         10
   107        185
   108        155
   109        999
   110         83
   111          5
   113          2
   117          3
   118          1
   119          4
   128          1
   130          1
   135          3
   137          4
   141          1
   143          2
   161          7
   163          4
   169          1
   171          1
   185          1
   187        101
   188        527
   189        146
   190        531
   191         39
   192          1