##TITLE=Library Entry 97481
##JCAMP-DX=Revision 4.10 
##DATA TYPE=MASS SPECTRUM
##SAMPLE DESCRIPTION=CRBRAT, 70( )239(1979); V. MIHALOV ET AL.
##NAMES=HP
##CAS NAME=.alpha.-D-Glucopyranosiduronamide, methyl 3-O-methyl-
##MOLFORM=C8H15NO6
##CAS REGISTRY NO=51432-83-8
##MP= -300
##BP= -300
##MW= 221
##$RETENTION INDEX=0
##$CONDENSED SPECTRUM=NO
##NPOINTS= 46
##XYDATA=(XY..XY) 1 
    45        108
    57         24
    58         26
    59         33
    60         13
    61         19
    68         15
    69         26
    71         68
    73         15
    74        218
    75        400
    85        163
    86        163
    87        418
    88        200
    89        145
   100         35
   101        499
   102         39
   103         39
   104         61
   112         24
   113         26
   115        108
   116        345
   117        999
   118         59
   119        836
   127         13
   129         50
   130         80
   145         24
   147        418
   148         28
   149         15
   157         50
   158         79
   159         39
   171          8
   172         13
   189         23
   190         30
   191         15
   221         17
   222          6