##TITLE=Library Entry 74702
##JCAMP-DX=Revision 4.10 
##DATA TYPE=MASS SPECTRUM
##SAMPLE DESCRIPTION=CRBRAT, 70( )239(1979); V. MIHALOV ET AL.
##NAMES=HP
##CAS NAME=.alpha.-D-Glucopyranosiduronamide, methyl 2,4-di-O-methyl-
##MOLFORM=C9H17NO6
##CAS REGISTRY NO=51432-87-2
##MP= -300
##BP= -300
##MW= 235
##$RETENTION INDEX=0
##$CONDENSED SPECTRUM=NO
##NPOINTS= 35
##XYDATA=(XY..XY) 1 
    45         15
    59          6
    60          9
    61          6
    72         30
    73         83
    74        132
    75         69
    85         61
    87         23
    88        125
    89         39
    96         16
    98         15
    99         16
   101        999
   102        616
   112         12
   114         14
   117         13
   126         10
   127         45
   129         13
   143         13
   144          9
   157         40
   158         12
   159         14
   160         16
   186         41
   191          8
   203         35
   204         12
   217         12
   235          4