##TITLE=Library Entry 76667
##JCAMP-DX=Revision 4.10 
##DATA TYPE=MASS SPECTRUM
##SAMPLE DESCRIPTION=V.G. Zaikin, TIPS RAS, Moscow, Russia
##NAMES=HP
##CAS NAME=Triethylsilyloxycyclopentane
##MOLFORM=C11H24OSi
##CAS REGISTRY NO=51440-20-1
##MP= -300
##BP= -300
##MW= 200
##$RETENTION INDEX=0
##$CONDENSED SPECTRUM=NO
##NPOINTS= 96
##XYDATA=(XY..XY) 1 
    25          9
    26         46
    27        151
    28         16
    29        144
    30          9
    31         57
    35          6
    36         26
    37          8
    38         19
    39        117
    40         29
    41        195
    42         92
    43         66
    44         29
    45        257
    46         14
    47        271
    48         14
    49         12
    50         18
    51         38
    52         43
    53         35
    54          8
    55         57
    56         19
    57         95
    58         48
    59        231
    60         35
    61         49
    62         33
    63         17
    65         21
    66         11
    67         58
    68         13
    69         18
    70          8
    71         29
    72          8
    73         81
    74         39
    75        808
    76         61
    77         51
    78         11
    79         68
    80          6
    81          4
    83          8
    84          7
    85         42
    86         17
    87        135
    88         17
    89         15
    90          5
    91         16
    93         11
    95          7
    98          5
    99          9
   100          5
   101         49
   102          9
   103        999
   104         98
   105         39
   106          5
   107         11
   108         14
   109          5
   111          7
   113         39
   114         11
   115         35
   116          8
   117          5
   129         27
   130          4
   141          7
   142          9
   143         32
   144          5
   170          9
   171        821
   172        122
   173         37
   174          4
   185          5
   200          7
   201          1