##TITLE=Library Entry 34671
##JCAMP-DX=Revision 4.10 
##DATA TYPE=MASS SPECTRUM
##SAMPLE DESCRIPTION=Exported from NIST MS Search
##NAMES=HP
##CAS NAME=1H-Tetrazole, 1,5-dimethyl-
##MOLFORM=C3H6N4
##CAS REGISTRY NO=5144-11-6
##MP= -300
##BP= -300
##MW= 98
##$RETENTION INDEX=0
##$CONDENSED SPECTRUM=NO
##NPOINTS= 23
##XYDATA=(XY..XY) 1 
    27        320
    28        630
    29         70
    30         10
    38         30
    39         80
    40        130
    41        130
    42        830
    43        570
    44         10
    52         10
    53         80
    54         30
    55         30
    56        760
    57         40
    67         10
    68         10
    69        999
    70         80
    98        320
    99         30