##TITLE=Library Entry 48868
##JCAMP-DX=Revision 4.10 
##DATA TYPE=MASS SPECTRUM
##SAMPLE DESCRIPTION=E.GIRAUDI, CENT. RECHERCHE, ROURE BERTRAND DUPONT, GRAS
SE, FR.
##NAMES=HP
##CAS NAME=(3E,5Z)-1,3,5-Undecatriene
##MOLFORM=C11H18
##CAS REGISTRY NO=51447-08-6
##MP= -300
##BP= -300
##MW= 150
##$RETENTION INDEX=1174
##$CONDENSED SPECTRUM=NO
##NPOINTS= 57
##XYDATA=(XY..XY) 1 
    38          1
    39        170
    40         28
    41        248
    42          8
    43         24
    44          5
    50          6
    51         37
    52         23
    53         53
    54         19
    55         48
    56          2
    57          6
    58          0
    62          0
    63          8
    64          0
    65         92
    66        128
    67        142
    68         14
    69          3
    75          0
    77        414
    78        148
    79        999
    80        717
    81         75
    82          5
    83          0
    89          1
    91        304
    92         28
    93        221
    94         41
    95          8
    96         23
    97          0
   103          2
   104          0
   105         10
   106          1
   107         20
   108          4
   109          3
   115          1
   117          0
   119          0
   121          5
   122          0
   135          0
   148          2
   150        259
   151         20
   152          0