##TITLE=Library Entry 4697
##JCAMP-DX=Revision 4.10 
##DATA TYPE=MASS SPECTRUM
##SAMPLE DESCRIPTION=Exported from NIST MS Search
##NAMES=HP
##CAS NAME=2(3H)-Furanone, dihydro-3,5-dimethyl-
##MOLFORM=C6H10O2
##CAS REGISTRY NO=5145-01-7
##MP= -300
##BP= -300
##MW= 114
##$RETENTION INDEX=0
##$CONDENSED SPECTRUM=NO
##NPOINTS= 22
##XYDATA=(XY..XY) 1 
    37         40
    38         73
    39        473
    41        466
    42        999
    43        635
    45        202
    50         15
    51         24
    53         53
    54         35
    55        882
    56         57
    57         13
    67         15
    69         26
    70        420
    71        106
    99         57
   100          8
   113          4
   114          5