##TITLE=Library Entry 37702
##JCAMP-DX=Revision 4.10 
##DATA TYPE=MASS SPECTRUM
##SAMPLE DESCRIPTION=Humboldt-Universitat zu Berlin, Department of Chemistry
, Analytical Group
##NAMES=HP
##CAS NAME=N-(3-Benzoyl-propionyl)-pyrrolidin
##MOLFORM=C14H17NO2
##CAS REGISTRY NO=51459-75-7
##MP= -300
##BP= -300
##MW= 231
##$RETENTION INDEX=0
##$CONDENSED SPECTRUM=NO
##NPOINTS= 121
##XYDATA=(XY..XY) 1 
    14          3
    15         21
    16          5
    17         23
    18         72
    26         10
    27         70
    28        100
    29         45
    30         31
    31          4
    38          5
    39         41
    40         12
    41         97
    42         62
    43        104
    44         14
    45          3
    50         37
    51        132
    52         10
    53         10
    54         11
    55        213
    56        111
    57         30
    58          3
    61          2
    62          3
    63          9
    64          2
    65          8
    66          2
    67          9
    68         25
    69         40
    70        999
    71         90
    72         37
    73          5
    74          8
    75          8
    76         20
    77        339
    78         31
    79          9
    80          3
    81          7
    82          8
    83        127
    84         17
    85          7
    86          2
    87          3
    89          4
    91         15
    92          3
    93          2
    95          5
    96          6
    97         16
    98         74
    99          9
   100          4
   102          3
   103         11
   105        401
   106         33
   107          4
   108          2
   109          3
   110          3
   111         33
   112         20
   113          4
   114          3
   115         45
   116          5
   117         20
   118          3
   119          2
   120         17
   121          4
   123          2
   124          4
   125          5
   126         57
   127          7
   128          2
   129          1
   131          7
   132          3
   133         92
   134         11
   135          2
   137          1
   139          2
   141          1
   142          2
   143          2
   145          2
   149          4
   153          2
   154          9
   155          1
   160          6
   161        188
   162         23
   163          3
   167          2
   171          4
   175          1
   176          7
   177          2
   186          2
   188          1
   203          3
   231         59
   232          8
   233          1