##TITLE=Library Entry 58515
##JCAMP-DX=Revision 4.10 
##DATA TYPE=MASS SPECTRUM
##SAMPLE DESCRIPTION=NIST Mass Spectrometry Data Center, 1998.
##NAMES=HP
##CAS NAME=Propane, 2-(ethylthio)-
##MOLFORM=C5H12S
##CAS REGISTRY NO=5145-99-3
##MP= -300
##BP= -300
##MW= 104
##$RETENTION INDEX=746
##$CONDENSED SPECTRUM=NO
##NPOINTS= 63
##XYDATA=(XY..XY) 1 
    14          1
    15          7
    25          1
    26         19
    27        178
    28         25
    29         76
    30          2
    32          2
    33          4
    34         12
    35         54
    36          1
    37          9
    38         17
    39        163
    40         21
    41        356
    42         64
    43        422
    44         16
    45        119
    46        110
    47        255
    48         11
    49         19
    50          1
    51          1
    53          2
    54          1
    55         72
    56          5
    57         22
    58         81
    59        171
    60         69
    61        557
    62        584
    63        148
    64         29
    65          6
    68          1
    69          4
    70          1
    71          6
    72          1
    73          5
    74         11
    75         95
    76         20
    77          5
    78          1
    85          1
    87          1
    89        999
    90         53
    91         47
    92          2
   103          9
   104        712
   105         47
   106         33
   107          2