##TITLE=Library Entry 21842
##JCAMP-DX=Revision 4.10 
##DATA TYPE=MASS SPECTRUM
##SAMPLE DESCRIPTION=Exported from NIST MS Search
##NAMES=HP
##CAS NAME=Androstan-3-one, 6,17-dihydroxy-, (5.beta.,6.alpha.,17.beta.)-
##MOLFORM=C19H30O3
##CAS REGISTRY NO=51467-36-8
##MP= -300
##BP= -300
##MW= 306
##$RETENTION INDEX=0
##$CONDENSED SPECTRUM=NO
##NPOINTS= 151
##XYDATA=(XY..XY) 1 
    41        640
    42         45
    43        472
    44         67
    45         25
    50         17
    51         25
    52          5
    53        198
    54         32
    55        999
    56         75
    57        336
    58         25
    65         42
    66         32
    67        452
    68        266
    69        261
    70         35
    71         82
    77        221
    78         35
    79        444
    80         70
    81        512
    82        108
    83        190
    84         65
    85         45
    91        336
    92         65
    93        517
    94        178
    95        464
    96         82
    97        175
    98         15
    99         10
   103          5
   104          2
   105        356
   106         90
   107        344
   108        163
   109        256
   110        168
   111        243
   112         15
   117         50
   118         40
   119        231
   120         70
   121        241
   122        190
   123        201
   124        100
   125         25
   129         15
   130          5
   131        115
   132         35
   133        231
   134        120
   135        201
   136         57
   137         70
   138         17
   139         10
   143         45
   144         15
   145        118
   146         40
   147        170
   148         85
   149        130
   150         32
   151        143
   152         17
   157         75
   158         25
   159        173
   160         42
   161        130
   162         45
   163         62
   164         45
   165         47
   166          5
   171         82
   172         35
   173        160
   174         80
   175         95
   176         40
   177         35
   178         25
   179         45
   185         25
   186         20
   187        155
   188         65
   189         80
   190         72
   191         25
   192         25
   193          5
   199         98
   200         25
   201        125
   202         25
   203         17
   207        110
   208         20
   211         45
   212         15
   213         90
   214         20
   215         75
   216         45
   217        180
   218        185
   219        344
   220         37
   226          7
   227         40
   228          7
   229        314
   230        140
   231        271
   232         75
   233         50
   243         17
   244         90
   245        299
   246         57
   247         17
   255        143
   256         17
   257         25
   258         72
   259         32
   260         17
   270        175
   271        108
   288        896
   289        170
   290         15
   306        829
   307        165
   308         17