##TITLE=Library Entry 77970
##JCAMP-DX=Revision 4.10 
##DATA TYPE=MASS SPECTRUM
##SAMPLE DESCRIPTION=MASS SPECTRA OF ORGANIC COMPOUNDS, CSIRO, B.H. KENNETT
 ET AL
##NAMES=HP
##CAS NAME=Megastigma-4,6(E),8(E)-triene
##MOLFORM=C13H20
##CAS REGISTRY NO=51468-86-1
##MP= -300
##BP= -300
##MW= 176
##$RETENTION INDEX=1329
##$CONDENSED SPECTRUM=NO
##NPOINTS= 87
##XYDATA=(XY..XY) 1 
    26         10
    27        280
    29        240
    30         10
    38         10
    39        370
    41        760
    42         40
    43        110
    50         30
    51        150
    52         60
    53        280
    54         30
    55        530
    56         30
    57         20
    58         20
    59         10
    63         80
    64         50
    65        210
    66         50
    67        150
    68         20
    69        230
    70         30
    71         60
    72         40
    73         20
    75         30
    76         20
    77        390
    78        120
    79        280
    80         60
    81        150
    82         30
    83         30
    89         40
    91        610
    92         90
    93        240
    94         70
    95         90
    96         20
   102         20
   103         80
   104         60
   105        999
   106        220
   107        240
   108         70
   109         10
   115        150
   116         70
   117        140
   118         40
   119        720
   120        480
   121        370
   122         50
   127         30
   128         80
   129         80
   130         50
   131        130
   132         40
   133        400
   134         80
   135         50
   141         20
   142         10
   143         20
   144         20
   145         60
   146         50
   147        160
   148        130
   149         20
   157         10
   159         40
   161        750
   162        110
   163         10
   176        530
   177         90