##TITLE=Library Entry 83318
##JCAMP-DX=Revision 4.10 
##DATA TYPE=MASS SPECTRUM
##SAMPLE DESCRIPTION=Div. of Experiment Therapeutics WRAIR, WRAMC, Washingto
n DC 20307
##NAMES=HP
##CAS NAME=1-[3,4-Dichloeophenyl]-3-[4-[.alpha.-[dimethylamino]-p-toluidino]
-6-methy-2-pyrimidinyl]guanidine
##MOLFORM=C23H27Cl2N7
##CAS REGISTRY NO=51475-54-8
##MP= -300
##BP= -300
##MW= 471
##$RETENTION INDEX=0
##$CONDENSED SPECTRUM=NO
##NPOINTS= 45
##XYDATA=(XY..XY) 1 
    42        253
    43        191
    44         31
    56         69
    58        221
    67        148
    68         33
    77         80
    78         86
    86        284
    89         32
    90        230
    92         36
   106        999
   108        188
   120         40
   130        111
   131        206
   155        129
   161        119
   182         51
   186         38
   196        224
   199         47
   211        132
   212        134
   213        815
   214        433
   238        535
   239        243
   256        111
   257         49
   348        196
   350         41
   365        153
   384        298
   385        183
   386        218
   387         77
   388         33
   400        873
   401        343
   402        605
   403        192
   404         96