##TITLE=Library Entry 56164
##JCAMP-DX=Revision 4.10 
##DATA TYPE=MASS SPECTRUM
##SAMPLE DESCRIPTION=Div. of Experiment Therapeutics WRAIR, WRAMC, Washingto
n DC 20307
##NAMES=HP
##CAS NAME=1-[4-Chloro-.alpha.,.alpha.,.alpha.-trifluoro-m-totlyl]-3-[4-[2-(
diethylamino)ethylamino]-6-methylpyrimidin-2-yl]guanidine
##MOLFORM=C19H25ClF3N7
##CAS REGISTRY NO=51474-75-0
##MP= -300
##BP= -300
##MW= 443
##$RETENTION INDEX=0
##$CONDENSED SPECTRUM=NO
##NPOINTS= 96
##XYDATA=(XY..XY) 1 
    41          5
    42         29
    43         23
    44         14
    49          1
    51          1
    52          0
    53          3
    54          6
    55          4
    56         22
    57          3
    58         72
    59          1
    63          0
    66         11
    67         18
    68          5
    69          3
    70          6
    71          9
    72          3
    75          0
    79          2
    80          1
    81          0
    82          4
    83          3
    84         10
    86        999
    87         46
    88          1
    92          1
    93          2
    94          0
    95          4
    96          2
    97          2
    99         43
   100          7
   106          0
   107          1
   108         15
   109          6
   110          0
   113          0
   120          3
   121          2
   122          0
   124          6
   125          2
   133          0
   134          6
   135          3
   137         20
   138          2
   144          1
   147          0
   149          3
   150          4
   151          5
   158          0
   159          0
   162          7
   163          3
   174          0
   176          5
   179          5
   181          1
   193          0
   195          3
   197          0
   220          2
   221          2
   222          0
   311          0
   328          0
   340          3
   342          1
   343          0
   344          5
   345         67
   346         11
   347         23
   348          3
   354          2
   356          1
   357          3
   359          2
   371          0
   414          0
   441          0
   442          6
   443         10
   444          2
   445          0