##TITLE=Library Entry 28069
##JCAMP-DX=Revision 4.10 
##DATA TYPE=MASS SPECTRUM
##SAMPLE DESCRIPTION=Div. of Experiment Therapeutics WRAIR, WRAMC, Washingto
n DC 20307
##NAMES=HP
##CAS NAME=1-[3,5-Dichlorophenyl]-3-[4-[.alpha.-[diethylamino]-4-hydroxy-m-t
oluidino]-6-methyl-2-pyrimidinyl]guanidine
##MOLFORM=C23H27Cl2N7O
##CAS REGISTRY NO=51474-73-8
##MP= -300
##BP= -300
##MW= 487
##$RETENTION INDEX=0
##$CONDENSED SPECTRUM=NO
##NPOINTS= 199
##XYDATA=(XY..XY) 1 
    41         45
    42        132
    43         56
    44        433
    45         13
    49          2
    51          5
    52          5
    53          3
    54          8
    55          7
    56         36
    58        999
    59         34
    60          1
    62          1
    63          3
    64          1
    65          4
    66          7
    67         14
    68          5
    69          4
    70          7
    72        209
    73        308
    74         30
    75          1
    76          1
    77          9
    78          5
    79          2
    80          3
    81          3
    82          4
    83          7
    84          2
    85          2
    86         19
    87          1
    89          2
    90          3
    91          3
    92          4
    93          4
    94          4
    95          2
    96          2
    97          5
    98          1
    99          4
   100          2
   101          1
   104          1
   105          2
   106          4
   107          2
   108         11
   109          6
   111          1
   113          2
   115          5
   116          2
   117          3
   118          2
   119          2
   120          1
   121          4
   122          4
   123          1
   124          9
   125          3
   126          3
   128          5
   131          2
   132          2
   133          3
   134          2
   135          4
   142          1
   143          8
   145          4
   146          2
   147          3
   149          3
   150         12
   151          1
   152          0
   155          1
   156          5
   157          4
   158          3
   159          4
   160          1
   161         15
   163         10
   165          1
   167          0
   170          4
   171          2
   172          3
   173          3
   177          1
   184          4
   185          6
   186          6
   187          8
   188          3
   189          2
   190          3
   191          0
   197          0
   198          3
   199         28
   200          8
   201          3
   206          1
   208          7
   209          0
   211          2
   212          4
   213          3
   214          0
   215          2
   220          0
   224          5
   225          4
   226          4
   227          9
   228          9
   229         23
   230         25
   231          1
   236         11
   237          7
   238          1
   239          0
   241          0
   242          2
   243          3
   245          1
   252          1
   253          3
   254         19
   255         11
   256          6
   271          3
   272          6
   273          2
   297          4
   301          3
   309          2
   310          3
   311          2
   312          2
   329          0
   344          7
   345          2
   364          7
   365          2
   366          3
   368          3
   370          0
   379          3
   380          1
   381         10
   382          6
   383          4
   384          2
   386          0
   396          2
   397          3
   398          7
   399         11
   400          6
   401          7
   402          2
   403          1
   413         10
   414          2
   415         11
   416         54
   417         17
   418         38
   419          9
   420          7
   441          5
   442          0
   443          3
   445          1
   458         13
   459          3
   460          7
   461          1
   462          0
   487          7
   488          3
   489          5
   490          2