##TITLE=Library Entry 77964
##JCAMP-DX=Revision 4.10 
##DATA TYPE=MASS SPECTRUM
##SAMPLE DESCRIPTION=Chemical Concepts
##NAMES=HP
##CAS NAME=2,3-Benzocyclododecenedimethanol, 1,2,3,4,5,6,7,8,9,10,11,12,13,1
4-tetradecahydro-, (2R*,3S*)-
##MOLFORM=C18H32O2
##CAS REGISTRY NO=51471-32-0
##MP= -300
##BP= -300
##MW= 280
##$RETENTION INDEX=0
##$CONDENSED SPECTRUM=NO
##NPOINTS= 170
##XYDATA=(XY..XY) 1 
    26          1
    27         65
    28          3
    29        152
    30          4
    31        113
    39         61
    40         18
    41        367
    42         35
    43        114
    44          4
    45          6
    50          1
    51         10
    52          5
    53         63
    54         21
    55        266
    56         23
    57         71
    58          5
    59          2
    63          2
    64          2
    65         40
    66         17
    67        172
    68         28
    69        104
    70         17
    71         34
    72          3
    73          1
    77         99
    78         35
    79        178
    80         68
    81        163
    82        177
    83         84
    84          9
    85         14
    86          2
    87          2
    89          2
    90          2
    91        307
    92         99
    93        163
    94         62
    95        124
    96         25
    97         42
    98          6
    99          2
   100          2
   102          2
   103         17
   104         36
   105        999
   106        149
   107        113
   108         44
   109         59
   110         17
   111         12
   112          2
   113          2
   115         13
   116         10
   117         66
   118         45
   119        176
   120         66
   121         73
   122         25
   123         27
   124         15
   125          5
   126          2
   127          2
   128          6
   129          8
   130          7
   131         51
   132         23
   133         65
   134         24
   135         67
   136         23
   137         14
   138         38
   139          6
   141          2
   142          1
   143          5
   144          3
   145         33
   146         11
   147         41
   148         18
   149         28
   150          7
   151          7
   152          3
   153          2
   157          2
   158          2
   159         13
   160          6
   161         23
   162          7
   163          9
   164          6
   165          2
   166          2
   167          2
   173          7
   174          2
   175         13
   176          5
   177          6
   178          4
   179          2
   180          6
   187          3
   188          2
   189          7
   190          2
   191          2
   192          2
   193          2
   194          2
   201          3
   202          2
   203         14
   204         66
   205         20
   206          2
   207          2
   215          2
   216         13
   217         13
   218         24
   219         24
   220          4
   221          3
   229          3
   230         25
   231        270
   232         50
   233         12
   234          7
   235          2
   243          2
   244         11
   245          2
   247          2
   248          2
   249         12
   250          7
   251          2
   260          2
   261          2
   262        266
   263         66
   264          6
   280         11
   281          2