##TITLE=Library Entry 68355
##JCAMP-DX=Revision 4.10 
##DATA TYPE=MASS SPECTRUM
##SAMPLE DESCRIPTION=Japan AIST/NIMC Database- Spectrum MS-IW-3607
##NAMES=HP
##CAS NAME=Cimetidine
##MOLFORM=C10H16N6S
##CAS REGISTRY NO=51481-61-9
##MP= -300
##BP= -300
##MW= 252
##$RETENTION INDEX=0
##$CONDENSED SPECTRUM=NO
##NPOINTS= 176
##XYDATA=(XY..XY) 1 
    14          1
    15         27
    25          1
    26         31
    27         36
    28         94
    29         13
    30        196
    31         10
    32         12
    33          3
    34          6
    35          6
    36          1
    37          3
    38          5
    39         22
    40         24
    41        104
    42        176
    43         41
    44         93
    45         32
    46         11
    47         11
    48          4
    49          1
    50          3
    51         10
    52         39
    53        108
    54         96
    55         70
    56         47
    57        267
    58         31
    59         61
    60         36
    61         21
    62          9
    63          3
    64          3
    65          2
    66          9
    67         52
    68        122
    69        108
    70         21
    71         13
    72         13
    73         45
    74         13
    75          7
    76         30
    77          3
    78          4
    79          3
    80         15
    81         47
    82        305
    83        148
    84         21
    85         15
    86         10
    87         12
    88          6
    89          1
    90          5
    91          1
    92          3
    93          5
    94        147
    95        999
    96        943
    97        142
    98        186
    99        450
   100         36
   101         15
   102         19
   103          4
   104          1
   105          3
   106          1
   107          5
   108          8
   109         11
   110         15
   111        404
   112        134
   113         10
   114          2
   115         35
   116         19
   117         22
   118          3
   119          3
   120          4
   121         14
   122          7
   123         14
   124         19
   125        397
   126        669
   127        503
   128        218
   129         31
   130         13
   131          7
   132          5
   133          2
   134          1
   135          9
   136          6
   137          2
   138          1
   139          2
   140          3
   141          6
   142         18
   143          5
   144          2
   146          1
   148          1
   149          3
   150          1
   151          1
   152          2
   153          5
   154          4
   155          4
   156          9
   157        252
   158        247
   159         50
   160         13
   161          2
   163          1
   164          1
   167          2
   168          3
   169          2
   170          4
   171          4
   173          1
   175          1
   177          1
   179          4
   180          1
   181          1
   186          1
   187          1
   188          1
   189          3
   190          4
   191          2
   192          1
   193          1
   195          1
   205          1
   206         27
   207          4
   210          1
   217          1
   219         14
   220          3
   221          5
   222          2
   223          1
   230          1
   232          1
   250          3
   252        594
   253         90
   254         31
   255          4