##TITLE=Library Entry 51774
##JCAMP-DX=Revision 4.10 
##DATA TYPE=MASS SPECTRUM
##SAMPLE DESCRIPTION=VERIFIN - Methodology B1-1979
##NAMES=HP
##CAS NAME=4-Isopropyl-2,6,7-trioxa-1-phosphabicyclo[2.2.2]octane
##MOLFORM=C7H13O3P
##CAS REGISTRY NO=51486-55-6
##MP= -300
##BP= -300
##MW= 176
##$RETENTION INDEX=1327
##$CONDENSED SPECTRUM=NO
##NPOINTS= 34
##XYDATA=(XY..XY) 1 
    27         50
    28         10
    39        100
    41        280
    42         30
    43        100
    44         10
    47         90
    51         10
    53         60
    54         50
    55        330
    56         60
    57         20
    65         40
    67        510
    68         70
    69        140
    77         20
    79         30
    81         60
    82        999
    83        190
    94         20
   103         40
   105         30
   109        140
   131        190
   132          8
   145         90
   146        660
   147         30
   176        200
   177          5