##TITLE=Library Entry 69591
##JCAMP-DX=Revision 4.10 
##DATA TYPE=MASS SPECTRUM
##SAMPLE DESCRIPTION=A.A.Kutin, Moscow, Russia
##NAMES=HP
##CAS NAME=Pyrimidin-4-ol, 6-methyl-2-mercapto-5-propyl-
##MOLFORM=C8H12N2OS
##CAS REGISTRY NO=51482-41-8
##MP= -300
##BP= -300
##MW= 184
##$RETENTION INDEX=0
##$CONDENSED SPECTRUM=NO
##NPOINTS= 108
##XYDATA=(XY..XY) 1 
    34          2
    35          1
    36          0
    37         11
    38         29
    39        167
    40         45
    41        162
    42        715
    43         57
    44         37
    45         18
    46          8
    47          7
    48          2
    49          4
    50         40
    51         86
    52        104
    53        177
    54         85
    55        480
    56         24
    57         11
    58         21
    59         75
    60         85
    61         10
    62         10
    63         13
    64          9
    65         32
    66         33
    67         71
    68         92
    69         88
    70         25
    71          7
    72         12
    73          3
    74          5
    75          4
    76          5
    77         40
    78         12
    79         46
    80         38
    81         35
    82         43
    83         52
    84         24
    85          8
    86         39
    87          3
    88          2
    91          1
    92          3
    93          9
    94         18
    96        999
    97         69
    98         40
    99          6
   100         10
   101          7
   104          2
   105          2
   106          7
   107          9
   108          7
   109          6
   110         67
   111          8
   112          3
   113          5
   114          8
   121          2
   122          4
   123         11
   124         14
   125          4
   126         10
   127         34
   128         13
   129          2
   137          3
   138         14
   139          3
   140          6
   141          4
   142          9
   150          2
   151          2
   152          5
   155        716
   156        241
   157         50
   158         12
   166          4
   167         14
   169        230
   170         21
   171         12
   181          2
   184        967
   185        108
   186         53
   187          4