##TITLE=Library Entry 32496
##JCAMP-DX=Revision 4.10 
##DATA TYPE=MASS SPECTRUM
##SAMPLE DESCRIPTION=Chemical Concepts
##NAMES=HP
##CAS NAME=1,5,9,13-Tetradecatetraene
##MOLFORM=C14H22
##CAS REGISTRY NO=51487-38-8
##MP= -300
##BP= -300
##MW= 190
##$RETENTION INDEX=0
##$CONDENSED SPECTRUM=NO
##NPOINTS= 89
##XYDATA=(XY..XY) 1 
    25          3
    27         58
    29         39
    30          3
    38         20
    39        265
    40          4
    41        676
    42          5
    43         13
    47          1
    50          1
    51         31
    52         32
    53        176
    54        167
    55        439
    56         40
    57         33
    58          3
    63         19
    64          1
    65         76
    66         84
    67        999
    68        145
    69        116
    70         35
    71         20
    77        152
    78          7
    79        513
    80        175
    81        307
    82        105
    83         63
    84         22
    85         11
    89          1
    91        141
    92         50
    93        426
    94        200
    95        587
    96        102
    97         37
    98         10
   103          2
   104          7
   105         44
   106         39
   107        124
   108         53
   109         47
   110         34
   111         13
   112          3
   115          7
   117          6
   118          1
   119         66
   120         34
   121         92
   122         47
   123         19
   124         21
   125          4
   128          1
   129          2
   132          1
   133        100
   134         42
   135         80
   136         27
   137         11
   138          6
   147         73
   148         45
   149         68
   150         15
   151          3
   152          2
   161         43
   162         11
   163         13
   175         19
   176          1
   190         24
   191          3