##TITLE=Library Entry 31689
##JCAMP-DX=Revision 4.10 
##DATA TYPE=MASS SPECTRUM
##SAMPLE DESCRIPTION=A.A.Kutin, Moscow, Russia
##NAMES=HP
##CAS NAME=4H-1-Benzopyran-4-one, 6-bromo-
##MOLFORM=C9H5BrO2
##CAS REGISTRY NO=51483-92-2
##MP= -300
##BP= -300
##MW= 224
##$RETENTION INDEX=0
##$CONDENSED SPECTRUM=NO
##NPOINTS= 96
##XYDATA=(XY..XY) 1 
    36         21
    37        150
    38        110
    39         98
    40        134
    41         42
    46          5
    48          9
    49         58
    50        153
    51         44
    53        182
    54         30
    55          5
    57          3
    58         23
    60         50
    61        222
    62        496
    63        999
    64         60
    65         29
    66          9
    67          2
    72         28
    73        109
    74        376
    75        362
    76         42
    77         18
    78          3
    79         26
    80         11
    81         21
    82         10
    83          6
    84         55
    85        113
    86         88
    87         63
    88         81
    89        447
    90         54
    91         33
    92          4
    93          4
   100          8
   101          2
   103          2
   104          4
   106          3
   112         27
   113         25
   115          7
   116         26
   117        153
   118         25
   119         24
   128          3
   129          1
   130          4
   131          1
   141         10
   142         52
   143         16
   144         52
   145        142
   146         15
   153          5
   154         15
   155         12
   156         13
   157          6
   167         10
   168         14
   169         19
   170        235
   171         24
   172        214
   173         14
   174          3
   182          3
   183          2
   184          2
   185          2
   196        278
   197         41
   198        473
   199         45
   200        186
   201         14
   224        993
   225        139
   226        990
   227        101
   228          7