##TITLE=Library Entry 47394
##JCAMP-DX=Revision 4.10 
##DATA TYPE=MASS SPECTRUM
##SAMPLE DESCRIPTION=Japan AIST/NIMC Database- Spectrum MS-NW-5024
##NAMES=HP
##CAS NAME=Ethyl benzenesulfonate
##MOLFORM=C8H10O3S
##CAS REGISTRY NO=515-46-8
##MP= -300
##BP= -300
##MW= 186
##$RETENTION INDEX=0
##$CONDENSED SPECTRUM=NO
##NPOINTS= 93
##XYDATA=(XY..XY) 1 
    14          3
    15         14
    16          1
    25          3
    26         21
    27         72
    28         27
    29         87
    30          3
    31          6
    32          3
    37          3
    38          8
    39         34
    40          5
    41          1
    42          2
    43         12
    44          4
    45         56
    46          2
    48          8
    49          3
    50         82
    51        279
    52         19
    53          5
    55          4
    57          1
    58          1
    59          1
    60          1
    61          1
    62          4
    63          8
    64         15
    65         42
    66         32
    67          2
    69          6
    70          1
    71          1
    73          4
    74         21
    75         19
    76         27
    77        999
    78        285
    79         19
    80          2
    81          2
    82          2
    84          2
    91          4
    92          2
    93         13
    94        182
    95         11
    96          1
    97          6
   103          1
   105          1
   107          4
   108          7
   109          6
   110         11
   111          3
   112          1
   113          1
   125          7
   126          1
   127          1
   128          1
   141        624
   142        171
   143         47
   144          9
   145          1
   154          1
   155          1
   156          5
   157          1
   158        101
   159         10
   160          6
   171         32
   172          6
   173          2
   185          1
   186        137
   187         13
   188          9
   189          1