##TITLE=Library Entry 49805
##JCAMP-DX=Revision 4.10 
##DATA TYPE=MASS SPECTRUM
##SAMPLE DESCRIPTION=Exported from NIST MS Search
##NAMES=HP
##CAS NAME=1-Naphthalenepropanol, .alpha.-ethenyldecahydro-2-hydroxy-.alpha.
,2,5,5,8a-pentamethyl-, [1R-[1.alpha.(R*),2.beta.,4a.beta.,8a.alpha.]]-
##MOLFORM=C20H36O2
##CAS REGISTRY NO=515-03-7
##MP= -300
##BP= -300
##MW= 308
##$RETENTION INDEX=2227
##$CONDENSED SPECTRUM=NO
##NPOINTS= 201
##XYDATA=(XY..XY) 1 
    14          4
    15         18
    16         12
    17         72
    18        396
    26         18
    27        176
    28         52
    29        206
    30          4
    31          4
    37          8
    38         18
    39        276
    40         64
    41        869
    42         68
    43        723
    44         48
    45         12
    50         16
    51         72
    52         44
    53        316
    54         44
    55        727
    56         84
    57        164
    58         24
    59          4
    62          8
    63         28
    64         12
    65        148
    66         64
    67        414
    68         46
    69        527
    70         60
    71        104
    72          4
    73          6
    75         12
    76          8
    77        340
    78         72
    79        587
    80        292
    81        999
    82        206
    83        244
    84         52
    85         46
    86          2
    87          4
    89         16
    90          8
    91        567
    92        188
    93        723
    94        296
    95        847
    96        150
    97        174
    98         10
   101          4
   102          8
   103         64
   104         42
   105        637
   106        248
   107        659
   108        236
   109        769
   110         96
   111         74
   112         10
   113         26
   114          6
   115         90
   116         40
   117        146
   118         52
   119        484
   120        288
   121        609
   122        228
   123        428
   124        104
   125         98
   126         14
   127         24
   128         54
   129         64
   130         30
   131        132
   132         58
   133        384
   134        312
   135        480
   136        204
   137        438
   138         36
   139         22
   141         28
   142         20
   143         38
   144         20
   145        132
   146         54
   147        276
   148        404
   149        292
   150         86
   151         60
   152         18
   153         16
   154          4
   155         14
   156         10
   157         24
   158         14
   159        116
   160         36
   161        440
   162        116
   163        188
   164         40
   165         36
   166         30
   167         10
   169          6
   171         16
   172          8
   173         96
   174         30
   175        224
   176        124
   177        290
   178         60
   179         32
   180          4
   185         12
   186          4
   187        164
   188         60
   189        328
   190        188
   191        484
   192        184
   193         40
   194          4
   195         40
   196          4
   199          6
   200          2
   201         98
   202         56
   203        106
   204        474
   205        118
   206         22
   207         24
   208          4
   215         56
   216         52
   217         38
   218         14
   219         18
   220         14
   221          8
   227          4
   229         68
   230         36
   231         16
   232         12
   233          4
   241         10
   242          4
   243         62
   244         50
   245         32
   246          4
   247         10
   255          4
   256          4
   257        611
   258        132
   259         26
   260          2
   261          4
   263          2
   270          4
   271         10
   272        350
   273         84
   274         12
   275        170
   276         36
   290         32
   291          4