##TITLE=Library Entry 11582
##JCAMP-DX=Revision 4.10 
##DATA TYPE=MASS SPECTRUM
##SAMPLE DESCRIPTION=Japan AIST/NIMC Database- Spectrum MS-NW-7445
##NAMES=HP
##CAS NAME=Atrolactic acid
##MOLFORM=C9H10O3
##CAS REGISTRY NO=515-30-0
##MP= -300
##BP= -300
##MW= 166
##$RETENTION INDEX=0
##$CONDENSED SPECTRUM=NO
##NPOINTS= 73
##XYDATA=(XY..XY) 1 
    15         16
    17          3
    18         10
    26          2
    27         14
    28          9
    29          3
    37          2
    38          7
    39         27
    40          2
    41          4
    42          2
    43        999
    44         23
    45         13
    46          1
    47          1
    49          3
    50         36
    51        102
    52         20
    53          6
    55          2
    57          1
    59          2
    60          5
    61          2
    62          6
    63         13
    64          2
    65         14
    66          2
    67          1
    69          1
    73          2
    74         13
    75          9
    76         13
    77        160
    78         45
    79         11
    86          1
    87          1
    89          5
    90          2
    91         22
    92          3
    94          1
    98          1
   101          2
   102          8
   103         40
   104         34
   105         83
   106         12
   107          1
   119          2
   120          7
   121        932
   122         70
   123          5
   131          1
   132          2
   133          1
   135          1
   143          1
   147          3
   148         10
   149          8
   150          2
   166          8
   167          1