##TITLE=Library Entry 894
##JCAMP-DX=Revision 4.10 
##DATA TYPE=MASS SPECTRUM
##SAMPLE DESCRIPTION=Japan AIST/NIMC Database- Spectrum MS-NW-2297
##NAMES=HP
##CAS NAME=Alanine, 3-amino-
##MOLFORM=C3H8N2O2
##CAS REGISTRY NO=515-94-6
##MP= -300
##BP= -300
##MW= 104
##$RETENTION INDEX=0
##$CONDENSED SPECTRUM=NO
##NPOINTS= 46
##XYDATA=(XY..XY) 1 
    14          3
    15         20
    16         31
    17         44
    18         60
    26          4
    27         18
    28        148
    29        102
    30        999
    31         16
    32          3
    36          3
    38          2
    39          6
    40          8
    41         21
    42         59
    43         53
    44         79
    45         11
    46          7
    51          1
    52          2
    53          4
    54          3
    55          4
    56          5
    57         98
    58         13
    59         50
    60          2
    66          1
    67          1
    68          3
    69          6
    70          4
    74          9
    75        128
    76          4
    77          2
    78          2
    83          2
    85          2
    86          3
    87          2