##TITLE=Library Entry 50406
##JCAMP-DX=Revision 4.10 
##DATA TYPE=MASS SPECTRUM
##SAMPLE DESCRIPTION=Exported from NIST MS Search
##NAMES=HP
##CAS NAME=Cyclohexane, 1-ethenyl-1-methyl-2,4-bis(1-methylethenyl)-, [1S-(1
.alpha.,2.beta.,4.beta.)]-
##MOLFORM=C15H24
##CAS REGISTRY NO=515-13-9
##MP= -300
##BP= -300
##MW= 204
##$RETENTION INDEX=1391
##$CONDENSED SPECTRUM=NO
##NPOINTS= 100
##XYDATA=(XY..XY) 1 
    27        174
    28         34
    29        184
    30          5
    38          7
    39        261
    40         94
    41        582
    42         58
    43        130
    44          5
    50         12
    51         48
    52         29
    53        348
    54         34
    55        406
    56         19
    57         39
    58          5
    59          2
    63         14
    64         10
    65         99
    66         68
    67        486
    68        744
    69        217
    70         14
    71          7
    72          5
    73          2
    75         10
    76          5
    77        222
    78         48
    79        411
    80        140
    81        999
    82         97
    83         22
    84          5
    85          5
    89          7
    90          5
    91        283
    92        114
    93        870
    94        256
    95        249
    96         29
    97         14
   103         17
   104         10
   105        290
   106        121
   107        522
   108        251
   109        111
   110         14
   111          5
   115         12
   116          5
   117         17
   118         10
   119        234
   120        104
   121        411
   122        106
   123        116
   124         12
   125          2
   128          5
   129          2
   130          2
   131         10
   132          7
   133        222
   134        106
   135        184
   136         58
   137          5
   145         10
   146          5
   147        357
   148        157
   149         63
   150         10
   160          5
   161        242
   162         80
   163         48
   164          5
   175         58
   176         27
   177          5
   189        222
   190         34
   204         39
   205          5