##TITLE=Library Entry 15162
##JCAMP-DX=Revision 4.10 
##DATA TYPE=MASS SPECTRUM
##SAMPLE DESCRIPTION=NIST Mass Spectrometry Data Center
##NAMES=HP
##CAS NAME=Semioxamazide
##MOLFORM=C2H5N3O2
##CAS REGISTRY NO=515-96-8
##MP= -300
##BP= -300
##MW= 103
##$RETENTION INDEX=0
##$CONDENSED SPECTRUM=NO
##NPOINTS= 23
##XYDATA=(XY..XY) 1 
    14          6
    16         33
    17         25
    26          8
    27         19
    29         84
    30         75
    31        300
    32        646
    41          7
    42         24
    43         89
    44        999
    45         42
    46         21
    50          8
    51          9
    56          9
    58         36
    59         58
    60         31
   103        477
   104         17