##TITLE=Library Entry 727
##JCAMP-DX=Revision 4.10 
##DATA TYPE=MASS SPECTRUM
##SAMPLE DESCRIPTION=Japan AIST/NIMC Database- Spectrum MS-IW-6144
##NAMES=HP
##CAS NAME=Acetic acid, trichloro-, ethyl ester
##MOLFORM=C4H5Cl3O2
##CAS REGISTRY NO=515-84-4
##MP= -300
##BP= -300
##MW= 190
##$RETENTION INDEX=962
##$CONDENSED SPECTRUM=NO
##NPOINTS= 85
##XYDATA=(XY..XY) 1 
    12          1
    14          4
    15         13
    25          1
    26         17
    27        217
    28         45
    29        999
    30         50
    31          4
    35          8
    36         17
    37          2
    38          6
    39          5
    40          1
    41          2
    42          4
    43         27
    44         28
    45         28
    46          2
    47         56
    48          6
    49         22
    50          2
    51          1
    56          1
    61          1
    63         35
    64          1
    65         11
    73         15
    75          9
    76          2
    77          5
    78          1
    82         90
    83         86
    84         57
    85         55
    86          9
    87          9
    99         12
   101          7
   103          1
   110         36
   111         62
   112         24
   113         40
   114          5
   115          7
   117        310
   118          4
   119        299
   120          4
   121         96
   122          1
   123          9
   127         10
   128          4
   129          7
   130          2
   131          1
   145         15
   146          1
   147         22
   148          1
   149         12
   151          3
   155         66
   156          3
   157         42
   158          2
   159          7
   161          3
   163          8
   165          6
   167          2
   175          6
   177          5
   179          2
   189          1
   191          4
   193          2