##TITLE=Library Entry 6172
##JCAMP-DX=Revision 4.10 
##DATA TYPE=MASS SPECTRUM
##SAMPLE DESCRIPTION=N.W. Davies, Centr. Sci. Lab., Univ. Tasmania, Hobart,
 Australia
##NAMES=HP
##CAS NAME=.alpha.-Bisabolol
##MOLFORM=C15H26O
##CAS REGISTRY NO=515-69-5
##MP= -300
##BP= -300
##MW= 222
##$RETENTION INDEX=1684
##$CONDENSED SPECTRUM=NO
##NPOINTS= 76
##XYDATA=(XY..XY) 1 
    27        205
    28         52
    29        189
    31         19
    38         10
    39        261
    40         61
    41        893
    42         66
    43        999
    44         25
    45         53
    50         10
    51         48
    52         25
    53        217
    54         35
    55        353
    56         72
    57         75
    58         87
    59         33
    63         14
    65         65
    66         29
    67        281
    68        107
    69        803
    70         76
    71        258
    72         17
    77        143
    78         34
    79        204
    80         75
    81        157
    82         95
    83         68
    84         19
    85         26
    91        131
    92         74
    93        385
    95        276
    96         45
    97         25
   105        110
   106         29
   107        127
   108         52
   109        500
   110         58
   111         35
   117         10
   119        397
   120         69
   121        189
   122         60
   123         25
   125         16
   127         38
   133         45
   134         65
   135         47
   136         15
   137         24
   139         44
   143         13
   147         32
   148         27
   149         12
   161         56
   162         13
   189         23
   204        136
   205         29