##TITLE=Library Entry 49000
##JCAMP-DX=Revision 4.10 
##DATA TYPE=MASS SPECTRUM
##SAMPLE DESCRIPTION=Japan AIST/NIMC Database- Spectrum MS-NW-5460
##NAMES=HP
##CAS NAME=Bicyclo[3.1.1]hept-2-ene-2-methanol, 6,6-dimethyl-
##MOLFORM=C10H16O
##CAS REGISTRY NO=515-00-4
##MP= -300
##BP= -300
##MW= 152
##$RETENTION INDEX=1195
##$CONDENSED SPECTRUM=NO
##NPOINTS= 102
##XYDATA=(XY..XY) 1 
    14          1
    15          7
    17          1
    18          4
    26          4
    27        104
    28         29
    29         65
    30          2
    31         66
    32          6
    37          2
    38          8
    39        142
    40         22
    41        248
    42         21
    43        157
    44          6
    45          4
    50         16
    51         50
    52         23
    53         80
    54         16
    55        107
    56         21
    57         16
    58          5
    59         24
    60          4
    61          2
    62          5
    63         16
    64          6
    65         55
    66         29
    67        133
    68         38
    69         60
    70         18
    71          7
    72          2
    73          1
    74          3
    75          4
    76          3
    77        148
    78         51
    79        999
    80         85
    81         86
    82         35
    83         29
    84          5
    85         28
    86          2
    87          1
    89          5
    90          6
    91        421
    92        109
    93        183
    94         29
    95         45
    96         33
    97          8
    98         10
    99          1
   101          1
   102          3
   103         16
   104         10
   105         76
   106         34
   107         69
   108        275
   109         85
   110         13
   111          7
   112          1
   115          9
   116          3
   117         21
   118          5
   119        155
   120         19
   121        101
   122         12
   123         22
   124          4
   125          1
   132          2
   133          7
   134         30
   135          8
   136          4
   137         11
   138          1
   151          1
   152         28
   153          4