##TITLE=Library Entry 99080
##JCAMP-DX=Revision 4.10 
##DATA TYPE=MASS SPECTRUM
##SAMPLE DESCRIPTION=NIST Mass Spectrometry Data Center
##NAMES=HP
##CAS NAME=1-Chloro-2-methyl-2-phenylpropane
##MOLFORM=C10H13Cl
##CAS REGISTRY NO=515-40-2
##MP= -300
##BP= -300
##MW= 168
##$RETENTION INDEX=0
##$CONDENSED SPECTRUM=NO
##NPOINTS= 77
##XYDATA=(XY..XY) 1 
    11          1
    13          3
    15         48
    26         17
    27         90
    28         13
    30          1
    35          2
    36          4
    37         13
    38         39
    39        253
    40         32
    41        248
    42          6
    44          1
    47          4
    49         89
    50        111
    51        254
    52         51
    53         37
    54          5
    55         21
    56          4
    58         26
    61          9
    62         30
    63         78
    64         23
    65         93
    66          7
    73          8
    74         20
    75         41
    76         36
    77        184
    78         89
    79        102
    80          7
    85          2
    86          6
    87          9
    89         37
    91        787
    92         64
    93          6
    98          2
    99          3
   101          9
   102         39
   103         93
   104         26
   105          9
   112          1
   113          4
   115        129
   116         36
   117        118
   119        999
   120        102
   121          5
   125         14
   126          3
   127          6
   128          5
   129          2
   131          3
   132          2
   133          1
   153          9
   154          1
   155          3
   168         53
   169          7
   170         17
   171          2