##TITLE=Library Entry 3905
##JCAMP-DX=Revision 4.10 
##DATA TYPE=MASS SPECTRUM
##SAMPLE DESCRIPTION=V.A.KOPTYUG, ATLAS OF MASS SPECTRA OF ORGANIC COMPOUNDS
##NAMES=HP
##CAS NAME=1-Chloromethyl-4-(1,1-dimethylethoxy)benzene
##MOLFORM=C11H15ClO
##CAS REGISTRY NO=51503-07-2
##MP= -300
##BP= -300
##MW= 198
##$RETENTION INDEX=0
##$CONDENSED SPECTRUM=NO
##NPOINTS= 20
##XYDATA=(XY..XY) 1 
    39         87
    41        999
    42         39
    50         63
    51         71
    52         30
    53         54
    55        200
    56        440
    57        180
    77         67
    78         31
   107        669
   108         92
   142        250
   144         79
   183         32
   185         11
   198         14
   200          5