##TITLE=Library Entry 60450
##JCAMP-DX=Revision 4.10 
##DATA TYPE=MASS SPECTRUM
##SAMPLE DESCRIPTION=S.A. Rang et al., IR & MS of Unsatd. Hydrocarbons, 1977
##NAMES=HP
##CAS NAME=1,6-Heptadien-3-yne
##MOLFORM=C7H8
##CAS REGISTRY NO=5150-80-1
##MP= -300
##BP= -300
##MW= 92
##$RETENTION INDEX=0
##$CONDENSED SPECTRUM=NO
##NPOINTS= 37
##XYDATA=(XY..XY) 1 
    26         48
    27        115
    29          4
    37         37
    38         72
    39        278
    41         26
    42          4
    43         12
    49         12
    50         60
    51         99
    52         43
    53         39
    54          1
    61         34
    62         78
    63        173
    64         57
    65        273
    66         55
    73          5
    74         15
    75          8
    76          6
    77         22
    78          2
    79          1
    84          2
    85          8
    86         12
    87          8
    88          2
    90         38
    91        999
    92        368
    93         28