##TITLE=Library Entry 84257
##JCAMP-DX=Revision 4.10 
##DATA TYPE=MASS SPECTRUM
##SAMPLE DESCRIPTION=V.A.KOPTYUG, ATLAS OF MASS SPECTRA OF ORGANIC COMPOUNDS
##NAMES=HP
##CAS NAME=1-Chloromethyl-3-(1,1-dimethylethoxy)benzene
##MOLFORM=C11H15ClO
##CAS REGISTRY NO=51503-06-1
##MP= -300
##BP= -300
##MW= 198
##$RETENTION INDEX=0
##$CONDENSED SPECTRUM=NO
##NPOINTS= 22
##XYDATA=(XY..XY) 1 
    39        120
    41        250
    43         36
    50         30
    51         62
    55         31
    56         61
    57        250
    74         39
    77        140
    78         54
    89         42
   107        999
   108         82
   142        719
   143         58
   144        200
   163         56
   183         60
   185         23
   198         12
   200          4