##TITLE=Library Entry 43785
##JCAMP-DX=Revision 4.10 
##DATA TYPE=MASS SPECTRUM
##SAMPLE DESCRIPTION=NIST Mass Spectrometry Data Center
##NAMES=HP
##CAS NAME=Estradiol, 2TMS derivative
##MOLFORM=C24H40O2Si2
##CAS REGISTRY NO=5150-62-9
##MP= -300
##BP= -300
##MW= 416
##$RETENTION INDEX=2629
##$CONDENSED SPECTRUM=NO
##NPOINTS= 298
##XYDATA=(XY..XY) 1 
    27          2
    29          8
    31          2
    39          6
    41         34
    42          3
    43         27
    44         13
    45         96
    46          7
    47         18
    48          1
    49          1
    50          1
    51          2
    52          1
    53         15
    54          3
    55         65
    56          3
    57          6
    58          7
    59         63
    60          8
    61         27
    62          2
    63          2
    65          8
    67         46
    68          4
    69         14
    70          3
    71          5
    73        999
    74         88
    75        233
    76         16
    77         31
    78          5
    79         44
    80          5
    81         48
    82          6
    83          8
    84          1
    85         14
    86          2
    87          5
    88          1
    89          7
    90          1
    91         50
    92          7
    93         44
    94          9
    95         34
    96          3
    97          4
    99          8
   101         34
   102          6
   103         18
   104          4
   105         31
   106          5
   107         36
   108         10
   109         20
   110          2
   111          3
   112          1
   113          4
   115        111
   116         21
   117         21
   118          3
   119         13
   120          4
   121         12
   122          2
   123          2
   124          1
   125          1
   126          2
   127         17
   128         44
   129        373
   130         60
   131         27
   132          5
   133         20
   134          9
   135         20
   136          3
   137          3
   138          1
   139          4
   140          3
   141         35
   142         12
   143         17
   144          4
   145         18
   146          4
   147         40
   148          9
   149         18
   150          3
   151         11
   152          9
   153         13
   154          8
   155         20
   156          6
   157          8
   158          3
   159         40
   160          7
   161         30
   162          7
   163         59
   164         13
   165         25
   166          7
   167         17
   168          5
   169         14
   170          4
   171          8
   172          2
   173          8
   174          2
   175         15
   176          7
   177         78
   178         21
   179         55
   180         28
   181         15
   182          8
   183         11
   184          3
   185         23
   186          5
   187         21
   188          8
   189         57
   190         14
   191         20
   192         23
   193         36
   194          9
   195          8
   196          3
   197          5
   198          3
   199         15
   201         56
   202         15
   203         62
   204         24
   205        131
   206         31
   207         12
   208          3
   209          4
   210          1
   211          5
   212          2
   213         10
   214          7
   215         48
   216         25
   217         93
   218        161
   219         51
   220         13
   221          6
   222          2
   223          6
   224          1
   225          5
   226          2
   227         11
   229         89
   230         92
   231        205
   232        233
   233         51
   234         12
   235          4
   236          2
   237          6
   238          2
   239          6
   240          2
   241         10
   242         18
   243         43
   244        128
   245         56
   246         16
   247          4
   248          1
   249          1
   250          1
   251          5
   252          2
   253         12
   254          5
   255         20
   256         18
   257         44
   258         31
   259         12
   260          3
   261          1
   263          1
   264          1
   265          2
   266          2
   267          8
   268          7
   269         56
   270         31
   271         52
   272         35
   273         10
   274          2
   275          1
   277          1
   279          1
   280          1
   281          6
   282          5
   283         74
   284        112
   285        716
   286        198
   287         91
   288         19
   289          4
   290          1
   291          1
   293          1
   294          1
   295          3
   296          3
   297         45
   298         79
   299         26
   300         25
   301          6
   302          2
   303          1
   305          2
   306          1
   307          1
   309          6
   310          4
   311         34
   312          9
   313          3
   317          1
   319          4
   320          1
   321          1
   323          2
   324          3
   325         74
   326         90
   327         26
   328          7
   329          1
   342          3
   343          2
   344          1
   345          1
   359          1
   371          2
   372          1
   373          1
   374          2
   388          2
   389          1
   399          2
   401         67
   402         21
   403          8
   404          2
   405          1
   414         10
   416        686
   417        244
   418         91
   419         19
   420          3
   421          1