##TITLE=Library Entry 34944
##JCAMP-DX=Revision 4.10 
##DATA TYPE=MASS SPECTRUM
##SAMPLE DESCRIPTION=LAC, NIDDK, NIH, Bethesda, MD 20892
##NAMES=HP
##CAS NAME=8(14),22-Ergostadienol
##MOLFORM=C28H46O
##CAS REGISTRY NO=51502-42-2
##MP= -300
##BP= -300
##MW= 398
##$RETENTION INDEX=0
##$CONDENSED SPECTRUM=NO
##NPOINTS= 148
##XYDATA=(XY..XY) 1 
    41        379
    43        749
    44         20
    45         10
    53         75
    55        762
    57        277
    65         31
    67        274
    69        999
    70         73
    71        121
    77        101
    79        335
    81        662
    82        108
    83        209
    84         18
    85         27
    91        362
    93        333
    94         27
    95        382
    96         43
    97         81
    99         10
   103         24
   105        394
   107        667
   108        101
   109        221
   110         20
   111         40
   115         45
   117        151
   119        258
   120         68
   121        217
   122         52
   123        107
   125        248
   126         14
   127         15
   128         33
   129         60
   131        199
   133        387
   134        111
   135        219
   136         31
   137         37
   141         29
   142          7
   143         87
   145        248
   146         21
   147        421
   148         71
   149         95
   150         46
   151         95
   152         28
   155         24
   157         69
   159        211
   161        259
   162         30
   163         47
   164         42
   165         18
   169         25
   171         68
   173        126
   174         19
   175         55
   177         19
   183         23
   185         67
   186         14
   187         77
   188         11
   189         44
   191          6
   197         28
   199         63
   200         12
   201         69
   202          5
   203         45
   211         39
   213        195
   214         42
   215         63
   216          7
   217         24
   218         28
   219         18
   225         21
   227         66
   228        107
   229        415
   230         70
   231        100
   232         28
   233         24
   239         36
   240          5
   241         58
   243         22
   245         21
   246        241
   247         70
   253         46
   255        318
   256         19
   257        180
   258         51
   259         69
   260          6
   261          7
   271        417
   272        105
   273        289
   274         56
   283         13
   285         24
   286         31
   299         43
   300         39
   301          5
   302          6
   309         13
   327         25
   337         17
   355         28
   365         75
   366         24
   367         17
   380         34
   381          5
   383        209
   384         60
   385          8
   397        120
   398        439
   399        130
   400         77
   401          5