##TITLE=Library Entry 82776
##JCAMP-DX=Revision 4.10 
##DATA TYPE=MASS SPECTRUM
##SAMPLE DESCRIPTION=A.A.Kutin, Moscow, Russia
##NAMES=HP
##CAS NAME=Pyridine-3-carboxamide, 1,2-dihydro-1-benzyl-2-oxo-N-benzyl-
##MOLFORM=C20H18N2O2
##CAS REGISTRY NO=51513-24-7
##MP= -300
##BP= -300
##MW= 318
##$RETENTION INDEX=0
##$CONDENSED SPECTRUM=NO
##NPOINTS= 83
##XYDATA=(XY..XY) 1 
    33          6
    38         10
    39         70
    40         17
    41         26
    42          6
    43         12
    44         37
    50         15
    51         43
    52         14
    53          9
    54          1
    55         10
    56          2
    57         11
    62          3
    63         21
    64         13
    65        141
    66         29
    67          7
    69          6
    70          2
    71          3
    76          9
    77         39
    78         31
    79         42
    80          6
    84          3
    88          1
    89         42
    91        638
    92         51
    94         50
    95          9
   102          1
   103         10
   104         56
   106        999
   107         54
   108          6
   112          2
   115          2
   120          7
   122        126
   123          5
   127          8
   128          7
   129          2
   132          1
   134          1
   140          1
   145          3
   152          1
   153          4
   154         26
   155         10
   156          3
   166          5
   167         17
   168          9
   171          5
   181         13
   182         19
   183         13
   184         41
   185         64
   186         10
   199         16
   209         16
   210          2
   211         11
   212         23
   213          2
   300          8
   301          8
   315         12
   317         24
   318        208
   319         30
   320          3