##TITLE=Library Entry 1804
##JCAMP-DX=Revision 4.10 
##DATA TYPE=MASS SPECTRUM
##SAMPLE DESCRIPTION=Chemical Concepts
##NAMES=HP
##CAS NAME=4H-Cyclopenta[3,4]cyclobuta[1,2-b]furan-4-one, 3a,3b,5,6,6a,6b-he
xahydro-
##MOLFORM=C9H10O2
##CAS REGISTRY NO=51519-77-8
##MP= -300
##BP= -300
##MW= 150
##$RETENTION INDEX=0
##$CONDENSED SPECTRUM=NO
##NPOINTS= 91
##XYDATA=(XY..XY) 1 
    25          7
    26         76
    27        283
    29         76
    30          2
    31         14
    34          2
    36          4
    37         40
    38         93
    39        999
    40        297
    41        108
    42        105
    43         33
    44         13
    45         11
    46          4
    47          3
    49          9
    50         73
    51        126
    52         62
    53        267
    54        284
    55        115
    56         52
    57         25
    58          5
    60         10
    61          9
    62         20
    63         56
    64         14
    65        131
    66        110
    67         77
    68        545
    69        239
    70         18
    71         11
    73          9
    74          8
    75          8
    76          7
    77        232
    78         58
    79        241
    80         49
    81        258
    82        447
    83         34
    84          4
    85         11
    89         10
    91         78
    92         10
    93         58
    94        293
    95         67
    96         10
    97         11
   103         14
   104         18
   105         16
   106          8
   107         95
   108         61
   109         14
   115          5
   117          7
   119          8
   120          5
   121         53
   122         23
   123         10
   124          3
   125          3
   128          3
   131         12
   132         23
   133         13
   134          3
   135          7
   136          6
   137          5
   141         10
   149         21
   150        275
   151         24
   152          3