##TITLE=Library Entry 107814
##JCAMP-DX=Revision 4.10 
##DATA TYPE=MASS SPECTRUM
##SAMPLE DESCRIPTION=Div. of Experiment Therapeutics WRAIR, WRAMC, Washingto
n DC 20307
##NAMES=HP
##CAS NAME=2,4-Dimethoxy-5-methyl pyrimidine
##MOLFORM=C7H10N2O2
##CAS REGISTRY NO=5151-34-8
##MP= -300
##BP= -300
##MW= 154
##$RETENTION INDEX=0
##$CONDENSED SPECTRUM=NO
##NPOINTS= 65
##XYDATA=(XY..XY) 1 
    41        207
    42        689
    43        115
    44         31
    45         23
    47          5
    50          6
    51         59
    52        239
    53        365
    54        372
    55        958
    56        199
    57         26
    58         67
    59         16
    63          7
    64         18
    65         16
    66         53
    67         71
    68         75
    69         70
    70        181
    71         10
    72         28
    77         10
    78          6
    79         40
    80         55
    81         99
    82        135
    83        100
    84         85
    85         14
    86         10
    92          5
    93         50
    94         29
    95         84
    96        110
    97         21
    98          6
   105          6
   106         13
   107         71
   108         35
   109        456
   110         52
   111         41
   112         60
   113          4
   122          9
   123        143
   124        999
   125        216
   126         14
   137         10
   138         11
   139        380
   140         23
   153        132
   154        785
   155         85
   156         12