##TITLE=Library Entry 5263
##JCAMP-DX=Revision 4.10 
##DATA TYPE=MASS SPECTRUM
##SAMPLE DESCRIPTION=Div. of Experiment Therapeutics WRAIR, WRAMC, Washingto
n DC 20307
##NAMES=HP
##CAS NAME=3-Cyanomethylenequinuclidine
##MOLFORM=C9H12N2
##CAS REGISTRY NO=51526-85-3
##MP= -300
##BP= -300
##MW= 148
##$RETENTION INDEX=0
##$CONDENSED SPECTRUM=NO
##NPOINTS= 75
##XYDATA=(XY..XY) 1 
    41        285
    42        999
    43        137
    44         83
    45          4
    47         11
    48          6
    49         48
    50         28
    51         75
    52         55
    53         67
    54        111
    55        162
    56         46
    57         29
    58          8
    60          7
    61          9
    62          9
    63         39
    64         51
    65        151
    66        100
    67         52
    68        106
    69         18
    70          6
    73          2
    74          2
    75          5
    76          9
    77         48
    78         47
    79         68
    80         81
    81         37
    82        172
    83         37
    84         32
    86         16
    88          4
    89          4
    90          6
    91         41
    92         47
    93        128
    94        106
    95         96
    96         12
   102          2
   103          3
   104         38
   105         44
   106         41
   107         56
   108        102
   109          8
   116          6
   117          6
   118         17
   119        121
   120        141
   121        133
   122         18
   130          2
   131          2
   132          8
   133        114
   134         10
   145          2
   147        171
   148        572
   149         88
   150          5