##TITLE=Library Entry 37039
##JCAMP-DX=Revision 4.10 
##DATA TYPE=MASS SPECTRUM
##SAMPLE DESCRIPTION=NIST Mass Spectrometry Data Center
##NAMES=HP
##CAS NAME=(E)-Tetradec-2-enal
##MOLFORM=C14H26O
##CAS REGISTRY NO=51534-36-2
##MP= -300
##BP= -300
##MW= 210
##$RETENTION INDEX=1673
##$CONDENSED SPECTRUM=NO
##NPOINTS= 87
##XYDATA=(XY..XY) 1 
    26          4
    27         94
    29        224
    30          5
    31          4
    37          2
    39        215
    40         43
    41        768
    42        134
    43        721
    44         29
    50          3
    51         16
    52         10
    53        100
    54        128
    55        705
    56        212
    57        698
    58         38
    59          6
    63          4
    64          2
    65         28
    66         55
    67        336
    68        235
    69        452
    70        999
    71        217
    72         18
    77         24
    78         16
    79        138
    80         99
    81        310
    82        354
    83        607
    84        240
    85         75
    86         13
    91         16
    93         93
    94         75
    95        179
    96        228
    97        306
    98        212
    99         26
   100          4
   106          4
   107         56
   108         61
   109         82
   110        131
   111        187
   112         78
   113          8
   114          9
   121        144
   122         48
   123         50
   124         58
   125         47
   126         22
   128         14
   135         76
   136         26
   137         19
   138         28
   139         16
   140          9
   142         10
   149         29
   150         10
   153         10
   154         15
   155          4
   163         16
   164          8
   166         29
   167         10
   177          3
   179          9
   181          4
   192          7