##TITLE=Library Entry 46909
##JCAMP-DX=Revision 4.10 
##DATA TYPE=MASS SPECTRUM
##SAMPLE DESCRIPTION=Chuck Anderson, Aldrich Chemical Co.
##NAMES=HP
##CAS NAME=Styrene, .beta.-nitro-, (E)-
##MOLFORM=C8H7NO2
##CAS REGISTRY NO=5153-67-3
##MP= -300
##BP= -300
##MW= 149
##$RETENTION INDEX=0
##$CONDENSED SPECTRUM=NO
##NPOINTS= 81
##XYDATA=(XY..XY) 1 
    17          1
    18          7
    26         19
    27         69
    28         18
    29          7
    30         58
    31          1
    32          1
    37         17
    38         35
    39         95
    40         15
    41         14
    43          5
    46         14
    49         12
    50        163
    51        395
    52         70
    53         31
    54          8
    55         27
    58          3
    59          0
    60          0
    61         23
    62         62
    63        149
    64         27
    65        211
    66        208
    67         56
    68         17
    69          2
    73         15
    74        111
    75        103
    76        158
    77        999
    78        129
    79         26
    80          7
    81          9
    83          2
    85          5
    86          9
    87         14
    88          5
    89         76
    90         61
    91        485
    92         83
    93         42
    94         42
    95          6
    96         18
    97          2
    98         13
    99          2
   101         30
   102        533
   103        211
   104         83
   105         75
   106         32
   107          4
   116         20
   117         60
   118         42
   119         49
   120         27
   121         12
   122          3
   131          1
   132        138
   133         14
   148         18
   149        458
   150         39
   151          2