##TITLE=Library Entry 70635
##JCAMP-DX=Revision 4.10 
##DATA TYPE=MASS SPECTRUM
##SAMPLE DESCRIPTION=A.A.Kutin, Moscow, Russia
##NAMES=HP
##CAS NAME=2-Thiophenylpropanoic acid, ,.gamma.-phenyl-
##MOLFORM=C13H12O2S
##CAS REGISTRY NO=51535-43-4
##MP= -300
##BP= -300
##MW= 232
##$RETENTION INDEX=0
##$CONDENSED SPECTRUM=NO
##NPOINTS= 98
##XYDATA=(XY..XY) 1 
    29          5
    32          5
    39         25
    40          0
    41          9
    42          0
    43         10
    44          0
    45         71
    46          0
    47          2
    50          0
    51         17
    52          3
    53         51
    54          0
    55         10
    56          0
    57         14
    58          4
    60          2
    63          9
    64          1
    65         13
    66          1
    67          1
    68          1
    69         53
    70          6
    71         14
    72          0
    73          1
    75          0
    76          2
    77         46
    78         10
    79         28
    80          1
    81         15
    82          3
    83          8
    84          2
    85          7
    86          0
    89          9
    90          5
    91          9
    92          1
    93          5
    94          0
    95          6
    96         45
    97        999
    98         65
    99         45
   100          0
   101          0
   102          4
   103         10
   104          0
   107          6
   108          0
   109          5
   110          1
   111          0
   113          1
   115         18
   116          0
   118          0
   121          4
   123          0
   126          1
   127          3
   128         12
   134          0
   135          6
   136          3
   137          4
   139          1
   141         12
   142          0
   147          0
   149          0
   151          1
   152         24
   153         23
   154         11
   160          0
   171          4
   172          0
   184         11
   185         10
   186          3
   187          3
   231          3
   232        129
   233         21
   234          6