##TITLE=Library Entry 35706
##JCAMP-DX=Revision 4.10 
##DATA TYPE=MASS SPECTRUM
##SAMPLE DESCRIPTION=NIST Mass Spectrometry Data Center
##NAMES=HP
##CAS NAME=Farnesyl butanoate
##MOLFORM=C19H32O2
##CAS REGISTRY NO=51532-27-5
##MP= -300
##BP= -300
##MW= 292
##$RETENTION INDEX=2020
##$CONDENSED SPECTRUM=NO
##NPOINTS= 83
##XYDATA=(XY..XY) 1 
    39         14
    40         10
    41        237
    42         19
    43        203
    44          8
    51          7
    52          4
    53         67
    54         12
    55         85
    56         10
    57         14
    60          7
    65         24
    66         10
    67        188
    68        333
    69        999
    70         58
    71        324
    72         13
    73          6
    77         45
    78         10
    79         87
    80        133
    81        399
    82         64
    83         17
    84         17
    85         15
    89          5
    91         64
    92         83
    93        459
    94         84
    95        117
    97         11
    98          8
   103          4
   105         51
   106         16
   107        184
   108         44
   109         59
   111          7
   117          5
   119         76
   120         29
   121        168
   122         60
   123        110
   124         21
   133         43
   134         29
   135        105
   136        218
   137         69
   138          9
   147         42
   148         27
   149         15
   154          5
   155         11
   161         78
   162         17
   163          4
   168          9
   175         11
   176          7
   189         67
   190         11
   191          2
   204         30
   205          5
   221          2
   222          1
   223          5
   224          1
   249          1
   292          7
   293          2