##TITLE=Library Entry 35259
##JCAMP-DX=Revision 4.10 
##DATA TYPE=MASS SPECTRUM
##SAMPLE DESCRIPTION=NIST Mass Spectrometry Data Center
##NAMES=HP
##CAS NAME=Geranyl caprylate
##MOLFORM=C18H32O2
##CAS REGISTRY NO=51532-26-4
##MP= -300
##BP= -300
##MW= 280
##$RETENTION INDEX=1954
##$CONDENSED SPECTRUM=NO
##NPOINTS= 47
##XYDATA=(XY..XY) 1 
    27         29
    29         54
    39         52
    40         20
    41        447
    42         44
    43        136
    53         66
    55        103
    56         18
    57        375
    58         17
    60         11
    65         21
    66          9
    67        190
    68        598
    69        999
    70         63
    77         25
    79         37
    80        254
    81         95
    83         19
    84         19
    85         13
    91         28
    92        112
    93        503
    94         98
    95         31
    97         10
   107         97
   108         30
   109         21
   119         11
   121        339
   122         37
   123         45
   127        202
   128         19
   136        143
   137         23
   139          7
   154         19
   212          2
   280          1