##TITLE=Library Entry 58286
##JCAMP-DX=Revision 4.10 
##DATA TYPE=MASS SPECTRUM
##SAMPLE DESCRIPTION=Chuck Anderson, Aldrich Chemical Co.
##NAMES=HP
##CAS NAME=Methyl 2-(methylthio)butyrate
##MOLFORM=C6H12O2S
##CAS REGISTRY NO=51534-66-8
##MP= -300
##BP= -300
##MW= 148
##$RETENTION INDEX=0
##$CONDENSED SPECTRUM=NO
##NPOINTS= 98
##XYDATA=(XY..XY) 1 
    12          0
    13          0
    14          1
    15         46
    16          0
    19          0
    25          0
    26          9
    27         77
    28         12
    29         42
    30          3
    31          9
    32          1
    33          2
    34          0
    35          7
    36          0
    37          4
    38          9
    39         90
    40         11
    41        416
    42         25
    43         12
    44          4
    45        123
    46         28
    47         80
    48         14
    49         49
    50          2
    51          2
    52          0
    53          6
    54          1
    55         90
    56          4
    57          4
    58         13
    59        101
    60         11
    61        172
    62          5
    63         12
    64          0
    65          0
    66          0
    67          0
    68          3
    69         54
    70         12
    71         12
    72          6
    73         36
    74         22
    75          7
    76          1
    77          3
    78          0
    79          0
    81          0
    82          0
    84          0
    85          3
    86          0
    87        180
    88         38
    89        999
    90         50
    91         71
    92          3
    93          1
    99          0
   100          1
   101         20
   102        218
   103         13
   104          1
   105          7
   106          0
   107          0
   114          0
   115          0
   116          0
   117          2
   118          0
   119         13
   120          4
   121          0
   122          0
   133          0
   146          0
   148        347
   149         25
   150         17
   151          1
   152          0