##TITLE=Library Entry 87715
##JCAMP-DX=Revision 4.10 
##DATA TYPE=MASS SPECTRUM
##SAMPLE DESCRIPTION=Chemical Concepts
##NAMES=HP
##CAS NAME=2(1H)-Pyridinone, 5-hydroxy-
##MOLFORM=C5H5NO2
##CAS REGISTRY NO=5154-01-8
##MP= -300
##BP= -300
##MW= 111
##$RETENTION INDEX=0
##$CONDENSED SPECTRUM=NO
##NPOINTS= 74
##XYDATA=(XY..XY) 1 
    26        180
    27        225
    28        281
    29        505
    30         35
    31          8
    33          0
    36         16
    37         67
    38         93
    39         94
    40         29
    41         38
    42         36
    43         10
    44         15
    45          2
    46          1
    47          1
    48          3
    49          9
    50         21
    51         22
    52         35
    53        105
    54        196
    55        400
    56         55
    57        380
    58         13
    59          2
    60          0
    61          0
    62          5
    63         10
    64         10
    65          8
    66         15
    67         37
    68          8
    69          3
    70          1
    71          1
    73          0
    74          1
    75          4
    76          4
    77          1
    78          1
    79          1
    80          2
    81          1
    82         45
    83        255
    84         16
    85          1
    86          0
    91          0
    92          0
    93          0
    94          5
    95         39
    96          3
    97          0
    98          0
    99          0
   105          0
   106          0
   107          0
   109          0
   110          6
   111        999
   112         56
   113          6