##TITLE=Library Entry 23385
##JCAMP-DX=Revision 4.10 
##DATA TYPE=MASS SPECTRUM
##SAMPLE DESCRIPTION=Chemical Concepts
##NAMES=HP
##CAS NAME=Acetic acid,(2,4,5-trichlorophenoxy)-,tert-butyl ester
##MOLFORM=C12H13Cl3O3
##CAS REGISTRY NO=51550-50-6
##MP= -300
##BP= -300
##MW= 310
##$RETENTION INDEX=0
##$CONDENSED SPECTRUM=NO
##NPOINTS= 32
##XYDATA=(XY..XY) 1 
    40        264
    41        708
    43        232
    56        134
    57        999
    59        122
    97         74
   109         84
   111         30
   127         44
   143         28
   145         47
   146         30
   169         18
   179         33
   181         35
   196         71
   198         69
   199         23
   209         42
   210         47
   219         55
   221         42
   254         35
   256         36
   257         12
   267          3
   269          2
   276          1
   278          1
   310         39
   312         41