##TITLE=Library Entry 51908
##JCAMP-DX=Revision 4.10 
##DATA TYPE=MASS SPECTRUM
##SAMPLE DESCRIPTION=V.G.Zaikin, TIPS RAS, Moscow, Russia
##NAMES=HP
##CAS NAME=3-Methyl-2-butenoic acid, allyl ester
##MOLFORM=C8H12O2
##CAS REGISTRY NO=51552-26-2
##MP= -300
##BP= -300
##MW= 140
##$RETENTION INDEX=0
##$CONDENSED SPECTRUM=NO
##NPOINTS= 65
##XYDATA=(XY..XY) 1 
    25          6
    26         65
    27        272
    28         50
    29        238
    30          8
    31         19
    36          9
    37         35
    38         76
    39        422
    40         67
    41        338
    42         39
    43         75
    44         46
    45         19
    49         13
    50         52
    51         72
    52         54
    53        131
    54         51
    55        388
    56         57
    57         29
    58          7
    59         11
    66          6
    67         39
    68         21
    69         17
    70          6
    71         19
    72          3
    73          3
    75          3
    76          3
    77          9
    78         11
    79         72
    80         16
    81         43
    82        169
    83        999
    84         65
    85         18
    86          7
    93          8
    94         46
    95        143
    96         12
    97         19
    98         13
    99         31
   100         16
   101          4
   110         33
   111         75
   112          9
   125         22
   126          2
   139          3
   140         30
   141          3