##TITLE=Library Entry 9837
##JCAMP-DX=Revision 4.10 
##DATA TYPE=MASS SPECTRUM
##SAMPLE DESCRIPTION=NIST Mass Spectrometry Data Center
##NAMES=HP
##CAS NAME=4,6-Dioxoheptanoic acid
##MOLFORM=C7H10O4
##CAS REGISTRY NO=51568-18-4
##MP= -300
##BP= -300
##MW= 158
##$RETENTION INDEX=1350
##$CONDENSED SPECTRUM=NO
##NPOINTS= 115
##XYDATA=(XY..XY) 1 
    14          2
    15         13
    16          1
    17          1
    18          4
    19          1
    25          1
    26         16
    27         78
    28         44
    29         81
    30          5
    31         27
    34          1
    35          2
    36         11
    37          5
    38         14
    39         61
    40         12
    41         71
    42        102
    43        999
    44         35
    45        137
    46          4
    47          3
    49          3
    50          8
    51         12
    52          7
    53         29
    54          9
    55        252
    56         96
    57         21
    58         77
    59          7
    60          7
    61          6
    62          2
    63          3
    64          1
    65          3
    66          4
    67         12
    68          5
    69        131
    70         24
    71         18
    72          4
    73         81
    74          9
    75          8
    76          1
    77          4
    78          1
    79          4
    80          2
    81          4
    82          3
    83         10
    84         11
    85        746
    86         38
    87          5
    89          1
    91          1
    92          1
    93          1
    94          2
    95          6
    96          2
    97         71
    98        177
    99         50
   100          8
   101        129
   102          6
   103         23
   104          1
   105          2
   107          3
   108          1
   109          2
   110          1
   111         29
   112         43
   113         41
   114          9
   115          2
   116         13
   117          2
   119          1
   120          1
   121          1
   122          1
   123          1
   125        164
   126         12
   127          1
   130          1
   131          1
   133          1
   136          1
   140        139
   141         13
   142          2
   143         17
   144          1
   149          1
   152          2
   158        104
   159          9
   160          1