##TITLE=Library Entry 39147
##JCAMP-DX=Revision 4.10 
##DATA TYPE=MASS SPECTRUM
##SAMPLE DESCRIPTION=OGDEN BioServices Corp., NCI, Rockville, MD 20852
##NAMES=HP
##CAS NAME=1H-1,2,4-Dithiazol-5-amine, 3-(cyclohexylimino)-N,N-dimethyl-
##MOLFORM=C10H17N3S2
##CAS REGISTRY NO=51568-06-0
##MP= -300
##BP= -300
##MW= 243
##$RETENTION INDEX=0
##$CONDENSED SPECTRUM=NO
##NPOINTS= 185
##XYDATA=(XY..XY) 1 
    41        404
    42        240
    43         83
    44        208
    45         55
    46         43
    47         33
    48          3
    49          5
    50         10
    51         25
    52         19
    53        132
    54         64
    55        422
    56         77
    57         15
    58         20
    59         26
    60         17
    61         14
    62          2
    63          1
    64         79
    65         25
    66         28
    67         66
    68         17
    69        148
    70        293
    71        999
    72         29
    73        105
    74         18
    75          8
    76         24
    77         32
    78          4
    79        153
    80        261
    81        162
    82        492
    83        206
    84         22
    85         63
    86         11
    87         44
    88        516
    89         28
    90         36
    91         11
    92         11
    93          9
    94          5
    95          1
    96        198
    97        272
    98         62
    99         16
   100          7
   101          0
   102        128
   103         17
   104         20
   105         20
   106          4
   107          3
   108         33
   109          8
   110          6
   111          9
   112          4
   113          6
   114          5
   115          9
   116          1
   117         18
   118          2
   119          6
   120          2
   121          4
   122          6
   123          5
   124          5
   125          5
   126          1
   127          0
   128        137
   129         20
   130         24
   131          3
   132          3
   133          1
   134         27
   135         14
   136         16
   137          7
   138          3
   139          2
   140          9
   141          9
   142          6
   143         24
   144         20
   145          7
   146         33
   147         41
   148         13
   149          4
   150         36
   151         21
   152          5
   153          6
   154          3
   155         10
   156          5
   157          4
   158          3
   159          1
   160         16
   161        458
   162         82
   163         55
   164         50
   165          8
   166          0
   167         59
   168          8
   169          5
   170          2
   171          1
   172          2
   173         50
   174         18
   175          7
   176          2
   177          1
   178         10
   179        197
   180         22
   181          1
   182          1
   183          1
   184          0
   185          2
   186          6
   187          5
   188         21
   189          6
   190          2
   191          0
   192          0
   193          0
   194          0
   196          5
   197          5
   198          4
   199         43
   200         51
   201         38
   202          9
   203          3
   204          0
   205          0
   208          0
   210         54
   211         12
   212          6
   213          0
   214         13
   215          3
   216          1
   217          0
   224          0
   228          3
   229          1
   230          0
   231          0
   241          0
   242          7
   243        298
   244         82
   245         52
   246         10
   247          3