##TITLE=Library Entry 60268
##JCAMP-DX=Revision 4.10 
##DATA TYPE=MASS SPECTRUM
##SAMPLE DESCRIPTION=D.HENNEBERG, MAX-PLANCK INSTITUTE, MULHEIM, WEST GERMAN
Y
##NAMES=HP
##CAS NAME=Dispiro[2.0.2.5]undecane, 8-methylene-
##MOLFORM=C12H18
##CAS REGISTRY NO=51567-09-0
##MP= -300
##BP= -300
##MW= 162
##$RETENTION INDEX=0
##$CONDENSED SPECTRUM=NO
##NPOINTS= 114
##XYDATA=(XY..XY) 1 
    24          1
    25          5
    26         24
    27        308
    29        160
    30          0
    32          0
    33          1
    34          1
    36          1
    37          9
    38         25
    39        469
    40        102
    41        567
    42         34
    43         31
    44          5
    45          4
    47          3
    48          1
    49          3
    50         39
    51        150
    52         99
    53        238
    54         36
    55        209
    56         19
    57          8
    58         13
    59          5
    61          3
    62         18
    63         53
    64         36
    65        195
    66         80
    67        274
    68         37
    69         36
    70          8
    71          4
    72          2
    73          2
    74          6
    75         26
    76          9
    77        410
    78        172
    79        865
    80        244
    81        191
    82         28
    83         12
    84          4
    85          1
    86          2
    87          5
    88          5
    89         24
    90         16
    91        999
    92        300
    93        402
    94        112
    95        139
    96         12
    97          2
    98          0
    99          0
   100          1
   101          6
   102         11
   103         54
   104         34
   105        558
   106        247
   107        100
   108         34
   109          4
   110          1
   111          1
   113          2
   114          3
   115         38
   116         16
   117         76
   118         26
   119        407
   120        105
   121         64
   122          8
   124          0
   126          0
   127          4
   128          5
   129          7
   130          5
   131         16
   132         12
   133        260
   134        434
   135         53
   136          2
   141          0
   144          0
   145          6
   147        130
   148         15
   149          0
   160          0
   161          7
   162          8