##TITLE=Library Entry 25373
##JCAMP-DX=Revision 4.10 
##DATA TYPE=MASS SPECTRUM
##SAMPLE DESCRIPTION=Japan AIST/NIMC Database- Spectrum MS-IW-7610
##NAMES=HP
##CAS NAME=Methyloctadecyldichlorosilane
##MOLFORM=C19H40Cl2Si
##CAS REGISTRY NO=5157-75-5
##MP= -300
##BP= -300
##MW= 366
##$RETENTION INDEX=0
##$CONDENSED SPECTRUM=NO
##NPOINTS= 265
##XYDATA=(XY..XY) 1 
    26          2
    27         28
    28         10
    29        117
    30          2
    35          2
    36         28
    38          9
    39         23
    40          6
    41        290
    42         82
    43        729
    44         25
    45          1
    51          1
    53         13
    54         38
    55        311
    56        194
    57        999
    58         57
    59          1
    63         13
    64          1
    65          5
    66          3
    67         38
    68         39
    69        237
    70        195
    71        916
    72         52
    73          1
    77          3
    78          9
    79         32
    80          5
    81         21
    82         53
    83        190
    84        171
    85        698
    86         45
    87          1
    91          3
    92          5
    93         14
    94          2
    95         12
    96         33
    97        166
    98        165
    99        261
   100         18
   101          4
   103          1
   105         11
   106          7
   107          9
   108          3
   109          6
   110         18
   111        101
   112        150
   113        560
   114         39
   115        377
   116         22
   117         72
   118          4
   119         21
   120          5
   121          9
   122          2
   123          3
   124         11
   125         59
   126        127
   127        146
   128         13
   129          3
   131          3
   132          2
   133         16
   134          4
   135          7
   136          1
   137          2
   138          8
   139         30
   140        100
   141        267
   142         23
   143        180
   144         13
   145         32
   146          3
   147         44
   148          7
   149         17
   150          2
   151          1
   152          5
   153         17
   154         97
   155        373
   156         99
   157        251
   158         34
   159         47
   160          4
   161         26
   162          4
   163          9
   164          1
   166          4
   167         15
   168         51
   169        261
   170         41
   171        173
   172         18
   173         32
   174          3
   175          6
   176          1
   177          2
   180          2
   181          9
   182         37
   183        163
   184         29
   185        104
   186         13
   187         19
   188          2
   189          2
   191          1
   194          2
   195          6
   196         21
   197        132
   198         22
   199         88
   200         11
   201         16
   202          2
   203          1
   207          3
   208          1
   209         10
   210         10
   211         91
   212         18
   213         59
   214          9
   215         10
   216          1
   217          1
   222          1
   223          4
   224         19
   225         90
   226         22
   227         57
   228          9
   229         10
   230          1
   231          1
   236          1
   237          3
   238         17
   239         69
   240         22
   241         48
   242          9
   243          9
   244          1
   245          1
   251          2
   252         67
   253         81
   254         28
   255         52
   256         10
   257          9
   258          1
   259          1
   261          1
   265          2
   266         22
   267         63
   268         26
   269         43
   270          9
   271          8
   272          1
   273          2
   274          1
   275          1
   279          1
   280         25
   281         76
   282         30
   283         52
   284         11
   285         10
   286          2
   287          2
   288          1
   289          1
   294         21
   295         67
   296         26
   297         46
   298         10
   299          8
   300          1
   301          1
   302          1
   308         20
   309         74
   310         29
   311         53
   312         12
   313         10
   314          2
   315          2
   317          1
   322         11
   323         47
   324         18
   325         33
   326          8
   327          6
   328          1
   330         16
   331         13
   332          9
   333          5
   334          1
   336          9
   337         50
   338         18
   339         35
   340          9
   341          7
   342          2
   350          1
   351         58
   352         15
   353         41
   354          9
   355          8
   356          2
   364          2
   365          5
   366        276
   367         74
   368        193
   369         49
   370         39
   371          9
   372          1