##TITLE=Library Entry 15912
##JCAMP-DX=Revision 4.10 
##DATA TYPE=MASS SPECTRUM
##SAMPLE DESCRIPTION=ATLAS OF MASS SPECTRA OF ORGANIC COMPOUNDS, V. A. KOPTY
UG, ED.
##NAMES=HP
##CAS NAME=Diazene, [1-(2,2-dimethylhydrazino)ethyl]ethyl-
##MOLFORM=C6H16N4
##CAS REGISTRY NO=51576-31-9
##MP= -300
##BP= -300
##MW= 144
##$RETENTION INDEX=0
##$CONDENSED SPECTRUM=NO
##NPOINTS= 21
##XYDATA=(XY..XY) 1 
    28        110
    29         98
    30         63
    41         26
    42        189
    43         34
    44        999
    45         89
    46         46
    56         11
    57         12
    58         83
    59        106
    60         10
    70         10
    71         34
    72          6
    85         32
    86         55
    87        511
    88         31