##TITLE=Library Entry 1028
##JCAMP-DX=Revision 4.10 
##DATA TYPE=MASS SPECTRUM
##SAMPLE DESCRIPTION=ATLAS OF MASS SPECTRA OF ORGANIC COMPOUNDS, V. A. KOPTY
UG, ED.
##NAMES=HP
##CAS NAME=Butanal, ethylhydrazone
##MOLFORM=C6H14N2
##CAS REGISTRY NO=51576-30-8
##MP= -300
##BP= -300
##MW= 114
##$RETENTION INDEX=910
##$CONDENSED SPECTRUM=NO
##NPOINTS= 33
##XYDATA=(XY..XY) 1 
    27        433
    28        400
    29        433
    30        999
    31         73
    40         40
    41        333
    42        263
    43        500
    44        831
    45         80
    46         27
    53         17
    54         28
    55         63
    56         93
    57        223
    58        107
    59         40
    68         57
    69         40
    70        173
    71        147
    72         60
    85        466
    86        260
    87         13
    97         50
    99        731
   100         53
   113         40
   114        600
   115         75