##TITLE=Library Entry 16087
##JCAMP-DX=Revision 4.10 
##DATA TYPE=MASS SPECTRUM
##SAMPLE DESCRIPTION=ATLAS OF MASS SPECTRA OF ORGANIC COMPOUNDS, V. A. KOPTY
UG, ED.
##NAMES=HP
##CAS NAME=Diazene, [1-(2,2-dimethylhydrazino)butyl]ethyl-
##MOLFORM=C8H20N4
##CAS REGISTRY NO=51576-33-1
##MP= -300
##BP= -300
##MW= 172
##$RETENTION INDEX=0
##$CONDENSED SPECTRUM=NO
##NPOINTS= 28
##XYDATA=(XY..XY) 1 
    27        196
    28        349
    29         22
    30        392
    31         18
    39         39
    41        122
    42        270
    43        340
    44        999
    45        170
    46        331
    55         39
    56         87
    57         35
    58        118
    59        340
    60         22
    70        109
    71        126
    72        157
    73         74
    85        135
    86        122
    99         23
   114         78
   115        781
   116         70