##TITLE=Library Entry 33040
##JCAMP-DX=Revision 4.10 
##DATA TYPE=MASS SPECTRUM
##SAMPLE DESCRIPTION=NIST Mass Spectrometry Data Center, 1990.
##NAMES=HP
##CAS NAME=3-Heptyne, 7-chloro-
##MOLFORM=C7H11Cl
##CAS REGISTRY NO=51575-85-0
##MP= -300
##BP= -300
##MW= 130
##$RETENTION INDEX=0
##$CONDENSED SPECTRUM=NO
##NPOINTS= 58
##XYDATA=(XY..XY) 1 
    15         19
    26         40
    27        177
    28         11
    29         24
    37         32
    38         77
    39        444
    40        118
    41        450
    42         35
    49         71
    50        149
    51        267
    52        144
    53        424
    54         57
    55        168
    56          8
    61         40
    62         78
    63        149
    64          8
    65        366
    66        169
    67        999
    68        359
    69         19
    73         16
    74         23
    75         41
    76         16
    77        436
    78         78
    79        651
    80         74
    81        214
    82         13
    86         13
    87         14
    88         35
    89         39
    90         14
    91         90
    92         12
    93         65
    94         12
    95        736
    96         55
   101         47
   102         92
   103         18
   104         31
   115         39
   117          9
   130        204
   131         17
   132         61