##TITLE=Library Entry 1304
##JCAMP-DX=Revision 4.10 
##DATA TYPE=MASS SPECTRUM
##SAMPLE DESCRIPTION=NIST Mass Spectrometry Data Center, 1994
##NAMES=HP
##CAS NAME=Thiophene, 2,5-dichloro-3,4-dinitro-
##MOLFORM=C4Cl2N2O4S
##CAS REGISTRY NO=51584-21-5
##MP= -300
##BP= -300
##MW= 242
##$RETENTION INDEX=0
##$CONDENSED SPECTRUM=NO
##NPOINTS= 98
##XYDATA=(XY..XY) 1 
    12         12
    16         12
    17          0
    18          2
    24          3
    30        999
    32          5
    34          2
    35         13
    36         32
    37          5
    38         15
    44         52
    46         74
    47         42
    48          6
    49         16
    50          3
    52          1
    56         14
    58          4
    60          2
    61          3
    62          3
    63         66
    65         20
    67          2
    68         38
    69          2
    70         18
    71        109
    72          6
    73         41
    75          1
    79        218
    80         60
    81         84
    82          9
    83         12
    84          2
    85         12
    86          1
    87        212
    88          7
    89         70
    90          2
    91         10
    93          3
    94          5
    96          2
   101          1
   103        120
   104          5
   105         44
   106         37
   107          4
   108         24
   109          1
   110          5
   115        333
   116         19
   117        122
   118         13
   119         15
   120          5
   121          4
   122          1
   124          2
   126         12
   128          7
   130          1
   131         20
   132          1
   133          9
   135          1
   138         19
   140         12
   142          2
   150         56
   152         41
   153          2
   154          6
   166          5
   168          3
   184          5
   186          3
   212         57
   213          4
   214         43
   215          2
   216          8
   226          6
   228          4
   242        138
   243         10
   244         90
   245          5
   246         19