##TITLE=Library Entry 10271
##JCAMP-DX=Revision 4.10 
##DATA TYPE=MASS SPECTRUM
##SAMPLE DESCRIPTION=G.S. KING, CHEM. PATHOL. DEP., QUEEN CHARLOTTE'S HOSP.,
 LONDON
##NAMES=HP
##CAS NAME=Glucose benzyloxime pentaacetate
##MOLFORM=C23H29NO11
##CAS REGISTRY NO=51588-01-3
##MP= -300
##BP= -300
##MW= 495
##$RETENTION INDEX=0
##$CONDENSED SPECTRUM=NO
##NPOINTS= 65
##XYDATA=(XY..XY) 1 
    41         16
    42         24
    43        999
    44         64
    45         44
    50         12
    51         36
    52          8
    53         12
    55         12
    57          8
    60         24
    61          8
    63          8
    65         24
    69          8
    73         12
    74          8
    77         64
    78         16
    79         60
    80         12
    81          8
    85         28
    86         12
    89          8
    90          8
    91        948
    92         76
    97          8
    98         12
    99          8
   103         36
   105         24
   106         24
   107         40
   108         44
   109          8
   112          8
   115         52
   116          8
   123         28
   127         16
   128         12
   139          8
   140          8
   141         20
   145         36
   157         16
   158          8
   165          8
   166         12
   170         12
   183         16
   187         28
   207          8
   212         12
   217          8
   218          8
   226         12
   242          8
   243         28
   303         16
   345        148
   346         32