##TITLE=Library Entry 40276
##JCAMP-DX=Revision 4.10 
##DATA TYPE=MASS SPECTRUM
##SAMPLE DESCRIPTION=Finnigan MAT: Toxicological Library (LIBR-TX)
##NAMES=HP
##CAS NAME=Carbamic acid, dimethyl-, 3-pyridinyl ester
##MOLFORM=C8H10N2O2
##CAS REGISTRY NO=51581-32-9
##MP= -300
##BP= -300
##MW= 166
##$RETENTION INDEX=1515
##$CONDENSED SPECTRUM=NO
##NPOINTS= 23
##XYDATA=(XY..XY) 1 
    50         33
    51         75
    52         13
    56         73
    66         37
    67          7
    72        999
    73         68
    74          4
    78         26
    94          4
    95          9
   106          1
   109          1
   119          2
   121          0
   137          2
   138          0
   147          0
   148          0
   149          0
   166        160
   167         20