##TITLE=Library Entry 85635
##JCAMP-DX=Revision 4.10 
##DATA TYPE=MASS SPECTRUM
##SAMPLE DESCRIPTION=Exported from NIST MS Search
##NAMES=HP
##CAS NAME=2-Heptanone, 6-(2-furanyl)-6-methyl-
##MOLFORM=C12H18O2
##CAS REGISTRY NO=51595-87-0
##MP= -300
##BP= -300
##MW= 194
##$RETENTION INDEX=0
##$CONDENSED SPECTRUM=NO
##NPOINTS= 11
##XYDATA=(XY..XY) 1 
    37         30
    39         55
    43        200
    53         25
    79         20
    81         70
    85         40
   109        999
   110         90
   121         90
   194         60