##TITLE=Library Entry 80348
##JCAMP-DX=Revision 4.10 
##DATA TYPE=MASS SPECTRUM
##SAMPLE DESCRIPTION=Japan AIST/NIMC Database- Spectrum MS-IW- 452
##NAMES=HP
##CAS NAME=4-(4-Benzyloxy-3-methoxybenzylidene)-2-phenyl-2-oxazolin-5-one
##MOLFORM=C24H19NO4
##CAS REGISTRY NO=51593-56-7
##MP= -300
##BP= -300
##MW= 385
##$RETENTION INDEX=0
##$CONDENSED SPECTRUM=NO
##NPOINTS= 90
##XYDATA=(XY..XY) 1 
    27          2
    28          7
    38          1
    39          9
    41          3
    43          1
    44          4
    45          1
    50          7
    51         27
    52          3
    53          1
    57          1
    62          2
    63          9
    64          3
    65         40
    66          2
    74          1
    75          3
    76         10
    77        207
    78         15
    79          1
    89          8
    90          5
    91        529
    92         48
    93          2
   102          1
   103          3
   104          5
   105        999
   106         77
   107          5
   115          1
   119          3
   130          1
   131          1
   132          1
   133          1
   137          2
   139          3
   147          1
   148          1
   160          1
   161          1
   162          2
   163          1
   165          1
   179          1
   180          1
   181          1
   195          1
   211          1
   212          1
   224          5
   225          2
   227          6
   228          1
   236          1
   250          2
   251          2
   252          3
   262          1
   263          1
   264          6
   265          1
   266          1
   267          1
   277          2
   278          1
   280          1
   293          1
   294        112
   295         84
   296         14
   297          2
   302          1
   339          2
   341          1
   353          1
   357          8
   358          2
   367          2
   383          1
   384          2
   385        110
   386         29
   387          5