##TITLE=Library Entry 9781
##JCAMP-DX=Revision 4.10 
##DATA TYPE=MASS SPECTRUM
##SAMPLE DESCRIPTION=LAC, NIDDK, NIH, Bethesda, MD 20892
##NAMES=HP
##CAS NAME=5.alpha.-Pregnane-3.beta.-ol-20-one
##MOLFORM=C21H34O2
##CAS REGISTRY NO=516-55-2
##MP= -300
##BP= -300
##MW= 318
##$RETENTION INDEX=0
##$CONDENSED SPECTRUM=NO
##NPOINTS= 204
##XYDATA=(XY..XY) 1 
    41        247
    43        999
    44         50
    45         27
    47         24
    48         12
    49         12
    51          5
    52          3
    53         90
    54         25
    55        315
    56         25
    57         97
    58         17
    59         10
    65         45
    66         19
    67        274
    68         66
    69        141
    70         27
    71        189
    72         11
    73          5
    77        122
    78         31
    79        308
    80         68
    81        304
    82         43
    83         78
    84        624
    85        154
    86         71
    88         12
    91        265
    92         54
    93        282
    94         93
    95        259
    96         33
    97         39
    98         17
    99         13
   100          3
   102          3
   103         14
   104         14
   105        202
   106         74
   107        311
   108        103
   109        133
   110         23
   111         34
   112          3
   113          2
   115         20
   116         10
   117         55
   118         32
   119        160
   120        101
   121        174
   122        101
   123         90
   124         45
   125         24
   127          5
   128         13
   129         25
   130         12
   131         89
   132         44
   133        140
   134        139
   135        164
   136         48
   137         42
   138         22
   139          6
   141         10
   142          7
   143         32
   144         18
   145        134
   146         40
   147        151
   148         74
   149        107
   150         20
   151         24
   152          2
   155          7
   156          3
   157         27
   158         18
   159         98
   160         62
   161        119
   162         34
   163         52
   164         16
   165         24
   166          6
   169         11
   171         30
   172         17
   173         71
   174         71
   175        102
   176         27
   177         23
   178         18
   179          8
   183         10
   185         30
   186         14
   187         64
   188         26
   189         30
   190         15
   191         29
   192         56
   193         16
   194          2
   197         15
   199         22
   200         13
   201         48
   202         14
   203         21
   204         18
   205         28
   206         11
   211         15
   212          6
   213         66
   214         20
   215        311
   216         72
   217         53
   218         29
   219         31
   220          5
   225         12
   226          6
   227         25
   228         12
   229         36
   230         22
   231         57
   232         35
   233        184
   234         54
   235          7
   239          9
   240          6
   241         15
   242         25
   243         19
   244         11
   245         23
   246         15
   247         10
   248         20
   253         17
   254          3
   255         45
   256         19
   257        148
   258         61
   259         26
   260        160
   261         56
   262          8
   265          8
   267         48
   268         11
   271         35
   272         37
   273         67
   274        121
   275         46
   276          7
   282         11
   283         30
   284          9
   285         94
   286         21
   287          3
   298         40
   299         13
   300        242
   301         68
   302         15
   303         87
   304         19
   316         96
   317         29
   318        576
   319        137
   320         19