##TITLE=Library Entry 39977
##JCAMP-DX=Revision 4.10 
##DATA TYPE=MASS SPECTRUM
##SAMPLE DESCRIPTION=Japan AIST/NIMC Database- Spectrum MS-NW- 245
##NAMES=HP
##CAS NAME=DL-Valine
##MOLFORM=C5H11NO2
##CAS REGISTRY NO=516-06-3
##MP= -300
##BP= -300
##MW= 117
##$RETENTION INDEX=0
##$CONDENSED SPECTRUM=NO
##NPOINTS= 54
##XYDATA=(XY..XY) 1 
     2          1
    14          2
    15          7
    17          6
    18         25
    19          5
    26          7
    27         66
    28        195
    29        107
    30         80
    31          2
    32          1
    33          1
    37          2
    38          8
    39         66
    40          7
    41         83
    42         27
    43         71
    44         11
    45         14
    46         53
    49          1
    50          1
    51          4
    52          6
    53         10
    54         20
    55        286
    56         97
    57        190
    58         31
    60          2
    67          4
    68          5
    69          9
    70         24
    71          6
    72        999
    73         56
    74        344
    75        139
    76          6
    78          1
    79          1
    81          4
    82          5
    83          5
    84          9
    85          4
    99          2
   100          2