##TITLE=Library Entry 19696
##JCAMP-DX=Revision 4.10 
##DATA TYPE=MASS SPECTRUM
##SAMPLE DESCRIPTION=LAC, NIDDK, NIH, Bethesda, MD 20892
##NAMES=HP
##CAS NAME=Ergosta-5,7-dien-3-ol, (3.beta.)-
##MOLFORM=C28H46O
##CAS REGISTRY NO=516-79-0
##MP= -300
##BP= -300
##MW= 398
##$RETENTION INDEX=3215
##$CONDENSED SPECTRUM=NO
##NPOINTS= 111
##XYDATA=(XY..XY) 1 
    41        496
    43        881
    44         35
    53        103
    55        999
    57        344
    58         11
    65         29
    67        452
    69        841
    71        121
    77        129
    79        314
    81        659
    82         98
    83        287
    84         58
    85         36
    91        347
    93        419
    95        492
    96         68
    97         75
    98         22
    99         30
   103         21
   105        404
   107        639
   109        267
   111         21
   115         42
   117        149
   119        252
   121        236
   123        139
   125        218
   128         22
   129         63
   131        169
   133        266
   135        264
   137         83
   141          9
   142         10
   143         78
   145        262
   147        378
   148         16
   149        124
   150         13
   151         65
   155         10
   157         92
   158         37
   159        146
   161        220
   163         61
   164         27
   165         10
   171         57
   172         19
   173         88
   174         27
   175        100
   177         25
   185         71
   187         82
   188         13
   189         25
   197         32
   199         52
   200         11
   201         54
   203         23
   213        119
   214         12
   215         69
   217         24
   227         39
   228         60
   229        154
   231        110
   232         10
   241         26
   243         23
   245         13
   246        225
   247         34
   253         56
   255        275
   256         45
   257        112
   258         45
   259         26
   269         11
   270         20
   271        552
   272        145
   273        221
   274         48
   283         10
   285         44
   299         58
   300        114
   301         24
   337         12
   355         41
   383        103
   384         11
   398        358
   399        106