##TITLE=Library Entry 6019
##JCAMP-DX=Revision 4.10 
##DATA TYPE=MASS SPECTRUM
##SAMPLE DESCRIPTION=LAC, NIDDK, NIH, Bethesda, MD 20892
##NAMES=HP
##CAS NAME=Allopregnan-3.alpha.-ol-20-one
##MOLFORM=C21H34O2
##CAS REGISTRY NO=516-54-1
##MP= -300
##BP= -300
##MW= 318
##$RETENTION INDEX=0
##$CONDENSED SPECTRUM=NO
##NPOINTS= 113
##XYDATA=(XY..XY) 1 
    41        179
    42         22
    43        999
    44         38
    45         21
    47         10
    48          3
    49         49
    51         27
    53         51
    54         17
    55        163
    56         13
    57        137
    58         16
    65         22
    66          9
    67        120
    68         29
    69         55
    70          8
    71         91
    77         74
    78         18
    79        124
    80         24
    81         98
    82         10
    83         39
    84        129
    85         35
    86         12
    91        111
    92          5
    93        104
    94         28
    95         71
    96          4
    97          8
   103          3
   105         73
   106         21
   107         76
   108         13
   109         43
   110          3
   111          4
   115         10
   117         23
   118          3
   119         49
   120         25
   121         38
   122         19
   123         15
   124          3
   129         12
   131         26
   133         42
   134         23
   135         32
   137          9
   141          7
   143         10
   145         32
   146          4
   147         31
   148         11
   149         21
   157          4
   159         24
   160         10
   161         23
   162          3
   163          8
   171          3
   173         32
   174         10
   175         17
   185          3
   187         15
   201          4
   205          3
   213         14
   215         45
   216          9
   217         19
   218          6
   229          4
   231         19
   232          4
   233         29
   234          3
   255          8
   257         28
   258         13
   259          3
   260         28
   261          3
   267          3
   273          8
   274         18
   283          4
   285         13
   298         13
   300         39
   301          9
   302         13
   303         15
   316         27
   317          4
   318         82
   319         18