##TITLE=Library Entry 100738
##JCAMP-DX=Revision 4.10 
##DATA TYPE=MASS SPECTRUM
##SAMPLE DESCRIPTION=NIST Mass Spectrometry Data Center, 1994
##NAMES=HP
##CAS NAME=2-Bromo-4-isopropylaniline
##MOLFORM=C9H12BrN
##CAS REGISTRY NO=51605-97-1
##MP= -300
##BP= -300
##MW= 213
##$RETENTION INDEX=0
##$CONDENSED SPECTRUM=NO
##NPOINTS= 96
##XYDATA=(XY..XY) 1 
    15         93
    16          0
    17          7
    18         11
    26         22
    27        137
    28         87
    30          9
    37         22
    38         68
    39        247
    40         41
    41        109
    42         34
    43          1
    44          6
    46         23
    47         23
    49          5
    50         62
    51        139
    52        178
    53         63
    54         33
    55          5
    56          3
    59        167
    60        113
    61         27
    62         72
    63        164
    64         72
    65        202
    66         54
    67         24
    68          4
    73          4
    74          2
    75         35
    76         37
    77         86
    78         62
    79         31
    80         23
    81          8
    82          6
    86         12
    87         14
    88         13
    89        100
    90         90
    91        245
    92         71
    93         57
    94         17
    99         16
   100         14
   101          5
   102         20
   103         21
   104         63
   105         31
   106         48
   107         12
   114          3
   115         17
   116         34
   117        138
   118        265
   119        999
   120        102
   121          5
   130         17
   131          7
   132         37
   133         40
   134         33
   135          4
   143          7
   145          5
   158          3
   171         23
   173         20
   184         21
   185          3
   186         18
   196         13
   198        919
   199        116
   200        854
   201         84
   213        261
   214         27
   215        257
   216         26
   217          1