##TITLE=Library Entry 96570
##JCAMP-DX=Revision 4.10 
##DATA TYPE=MASS SPECTRUM
##SAMPLE DESCRIPTION=Exported from NIST MS Search
##NAMES=HP
##CAS NAME=2H-Thiopyran, tetrahydro-4-methyl-
##MOLFORM=C6H12S
##CAS REGISTRY NO=5161-17-1
##MP= -300
##BP= -300
##MW= 116
##$RETENTION INDEX=933
##$CONDENSED SPECTRUM=NO
##NPOINTS= 87
##XYDATA=(XY..XY) 1 
     1         11
     2          5
    13          1
    14          4
    15         60
    16          2
    25          1
    26         81
    27        755
    28        216
    29        309
    30          7
    32          7
    33          9
    34         16
    35         35
    36          1
    37         11
    38         32
    39        548
    40         77
    41        889
    42        152
    43         42
    44          2
    45        601
    46        583
    47        376
    48         35
    49         18
    50         27
    51         62
    52         25
    53        186
    54        155
    55        698
    56        114
    57         44
    58        114
    59        253
    60        475
    61        665
    62         52
    63         35
    64          2
    65         29
    66         19
    67        782
    68        135
    69        391
    70        136
    71         41
    72         10
    73        161
    74        142
    75         25
    76          6
    77         10
    78          1
    79         16
    80          5
    81        108
    82        375
    83         72
    84          8
    85         38
    86         10
    87        117
    88        226
    89         22
    90          9
    97          9
    98          1
    99         20
   100          3
   101        959
   102         58
   103         42
   104          2
   111          2
   113          3
   114          1
   115         73
   116        999
   117         83
   118         43
   119          2