##TITLE=Library Entry 80713
##JCAMP-DX=Revision 4.10 
##DATA TYPE=MASS SPECTRUM
##SAMPLE DESCRIPTION=CONTINENTAL OIL CO., PONCA CITY, OKLA, USA
##NAMES=HP
##CAS NAME=Benzene, 1-methyl-4-(2-methylpropyl)-
##MOLFORM=C11H16
##CAS REGISTRY NO=5161-04-6
##MP= -300
##BP= -300
##MW= 148
##$RETENTION INDEX=1134
##$CONDENSED SPECTRUM=NO
##NPOINTS= 97
##XYDATA=(XY..XY) 1 
    12          0
    13          1
    14          7
    15         58
    16          1
    25          0
    26         11
    27        164
    28         43
    29         23
    30          0
    36          0
    37          3
    38         14
    39        143
    40         17
    41         96
    42          7
    43         66
    44          2
    45          0
    49          1
    50         29
    51         83
    52         27
    53         39
    54          2
    55         16
    56          2
    57          4
    58          4
    59          2
    61          3
    62         13
    63         50
    64         27
    65         69
    66          7
    67          1
    69          0
    70          0
    71          2
    73          2
    74          8
    75         13
    76         12
    77        173
    78         59
    79        110
    80          8
    85          1
    86          2
    87          3
    88          2
    89         22
    90          9
    91        162
    92         35
    93          5
    94          0
    96          0
    97          0
    98          1
    99          0
   100          0
   101          5
   102         17
   103         70
   104         63
   105        999
   106        283
   107         17
   108          0
   113          1
   114          2
   115         41
   116         19
   117         27
   118          6
   119          5
   120          0
   126          1
   127          4
   128         10
   129          7
   130          2
   131         13
   132          4
   133         11
   134          1
   141          0
   145          1
   146          5
   147          4
   148        283
   149         34
   150          1