##TITLE=Library Entry 74788
##JCAMP-DX=Revision 4.10 
##DATA TYPE=MASS SPECTRUM
##SAMPLE DESCRIPTION=Exported from NIST MS Search
##NAMES=HP
##CAS NAME=2H-Thiopyran, tetrahydro-2-methyl-
##MOLFORM=C6H12S
##CAS REGISTRY NO=5161-16-0
##MP= -300
##BP= -300
##MW= 116
##$RETENTION INDEX=910
##$CONDENSED SPECTRUM=NO
##NPOINTS= 86
##XYDATA=(XY..XY) 1 
     1          6
     2          1
    13          1
    14          2
    15         37
    16          1
    25          1
    26         39
    27        367
    28         82
    29        139
    30          3
    32          4
    33          6
    34          8
    35         23
    36          1
    37          7
    38         20
    39        352
    40         46
    41        465
    42         75
    43         17
    44          2
    45        338
    46        131
    47        185
    48         10
    49         10
    50         12
    51         27
    52         11
    53         90
    54         71
    55        243
    56         25
    57         18
    58         74
    59        288
    60        319
    61        208
    62         22
    63         13
    64          1
    65         17
    66          7
    67        371
    68         33
    69         59
    70          9
    71         32
    72          8
    73         82
    74         82
    75        123
    76          8
    77         12
    78          1
    79         10
    80          2
    81         39
    82        104
    83         48
    84          4
    85         18
    86          5
    87        323
    88         49
    89         23
    90          1
    97          5
    98          1
    99         14
   100          2
   101        999
   102         66
   103         45
   104          2
   111          1
   113          2
   115         29
   116        524
   117         42
   118         23
   119          2