##TITLE=Library Entry 74224
##JCAMP-DX=Revision 4.10 
##DATA TYPE=MASS SPECTRUM
##SAMPLE DESCRIPTION=Exported from NIST MS Search
##NAMES=HP
##CAS NAME=Thiophene, tetrahydro-2,5-dimethyl-, trans-
##MOLFORM=C6H12S
##CAS REGISTRY NO=5161-14-8
##MP= -300
##BP= -300
##MW= 116
##$RETENTION INDEX=890
##$CONDENSED SPECTRUM=NO
##NPOINTS= 79
##XYDATA=(XY..XY) 1 
    25          1
    26         31
    27        236
    28         56
    29         28
    30          2
    32          7
    33          6
    34          5
    35         23
    36          1
    37          9
    38         20
    39        211
    40         31
    41        298
    42         41
    43         15
    44          2
    45        206
    46         23
    47         82
    48          4
    49         10
    50         12
    51         17
    52          6
    53         42
    54         18
    55        128
    56         29
    57         19
    58         59
    59        399
    60        197
    61        245
    62         16
    63         13
    64          1
    65         13
    66          4
    67        235
    68         15
    69         15
    70          5
    71         14
    72          3
    73         44
    74        299
    75         22
    76         13
    77          5
    78          1
    79          7
    80          1
    81         24
    82         18
    83          9
    84          3
    85          9
    86          2
    87         21
    88         16
    89          2
    90          1
    97          4
    98          1
    99         19
   100          4
   101        999
   102         63
   103         45
   104          3
   113          1
   115         22
   116        376
   117         25
   118         17
   119          1