##TITLE=Library Entry 74223
##JCAMP-DX=Revision 4.10 
##DATA TYPE=MASS SPECTRUM
##SAMPLE DESCRIPTION=Exported from NIST MS Search
##NAMES=HP
##CAS NAME=Thiophene, tetrahydro-2,5-dimethyl-, cis-
##MOLFORM=C6H12S
##CAS REGISTRY NO=5161-13-7
##MP= -300
##BP= -300
##MW= 116
##$RETENTION INDEX=895
##$CONDENSED SPECTRUM=NO
##NPOINTS= 79
##XYDATA=(XY..XY) 1 
    25          1
    26         31
    27        277
    28         58
    29         85
    30          2
    32          7
    33          6
    34          5
    35         24
    36          1
    37          8
    38         20
    39        213
    40         31
    41        309
    42         39
    43         15
    44          2
    45        204
    46         23
    47         81
    48          4
    49         10
    50         12
    51         18
    52          9
    53         43
    54         18
    55        133
    56         30
    57         19
    58         58
    59        404
    60        206
    61        251
    62         17
    63         14
    64          1
    65         13
    66          4
    67        230
    68         15
    69         16
    70          5
    71         14
    72          3
    73         43
    74        284
    75         21
    76         13
    77          5
    78          1
    79          7
    80          1
    81         24
    82         20
    83         10
    84          2
    85          9
    86          2
    87         22
    88         19
    89          2
    90          1
    97          4
    98          1
    99         19
   100          3
   101        999
   102         64
   103         45
   104          2
   113          1
   114          1
   115         23
   116        378
   117         25
   118         16