##TITLE=Library Entry 73741
##JCAMP-DX=Revision 4.10 
##DATA TYPE=MASS SPECTRUM
##SAMPLE DESCRIPTION=V.G.Zaikin. TIPS, Russian Acad. Sci., Moscow
##NAMES=HP
##CAS NAME=cis-2,3-Dimethylthiophane
##MOLFORM=C6H12S
##CAS REGISTRY NO=5161-77-3
##MP= -300
##BP= -300
##MW= 116
##$RETENTION INDEX=980
##$CONDENSED SPECTRUM=NO
##NPOINTS= 61
##XYDATA=(XY..XY) 1 
    38         22
    39        251
    40         43
    41        597
    42         54
    43         37
    44         63
    45        237
    46         78
    47         85
    48          5
    49          8
    50         17
    51         44
    52         10
    53         79
    54         51
    55        280
    56         68
    57         10
    58         63
    59        349
    60        256
    61        143
    62         12
    63          8
    65         17
    66          4
    67        207
    68         21
    69        118
    70         48
    71         21
    72          3
    73         50
    74        326
    75         23
    76          7
    77          5
    79         12
    81         40
    82         44
    83         17
    84          4
    85         28
    86          4
    87         31
    88        114
    89          6
    97         10
    98          6
    99         17
   100         13
   101        999
   102         66
   103         42
   115         34
   116        499
   117         39
   118         23
   119          2