##TITLE=Library Entry 41667
##JCAMP-DX=Revision 4.10 
##DATA TYPE=MASS SPECTRUM
##SAMPLE DESCRIPTION=James Little, Eastman Chemical Co.
##NAMES=HP
##CAS NAME=2,2,4-Trimethyl-3-pentanol
##MOLFORM=C8H18O
##CAS REGISTRY NO=5162-48-1
##MP= -300
##BP= -300
##MW= 130
##$RETENTION INDEX=882
##$CONDENSED SPECTRUM=NO
##NPOINTS= 61
##XYDATA=(XY..XY) 1 
    26          6
    27        103
    28         16
    29        131
    30          6
    31         41
    37          2
    38          8
    39        147
    40         23
    41        423
    42         35
    43        275
    44         15
    45        233
    46          6
    47          1
    50          5
    51         10
    52          4
    53         35
    54         11
    55        452
    56        135
    57        430
    58         26
    59         72
    60          3
    62          1
    63          2
    65          5
    66          2
    67         14
    69        367
    70         41
    71        214
    72        204
    73        999
    74         45
    75          5
    77          4
    78          1
    79          6
    80          1
    81          5
    82          1
    83          4
    84          1
    85          5
    87        738
    88         42
    89          2
    91          1
    95          1
    97         16
    98          2
    99          6
   112          7
   113          1
   115          2
   129          1