##TITLE=Library Entry 81164
##JCAMP-DX=Revision 4.10 
##DATA TYPE=MASS SPECTRUM
##SAMPLE DESCRIPTION=Japan AIST/NIMC Database- Spectrum MS-NW-7091
##NAMES=HP
##CAS NAME=Methanone, (2-chlorophenyl)phenyl-
##MOLFORM=C13H9ClO
##CAS REGISTRY NO=5162-03-8
##MP= -300
##BP= -300
##MW= 216
##$RETENTION INDEX=1720
##$CONDENSED SPECTRUM=NO
##NPOINTS= 111
##XYDATA=(XY..XY) 1 
    14          1
    16          1
    26          2
    27         11
    28         29
    29          1
    36          4
    37          4
    38          6
    39         12
    40          1
    41          3
    42          2
    43          3
    44          6
    49          4
    50         71
    51        157
    52          9
    53          4
    55          1
    56          2
    57          2
    61          6
    62          8
    63         13
    64          2
    65          1
    67          1
    69          1
    70          1
    71          1
    73          6
    74         33
    75        112
    76         74
    77        393
    78         28
    79          1
    81          2
    82          1
    84          3
    85         11
    86          5
    87          7
    88          1
    89          2
    90          4
    91          1
    93          3
    94         12
    95          4
    97          1
    98          5
    99          5
   100          2
   101          4
   102          3
   103          1
   104          6
   105        999
   106         76
   107          5
   108          3
   109          2
   110          6
   111        144
   112         12
   113         51
   114          4
   115          1
   122          2
   123          1
   125          3
   126          9
   127          5
   128          1
   137          2
   138          2
   139        420
   140         34
   141        139
   142         12
   143          1
   149          2
   150          9
   151         19
   152         43
   153         14
   154          2
   162          1
   163          2
   164          2
   165          1
   166          1
   179          1
   180         12
   181         43
   182          7
   186          1
   187          1
   188          9
   189          1
   190          4
   199          1
   215          7
   216        369
   217         56
   218        129
   219         18
   220          2