##TITLE=Library Entry 42699
##JCAMP-DX=Revision 4.10 
##DATA TYPE=MASS SPECTRUM
##SAMPLE DESCRIPTION=John Halket,Royal Holloway, University of London, UK
##NAMES=HP
##CAS NAME=2-Ketoisovaleric acid oxime, bis(trimethylsilyl)- deriv.
##MOLFORM=C11H25NO3Si2
##CAS REGISTRY NO=51621-78-4
##MP= -300
##BP= -300
##MW= 275
##$RETENTION INDEX=1219
##$CONDENSED SPECTRUM=NO
##NPOINTS= 142
##XYDATA=(XY..XY) 1 
    15          5
    26          1
    27         19
    28          9
    29         13
    30          3
    31          9
    39         12
    40          3
    41         42
    42         32
    43        108
    44         28
    45        198
    46         14
    47         43
    48          2
    49          2
    52          2
    53          5
    54          7
    55         16
    56         11
    57         16
    58         39
    59        143
    60         17
    61         22
    62          2
    63          1
    66          2
    67          4
    68         33
    69          7
    70         12
    71          7
    73        999
    74        119
    75        173
    76         12
    77          7
    81          1
    82          3
    83         10
    84         41
    85         12
    86         43
    87          6
    88          4
    89        103
    90          8
    91         10
    92          1
    96          6
    97          3
    98          5
    99          4
   100         23
   101         15
   102          4
   103          9
   104          2
   105          4
   106          1
   110          3
   111          1
   112          3
   113          8
   114          3
   115         11
   116          4
   117         18
   118          3
   119          4
   124          1
   126         18
   127          3
   128          9
   129          5
   130          4
   131         52
   132          9
   133         97
   134         15
   135          8
   136          1
   140         19
   141         25
   142         26
   143          6
   144          4
   145          1
   147        609
   148         94
   149         52
   150          4
   156          2
   157         22
   158        269
   159         42
   160         12
   161          1
   163         14
   164          2
   165          1
   170         17
   171          2
   172          7
   173          1
   174          2
   175          1
   186         76
   187         13
   188          7
   189          1
   190          3
   191          1
   202          1
   214          1
   216          2
   218          1
   229          2
   230          1
   232        276
   233         57
   234         26
   235          3
   236          1
   242          1
   244          1
   247         24
   248          6
   249          2
   258          2
   260        272
   261         60
   262         27
   263          4
   275        116
   276         25
   277         11
   278          1