##TITLE=Library Entry 42632
##JCAMP-DX=Revision 4.10 
##DATA TYPE=MASS SPECTRUM
##SAMPLE DESCRIPTION=John Halket,Royal Holloway, University of London, UK
##NAMES=HP
##CAS NAME=2-Ketoisocaproic acid oxime, bis(trimethylsilyl)- deriv.
##MOLFORM=C12H27NO3Si2
##CAS REGISTRY NO=51621-80-8
##MP= -300
##BP= -300
##MW= 289
##$RETENTION INDEX=1294
##$CONDENSED SPECTRUM=NO
##NPOINTS= 179
##XYDATA=(XY..XY) 1 
    15          6
    26          2
    27         25
    28          8
    29         28
    30          3
    31          9
    38          1
    39         19
    40          6
    41         67
    42         16
    43        118
    44         33
    45        213
    46         16
    47         46
    48          2
    49          2
    51          1
    52          3
    53          7
    54         10
    55         34
    56         80
    57         32
    58         46
    59        158
    60         19
    61         35
    62          2
    63          1
    64          1
    65          1
    66          6
    67          3
    68          6
    69          5
    70         16
    71          9
    73        999
    74        122
    75        231
    76         18
    77         12
    79          1
    80          3
    81          8
    82        135
    83         14
    84         36
    85          8
    86         15
    87          6
    89        106
    90         10
    91         15
    92          1
    93          1
    94          1
    96          2
    97          3
    98         14
    99         11
   100         26
   101          5
   102          4
   103         13
   104          2
   105          6
   106          1
   107          1
   108          1
   110         86
   111          7
   112          2
   113          5
   114         16
   115         27
   116         10
   117         20
   118          4
   119          8
   120          2
   121          1
   124          2
   125          1
   126          3
   127          1
   129        144
   130         76
   131         76
   132         15
   133        102
   134         14
   135          9
   136          1
   138          1
   140         40
   141          6
   142          5
   143          3
   144          7
   145          3
   147        547
   148         91
   149         58
   150          6
   151          2
   154         23
   155          6
   156         35
   157          9
   158         11
   159          8
   160          2
   161          1
   163         14
   164          3
   165          1
   166          5
   167          1
   168          1
   170          2
   172        160
   173         28
   174         12
   175          7
   176          2
   177          1
   182         12
   183          7
   184         55
   185          9
   186          5
   187          1
   188          7
   189          2
   190         26
   191          5
   192          3
   200        542
   201         90
   202         31
   203          7
   204         15
   205          4
   206          2
   215          2
   216         14
   217          3
   218          4
   219          1
   220          2
   228          4
   229          1
   230          2
   231          4
   232         14
   233          3
   234          1
   244          1
   246        112
   247        195
   248         48
   249         18
   250          3
   256          1
   258          1
   272          3
   274        313
   275         75
   276         31
   277          5
   278          1
   288          1
   289          4
   290          2
   291          1