##TITLE=Library Entry 42546
##JCAMP-DX=Revision 4.10 
##DATA TYPE=MASS SPECTRUM
##SAMPLE DESCRIPTION=O A MAMER, MCGILL UNIVERSITY, MONTRE
##NAMES=HP
##CAS NAME=2-Keto-3-methylvalerate oxime, bis(trimethylsilyl)- deriv.
##MOLFORM=C12H27NO3Si2
##CAS REGISTRY NO=51621-79-5
##MP= -300
##BP= -300
##MW= 289
##$RETENTION INDEX=0
##$CONDENSED SPECTRUM=NO
##NPOINTS= 126
##XYDATA=(XY..XY) 1 
    26          5
    27         27
    29         70
    30          4
    31         12
    34          0
    38          3
    39         13
    40          0
    41         54
    42          5
    43         43
    44         20
    45        159
    46         13
    47         50
    48          6
    49          3
    50          0
    51          0
    52          1
    53          8
    54         38
    55         72
    56        165
    57         50
    58         33
    59        104
    60         16
    61         24
    66          9
    67          5
    68          8
    69          2
    70          8
    71          5
    72         22
    73        999
    74        105
    75        268
    76         19
    77         11
    80          3
    81          4
    82         64
    83          7
    84         58
    85          8
    86         24
    87          5
    88          2
    89        101
    90         10
    91         14
    97          6
    98          5
    99          4
   100         20
   101          4
   102          3
   103          7
   105          5
   109          2
   110         22
   111          3
   112          3
   113          4
   114          3
   115         10
   116          7
   117         20
   118          4
   119          4
   126          8
   127         12
   128          7
   129         20
   130         13
   131         23
   132          5
   133         48
   134          7
   135          5
   140         38
   141          7
   142         15
   143         50
   144          9
   145          4
   147        299
   148         50
   149         26
   150          3
   154          7
   155          3
   156         29
   157          7
   158          6
   163         11
   170          3
   171          8
   172        144
   173         24
   174          8
   184         16
   185          3
   186          3
   190          2
   199          2
   200        161
   201         29
   202         10
   230          2
   232          3
   246         69
   247         93
   248         21
   249          8
   261         49
   262         11
   263          5
   274        125
   275         29
   276         12
   289         22
   290          5