##TITLE=Library Entry 42493
##JCAMP-DX=Revision 4.10 
##DATA TYPE=MASS SPECTRUM
##SAMPLE DESCRIPTION=O A MAMER, MCGILL UNIVERSITY, MONTRE
##NAMES=HP
##CAS NAME=Pyruvic acid oxime, bis(trimethylsilyl)- deriv.
##MOLFORM=C9H21NO3Si2
##CAS REGISTRY NO=51621-44-4
##MP= -300
##BP= -300
##MW= 247
##$RETENTION INDEX=1157
##$CONDENSED SPECTRUM=NO
##NPOINTS= 57
##XYDATA=(XY..XY) 1 
    15         37
    26          8
    27         15
    28         46
    29         26
    31         19
    40         13
    41         25
    42         18
    43        105
    44         42
    45        252
    46         18
    47         34
    52         26
    55         28
    56         19
    57         21
    58         52
    59        196
    60         21
    61         22
    66         66
    67         10
    70          9
    72         28
    73        999
    74        127
    75        119
    76         10
    79         12
    84         10
    85         11
    89         39
   100         25
   103          9
   115         12
   117         10
   129         15
   130        154
   131         36
   132         11
   133         56
   134          9
   147        423
   148         69
   149         40
   204        162
   205         32
   206         15
   218          6
   232        247
   233         51
   234         23
   247         99
   248         22
   249         10