##TITLE=Library Entry 109917
##JCAMP-DX=Revision 4.10 
##DATA TYPE=MASS SPECTRUM
##SAMPLE DESCRIPTION=NIST Mass Spectrometry Data Center, 1995
##NAMES=HP
##CAS NAME=Fenvalerate
##MOLFORM=C25H22ClNO3
##CAS REGISTRY NO=51630-58-1
##MP= -300
##BP= -300
##MW= 419
##$RETENTION INDEX=2847
##$CONDENSED SPECTRUM=NO
##NPOINTS= 78
##XYDATA=(XY..XY) 1 
    11          3
    12          6
    14          5
    15          3
    16          3
    17          7
    18         12
    27         72
    28         51
    29         74
    30          5
    38          2
    39         95
    41         79
    43        148
    50         39
    51        159
    52          2
    53          6
    54          2
    55        165
    56          3
    62          4
    63         65
    64         11
    65         37
    73         23
    75         23
    76         49
    77        235
    78         31
    88         24
    89        118
    90         30
    91         52
   103         57
   113          3
   114         59
   115        177
   116         69
   117         57
   124         29
   125        999
   126        122
   127        358
   128         51
   139         95
   140          8
   141        108
   150          2
   151         19
   152        432
   153        113
   154        113
   165          5
   167        779
   168        138
   169        409
   170         73
   171         46
   178          8
   180        100
   181        452
   182         73
   197         68
   198         53
   206         32
   207         34
   208        105
   209        133
   210          7
   223          7
   225        669
   226        110
   419        495
   420        145
   421        191
   422         35