##TITLE=Library Entry 3540
##JCAMP-DX=Revision 4.10 
##DATA TYPE=MASS SPECTRUM
##SAMPLE DESCRIPTION=ATLAS OF MASS SPECTRA OF ORGANIC COMPOUNDS, V. A. KOPTY
UG, ED.
##NAMES=HP
##CAS NAME=Hydrazine, 1,1-di-2-propenyl-
##MOLFORM=C6H12N2
##CAS REGISTRY NO=5164-11-4
##MP= -300
##BP= -300
##MW= 112
##$RETENTION INDEX=867
##$CONDENSED SPECTRUM=NO
##NPOINTS= 25
##XYDATA=(XY..XY) 1 
    27        310
    29        164
    30         76
    31        128
    38         25
    39        293
    40         36
    41        999
    42        107
    43        167
    44        215
    45         70
    54         67
    55         41
    56         74
    57         19
    67         10
    68         18
    69         23
    70         16
    71        479
    72         69
    85         54
   112        198
   113         18