##TITLE=Library Entry 72273
##JCAMP-DX=Revision 4.10 
##DATA TYPE=MASS SPECTRUM
##SAMPLE DESCRIPTION=Chemical Concepts
##NAMES=HP
##CAS NAME=Hydrazinecarboxamide, 2-(6-ethoxydihydro-2-methyl-2H-pyran-3(4H)-
ylidene)-, (2R-trans)-
##MOLFORM=C9H17N3O3
##CAS REGISTRY NO=51642-57-0
##MP= -300
##BP= -300
##MW= 215
##$RETENTION INDEX=0
##$CONDENSED SPECTRUM=NO
##NPOINTS= 146
##XYDATA=(XY..XY) 1 
    26         25
    27        203
    28        111
    29        400
    30         93
    31         74
    33          4
    36          2
    37          3
    38         10
    39        152
    40         42
    41        653
    42        548
    43        533
    44        504
    45        181
    46         43
    47         88
    48          4
    49          2
    50          7
    51         24
    52         27
    53        127
    54        779
    55        801
    56        369
    57        419
    58         77
    59         40
    60         39
    61         90
    62          5
    63          6
    64          7
    65         39
    66         54
    67         96
    68         95
    69        209
    70         67
    71         87
    72         67
    73         55
    74         27
    75         52
    76         29
    77         15
    78          5
    79         21
    80         49
    81         56
    82        163
    83        988
    84        494
    85        167
    86         39
    87         53
    88         12
    89          2
    90          3
    91          6
    92         10
    93          9
    94         23
    95         42
    96         42
    97        160
    98         94
    99        999
   100        285
   101         49
   102         13
   103          9
   104          2
   105          3
   106          1
   107          7
   108         13
   109        186
   110        168
   111        167
   112        150
   113         64
   114         32
   115         13
   116          3
   117          9
   118          2
   119          1
   121          1
   122          1
   123         15
   124         12
   125         60
   126        497
   127        456
   128         50
   129        109
   130         38
   131          2
   135          3
   136          3
   137          3
   138          7
   139          2
   140         81
   141         34
   142        367
   143        282
   144         29
   145          4
   146          1
   149         10
   150          1
   151          4
   152          8
   153         12
   154         18
   155         25
   156        237
   157         41
   158          8
   159          2
   161          1
   162          1
   163          1
   165          1
   166          1
   168          3
   169         96
   170        169
   171         35
   172        451
   173         53
   174          6
   185          3
   186          5
   187          1
   198          1
   200          3
   201          1
   215        169
   216         31
   217          3