##TITLE=Library Entry 22316
##JCAMP-DX=Revision 4.10 
##DATA TYPE=MASS SPECTRUM
##SAMPLE DESCRIPTION=NIST Mass Spectrometry Data Center, 1990.
##NAMES=HP
##CAS NAME=2-Butyl-1-decene
##MOLFORM=C14H28
##CAS REGISTRY NO=51655-65-3
##MP= -300
##BP= -300
##MW= 196
##$RETENTION INDEX=0
##$CONDENSED SPECTRUM=NO
##NPOINTS= 46
##XYDATA=(XY..XY) 1 
    27        150
    28         77
    29        236
    32         10
    39        127
    40         39
    41        477
    42         79
    43        225
    44         10
    51          8
    52          9
    53         75
    54         51
    55        491
    56        999
    57        399
    58         17
    65         16
    66          9
    67        100
    68         61
    69        330
    70        349
    71         38
    77         16
    79         25
    81         44
    82         25
    83        182
    84         62
    85         21
    95         14
    96         20
    97         68
    98         90
    99         35
   110         13
   111         45
   112         17
   126         27
   138         13
   139         48
   140         10
   154         12
   196         37