##TITLE=Library Entry 84731
##JCAMP-DX=Revision 4.10 
##DATA TYPE=MASS SPECTRUM
##SAMPLE DESCRIPTION=Exported from NIST MS Search
##NAMES=HP
##CAS NAME=1-Propen-2-amine, N,N-dimethyl-1-(1,2,4-triazin-5-yl)-
##MOLFORM=C8H12N4
##CAS REGISTRY NO=51659-18-8
##MP= -300
##BP= -300
##MW= 164
##$RETENTION INDEX=0
##$CONDENSED SPECTRUM=NO
##NPOINTS= 13
##XYDATA=(XY..XY) 1 
    42        589
    56        979
    70        460
    80        190
    94        919
    95        280
   108        999
   109        370
   110        230
   120        460
   121        390
   135        300
   164        829