##TITLE=Library Entry 32604
##JCAMP-DX=Revision 4.10 
##DATA TYPE=MASS SPECTRUM
##SAMPLE DESCRIPTION=NIST Mass Spectrometry Data Center, 1998.
##NAMES=HP
##CAS NAME=5-Decen-1-ol, (Z)-
##MOLFORM=C10H20O
##CAS REGISTRY NO=51652-47-2
##MP= -300
##BP= -300
##MW= 156
##$RETENTION INDEX=1247
##$CONDENSED SPECTRUM=NO
##NPOINTS= 82
##XYDATA=(XY..XY) 1 
    15          4
    26          8
    27        159
    28         31
    29        165
    30          8
    31        220
    32          2
    37          2
    38          8
    39        286
    40         49
    41        733
    42        139
    43        243
    44         65
    45         29
    46          1
    50         11
    51         35
    52         23
    53        201
    54        769
    55        929
    56        169
    57        289
    58         25
    59          5
    62          2
    63          8
    64          2
    65         67
    66         71
    67        999
    68        669
    69        233
    70         79
    71         93
    72         12
    73          6
    74          1
    75          1
    76          1
    77         59
    78         11
    79        152
    80         46
    81        758
    82        518
    83        109
    84         26
    85         17
    86          6
    87          1
    89          1
    91         25
    92          3
    93         38
    94         16
    95        510
    96        234
    97         43
    98          6
    99         11
   100          2
   105          2
   107          3
   108          3
   109        138
   110        171
   111         15
   112          7
   113          5
   123          8
   124          1
   127          1
   128          5
   136          1
   137          1
   138         76
   139          8
   156          5