##TITLE=Library Entry 37321
##JCAMP-DX=Revision 4.10 
##DATA TYPE=MASS SPECTRUM
##SAMPLE DESCRIPTION=D.HENNEBERG, MAX-PLANCK INSTITUTE, MULHEIM, WEST GERMAN
Y
##NAMES=HP
##CAS NAME=Nonane, 3-methylene-
##MOLFORM=C10H20
##CAS REGISTRY NO=51655-64-2
##MP= -300
##BP= -300
##MW= 140
##$RETENTION INDEX=987
##$CONDENSED SPECTRUM=NO
##NPOINTS= 59
##XYDATA=(XY..XY) 1 
    21          0
    22          0
    26          6
    27        165
    29        212
    30          4
    36          1
    37          4
    38          4
    39        134
    40         25
    41        449
    42        300
    43        275
    44          7
    45          0
    46          0
    47          0
    49          0
    50          3
    51         11
    52          6
    53         46
    54         37
    55        785
    56        121
    57         47
    58          1
    63          1
    64          0
    65          8
    66          3
    67         42
    68         15
    69        226
    70        999
    71        158
    72          6
    77          4
    78          0
    79          4
    80          0
    81          8
    82          7
    83         81
    84         27
    85          3
    88          1
    91          1
    95          1
    97          6
    98          3
   109          0
   110         13
   111         67
   112         10
   125          0
   140         27
   141          2