##TITLE=Library Entry 34147
##JCAMP-DX=Revision 4.10 
##DATA TYPE=MASS SPECTRUM
##SAMPLE DESCRIPTION=COMPAGNIE FRANCAISE DE RAFFINAGE, FRANCE.
##NAMES=HP
##CAS NAME=1-Butene, 3-chloro-2-methyl-
##MOLFORM=C5H9Cl
##CAS REGISTRY NO=5166-35-8
##MP= -300
##BP= -300
##MW= 104
##$RETENTION INDEX=659
##$CONDENSED SPECTRUM=NO
##NPOINTS= 48
##XYDATA=(XY..XY) 1 
    26         42
    27        254
    28         48
    29         55
    30          5
    31         28
    35          9
    36         58
    37         23
    38         69
    39        343
    40        121
    41        940
    42        101
    43         31
    49         23
    50         48
    51         73
    52         27
    53        398
    54         41
    55         65
    56          5
    57          4
    61         16
    62         18
    63         39
    64          5
    65         35
    66         26
    67        230
    68        171
    69        999
    70         64
    71          2
    75         15
    76         14
    77          5
    78          7
    87          2
    88          1
    89        128
    90          6
    91         43
   103          2
   104        203
   105         12
   106         66