##TITLE=Library Entry 77878
##JCAMP-DX=Revision 4.10 
##DATA TYPE=MASS SPECTRUM
##SAMPLE DESCRIPTION=A.A.Kutin, Moscow, Russia
##NAMES=HP
##CAS NAME=Imidazo[2,1-c]1,2,4-triazine, 1,4-dihydro-3,5,6-triphenyl-
##MOLFORM=C23H18N4
##CAS REGISTRY NO=51666-54-7
##MP= -300
##BP= -300
##MW= 350
##$RETENTION INDEX=0
##$CONDENSED SPECTRUM=NO
##NPOINTS= 140
##XYDATA=(XY..XY) 1 
    33          5
    39         51
    40         41
    41         82
    42         24
    43         35
    44         56
    45          3
    50         50
    51        191
    52         28
    53          6
    54          3
    55         10
    57          9
    58          1
    62         14
    63         60
    64         20
    65         29
    67          3
    69         12
    70          4
    71          4
    73         27
    74         16
    75         39
    76        220
    77        641
    78         45
    79          2
    82          9
    83         10
    87          3
    88         37
    89        141
    90         85
    91        138
    92         13
    95          9
    96          1
    99          1
   100          1
   101         15
   102         90
   103        528
   104        999
   105        104
   106          8
   110         21
   112          1
   113         10
   114         24
   115         54
   116        102
   117        503
   118         49
   119          1
   121          7
   123         13
   124          4
   126         19
   127          9
   128         25
   129         66
   130          6
   131          0
   132          4
   137          3
   138          1
   139         20
   140         17
   141          7
   142         10
   143         79
   144        205
   145         24
   146          3
   149          8
   150         24
   151         32
   152         44
   153         15
   154          5
   156         16
   159          2
   161          2
   162          2
   163         27
   165        237
   166         41
   167         13
   171          3
   174          1
   175         75
   176         79
   177         62
   178         89
   179         18
   180          2
   188          4
   189          8
   190         80
   191         28
   192         26
   193         19
   194          4
   202         19
   203         25
   204         93
   205        109
   206         44
   207          4
   215          1
   216          6
   217         17
   218         54
   219         83
   220         30
   221          9
   229         36
   230          8
   231         13
   232         41
   233         24
   234          6
   243          5
   244         17
   246        680
   247        338
   248         48
   249          1
   251          9
   294          3
   348         23
   349         17
   350        632
   351        164
   352         17
   354          8