##TITLE=Library Entry 60642
##JCAMP-DX=Revision 4.10 
##DATA TYPE=MASS SPECTRUM
##SAMPLE DESCRIPTION=Chemical Concepts
##NAMES=HP
##CAS NAME=(3-Bromo-1-methylpropoxymethyl)benzene
##MOLFORM=C11H15BrO
##CAS REGISTRY NO=51666-29-6
##MP= -300
##BP= -300
##MW= 242
##$RETENTION INDEX=0
##$CONDENSED SPECTRUM=NO
##NPOINTS= 87
##XYDATA=(XY..XY) 1 
    26          2
    27         28
    28          7
    29         18
    30          0
    31          1
    37          0
    38          3
    39         35
    40          3
    41         20
    42          2
    43         13
    44          1
    45          3
    50          8
    51         24
    52          8
    53          5
    54          1
    55         35
    56          7
    57          1
    61          0
    62          2
    63         14
    64          5
    65         67
    66          3
    67          0
    71          0
    73          0
    74          1
    75          1
    76          2
    77         37
    78         12
    79         50
    80          4
    81          0
    85          0
    86          0
    87          0
    88          0
    89         18
    90         14
    91        999
    92        350
    93         21
    94          0
    95          0
   103          0
   104          0
   105         18
   106          3
   107         35
   108         22
   109          2
   115          0
   117          0
   118          1
   119          0
   121          1
   122          0
   123          3
   133          0
   134          0
   135         68
   136          6
   137          1
   145          1
   149          1
   151          2
   153          2
   161          0
   162          0
   169          0
   170          3
   171          0
   172          3
   177          0
   227          0
   229          0
   241          0
   242          2
   243          0
   244          2