##TITLE=Library Entry 59855
##JCAMP-DX=Revision 4.10 
##DATA TYPE=MASS SPECTRUM
##SAMPLE DESCRIPTION=Chemical Concepts
##NAMES=HP
##CAS NAME=3-(2-Methoxycarbonylethyl)-4-methyl-1H-pyrrole-2-carboxylic acid,
 benzyl ester
##MOLFORM=C17H19NO4
##CAS REGISTRY NO=51671-83-1
##MP= -300
##BP= -300
##MW= 301
##$RETENTION INDEX=0
##$CONDENSED SPECTRUM=NO
##NPOINTS= 141
##XYDATA=(XY..XY) 1 
    29         36
    30         35
    31         23
    33          8
    37          8
    38         28
    39        174
    40         25
    41         41
    42         31
    43         12
    44          2
    45          9
    49          3
    50         56
    51        150
    52         82
    53         59
    54         12
    55          8
    56          1
    57          2
    59         32
    60          1
    61          5
    62         23
    63         82
    64         37
    65        271
    66         70
    67         20
    68          3
    73          1
    74         12
    75         15
    76         17
    77        178
    78         63
    79         88
    80         39
    81          7
    82          1
    85          0
    86          2
    87          2
    88          3
    89         44
    90         36
    91        999
    92         89
    93         38
    94         26
    95          3
    96          1
   102          2
   103          4
   104         34
   105         50
   106         74
   107         46
   108         30
   109         42
   110         10
   111          0
   115          1
   116          0
   117          1
   118          1
   119          9
   120         37
   121          9
   122         17
   123          5
   124         13
   125          1
   131          2
   132         22
   133         43
   134         32
   135          8
   136         11
   137          4
   138          6
   149          2
   150         17
   151         26
   152         21
   153          2
   159          7
   163          5
   164         10
   166         24
   167         14
   168         18
   169          3
   170          3
   178        211
   179         25
   180          6
   181          3
   182         11
   183          3
   184         57
   185          9
   192         36
   193          5
   194          7
   195          5
   196          5
   197          2
   198          9
   199          2
   209          4
   210        108
   211         12
   212          2
   214          4
   222          5
   223          2
   224          6
   225          1
   226          5
   227          2
   228          8
   229          1
   240          4
   241          5
   242         11
   243          2
   244          2
   255          1
   256          9
   257          4
   258          1
   268         17
   269          3
   270          5
   286         16
   287          2
   301         28
   302          5