##TITLE=Library Entry 56917
##JCAMP-DX=Revision 4.10 
##DATA TYPE=MASS SPECTRUM
##SAMPLE DESCRIPTION=B.WEBSTER ICI PHARMACEUTICALS DIVISION. ALDERLEY PARK C
HESHIRE
##NAMES=HP
##CAS NAME=Benzoic acid, 4-[3-[(1,1-dimethylethyl)amino]-2-hydroxypropoxy]-,
 methyl ester
##MOLFORM=C15H23NO4
##CAS REGISTRY NO=51698-62-5
##MP= -300
##BP= -300
##MW= 281
##$RETENTION INDEX=0
##$CONDENSED SPECTRUM=NO
##NPOINTS= 17
##XYDATA=(XY..XY) 1 
    41        115
    57        292
    70        108
    71         77
    86        999
    87         77
   121         62
   130         48
   135         24
   152         16
   165         24
   237         24
   250          8
   266        354
   267         38
   280          1
   281          1