##TITLE=Library Entry 18068
##JCAMP-DX=Revision 4.10 
##DATA TYPE=MASS SPECTRUM
##SAMPLE DESCRIPTION=L. Tsai, LB, NHLBI, NIH, Bethesda, MD 20892
##NAMES=HP
##CAS NAME=Nitrobenzene, 2-selenocyano-
##MOLFORM=C7H4N2O2Se
##CAS REGISTRY NO=51694-18-9
##MP= -300
##BP= -300
##MW= 228
##$RETENTION INDEX=0
##$CONDENSED SPECTRUM=NO
##NPOINTS= 150
##XYDATA=(XY..XY) 1 
    41         12
    42          5
    43         14
    44          6
    46        114
    47          6
    48          8
    49         99
    50        999
    51        259
    52         76
    53         34
    54          2
    55         13
    56          3
    57          7
    60          8
    61         70
    62         88
    63        580
    64        211
    65         17
    66         10
    67          6
    68          5
    69          5
    70          2
    71          4
    72          1
    73         81
    74        468
    75        444
    76        374
    77         86
    78        229
    80        108
    81          5
    82         20
    83          1
    84         23
    85          2
    86         17
    87         10
    88         17
    89         38
    90        236
    91         75
    92         98
    93        147
    94         45
    95         26
    96         14
    97          2
    98          4
    99          7
   100         13
   101         29
   102        256
   103         32
   104        228
   105         17
   106        285
   107         29
   108         15
   109          3
   111          6
   112          1
   113         46
   114         49
   115        105
   116         42
   117        207
   118         66
   119         43
   120         14
   121          4
   122          2
   123          3
   124          1
   125         16
   126         23
   127         49
   128         37
   129         83
   130         73
   131         37
   132         30
   133          5
   134          3
   137          7
   138          8
   139         27
   140         31
   141         63
   142         47
   143         72
   144         61
   145         15
   146         10
   148          0
   149          9
   150         10
   151         40
   152         92
   153        141
   154        159
   155        182
   156        293
   157         47
   158         53
   159          3
   164          3
   166         28
   167         24
   168         69
   170        148
   172         35
   173          2
   176          3
   177          9
   178         38
   179         46
   180         89
   181         52
   182        243
   183         92
   184        245
   186        451
   188        101
   189          5
   196          3
   198         16
   199         10
   200         31
   202         61
   203          4
   204         11
   208          0
   209          1
   210          2
   211          2
   212          4
   222         14
   224        133
   225        110
   226        300
   228        579
   229         42
   230         99
   231          7