##TITLE=Library Entry 85234
##JCAMP-DX=Revision 4.10 
##DATA TYPE=MASS SPECTRUM
##SAMPLE DESCRIPTION=Japan AIST/NIMC Database- Spectrum MS-NW-5432
##NAMES=HP
##CAS NAME=1H-Pyrrole, 3-ethyl-2,4-dimethyl-
##MOLFORM=C8H13N
##CAS REGISTRY NO=517-22-6
##MP= -300
##BP= -300
##MW= 123
##$RETENTION INDEX=988
##$CONDENSED SPECTRUM=NO
##NPOINTS= 70
##XYDATA=(XY..XY) 1 
    15          9
    26          5
    27         31
    28         27
    29          8
    30          6
    37          2
    38          8
    39         62
    40         15
    41         60
    42         41
    43          3
    44          3
    46          6
    49          1
    50          9
    51         23
    52         20
    53         43
    54         20
    55          9
    56          2
    58          9
    59          3
    60          6
    61          3
    62          5
    63         11
    64          4
    65         28
    66         22
    67         45
    68          7
    69          1
    74          2
    75          1
    76          2
    77         31
    78          9
    79         36
    80         19
    81         25
    82          5
    89          1
    90          1
    91         12
    92         10
    93         52
    94         43
    95         10
    96          3
   103          1
   104          5
   105          5
   106         55
   107         78
   108        999
   109         81
   110         12
   111          1
   117          2
   118          6
   119          1
   120         19
   121          9
   122         69
   123        452
   124         46
   125          2