##TITLE=Library Entry 9990
##JCAMP-DX=Revision 4.10 
##DATA TYPE=MASS SPECTRUM
##SAMPLE DESCRIPTION=Japan AIST/NIMC Database- Spectrum MS-NW-8455
##NAMES=HP
##CAS NAME=.alpha.-Acetobutyrolactone
##MOLFORM=C6H8O3
##CAS REGISTRY NO=517-23-7
##MP= -300
##BP= -300
##MW= 128
##$RETENTION INDEX=1108
##$CONDENSED SPECTRUM=NO
##NPOINTS= 60
##XYDATA=(XY..XY) 1 
    13          2
    14         11
    15         93
    16          1
    18          1
    25          3
    26         29
    27        117
    28         31
    29         57
    30          4
    31          9
    37          7
    38         13
    39         88
    40         20
    41        218
    42        120
    43        999
    44         35
    45         15
    49          1
    50          5
    51          6
    52          2
    53         14
    54          8
    55        162
    56          9
    57         17
    58         68
    59          3
    60          2
    63          1
    65          2
    66          2
    67          2
    68         58
    69         90
    70         25
    71         35
    72          2
    81          1
    82         10
    83          4
    84          2
    85        107
    86        458
    87         21
    88          2
    95         12
    98          3
    99          2
   100         10
   110          9
   111          1
   113         31
   114          1
   128         25
   129          5