##TITLE=Library Entry 8799
##JCAMP-DX=Revision 4.10 
##DATA TYPE=MASS SPECTRUM
##SAMPLE DESCRIPTION=D.HENNEBERG, MAX-PLANCK INSTITUTE, MULHEIM, WEST GERMAN
Y
##NAMES=HP
##CAS NAME=Hexane, 3,3,4,4-tetramethyl-
##MOLFORM=C10H22
##CAS REGISTRY NO=5171-84-6
##MP= -300
##BP= -300
##MW= 142
##$RETENTION INDEX=984
##$CONDENSED SPECTRUM=NO
##NPOINTS= 25
##XYDATA=(XY..XY) 1 
    25         12
    26         37
    27        150
    28        175
    29        243
    39         93
    40         12
    41        300
    42         56
    43        999
    44         18
    53         25
    55        150
    56         50
    57         75
    58         37
    67         18
    69         37
    70        218
    71        850
    72         37
    85         50
   112         12
   113         56
   127         12