##TITLE=Library Entry 4063
##JCAMP-DX=Revision 4.10 
##DATA TYPE=MASS SPECTRUM
##SAMPLE DESCRIPTION=Japan AIST/NIMC Database- Spectrum MS-NW-6379
##NAMES=HP
##CAS NAME=2,5(1H,3H)-Pentalenedione, tetrahydro-, cis-
##MOLFORM=C8H10O2
##CAS REGISTRY NO=51716-63-3
##MP= -300
##BP= -300
##MW= 138
##$RETENTION INDEX=0
##$CONDENSED SPECTRUM=NO
##NPOINTS= 86
##XYDATA=(XY..XY) 1 
    13          1
    14          9
    15         19
    16          1
    18          1
    25          1
    26         17
    27         91
    28         47
    29          7
    30          1
    31          5
    32          1
    33          1
    34          3
    36          1
    37         10
    38         31
    39        267
    40         80
    41        999
    42        126
    43         28
    44          9
    45          1
    48          1
    49          4
    50         19
    51         27
    52         15
    53         84
    54         86
    55         99
    56          6
    57          1
    58          1
    60          1
    61          4
    62          6
    63          9
    64          2
    65         18
    66         15
    67        121
    68        662
    69        463
    70         45
    71          3
    73          1
    74          2
    76          1
    77          8
    78          5
    79         12
    80          4
    81         90
    82         38
    83          6
    84          2
    89          1
    90          1
    91          7
    92          4
    93          4
    94          4
    95         82
    96         64
    97         53
    98          4
   102          1
   105          1
   107          1
   108          1
   109          8
   110         65
   111          5
   119          1
   120          4
   121          1
   123          9
   124          1
   136          2
   137          1
   138        667
   139         61
   140          7