##TITLE=Library Entry 87601
##JCAMP-DX=Revision 4.10 
##DATA TYPE=MASS SPECTRUM
##SAMPLE DESCRIPTION=JCPRB4, (1)15(1979); S. I. MILLER ET AL.
##NAMES=HP
##CAS NAME=Methanone, bis(5-methyl-1H-1,2,3-triazol-4-yl)-
##MOLFORM=C7H8N6O
##CAS REGISTRY NO=51719-73-4
##MP= -300
##BP= -300
##MW= 192
##$RETENTION INDEX=0
##$CONDENSED SPECTRUM=NO
##NPOINTS= 36
##XYDATA=(XY..XY) 1 
    27        230
    29         60
    30         50
    39         80
    41         70
    42        620
    43        190
    52        150
    53        120
    54        560
    55        160
    56        210
    66        160
    67        250
    69        200
    80        120
    81        140
    82        130
    83        150
    84         50
    93        100
   107         80
   108        170
   109         80
   110        999
   111         80
   114         60
   121         60
   122         80
   135        120
   136        100
   163         60
   164        230
   177         90
   192        670
   193         90