##TITLE=Library Entry 33465
##JCAMP-DX=Revision 4.10 
##DATA TYPE=MASS SPECTRUM
##SAMPLE DESCRIPTION=LAC, NIDDK, NIH, Bethesda, MD 20892
##NAMES=HP
##CAS NAME=3-Decyn-1-ol
##MOLFORM=C10H18O
##CAS REGISTRY NO=51721-39-2
##MP= -300
##BP= -300
##MW= 154
##$RETENTION INDEX=0
##$CONDENSED SPECTRUM=NO
##NPOINTS= 52
##XYDATA=(XY..XY) 1 
    41        433
    42         73
    43        108
    44          7
    45        142
    47          6
    49          9
    50          6
    51          7
    52         34
    53        129
    54         61
    55        292
    56         30
    57         28
    60         93
    65         87
    66         51
    67        776
    68        999
    69        211
    70          7
    71         26
    73         41
    77         84
    78          6
    79        213
    80         62
    81        284
    82        608
    83        104
    84         10
    85         31
    86          6
    87          7
    91         58
    93        122
    94         54
    95        191
    96         38
    97         14
   105          7
   107         91
   108          7
   109        110
   110         15
   111         24
   121         46
   123          7
   135         24
   136         57
   154         13