##TITLE=Library Entry 85746
##JCAMP-DX=Revision 4.10 
##DATA TYPE=MASS SPECTRUM
##SAMPLE DESCRIPTION=Exported from NIST MS Search
##NAMES=HP
##CAS NAME=Ethanone, 1-(1,3-dimethyl-3-cyclohexen-1-yl)-
##MOLFORM=C10H16O
##CAS REGISTRY NO=51733-68-7
##MP= -300
##BP= -300
##MW= 152
##$RETENTION INDEX=0
##$CONDENSED SPECTRUM=NO
##NPOINTS= 37
##XYDATA=(XY..XY) 1 
    39         72
    40         10
    41        113
    42         15
    43        371
    50          7
    51         15
    52          7
    53         35
    54         10
    55         90
    59         20
    65         30
    66         10
    67        391
    68         40
    69         17
    77         55
    78         10
    79         70
    80         12
    81         98
    82         10
    91         62
    92         15
    93         75
    94         25
    95         20
    96         10
   107         37
   108         17
   109        999
   110         80
   111         15
   119         25
   137         42
   152         15