##TITLE=Library Entry 36271
##JCAMP-DX=Revision 4.10 
##DATA TYPE=MASS SPECTRUM
##SAMPLE DESCRIPTION=Exported from NIST MS Search
##NAMES=HP
##CAS NAME=1-Butanesulfinamide, 1,1,2,2,3,3,4,4,4-nonafluoro-
##MOLFORM=C4H2F9NOS
##CAS REGISTRY NO=51735-84-3
##MP= -300
##BP= -300
##MW= 283
##$RETENTION INDEX=0
##$CONDENSED SPECTRUM=NO
##NPOINTS= 19
##XYDATA=(XY..XY) 1 
    31        400
    32        639
    46        899
    47        609
    48        579
    50        170
    63        639
    64        879
    69        999
    78        170
    82        130
   100        749
   119        350
   131        919
   150         80
   219        440
   232         40
   248         60
   267        100