##TITLE=Library Entry 41414
##JCAMP-DX=Revision 4.10 
##DATA TYPE=MASS SPECTRUM
##SAMPLE DESCRIPTION=Exported from NIST MS Search
##NAMES=HP
##CAS NAME=Nonafluoro-1-butanesulfinamide, TMS derivative
##MOLFORM=C7H10F9NOSSi
##CAS REGISTRY NO=51735-80-9
##MP= -300
##BP= -300
##MW= 355
##$RETENTION INDEX=0
##$CONDENSED SPECTRUM=NO
##NPOINTS= 26
##XYDATA=(XY..XY) 1 
    31        390
    32        499
    43        440
    44        410
    46        360
    48        130
    50         50
    63        190
    64        370
    69        629
    73        999
    75        749
    82         40
   100        140
   119        100
   120        230
   131        150
   136        669
   140        120
   150         20
   169         30
   181         10
   196         60
   219         60
   339         20
   340         20