##TITLE=Library Entry 34812
##JCAMP-DX=Revision 4.10 
##DATA TYPE=MASS SPECTRUM
##SAMPLE DESCRIPTION=Exported from NIST MS Search
##NAMES=HP
##CAS NAME=1-Butanesulfinamide, 1,1,2,2,3,3,4,4,4-nonafluoro-N-methyl-
##MOLFORM=C5H4F9NOS
##CAS REGISTRY NO=51735-83-2
##MP= -300
##BP= -300
##MW= 297
##$RETENTION INDEX=0
##$CONDENSED SPECTRUM=NO
##NPOINTS= 16
##XYDATA=(XY..XY) 1 
    31        250
    32        230
    44        939
    48        609
    50        380
    63        230
    69        999
    77        749
   100        290
   119        789
   131        499
   169        460
   181        100
   219        559
   232         80
   280         60