##TITLE=Library Entry 19980
##JCAMP-DX=Revision 4.10 
##DATA TYPE=MASS SPECTRUM
##SAMPLE DESCRIPTION=Chemical Concepts
##NAMES=HP
##CAS NAME=3-Butenoic acid, 2-methyl-, methyl ester
##MOLFORM=C6H10O2
##CAS REGISTRY NO=51747-33-2
##MP= -300
##BP= -300
##MW= 114
##$RETENTION INDEX=0
##$CONDENSED SPECTRUM=NO
##NPOINTS= 56
##XYDATA=(XY..XY) 1 
    25          0
    26         45
    27        283
    28         33
    29        341
    30         11
    31         12
    33          1
    36          0
    37          9
    38         20
    39        198
    40         18
    41         44
    42         34
    43         21
    44          2
    45         11
    48          0
    49          4
    50         23
    51         30
    52         12
    53        104
    54         90
    55        999
    56         53
    57         10
    58         16
    59        344
    60          8
    61          2
    66          0
    67          1
    68          2
    69          5
    70          0
    71         40
    72         46
    73          2
    74          5
    81          5
    82         30
    83         71
    84          3
    85          3
    86         17
    87          4
    88          3
    97          0
    99        328
   100         17
   101          1
   113          9
   114         21
   115          1