##TITLE=Library Entry 10772
##JCAMP-DX=Revision 4.10 
##DATA TYPE=MASS SPECTRUM
##SAMPLE DESCRIPTION=B. F. SMITH
##NAMES=HP
##CAS NAME=Butanoic acid, 2-acetyl-3-methyl-, methyl ester
##MOLFORM=C8H14O3
##CAS REGISTRY NO=51756-10-6
##MP= -300
##BP= -300
##MW= 158
##$RETENTION INDEX=0
##$CONDENSED SPECTRUM=NO
##NPOINTS= 69
##XYDATA=(XY..XY) 1 
    14         12
    15        200
    16          3
    17          2
    18          7
    26         11
    27        116
    28         21
    29         81
    30          4
    31         13
    32          2
    33          4
    37          3
    38         11
    39        124
    40         18
    41        144
    42         37
    43        999
    44         24
    45         13
    50          5
    51          7
    52          2
    53         16
    54          3
    55         35
    56         10
    57          8
    58          1
    59         65
    60          2
    61          1
    63          1
    65          1
    66          1
    67          5
    68          7
    69        230
    70         11
    71          2
    73         20
    74          4
    75          6
    79          1
    81          2
    82          3
    83         41
    84         65
    85         50
    86          3
    87          2
    88          2
    98          2
    99          7
   100          4
   101        595
   102         33
   103          3
   111          3
   115         26
   116        313
   117         20
   118          2
   127         67
   128          5
   143          2
   158          1