##TITLE=Library Entry 9763
##JCAMP-DX=Revision 4.10 
##DATA TYPE=MASS SPECTRUM
##SAMPLE DESCRIPTION=Chemical Concepts
##NAMES=HP
##CAS NAME=Nonanoic acid, 3-oxo-, methyl ester
##MOLFORM=C10H18O3
##CAS REGISTRY NO=51756-07-1
##MP= -300
##BP= -300
##MW= 186
##$RETENTION INDEX=0
##$CONDENSED SPECTRUM=NO
##NPOINTS= 146
##XYDATA=(XY..XY) 1 
    34          0
    35          7
    37          3
    38          7
    39        117
    40         38
    41        335
    42        104
    43        999
    44        105
    45         10
    46          0
    47          0
    48          2
    49          0
    50          5
    51         10
    52          6
    53         27
    54         12
    55        188
    56        107
    57        179
    58         44
    59        170
    60          5
    61          2
    62          1
    63          2
    64          4
    65          7
    66          5
    67         25
    68         51
    69        337
    70         31
    71         25
    72          2
    73          4
    74        229
    75         14
    76          2
    77          8
    78          3
    79         12
    80          8
    81         14
    82          5
    83         31
    84        838
    85        162
    86         28
    87          5
    88         42
    89          2
    90          0
    91          8
    92          2
    93          5
    94         20
    95         28
    96          4
    97        140
    98         40
    99          4
   100          2
   101        128
   102          7
   103          2
   104          0
   105          2
   106          1
   107          3
   108         10
   109          4
   110          3
   111         36
   112        115
   113        243
   114         23
   115          3
   116        406
   117         69
   118          5
   119          1
   120          1
   121          1
   122          0
   123          0
   124          0
   125         15
   126         13
   127          1
   128          3
   129         85
   130         19
   131          2
   132          0
   133          1
   134          0
   135          1
   136          7
   137          1
   138          0
   139          2
   140          0
   141          1
   142          0
   143         19
   144         17
   145          1
   146          0
   147          0
   149          0
   150          0
   151          0
   152          0
   153          1
   154          1
   155          9
   156          1
   157          3
   158          2
   159          0
   160          0
   161          0
   162          0
   163          0
   165          1
   166          0
   167          0
   168         10
   169          1
   170          0
   171          0
   172          0
   176          0
   177          0
   178          0
   179          0
   180          0
   181          0
   182          0
   184          0
   186          8
   187          3