##TITLE=Library Entry 9461
##JCAMP-DX=Revision 4.10 
##DATA TYPE=MASS SPECTRUM
##SAMPLE DESCRIPTION=B. F. SMITH
##NAMES=HP
##CAS NAME=5-Hexen-2-one, 5-methyl-3-methylene-
##MOLFORM=C8H12O
##CAS REGISTRY NO=51756-18-4
##MP= -300
##BP= -300
##MW= 124
##$RETENTION INDEX=880
##$CONDENSED SPECTRUM=NO
##NPOINTS= 74
##XYDATA=(XY..XY) 1 
    14         27
    15        185
    16          3
    17          1
    18          6
    25          1
    26         23
    27        177
    28         23
    29         66
    30          2
    31          3
    37         14
    38         45
    39        382
    40         75
    41        304
    42         43
    43        999
    44         24
    45         20
    49        320
    50         31
    51         55
    52         27
    53        227
    54         22
    55         70
    56          7
    57          3
    58          2
    59          2
    61          4
    62          8
    63         18
    64          4
    65         46
    66         36
    67         82
    68          8
    69         31
    70          4
    71          3
    73          2
    74          4
    75          4
    77         54
    78         24
    79        192
    80         52
    81        432
    82         33
    83          3
    84          1
    85          1
    91         29
    92          3
    93          4
    94          7
    95         14
    96          6
    97          6
   103          1
   105          6
   106          4
   107          9
   108          8
   109        174
   110         14
   111          1
   123         30
   124        190
   125         21
   126          2