##TITLE=Library Entry 19148
##JCAMP-DX=Revision 4.10 
##DATA TYPE=MASS SPECTRUM
##SAMPLE DESCRIPTION=K.-H.Engel ET AL.J.Agric.Food.Chem.,39,2249(1991)
##NAMES=HP
##CAS NAME=3-Mercaptohexanol
##MOLFORM=C6H14OS
##CAS REGISTRY NO=51755-83-0
##MP= -300
##BP= -300
##MW= 134
##$RETENTION INDEX=1129
##$CONDENSED SPECTRUM=NO
##NPOINTS= 57
##XYDATA=(XY..XY) 1 
    34         20
    35         59
    38         12
    39        234
    40         34
    41        795
    42        180
    43        236
    44        150
    45        157
    46         17
    47        262
    48          6
    49         13
    50          5
    51         13
    52          6
    53         74
    54         76
    55        999
    56        150
    57        608
    58         55
    59         94
    60         52
    61        420
    62         23
    63         26
    65          6
    67        248
    68         22
    69        105
    70         37
    71        105
    72         63
    73        122
    74         28
    75         12
    77          6
    79          8
    81         31
    82        222
    83        195
    84         10
    85          9
    87         55
    88         89
    89         58
    90          7
    91         42
   100        259
   101         34
   115          1
   116          5
   134         75
   135          5
   136          3