##TITLE=Library Entry 7392
##JCAMP-DX=Revision 4.10 
##DATA TYPE=MASS SPECTRUM
##SAMPLE DESCRIPTION=K.-H.Engel ET AL.J.Agric.Food.Chem.,39,2249(1991)
##NAMES=HP
##CAS NAME=3-(Methylthio)hexyl acetate
##MOLFORM=C9H18O2S
##CAS REGISTRY NO=51755-85-2
##MP= -300
##BP= -300
##MW= 190
##$RETENTION INDEX=1758
##$CONDENSED SPECTRUM=NO
##NPOINTS= 49
##XYDATA=(XY..XY) 1 
    34          9
    35          9
    39         57
    40         57
    41        265
    42         37
    43        999
    44         29
    45         61
    46          5
    47         44
    48          9
    49         15
    50          2
    51          6
    53         33
    54         37
    55        456
    56         24
    57         20
    59         16
    61        256
    62          5
    63          9
    67        131
    69         21
    71         19
    73         26
    75         19
    81         33
    82        130
    83        204
    85         11
    87        295
    89         17
    90         22
   100         18
   101         14
   102        104
   103         63
   104          4
   115        139
   117         12
   130         71
   131          8
   147          3
   190         61
   191          4
   192          2