##TITLE=Library Entry 96598
##JCAMP-DX=Revision 4.10 
##DATA TYPE=MASS SPECTRUM
##SAMPLE DESCRIPTION=V. MIHALOV, INST. CHEM., SLOVAK ACAD. SCI., BRATISLAVA,
 CZECH.
##NAMES=HP
##CAS NAME=Methyl-3-O-benzyl.alpha.d-xylopyranoside
##MOLFORM=C13H18O5
##CAS REGISTRY NO=51754-95-1
##MP= -300
##BP= -300
##MW= 254
##$RETENTION INDEX=0
##$CONDENSED SPECTRUM=NO
##NPOINTS= 50
##XYDATA=(XY..XY) 1 
    45          9
    57         23
    58         19
    61         16
    68         30
    69        141
    70         75
    73        130
    74        108
    82         13
    85         46
    86        249
    87         77
    98         69
    99         16
   100         35
   103         34
   104         19
   105          7
   106         23
   114        445
   115         63
   116        999
   121         34
   122         30
   129          8
   130         16
   131         56
   132         15
   133         26
   134          7
   135          8
   136          5
   144         24
   145         19
   146         47
   147         13
   148         23
   150         31
   151        141
   158         17
   162         28
   163        184
   175         17
   176         38
   186          7
   193         16
   204         20
   222        293
   254         57