##TITLE=Library Entry 80311
##JCAMP-DX=Revision 4.10 
##DATA TYPE=MASS SPECTRUM
##SAMPLE DESCRIPTION=D. CLERIN, EC. SUPER. CHIM. MULHOUSE, UNIV. STRASBOURG,
 FR.
##NAMES=HP
##CAS NAME=4-[(N-Benzamido)acetyl]morpholine
##MOLFORM=C13H16N2O3
##CAS REGISTRY NO=51769-87-0
##MP= -300
##BP= -300
##MW= 248
##$RETENTION INDEX=0
##$CONDENSED SPECTRUM=NO
##NPOINTS= 21
##XYDATA=(XY..XY) 1 
    51         74
    56         36
    57         92
    70        190
    77        320
    78         23
    85         23
    86        160
    87        800
    88         82
    99         33
   105        999
   106         79
   114        150
   117         31
   127         25
   134        120
   135         23
   143         23
   162         52
   248         25