##TITLE=Library Entry 97215
##JCAMP-DX=Revision 4.10 
##DATA TYPE=MASS SPECTRUM
##SAMPLE DESCRIPTION=ASES Database, Dalian Institute, P.R. China
##NAMES=HP
##CAS NAME=Naphthalen-1,4-imine,1,2,3,4-tetrahydro-
##MOLFORM=C10H11N
##CAS REGISTRY NO=5176-30-7
##MP= -300
##BP= -300
##MW= 145
##$RETENTION INDEX=0
##$CONDENSED SPECTRUM=NO
##NPOINTS= 40
##XYDATA=(XY..XY) 1 
    39        238
    40         30
    41         70
    42         20
    43         30
    50        120
    51        198
    52         60
    59        157
    62         19
    63        120
    64        280
    65        109
    66        111
    68         19
    69         70
    71         19
    72         50
    74         40
    75         59
    76         59
    77        160
    78         40
    83         29
    85         20
    86         30
    87         19
    88         19
    89        281
    90        479
    91         88
   115         40
   116         40
   117        999
   118         90
   127         10
   128         20
   129         10
   130         19
   145          9