##TITLE=Library Entry 32531
##JCAMP-DX=Revision 4.10 
##DATA TYPE=MASS SPECTRUM
##SAMPLE DESCRIPTION=J. Klune, Insect Chem. Ecol. Lab., USDA, Beltsville, MD
 20705
##NAMES=HP
##CAS NAME=9,11-Dodecadien-1-ol, acetate, (Z)-
##MOLFORM=C14H24O2
##CAS REGISTRY NO=51760-35-1
##MP= -300
##BP= -300
##MW= 224
##$RETENTION INDEX=0
##$CONDENSED SPECTRUM=NO
##NPOINTS= 139
##XYDATA=(XY..XY) 1 
    41        401
    42         54
    43        798
    44         23
    45          5
    46          0
    48          0
    50          4
    51         15
    52         15
    53         84
    54        524
    55        351
    56         30
    57         25
    58          3
    59          1
    60          2
    61          4
    62          3
    63          3
    64          1
    65        104
    66        148
    67        999
    68        563
    69        154
    70          8
    71         23
    72          6
    73         26
    74          1
    75          0
    76          0
    77         84
    78         51
    79        677
    80        723
    81        578
    82        399
    83         75
    84          5
    85          5
    86          1
    87          2
    88          0
    89          0
    90          0
    91         55
    92         19
    93        285
    94        256
    95        251
    96        267
    97         68
    98         13
    99          3
   100          1
   101          2
   102          0
   103          1
   104          0
   105          9
   106          6
   107        151
   108        124
   109         74
   110         56
   111         14
   112          2
   113          1
   114          0
   115          1
   116          1
   117          0
   118          0
   119          2
   120          5
   121        253
   122         80
   123         27
   124          3
   125          2
   126          0
   127          1
   129          0
   130          0
   132          0
   133          2
   134          2
   135        189
   136         56
   137          8
   138          2
   139          0
   140          0
   141          0
   142          0
   143          0
   145          2
   147          2
   149         21
   150          3
   151          0
   152          1
   153          0
   154          0
   155          0
   158          0
   159          0
   161          0
   162          0
   163         16
   164        200
   165         27
   166          2
   169          0
   171          1
   178          0
   179          0
   180          1
   181          6
   182          1
   183          0
   186          0
   187          0
   189          0
   191          0
   193          0
   195          1
   196          0
   206          0
   207          0
   209          1
   222          0
   223          1
   224         24
   225          4
   226          1