##TITLE=Library Entry 37166
##JCAMP-DX=Revision 4.10 
##DATA TYPE=MASS SPECTRUM
##SAMPLE DESCRIPTION=A.Pleshkova, Nesmeyanov Inst.Org.Elem.Cpds, Moscow
##NAMES=HP
##CAS NAME=N-Methyl-2-tert.-butoxycarbonylazetidine
##MOLFORM=C9H17NO2
##CAS REGISTRY NO=51764-31-9
##MP= -300
##BP= -300
##MW= 171
##$RETENTION INDEX=0
##$CONDENSED SPECTRUM=NO
##NPOINTS= 12
##XYDATA=(XY..XY) 1 
    28         23
    41         30
    42        138
    43         28
    56         13
    57         68
    58          8
    70        999
    71         53
   171         70
   172          7
   173          1