##TITLE=Library Entry 46062
##JCAMP-DX=Revision 4.10 
##DATA TYPE=MASS SPECTRUM
##SAMPLE DESCRIPTION=NIST Mass Spectrometry Data Center, 1994
##NAMES=HP
##CAS NAME=1,3-Benzenedicarboxylic acid, 5-bromo-, dimethyl ester
##MOLFORM=C10H9BrO4
##CAS REGISTRY NO=51760-21-5
##MP= -300
##BP= -300
##MW= 272
##$RETENTION INDEX=0
##$CONDENSED SPECTRUM=NO
##NPOINTS= 99
##XYDATA=(XY..XY) 1 
     4          3
    14         36
    15        487
    16          6
    18          7
    26          5
    28         57
    29        181
    30         61
    31         54
    32         10
    37         41
    38         44
    39         36
    44          6
    45         22
    49         27
    50         87
    51         33
    52          6
    53         47
    59        153
    60          5
    61         17
    62         49
    63        149
    64         23
    65          8
    73        120
    74        620
    75        999
    76        118
    77         83
    78         93
    79         13
    81          8
    85          6
    86          7
    89         32
    90         24
    91         63
    92         43
    93          4
   101         15
   102         63
   103         23
   104         10
   105         67
   106         74
   107          7
   118          4
   119         20
   120          8
   128          5
   133         24
   134         64
   135          8
   142          6
   143          7
   144         12
   147         25
   153         46
   154         59
   155         84
   156         47
   157         36
   161          7
   162         18
   169          6
   170         37
   171          7
   172         36
   181         41
   182         18
   183         47
   184         22
   185         16
   187          6
   193         21
   197         63
   198        161
   199         73
   200        153
   201         18
   213        235
   215        224
   216         21
   227         21
   229         23
   241        836
   242        111
   243        820
   244         80
   245          8
   259          7
   272        300
   273         34
   274        300
   275         32