##TITLE=Library Entry 99026
##JCAMP-DX=Revision 4.10 
##DATA TYPE=MASS SPECTRUM
##SAMPLE DESCRIPTION=D. CLERIN, EC. SUPER. CHIM. MULHOUSE, UNIV. STRASBOURG,
 FR.
##NAMES=HP
##CAS NAME=4-[N-(4-Methylbenzamido)acetyl]morpholine
##MOLFORM=C14H18N2O3
##CAS REGISTRY NO=51769-88-1
##MP= -300
##BP= -300
##MW= 262
##$RETENTION INDEX=0
##$CONDENSED SPECTRUM=NO
##NPOINTS= 20
##XYDATA=(XY..XY) 1 
    57         52
    65         68
    70         91
    86        110
    87        560
    88         54
    89         22
    90         20
    91        200
   100         23
   114         60
   119        999
   120         87
   127         18
   131         25
   143         21
   148         60
   149         20
   176         62
   262         36