##TITLE=Library Entry 82755
##JCAMP-DX=Revision 4.10 
##DATA TYPE=MASS SPECTRUM
##SAMPLE DESCRIPTION=Chemical Concepts
##NAMES=HP
##CAS NAME=Sulfoximine, S-ethyl-S-(p-tolyl)-
##MOLFORM=C9H13NOS
##CAS REGISTRY NO=51774-51-7
##MP= -300
##BP= -300
##MW= 183
##$RETENTION INDEX=0
##$CONDENSED SPECTRUM=NO
##NPOINTS= 107
##XYDATA=(XY..XY) 1 
    26          8
    27         68
    28          4
    29         74
    30          3
    37          1
    38          8
    39        117
    40         28
    41         41
    42          3
    43          1
    44          0
    45         34
    46          4
    47          5
    48          8
    49          1
    50         20
    51         56
    52         19
    53         17
    54          2
    55          2
    58          2
    59          6
    60          1
    61          3
    62         15
    63         72
    64         25
    65        336
    66         24
    67         34
    68          1
    69          7
    70          1
    71          6
    74          4
    75          6
    76          7
    77        131
    78         54
    79        171
    80         18
    81          1
    82          1
    83          0
    84          1
    85          3
    86          4
    87          4
    88          1
    89         67
    90         34
    91        962
    92        151
    93         31
    94         31
    95          7
    96          2
    97          3
    98          1
    99          9
   102          1
   103          3
   104         15
   105         22
   106        999
   107        378
   108        461
   109         84
   110          9
   111         48
   112         18
   113          3
   115          0
   117          2
   119         11
   120         10
   121         22
   122         24
   123         11
   124         12
   125          1
   126          6
   127          1
   134          1
   135          1
   136         13
   137         13
   138         25
   139        270
   140         35
   141         15
   142          1
   152          6
   153          5
   154        632
   155        708
   156         88
   157         37
   158          2
   182          1
   183         52
   184         17
   185          3