##TITLE=Library Entry 99232
##JCAMP-DX=Revision 4.10 
##DATA TYPE=MASS SPECTRUM
##SAMPLE DESCRIPTION=Chemical Concepts
##NAMES=HP
##CAS NAME=4-Methylbenzamide, N-(4-methoxybenzylidenamino)-
##MOLFORM=C16H16N2O2
##CAS REGISTRY NO=51771-24-5
##MP= -300
##BP= -300
##MW= 268
##$RETENTION INDEX=0
##$CONDENSED SPECTRUM=NO
##NPOINTS= 40
##XYDATA=(XY..XY) 1 
    38         66
    39        170
    40         77
    41         42
    43         40
    44         37
    45          6
    50         55
    51        170
    52         59
    53         23
    55          9
    62         31
    63        175
    64        127
    65        221
    66         17
    68          7
    75         20
    76         73
    77        108
    78         79
    79         32
    80         25
    81         18
    89         50
    90        108
    91        695
    92         43
   105         55
   106         21
   107         24
   108          9
   117          7
   119        999
   120         70
   121          4
   135         97
   147        162
   148          9