##TITLE=Library Entry 25847
##JCAMP-DX=Revision 4.10 
##DATA TYPE=MASS SPECTRUM
##SAMPLE DESCRIPTION=MPI,44993-G1251,12-MAY-67 (ID=0, PURITY=0)
##NAMES=HP
##CAS NAME=Propanoic acid, 2,2-dimethyl-, 2,2-bis[(2,2-dimethyl-1-oxopropoxy
)methyl]-1,3-propanediyl ester
##MOLFORM=C25H44O8
##CAS REGISTRY NO=5178-17-6
##MP= -300
##BP= -300
##MW= 472
##$RETENTION INDEX=0
##$CONDENSED SPECTRUM=NO
##NPOINTS= 166
##XYDATA=(XY..XY) 1 
    27         13
    28         77
    29         89
    30          2
    31          3
    32          9
    36          0
    37          1
    38          1
    39         17
    41        142
    42         15
    44          9
    45          2
    46          0
    47          0
    49          0
    50          1
    51          1
    52          0
    53          4
    54          5
    55         17
    56         23
    57        999
    58         45
    59          2
    63          0
    65          1
    66          0
    67          3
    68          1
    69         20
    70         16
    71          8
    72          9
    73          0
    74          0
    75          0
    76          0
    77          0
    78          0
    79          0
    80          0
    81          1
    82         29
    83         33
    84         17
    85        383
    86         18
    87          3
    88          1
    91          0
    93          0
    94          0
    95          0
    98          1
    99          4
   100          1
   101          2
   102          0
   103         22
   104          1
   109          0
   110          0
   111          2
   112         11
   113          0
   114          0
   115          0
   117          0
   119          0
   121          0
   124          0
   125          0
   126          0
   127          0
   128          0
   129          0
   130          0
   132          0
   134          0
   135          0
   137          0
   138         12
   139          2
   140          0
   141          1
   143          0
   147          0
   149          3
   150          0
   151          0
   153          0
   154          3
   155         25
   156         83
   157          9
   158          3
   159          0
   164          0
   165          0
   166          8
   167          1
   168          9
   169          2
   170          0
   171          5
   172          2
   173          0
   183          1
   184         31
   185          6
   186          8
   187          6
   188          1
   199          1
   201          4
   202          1
   203          3
   204          0
   207          0
   213          1
   214          0
   215          0
   217          0
   223          0
   225          0
   231          3
   232          0
   233          1
   238          0
   240          0
   242          0
   255          1
   256          9
   257          2
   258          0
   268          4
   269          2
   270         31
   271          9
   272          1
   284          0
   285          7
   286          1
   287         12
   288          2
   289          0
   315         10
   316          1
   354          0
   355         14
   356          3
   357          1
   368          0
   369          1
   370          3
   371         37
   372         11
   373          2
   385          0
   389          0
   457          2
   458          0
   459          0