##TITLE=Library Entry 21938
##JCAMP-DX=Revision 4.10 
##DATA TYPE=MASS SPECTRUM
##SAMPLE DESCRIPTION=NIST Mass Spectrometry Data Center, 1994
##NAMES=HP
##CAS NAME=.gamma.-(4-Fluorophenyl)-.gamma.-butyrolactone
##MOLFORM=C10H9FO2
##CAS REGISTRY NO=51787-96-3
##MP= -300
##BP= -300
##MW= 180
##$RETENTION INDEX=0
##$CONDENSED SPECTRUM=NO
##NPOINTS= 103
##XYDATA=(XY..XY) 1 
    13          3
    14         19
    15         21
    18          7
    25          5
    26        107
    27        256
    28        794
    29        224
    30          6
    31         19
    33         13
    37         16
    38         39
    39        155
    40         11
    41         14
    42         43
    43          4
    44         19
    45          6
    46          4
    48          6
    49         10
    50        149
    51        121
    52         16
    53         12
    54         10
    55         60
    56        999
    57        173
    58         15
    60          5
    61         20
    62         51
    63         81
    64          9
    65          9
    67         23
    68         36
    69         68
    70         67
    71          6
    73         12
    74         67
    75        263
    76         35
    77         41
    78          5
    80          7
    81         44
    82         14
    83        101
    84         21
    85         41
    86         13
    87         15
    88          5
    89         19
    90          3
    91          7
    92          7
    93         13
    94         47
    95        354
    96        164
    97        136
    98         12
    99          4
   100          4
   101         44
   102         10
   103         19
   104          5
   105         58
   106          9
   107         73
   108         28
   109        242
   110         25
   112          3
   115         87
   116         22
   117         11
   120         18
   121         31
   123        599
   124         85
   125        536
   126         44
   131          3
   133        101
   135        364
   136        287
   137         28
   138          5
   151         18
   152         10
   179         63
   180        352
   181         42
   182          3