##TITLE=Library Entry 39631
##JCAMP-DX=Revision 4.10 
##DATA TYPE=MASS SPECTRUM
##SAMPLE DESCRIPTION=NIST Mass Spectrometry Data Center, 1994
##NAMES=HP
##CAS NAME=2,3-Dibromopropyl isothiocyanate
##MOLFORM=C4H5Br2NS
##CAS REGISTRY NO=51784-10-2
##MP= -300
##BP= -300
##MW= 257
##$RETENTION INDEX=0
##$CONDENSED SPECTRUM=NO
##NPOINTS= 97
##XYDATA=(XY..XY) 1 
    13          4
    14          8
    15         31
    16          3
    25         14
    26         93
    27        168
    28         17
    32         64
    33          5
    34          5
    36          8
    37         68
    38        139
    39        737
    40        116
    41        376
    42         12
    43          5
    44         68
    45        127
    46         18
    47          5
    48          3
    51         14
    52         17
    53          3
    54          6
    56          5
    57         10
    58         66
    59         35
    60          9
    63          4
    64         12
    66         22
    67          5
    68          4
    69         14
    70         57
    71          4
    72        999
    73         41
    74         45
    79         40
    80         21
    81         39
    82         17
    83          5
    84          8
    85         16
    89          9
    90          8
    91          4
    92          4
    93         64
    94          4
    95         58
    96          5
    97          4
    98        167
    99         21
   100          8
   104          3
   105         17
   106         15
   107         15
   108         15
   111          4
   113          6
   119        170
   120         14
   121        149
   122         10
   123          4
   125          5
   151         15
   152          4
   153         13
   164          6
   166          8
   178         67
   180         69
   182          2
   187          2
   199        179
   201        355
   202         18
   203        163
   204          5
   257         97
   258          5
   259        195
   260         11
   261        103
   262          5
   263          4