##TITLE=Library Entry 46288
##JCAMP-DX=Revision 4.10 
##DATA TYPE=MASS SPECTRUM
##SAMPLE DESCRIPTION=OGDEN BioServices Corp., NCI, Rockville, MD 20852
##NAMES=HP
##CAS NAME=L-Cysteine, ethyl ester, methylcarbamate (ester), monohydrochlori
de
##MOLFORM=C7H14N2O3S
##CAS REGISTRY NO=51785-99-0
##MP= -300
##BP= -300
##MW= 206
##$RETENTION INDEX=0
##$CONDENSED SPECTRUM=NO
##NPOINTS= 118
##XYDATA=(XY..XY) 1 
    41        113
    42        534
    43        610
    44        225
    45        141
    46        259
    47        181
    48        232
    49         23
    50         11
    51          5
    52          2
    53          5
    54         11
    55         43
    56         83
    57        199
    58        822
    59        361
    60         62
    61         28
    62          9
    63          2
    64          3
    65          0
    66          1
    67          3
    68          8
    69         10
    70         31
    71         38
    72          9
    74        680
    75        221
    76        999
    77         41
    78         55
    79          2
    81          1
    82          2
    83          4
    84          8
    85          7
    86         51
    87         32
    88         28
    89          1
    90          3
    91         10
    92         11
    93          1
    94          0
    95          1
    96          0
    97          1
    98          1
    99          3
   100         18
   101          4
   102        457
   103         53
   104         10
   105         31
   106          4
   107          3
   108          0
   109          0
   111          1
   112          1
   113          3
   114          2
   115        288
   116        100
   117          8
   118          2
   119          0
   120          4
   121          5
   122          3
   123          0
   124          0
   126          1
   127          1
   128          1
   129          0
   130          0
   132          2
   133        803
   134         44
   135         39
   136          1
   140          0
   146          3
   147          1
   148         17
   149         12
   150         11
   151          1
   152          0
   159          2
   160          9
   161          1
   162          0
   172          0
   173          2
   174         15
   175          1
   176          4
   177          0
   179          1
   181          1
   190          5
   191          0
   204          3
   205         10
   206         49
   207          8
   208          3