##TITLE=Library Entry 1174
##JCAMP-DX=Revision 4.10 
##DATA TYPE=MASS SPECTRUM
##SAMPLE DESCRIPTION=Chemical Concepts
##NAMES=HP
##CAS NAME=1-Bromo-2-chloro-3,5-dinitrobenzene
##MOLFORM=C6H2BrClN2O4
##CAS REGISTRY NO=51796-81-7
##MP= -300
##BP= -300
##MW= 280
##$RETENTION INDEX=0
##$CONDENSED SPECTRUM=NO
##NPOINTS= 166
##XYDATA=(XY..XY) 1 
    25          5
    27         15
    28         96
    29          7
    30        999
    31          4
    35          9
    36         51
    37         61
    38         34
    39          4
    41          5
    43          4
    44         27
    45          6
    46         26
    47          7
    48          4
    49         20
    50         19
    51          7
    52         14
    53         26
    54          2
    55          4
    56          2
    57          5
    60         13
    61         63
    62         71
    63         12
    64          7
    66          4
    69          3
    70          2
    71          6
    72         25
    73        151
    74        639
    75         68
    76         24
    77          5
    78          3
    79         14
    80         29
    81         14
    82         29
    83          2
    84         35
    85         12
    86         20
    87         23
    88         26
    89          4
    90          8
    91          2
    92          5
    93          2
    95          2
    96         14
    97        161
    98         19
    99         56
   100          8
   101          2
   102          2
   104          2
   105          2
   106          3
   107          6
   108        106
   109        613
   110         93
   111        214
   112         21
   113         28
   114          4
   115          9
   116          3
   117          3
   118          2
   120          2
   122          2
   123          2
   124          3
   125         20
   126          5
   127          9
   128          7
   129          5
   130          8
   131          4
   138          9
   139          2
   140          7
   141         31
   142          5
   143         15
   144          3
   149          8
   150          3
   151          7
   152         11
   153         19
   154         17
   155         14
   156          5
   157          8
   159          6
   162          2
   163          3
   164          4
   165          3
   166          5
   167          3
   168          2
   169          6
   171          6
   175          3
   176          7
   177          5
   178          9
   179          3
   180          2
   185         22
   186          2
   187         72
   188        142
   189         80
   190        174
   191         32
   192         47
   193          5
   194          3
   199          3
   200          2
   201          3
   202          2
   204         27
   205          5
   206         34
   207          5
   208         10
   218          4
   220          6
   221          2
   222          3
   234         27
   235          4
   236         35
   237          3
   238          8
   246          2
   248          2
   250          9
   252         12
   254          3
   264         10
   266         12
   268          3
   280        278
   281         22
   282        344
   283         28
   284         88
   285          7