##TITLE=Library Entry 25534
##JCAMP-DX=Revision 4.10 
##DATA TYPE=MASS SPECTRUM
##SAMPLE DESCRIPTION=Exported from NIST MS Search
##NAMES=HP
##CAS NAME=Eicosane, 2,6,10,14,18-pentamethyl-
##MOLFORM=C25H52
##CAS REGISTRY NO=51794-16-2
##MP= -300
##BP= -300
##MW= 352
##$RETENTION INDEX=2210
##$CONDENSED SPECTRUM=NO
##NPOINTS= 75
##XYDATA=(XY..XY) 1 
    55        173
    56        181
    57        999
    58         50
    69        155
    70        166
    71        807
    72         58
    83         72
    84         72
    85        507
    86         43
    97         61
    98        126
    99        231
   100         29
   111         54
   112        152
   113        264
   114         25
   125         47
   126        144
   127        253
   128         29
   139         21
   140         36
   141        123
   142         18
   154         36
   155        101
   156         21
   167         14
   168         29
   169         86
   170         10
   182         97
   183        166
   184         29
   196         83
   197        144
   198         25
   210          7
   211         25
   212          7
   224         25
   225         36
   226          7
   238         25
   239         32
   240          7
   252         50
   253         79
   254         14
   266         43
   267         39
   268         14
   281          7
   282         10
   283          3
   294          7
   295         10
   296          3
   308          7
   309          7
   310          3
   322         10
   323         25
   324          7
   336          7
   337         21
   338          7
   351          3
   352        115
   353         32
   354          7