##TITLE=Library Entry 2141
##JCAMP-DX=Revision 4.10 
##DATA TYPE=MASS SPECTRUM
##SAMPLE DESCRIPTION=NIST Mass Spectrometry Data Center, 1994
##NAMES=HP
##CAS NAME=3-(Trifluoroacetyl)-D-camphor
##MOLFORM=C12H15F3O2
##CAS REGISTRY NO=51800-98-7
##MP= -300
##BP= -300
##MW= 248
##$RETENTION INDEX=0
##$CONDENSED SPECTRUM=NO
##NPOINTS= 163
##XYDATA=(XY..XY) 1 
    15         78
    18         15
    26         27
    27        430
    28         88
    29        270
    30          1
    37          7
    38         43
    39        729
    40        126
    41        999
    42        106
    43        520
    44         22
    46          6
    47         11
    50         54
    51        198
    52         76
    53        430
    54         77
    55        603
    56         50
    57         83
    58         14
    59         43
    60          9
    61         14
    62         13
    63         56
    64         22
    65        159
    66         91
    67        331
    68         84
    69        500
    70         54
    71         22
    73         18
    75         35
    77        257
    78         66
    79        230
    80         58
    81        137
    82         51
    83        248
    84         49
    85         14
    86          9
    87         24
    88          9
    89         55
    90         25
    91        233
    92         34
    93        127
    94         47
    95        378
    96         44
    97         39
    99         12
   101         26
   102         10
   103         35
   104         11
   105        102
   106         25
   107        138
   108        141
   109        167
   110         20
   111         11
   113          9
   115         55
   116         11
   117         37
   118          9
   119        285
   120         36
   121        103
   122         52
   123        487
   124         49
   125         11
   126          9
   127         30
   128          8
   129         16
   131         15
   133        188
   134         33
   135        393
   136        108
   137         84
   138         11
   139          9
   141         16
   143         14
   144          9
   145         19
   146         12
   147         31
   148          6
   149         74
   150          6
   151        386
   152         46
   153         13
   157         23
   159         27
   160         10
   161         43
   162         10
   163         73
   164         51
   165        102
   166         15
   167         18
   168          7
   171         18
   172         14
   173         25
   174         11
   175         10
   176          7
   177        117
   178         26
   179         51
   180         11
   181          6
   182          6
   185         48
   187        108
   188         55
   189         11
   190         10
   191         83
   192         31
   193         19
   195         11
   199          7
   200         70
   201         75
   202         67
   203         25
   204          7
   205        339
   206         94
   207         12
   213         15
   215         57
   216         10
   217          7
   220        396
   221         44
   229          8
   233        297
   234         36
   248        590
   249         78
   250          4