##TITLE=Library Entry 6457
##JCAMP-DX=Revision 4.10 
##DATA TYPE=MASS SPECTRUM
##SAMPLE DESCRIPTION=Chemical Concepts
##NAMES=HP
##CAS NAME=1-(p-Cumenyl)adamantane
##MOLFORM=C19H26
##CAS REGISTRY NO=51812-98-7
##MP= -300
##BP= -300
##MW= 254
##$RETENTION INDEX=0
##$CONDENSED SPECTRUM=NO
##NPOINTS= 109
##XYDATA=(XY..XY) 1 
    34         21
    39        391
    41        855
    43        999
    50         26
    51        102
    53        175
    55        220
    57         99
    59         18
    62          9
    63         49
    65        113
    67        164
    69         50
    70         15
    71         16
    75         17
    77        291
    79        337
    80         33
    81         72
    82         18
    83         20
    84         25
    85         13
    89         38
    91        366
    93        213
    94         76
    95         31
    97         26
    98         46
   102         28
   103         63
   105        166
   107         89
   108          9
   112          9
   115        179
   116         43
   117        114
   118         77
   119         65
   121         21
   122         10
   126         12
   127         64
   128        135
   129        119
   130         30
   131         54
   133        112
   135        360
   136         31
   139         14
   141         93
   142         30
   143         38
   145         94
   146         15
   147         20
   149         19
   151         11
   152         41
   153         60
   155        461
   156         50
   157         18
   158         13
   160        102
   161         22
   165         48
   166         22
   167         47
   168         18
   169         52
   170         14
   171         50
   178         14
   179         13
   180          8
   181         34
   182         16
   183         31
   184         13
   185         14
   195         25
   197        170
   198         33
   199          8
   209         14
   211         52
   212         17
   213          9
   223         11
   225          8
   228         10
   236          7
   237         14
   239        537
   240        100
   241         11
   251         14
   252         46
   253         79
   254        424
   255        126
   256         15