##TITLE=Library Entry 55073
##JCAMP-DX=Revision 4.10 
##DATA TYPE=MASS SPECTRUM
##SAMPLE DESCRIPTION=Chemical Concepts
##NAMES=HP
##CAS NAME=1,1'-Bicyclopentyl-1,1'-diol
##MOLFORM=C10H18O2
##CAS REGISTRY NO=5181-75-9
##MP= -300
##BP= -300
##MW= 170
##$RETENTION INDEX=0
##$CONDENSED SPECTRUM=NO
##NPOINTS= 85
##XYDATA=(XY..XY) 1 
    25          1
    26         11
    27         70
    28         32
    29         71
    30          1
    31         18
    38          4
    39         66
    40         20
    41        150
    42         25
    43        103
    44          7
    45          6
    50          3
    51          9
    52          4
    53         28
    54         13
    55        127
    56         44
    57         66
    58          8
    59          1
    60          1
    62          1
    63          4
    64          1
    65         23
    66         18
    67        416
    68         65
    69         21
    70          6
    71          7
    73          6
    77         18
    78          6
    79         40
    80         12
    81         37
    82         16
    83         70
    84        410
    85        999
    86         67
    87          5
    91         27
    92          7
    93         32
    94          9
    95         54
    96         45
    97         10
    98          3
    99          4
   102          1
   103          2
   105          8
   106          6
   107          6
   108         15
   109         11
   110         10
   111         48
   112          3
   113          4
   114          6
   115          1
   117          1
   119          5
   121          2
   123         23
   124         10
   127          5
   133          2
   134          6
   135          6
   136          3
   137          2
   151          2
   152         11
   153          3
   170          1