##TITLE=Library Entry 54023
##JCAMP-DX=Revision 4.10 
##DATA TYPE=MASS SPECTRUM
##SAMPLE DESCRIPTION=Chemical Concepts
##NAMES=HP
##CAS NAME=[1,1'-Bicyclopentyl]-2,2'-dione, (R*,R*)-(.+-.)-
##MOLFORM=C10H14O2
##CAS REGISTRY NO=51820-21-4
##MP= -300
##BP= -300
##MW= 166
##$RETENTION INDEX=0
##$CONDENSED SPECTRUM=NO
##NPOINTS= 95
##XYDATA=(XY..XY) 1 
    26         27
    27        302
    28        151
    29         72
    30          1
    31          3
    33          0
    37          2
    38         13
    39        292
    40         70
    41        292
    42         39
    43         42
    44          0
    45          2
    46          1
    47          1
    48          0
    50         11
    51         39
    52         26
    53        141
    54        315
    55        375
    56         42
    57          9
    58          1
    62          2
    63         11
    64          3
    65         35
    66         44
    67        345
    68        183
    69         43
    70         25
    71          4
    75          0
    76          0
    77         36
    78         18
    79        119
    80         42
    81        106
    82        237
    83        918
    84        999
    85         49
    86          5
    90          0
    91         29
    92         22
    93         34
    94         34
    95        137
    96         44
    97        145
    98         46
    99          4
   103          0
   104          4
   105         11
   106         11
   107          8
   108          2
   109         47
   110        252
   111         49
   112          4
   117          0
   119          7
   120         19
   121         15
   122         15
   123        116
   124         14
   125          3
   126          0
   129          0
   130          1
   131          0
   133          3
   135          0
   137         29
   138         72
   139          4
   147          7
   148          4
   149          2
   151          1
   165          2
   166        557
   167         59
   168          6