##TITLE=Library Entry 61900
##JCAMP-DX=Revision 4.10 
##DATA TYPE=MASS SPECTRUM
##SAMPLE DESCRIPTION=Japan AIST/NIMC Database- Spectrum MS-NW-6441
##NAMES=HP
##CAS NAME=Benzeneethanol, 3-chloro-
##MOLFORM=C8H9ClO
##CAS REGISTRY NO=5182-44-5
##MP= -300
##BP= -300
##MW= 156
##$RETENTION INDEX=0
##$CONDENSED SPECTRUM=NO
##NPOINTS= 104
##XYDATA=(XY..XY) 1 
    15          2
    18          2
    26          4
    27         14
    28          9
    29         17
    30          2
    31        166
    32          1
    35          1
    36          6
    37          9
    38         16
    39         67
    40          7
    41          9
    42          2
    43         12
    44          7
    45          5
    46          2
    47          1
    49          7
    50         42
    51         60
    52          8
    53          4
    55          4
    56          1
    57          2
    58          2
    59          3
    60          3
    61         11
    62         27
    63         86
    64         20
    65         51
    66          4
    67          1
    68          2
    69          2
    70          1
    72          2
    73         25
    74         17
    75         38
    76          9
    77         47
    78          7
    79          3
    83          2
    84          3
    85          9
    86          7
    87          7
    88          3
    89        159
    90         71
    91        999
    92         78
    93          4
    97          4
    98          2
    99         54
   100          4
   101         25
   102         17
   103         37
   104          6
   105          2
   106          1
   107          1
   111          6
   112         45
   113          8
   114         14
   115          2
   118          1
   119          2
   120          2
   121          3
   122          1
   123          3
   124          2
   125        626
   126        462
   127        242
   128        153
   129         11
   136          1
   137          9
   138         38
   139          9
   140         13
   141          2
   142          1
   154          3
   155          5
   156        410
   157         39
   158        138
   159         13
   160          1