##TITLE=Library Entry 76329
##JCAMP-DX=Revision 4.10 
##DATA TYPE=MASS SPECTRUM
##SAMPLE DESCRIPTION=NIST Mass Spectrometry Data Center
##NAMES=HP
##CAS NAME=4-Methylphenylthioacetaldehyde diethyl acetal
##MOLFORM=C13H20O2S
##CAS REGISTRY NO=51830-50-3
##MP= -300
##BP= -300
##MW= 240
##$RETENTION INDEX=0
##$CONDENSED SPECTRUM=NO
##NPOINTS= 109
##XYDATA=(XY..XY) 1 
    15          4
    19          5
    26          4
    27         40
    29        119
    30          3
    31         15
    38          2
    39         31
    40          1
    41         11
    42          5
    43         43
    44         34
    45        171
    46          7
    47        652
    48          9
    49          3
    50          6
    51         19
    52          6
    53         11
    57          1
    58          3
    59          9
    60          7
    61         15
    62          5
    63         21
    64          5
    65         58
    66          4
    67          1
    69         14
    70          4
    71          9
    72          5
    73          2
    74          3
    75        595
    76         24
    77         76
    78         25
    79         51
    80          3
    81          1
    82          4
    83          2
    84          2
    85          1
    87          1
    89         22
    90          7
    91        123
    92         27
    93         27
    94          2
    95          4
    96          2
    97         15
    98          1
   103        999
   104         67
   105         26
   106          2
   107          2
   108         14
   109          4
   110          1
   111          1
   115          1
   116          1
   117          1
   118          1
   119          2
   121         41
   122         19
   123        135
   124         24
   125          7
   126          1
   132          1
   133          1
   134         11
   135         16
   136          6
   137        151
   138         18
   139         12
   140          2
   147          1
   149        283
   150         35
   151         22
   152         19
   153          2
   165          6
   166         16
   167          2
   168          1
   194          9
   195         35
   196          5
   197          1
   211          1
   240         42
   241          6
   242          2