##TITLE=Library Entry 30415
##JCAMP-DX=Revision 4.10 
##DATA TYPE=MASS SPECTRUM
##SAMPLE DESCRIPTION=U.SCHUBERT INORG. CHEM. LAB., UNIV., MUNICH, GERMANY, F
.R.G.
##NAMES=HP
##CAS NAME=Ethanol, 1-methoxy-, benzoate
##MOLFORM=C10H12O3
##CAS REGISTRY NO=51835-44-0
##MP= -300
##BP= -300
##MW= 180
##$RETENTION INDEX=0
##$CONDENSED SPECTRUM=NO
##NPOINTS= 15
##XYDATA=(XY..XY) 1 
    43        100
    45         36
    50         31
    51        120
    58         68
    59        999
    60         37
    75        300
    77        190
   105        330
   106        100
   121         43
   149          5
   165          4
   180         13