##TITLE=Library Entry 10477
##JCAMP-DX=Revision 4.10 
##DATA TYPE=MASS SPECTRUM
##SAMPLE DESCRIPTION=J. Klune, Insect Chem. Ecol. Lab., USDA, Beltsville, MD
 20705
##NAMES=HP
##CAS NAME=7-Tetradecanol acetate
##MOLFORM=C16H32O2
##CAS REGISTRY NO=51847-52-0
##MP= -300
##BP= -300
##MW= 256
##$RETENTION INDEX=0
##$CONDENSED SPECTRUM=NO
##NPOINTS= 127
##XYDATA=(XY..XY) 1 
    41        204
    42         82
    43        999
    44         40
    45          8
    51          1
    52          1
    53         13
    54         32
    55        181
    56        111
    57        150
    58         95
    59         47
    60          3
    61         50
    62          1
    65          2
    66          4
    67         39
    68         33
    69        174
    70        125
    71         75
    72          7
    73          1
    77          2
    78          0
    79          6
    80          2
    81         24
    82         50
    83        138
    84         87
    85         50
    86         11
    87          1
    89          0
    91          1
    93          1
    94          1
    95         11
    96         47
    97        501
    98         78
    99         14
   100          5
   101          2
   102         24
   103         32
   104          1
   105          0
   107          0
   108          0
   109          5
   110         42
   111        474
   112         79
   113         26
   114         47
   115         18
   116          1
   119          0
   121          1
   122          0
   123          1
   124         14
   125         50
   126         30
   127         19
   128         43
   129         37
   130          3
   135          1
   137          0
   138          7
   139         17
   140         13
   141          3
   142         13
   143         18
   144          2
   152          5
   153         11
   154          8
   155          2
   156          3
   157         61
   158          6
   159          0
   166          3
   167          8
   168         27
   169          4
   170          2
   171         53
   172          8
   173          1
   181          0
   182          2
   183          0
   185          0
   186          2
   192          3
   193          1
   194          1
   195          1
   196        445
   197        137
   198         15
   199          1
   200          2
   205          1
   208          0
   209          0
   210          2
   211          2
   212          0
   213          7
   214          2
   220          0
   238          2
   239          7
   240          1
   255          0
   256         12
   257          1