##TITLE=Library Entry 67476
##JCAMP-DX=Revision 4.10 
##DATA TYPE=MASS SPECTRUM
##SAMPLE DESCRIPTION=Japan AIST/NIMC Database- Spectrum MS-NW-5999
##NAMES=HP
##CAS NAME=1H-Pyrrole-2-acetic acid, 1-methyl-, methyl ester
##MOLFORM=C8H11NO2
##CAS REGISTRY NO=51856-79-2
##MP= -300
##BP= -300
##MW= 153
##$RETENTION INDEX=0
##$CONDENSED SPECTRUM=NO
##NPOINTS= 76
##XYDATA=(XY..XY) 1 
    14          1
    15         25
    18          1
    26          5
    27         16
    28          9
    29          4
    30          2
    31          2
    37          3
    38          9
    39         38
    40          8
    41         31
    42         58
    43          2
    44          2
    45          5
    46          6
    47          7
    49          1
    50          9
    51         23
    52         24
    53         59
    54          9
    55          4
    56          2
    59          5
    61          2
    62          4
    63          9
    64          4
    65         26
    66         23
    67         28
    68          6
    69          3
    72          1
    75          1
    76          1
    77          8
    78         15
    79          6
    80          5
    81          2
    82          5
    83          1
    90          1
    91          3
    92         20
    93         70
    94        999
    95         72
    96          3
   106          2
   107          2
   108         22
   109          5
   110          3
   111          3
   119          3
   120          3
   121          4
   122          9
   123          1
   124          4
   125          1
   136          1
   137          1
   138          8
   139          1
   152          3
   153        241
   154         21
   155          2