##TITLE=Library Entry 2149
##JCAMP-DX=Revision 4.10 
##DATA TYPE=MASS SPECTRUM
##SAMPLE DESCRIPTION=D.HENNEBERG, MAX-PLANCK INSTITUTE, MULHEIM, WEST GERMAN
Y
##NAMES=HP
##CAS NAME=4-Pentenal, 2-methyl-
##MOLFORM=C6H10O
##CAS REGISTRY NO=5187-71-3
##MP= -300
##BP= -300
##MW= 98
##$RETENTION INDEX=793
##$CONDENSED SPECTRUM=NO
##NPOINTS= 60
##XYDATA=(XY..XY) 1 
    26         45
    27        209
    28         94
    29        114
    30          5
    36          1
    37         11
    38         31
    39        302
    40         52
    41        999
    42        233
    43        227
    44          7
    45          5
    46          0
    47          0
    48          0
    49          2
    50         13
    51         22
    52          8
    53         73
    54         20
    55        179
    56        266
    57         50
    58         11
    59          0
    60          0
    61          2
    62          4
    63          5
    64          1
    65         13
    66          4
    67         47
    68         25
    69        248
    70         84
    71         14
    72          0
    73          1
    74          0
    75          0
    77          4
    78          2
    79         18
    80         42
    81          4
    82          3
    83        119
    84          6
    85          0
    95          1
    96          0
    97         18
    98         51
    99          3
   100          0