##TITLE=Library Entry 98791
##JCAMP-DX=Revision 4.10 
##DATA TYPE=MASS SPECTRUM
##SAMPLE DESCRIPTION=V.A.Korolev, Moscow, Russia
##NAMES=HP
##CAS NAME=p-Toluic acid 2-amidinohydrazide
##MOLFORM=C9H12N4O
##CAS REGISTRY NO=51884-09-4
##MP= -300
##BP= -300
##MW= 192
##$RETENTION INDEX=0
##$CONDENSED SPECTRUM=NO
##NPOINTS= 58
##XYDATA=(XY..XY) 1 
    35          9
    38         13
    39        155
    40         25
    41         67
    42         82
    43        779
    44        330
    45         19
    50         44
    51         80
    52         25
    53         19
    55         16
    57         21
    58         10
    59          7
    61         13
    62         30
    63        112
    64         33
    65        328
    66         21
    69          4
    73        222
    74         13
    75         11
    76          8
    77         37
    78         21
    79          6
    84          3
    89        100
    90         61
    91        762
    92         60
    93          4
   101          7
   103          6
   104        191
   105         26
   106          6
   116         10
   118         23
   119        999
   120         94
   121         10
   131         13
   132         80
   133          6
   149          5
   150         15
   151          6
   174          9
   175         12
   176          3
   192        265
   193         32