##TITLE=Library Entry 76286
##JCAMP-DX=Revision 4.10 
##DATA TYPE=MASS SPECTRUM
##SAMPLE DESCRIPTION=Chemical Concepts
##NAMES=HP
##CAS NAME=Hexadecanoic acid, 3-hydroxy-, methyl ester
##MOLFORM=C17H34O3
##CAS REGISTRY NO=51883-36-4
##MP= -300
##BP= -300
##MW= 286
##$RETENTION INDEX=0
##$CONDENSED SPECTRUM=NO
##NPOINTS= 109
##XYDATA=(XY..XY) 1 
    25          0
    26          3
    27         31
    29        134
    30          2
    31         19
    33         17
    39         36
    40          6
    41        210
    42         73
    43        446
    44         41
    45         13
    46          0
    53         14
    54         27
    55        186
    56         67
    57        147
    58         19
    59         65
    60          4
    61        100
    62          1
    65          6
    67         52
    68         42
    69        113
    70         44
    71        226
    72         13
    74        197
    75         65
    76          0
    77         14
    78          0
    80          5
    81         44
    82         46
    83         63
    84         47
    85         44
    86          1
    87         55
    88          5
    89          4
    91          4
    92          2
    95         35
    96         54
    97         59
    98         37
    99         11
   100         15
   101         51
   102          5
   103        999
   104         39
   105         13
   106          5
   107          0
   108          5
   109         13
   110         21
   111         34
   112         11
   113         18
   114         14
   115         11
   116         47
   117         17
   118          6
   119          5
   120          1
   123         13
   124         10
   125         15
   126          2
   127          7
   128         15
   129         12
   131          7
   132          3
   135          6
   137         10
   138          9
   139          7
   140          1
   141         16
   142          2
   143          6
   151          4
   152         16
   153          7
   154          0
   155          5
   166          6
   167          4
   168          1
   171          9
   172          1
   192          5
   194         22
   195          5
   235          1
   236         15
   237          8
   238          1