##TITLE=Library Entry 79979
##JCAMP-DX=Revision 4.10 
##DATA TYPE=MASS SPECTRUM
##SAMPLE DESCRIPTION=A.A.Kutin, Moscow, Russia
##NAMES=HP
##CAS NAME=Benzamide, N-(2-(2-chlorophenyl)-1-(4-morpholinylcarbonyl)ethenyl
)-, (E)-
##MOLFORM=C20H19ClN2O3
##CAS REGISTRY NO=51896-15-2
##MP= -300
##BP= -300
##MW= 370
##$RETENTION INDEX=0
##$CONDENSED SPECTRUM=NO
##NPOINTS= 229
##XYDATA=(XY..XY) 1 
    36          0
    37          0
    38          1
    39          6
    40          5
    41         10
    42         42
    43          5
    44          4
    45          4
    50         19
    51         67
    52          5
    53          1
    54          7
    55          9
    56         34
    57         27
    58          4
    59          0
    60          0
    61          0
    62          6
    63         12
    64          2
    65          2
    66          0
    67          0
    68          0
    70         58
    71          2
    72          0
    73          2
    74          6
    75         11
    77        517
    78         33
    79          2
    80          0
    81          0
    82          0
    83          0
    84          1
    86         76
    87         69
    88         17
    89         49
    90          6
    91          1
    92          0
    94          1
    95          0
    96          0
    97          1
    98          0
    99          2
   100          1
   101          3
   102          2
   103          5
   105        999
   106         74
   107          4
   108          0
   109          0
   110          0
   111          1
   112          0
   114         37
   115         47
   116         25
   117          6
   118          1
   119          0
   120          0
   121          0
   122          1
   123          8
   124          5
   125         17
   126          3
   127          4
   128          1
   129          0
   130          0
   131          0
   132          1
   135          0
   136          2
   137          1
   138          2
   139          2
   140          0
   141          1
   142          0
   143          1
   144          2
   145          1
   146          0
   149          1
   150         10
   151         60
   152         29
   153         21
   154          8
   155          1
   156          0
   157          0
   162          1
   163          3
   164          6
   165          5
   166          1
   167          0
   170          0
   171          7
   172          2
   173          1
   174          0
   176          0
   177          0
   178          5
   179          1
   180          3
   181          0
   182          1
   183          1
   184          0
   185          1
   186          1
   187          0
   190          2
   191          1
   192          1
   193          1
   194          0
   195          0
   197          0
   198          0
   199          2
   200          0
   201          0
   202          0
   203          0
   204          1
   205          0
   206          2
   207          1
   208          1
   209          0
   210          4
   211          0
   212          1
   213          1
   214          8
   215          1
   217          0
   218          0
   219          8
   220          9
   221          6
   222          4
   223          1
   226          0
   227          0
   228          0
   229          0
   230          0
   231          0
   232          0
   233          0
   234          1
   235          1
   236          1
   237          2
   238          1
   239          1
   240          0
   241          1
   242          0
   247          8
   248         53
   249         18
   250         15
   251          3
   252          1
   254          0
   255          0
   256          1
   257          4
   258          1
   259          7
   260          1
   264          4
   265        115
   266         19
   267         37
   268          5
   269          0
   277          1
   283        174
   284        157
   285         91
   286         57
   287         16
   288          2
   289          0
   291          2
   292          0
   307          0
   317         38
   318          8
   319          0
   325          0
   331          0
   332          1
   333          0
   335         68
   336         15
   337          2
   351          0
   352          2
   353          0
   354          0
   370        135
   371         32
   372         46
   373          9
   374          0