##TITLE=Library Entry 38454
##JCAMP-DX=Revision 4.10 
##DATA TYPE=MASS SPECTRUM
##SAMPLE DESCRIPTION=Chemical Concepts
##NAMES=HP
##CAS NAME=B(9a)-Homo-19-norpregna-9(11),9a,16-trien-20-one, 3-(dimethylamin
o)-4,4,14-trimethyl-, (3.beta.,5.alpha.)-
##MOLFORM=C26H39NO
##CAS REGISTRY NO=5189-69-5
##MP= -300
##BP= -300
##MW= 381
##$RETENTION INDEX=0
##$CONDENSED SPECTRUM=NO
##NPOINTS= 304
##XYDATA=(XY..XY) 1 
    26          4
    27         38
    28          2
    29         61
    30          8
    31         13
    33          6
    34          3
    36          4
    37          5
    39         37
    40          9
    41        182
    42         93
    43        625
    44         82
    45         54
    46         28
    50          3
    51         14
    52          7
    53         44
    54         14
    55        127
    56        115
    57         70
    58        440
    59         23
    60         28
    61          8
    63          7
    64          6
    65         31
    66         12
    67         59
    68         22
    69        110
    70         86
    71        999
    72        169
    73         26
    74          5
    75          5
    76          6
    77         74
    78         25
    79         76
    80         16
    81         62
    82         44
    83         43
    84        373
    85         75
    86         22
    87          6
    88          6
    89          8
    90          4
    91        143
    92         24
    93         57
    94         26
    95         49
    96         23
    97         53
    98         67
    99         53
   100         10
   101          6
   102          6
   103         25
   104         21
   105        103
   106         24
   107         80
   108         25
   109         32
   110         30
   111         62
   112         26
   113         15
   114          9
   115         57
   116         26
   117         62
   118         25
   119         72
   120         22
   121         36
   122         25
   123         22
   124         21
   125         13
   126         10
   127         21
   128         60
   129         77
   130         29
   131         64
   132         21
   133         44
   134         17
   135         43
   136         22
   137         17
   138          8
   139         19
   140          8
   141         48
   142         38
   143         64
   144         26
   145         63
   146         24
   147         37
   148         16
   149         63
   150         16
   151         14
   152         21
   153         33
   154         22
   155         45
   156         24
   157         48
   158         19
   159         40
   160         18
   161         26
   162         17
   163         13
   165         41
   166         21
   167         38
   168         21
   169         41
   170         16
   171         41
   172         16
   173         30
   174         15
   175         16
   176         11
   177          9
   178         23
   179         31
   180         15
   181         34
   182         15
   183         33
   184         16
   185         27
   186         15
   187         35
   188         22
   189         17
   190          8
   191         15
   192         13
   193         23
   194         14
   195         30
   196         13
   197         25
   198          9
   199         23
   200         15
   201         26
   202         25
   203         18
   204          9
   205         14
   206          9
   207         16
   208          8
   209         29
   210         13
   211         23
   212          9
   213         17
   214         13
   215          9
   216          8
   217          8
   218          6
   219          9
   220          7
   221         10
   222          6
   223         16
   224         10
   225         20
   226         10
   227         12
   228         10
   229          6
   230          4
   231          5
   232          5
   233          5
   234          5
   235          9
   236          5
   237         17
   238          8
   239         22
   240          7
   241          8
   242          7
   243          2
   244          2
   245          6
   246          3
   247          3
   249          6
   250          4
   251         15
   252          8
   253         18
   254          7
   255          8
   256          6
   257          4
   258          2
   259          3
   260          3
   261          2
   262          3
   263          4
   264          3
   265         10
   266          5
   267         85
   268         24
   269          8
   270          4
   273          6
   274          3
   275          4
   277          4
   278          5
   279         15
   280          8
   281          7
   282          6
   283          3
   284          3
   285          3
   288         11
   289          3
   292          2
   293         33
   294         13
   295         50
   296         20
   297         21
   298          9
   299          6
   300          5
   301          3
   307          4
   308          9
   309          4
   310         17
   311          4
   312         19
   313          4
   315          3
   317          2
   318          3
   319          3
   321         31
   322         12
   323          6
   324          8
   325          4
   326          4
   332          2
   334          9
   335          8
   336        252
   337         72
   338        387
   339        101
   340         43
   341         11
   342          2
   348          1
   349          2
   350          2
   352          5
   355          2
   364          8
   365          5
   366         65
   367         21
   368          6
   369          2
   379         23
   380         25
   381        204
   382        142
   383         35
   384          6