##TITLE=Library Entry 79008
##JCAMP-DX=Revision 4.10 
##DATA TYPE=MASS SPECTRUM
##SAMPLE DESCRIPTION=Exported from NIST MS Search
##NAMES=HP
##CAS NAME=2H-1,3-Benzoxazine, 6-chloro-3,4-dihydro-3-phenyl-
##MOLFORM=C14H12ClNO
##CAS REGISTRY NO=51892-04-7
##MP= -300
##BP= -300
##MW= 245
##$RETENTION INDEX=0
##$CONDENSED SPECTRUM=NO
##NPOINTS= 121
##XYDATA=(XY..XY) 1 
    12          1
    13          2
    14          9
    15         49
    16          1
    17          5
    18         18
    25          1
    26          8
    27         25
    28         52
    29        152
    30         35
    31        299
    32        222
    33          4
    36          3
    37         21
    38         36
    39         60
    40          7
    41          9
    42          8
    43          7
    44          4
    45         35
    46          2
    48          1
    49         12
    50        115
    51        288
    52        152
    53         12
    54          2
    55          3
    56          2
    57          2
    58         32
    59          2
    60          2
    61          9
    62         14
    63         32
    64         13
    65         28
    66          4
    70          1
    71          2
    72          1
    73         11
    74         41
    75         31
    76         34
    77        893
    78        113
    79         10
    80          1
    81          1
    82          1
    83          1
    84          8
    85          2
    86          2
    87          1
    88          2
    89          6
    90          5
    91        105
    92         37
    93          5
    94          7
    95          1
    96          2
    99          1
   102          2
   103          6
   104        847
   105        999
   106         90
   107         17
   108          2
   111          1
   112         14
   113          2
   114          5
   115          2
   117          5
   118         20
   119         14
   120         19
   121         10
   122          1
   127          2
   128          1
   132          1
   133          2
   134          7
   135         12
   136          1
   139          1
   140         16
   141          7
   142          9
   143          2
   144          2
   149          2
   150          8
   151          2
   152          1
   154          1
   155          1
   156          1
   179         12
   180         14
   181          2
   222          3
   223          3
   244          7
   245         13
   246          3
   247          4