##TITLE=Library Entry 18243
##JCAMP-DX=Revision 4.10 
##DATA TYPE=MASS SPECTRUM
##SAMPLE DESCRIPTION=H. Fales, LC, NHLBI, NIH, Bethesda, MD 20892
##NAMES=HP
##CAS NAME=5,6-Dimethoxyphthalaldehydic acid
##MOLFORM=C10H10O5
##CAS REGISTRY NO=519-05-1
##MP= -300
##BP= -300
##MW= 210
##$RETENTION INDEX=0
##$CONDENSED SPECTRUM=NO
##NPOINTS= 142
##XYDATA=(XY..XY) 1 
    41        179
    42         52
    43        133
    44        131
    45        201
    46         23
    47         46
    49        376
    50        707
    51        999
    52        370
    53        536
    54         82
    55        204
    56         27
    57         26
    59         54
    60         14
    61        174
    62        323
    63        425
    64        146
    65        557
    66        134
    67        127
    68         94
    69         82
    70         13
    71         16
    73         50
    74        168
    75        263
    76        456
    77        770
    78        570
    79        584
    80        155
    81         86
    82         39
    83         18
    84        122
    86         88
    88         32
    89         26
    90         75
    91        140
    92        175
    93        153
    94        116
    95        162
    96         66
    97         13
    98          4
    99          5
   100          0
   101          5
   103         96
   104        261
   105        321
   106        421
   107        778
   108        167
   109        322
   110         33
   111         32
   112          3
   113          2
   114          0
   115          2
   116          3
   118        126
   119        237
   120        152
   121        252
   122        316
   123        128
   124         37
   125          6
   127          3
   129          3
   132        197
   133        154
   134        151
   135        500
   136        201
   137        298
   138         55
   139         31
   140          3
   141          1
   143          2
   145          8
   146         40
   147         32
   148        133
   149        392
   150        143
   151        349
   152        198
   153        142
   154         12
   155          1
   157          1
   159          0
   161         79
   162        344
   163        341
   164        190
   165        343
   166         64
   167         47
   168          5
   169          0
   170          0
   171          0
   174         34
   175          9
   177        177
   178         25
   180        656
   181        132
   182        197
   183         19
   184          2
   185          2
   186          0
   191         70
   192        102
   193        170
   194         23
   195         34
   196          4
   197          0
   199          0
   201          0
   207          8
   208          4
   209         34
   210        988
   211        101
   212         15
   213          1