##TITLE=Library Entry 22603
##JCAMP-DX=Revision 4.10 
##DATA TYPE=MASS SPECTRUM
##SAMPLE DESCRIPTION=Chemical Concepts
##NAMES=HP
##CAS NAME=Noramidopyrine
##MOLFORM=C12H15N3O
##CAS REGISTRY NO=519-98-2
##MP= -300
##BP= -300
##MW= 217
##$RETENTION INDEX=0
##$CONDENSED SPECTRUM=NO
##NPOINTS= 105
##XYDATA=(XY..XY) 1 
    29         20
    30          4
    31          1
    39         13
    40          7
    41         18
    42        167
    43          9
    50          4
    51         40
    52         10
    53         11
    54         39
    56        999
    57        102
    58          6
    59          4
    65         19
    66          9
    67         14
    68          7
    69          2
    70          5
    75          1
    76          1
    77         95
    78          8
    79          2
    80          2
    81          2
    83        331
    84         35
    85          3
    89          1
    92          9
    93         11
    94          6
    96         31
    98         65
    99          6
   100          1
   101          1
   102          1
   103          4
   104          6
   105          5
   106         10
   107          2
   109          4
   110          1
   112          2
   115          2
   116          1
   117          1
   118          7
   121          9
   122          9
   123        138
   124         37
   125         15
   126          1
   127          1
   128          1
   129          1
   130          2
   131          2
   132          2
   133          5
   134          1
   140          1
   142          1
   143          1
   144          1
   145          2
   146          1
   147          4
   148          7
   149          1
   156          1
   157          1
   158          1
   159          1
   160          1
   161          3
   162          1
   164          2
   171          1
   173          1
   174          1
   175          1
   185          2
   186          1
   187          2
   188          1
   191          3
   198          6
   199          1
   200          1
   203         13
   204          2
   214          4
   215         25
   216         96
   217        237
   218         33