##TITLE=Library Entry 51574
##JCAMP-DX=Revision 4.10 
##DATA TYPE=MASS SPECTRUM
##SAMPLE DESCRIPTION=H. Luftmann, Org. Chem. Inst., Westfalisch Wilhelms Uni
v., Munster, Germany
##NAMES=HP
##CAS NAME=3-Cyclopentene-1-acetaldehyde, 2-oxo-
##MOLFORM=C7H8O2
##CAS REGISTRY NO=51905-39-6
##MP= -300
##BP= -300
##MW= 124
##$RETENTION INDEX=0
##$CONDENSED SPECTRUM=NO
##NPOINTS= 32
##XYDATA=(XY..XY) 1 
    37         30
    38         60
    39        450
    40        100
    41        510
    42         90
    43         20
    50         20
    51         50
    52         40
    53        200
    54         60
    55        100
    62         10
    63         30
    65        100
    66         90
    67        380
    68        160
    69         40
    70         10
    77         40
    78         20
    79         20
    81        190
    82        999
    83         50
    94         40
    95        430
    96        630
    97         40
   124         10