##TITLE=Library Entry 80824
##JCAMP-DX=Revision 4.10 
##DATA TYPE=MASS SPECTRUM
##SAMPLE DESCRIPTION=DKFZ HD OPFERKUCH, HEIDELBERG, GERMANY, F.R.G.
##NAMES=HP
##CAS NAME=4a,7a-Epoxy-5H-cyclopenta[a]cyclopropa[f]cycloundecen-4(1H)-one,
 2-(acetyloxy)-7,10,11-tris(benzoyloxy)-1a,2,3,6,7,10,11,11a-octahydro-1,1,3
,6,9-pentamethyl-, [1aR-(1aR*,2R*,3S*,4ar*,6S*,7S*,7as*,8E,10R*,11R*,11aS*)]
-
##MOLFORM=C43H44O10
##CAS REGISTRY NO=51906-03-7
##MP= -300
##BP= -300
##MW= 720
##$RETENTION INDEX=0
##$CONDENSED SPECTRUM=NO
##NPOINTS= 506
##XYDATA=(XY..XY) 1 
    12          5
    13          1
    14          7
    15         13
    16          3
    17         11
    18         36
    19          0
    22          0
    24          0
    25          0
    26          7
    27         29
    28        147
    29         19
    30          2
    31          2
    32         26
    35         44
    36         44
    37         19
    38         13
    39         42
    40          6
    41         49
    42          9
    43         98
    44         55
    45         39
    46          1
    47         65
    48          1
    49         31
    50         49
    51         81
    52         16
    53         16
    54          6
    55         40
    56         13
    57         29
    58          4
    59          5
    60         31
    61          8
    62          5
    63          8
    64          1
    65         13
    66          9
    67         21
    68          8
    69         31
    70          9
    71         18
    72          3
    73         14
    74         18
    75         14
    76         22
    77        245
    78         60
    79         19
    80          4
    81         13
    82        114
    83         16
    84         81
    85         11
    86         13
    87          3
    88          2
    89          2
    90          1
    91         22
    92          4
    93         13
    94          8
    95         16
    96          8
    97         11
    98          4
    99          3
   100          2
   101          3
   102          1
   103          4
   104          7
   105        999
   106         81
   107         13
   108          5
   109         16
   110          4
   111          6
   112          3
   113          2
   114          0
   115          9
   116          2
   117        508
   118          6
   119        491
   120          6
   121        147
   122        131
   123         21
   124          4
   125          5
   126          1
   127          3
   128          5
   129          6
   130          2
   131          5
   132          2
   133          7
   134          4
   135          9
   136          6
   137          7
   138          5
   139          4
   140          1
   141          4
   142          3
   143          4
   144          2
   145          5
   146          4
   147          8
   148          4
   149         21
   150          4
   151          2
   152          4
   153          5
   154          2
   155          4
   156          1
   157          5
   158          2
   159          6
   160          3
   161          6
   162          4
   163          9
   164          2
   165          8
   166          1
   167          2
   168          2
   169          3
   170          1
   171          2
   172          2
   173          3
   174          1
   175          4
   176          4
   177          3
   178          1
   179          3
   180          1
   181          2
   182          2
   183          2
   184          1
   185          3
   186          4
   187          5
   188          3
   189          5
   190          3
   191          2
   192          1
   193          2
   194          1
   195          1
   196          2
   197          3
   198          2
   199          4
   200          2
   201          5
   202          4
   203          5
   204          1
   205          3
   206          1
   207          1
   208          1
   209          1
   210          1
   211          3
   212          2
   213          5
   214          3
   215          4
   216          2
   217          2
   218          1
   219          2
   220          1
   221          1
   222          0
   223          3
   224          1
   225          3
   226          2
   227          4
   228          3
   229          3
   230          1
   231          1
   232          1
   233          1
   234          0
   235          2
   236          1
   237          1
   238          1
   239          4
   240          2
   241          3
   242          4
   243          4
   244          1
   245          4
   246          2
   247          0
   248          0
   249          1
   250          1
   251          4
   252          1
   253          3
   254          3
   255          3
   256          5
   257          1
   258          1
   259          1
   260          0
   261          1
   262          1
   263          0
   264          1
   265          1
   266          4
   267          5
   268          3
   269          7
   270          1
   271          3
   272          1
   273          1
   274          1
   275          1
   276          0
   277          1
   278          1
   279          3
   280          2
   281          2
   282          1
   283          6
   284          4
   285          3
   286          2
   287          1
   288          0
   289          1
   290          1
   291          0
   292          0
   293          1
   294          6
   295          6
   296          4
   297          4
   298          1
   299          2
   300          0
   301          1
   302          1
   303          0
   304          1
   305          0
   306          1
   307          2
   308          1
   309          1
   310          1
   311          4
   312          5
   313          2
   314          2
   315          0
   316          0
   317          0
   318          1
   319          0
   320          0
   321          0
   322          0
   323          1
   324          0
   325          1
   326          0
   328          0
   329          3
   330          1
   331          1
   332          1
   333          0
   334          0
   335          0
   336          0
   337          1
   338          0
   339          0
   340          0
   341          0
   342          0
   343          0
   344          0
   345          0
   346          0
   347          0
   348          0
   349          0
   350          0
   351          0
   352          0
   353          0
   354          1
   355          0
   356          0
   357          0
   359          0
   360          1
   361          0
   362          0
   363          0
   364          0
   365          0
   367          0
   368          0
   370          0
   371          0
   372          0
   373          0
   374          0
   375          0
   376          1
   378          0
   383          0
   385          0
   386          0
   387          1
   388          2
   389          2
   390          1
   391          0
   393          0
   398          0
   400          0
   401          1
   402          0
   403          0
   404          0
   405          1
   406          0
   407          1
   408          0
   409          0
   410          0
   413          0
   414          0
   415          0
   416          3
   417          5
   418          4
   419          1
   420          1
   421          0
   422          0
   423          0
   426          0
   428          0
   429          0
   430          0
   432          0
   433          1
   434          3
   435          1
   436          1
   437          0
   440          0
   441          0
   446          0
   447          0
   448          0
   449          0
   450          0
   451          0
   459          0
   467          0
   470          0
   475          1
   476          1
   477          0
   478          0
   482          0
   486          0
   488          0
   490          0
   491          0
   492          0
   493          0
   494          4
   495          0
   496          0
   497          0
   498          0
   499          0
   500          0
   502          0
   503          0
   504          0
   509          0
   510          0
   511          0
   512          1
   513          0
   523          0
   524          0
   527          0
   528          0
   529          0
   530          0
   537          0
   538          4
   539          2
   540          1
   541          1
   542          0
   543          0
   553          0
   554          0
   555          0
   556          2
   557          1
   558          0
   559          0
   561          0
   564          0
   570          0
   571          0
   572          0
   573          0
   574          0
   583          0
   584          0
   591          0
   595          0
   597          3
   598          6
   599          2
   600          0
   604          0
   605          0
   611          0
   613          0
   614          0
   615          0
   618          0
   621          0
   629          0
   631          0
   632          0
   633          0
   642          0
   644          0
   645          0
   646          0
   658          1
   659          0
   660         13
   661          8
   662          4
   663          1
   664          0
   675          0
   677          0
   692          0
   693          0
   694          0
   718          0
   719          0
   720        137
   721         63
   722         16
   723          3
   724          0