##TITLE=Library Entry 18884
##JCAMP-DX=Revision 4.10 
##DATA TYPE=MASS SPECTRUM
##SAMPLE DESCRIPTION=D.HENNEBERG, MAX-PLANCK INSTITUTE, MULHEIM, WEST GERMAN
Y
##NAMES=HP
##CAS NAME=Iron, tricarbonyl[(O,1,2,3-.eta.)-methyl 2-propenoate]-
##MOLFORM=C7H6FeO5
##CAS REGISTRY NO=51922-76-0
##MP= -300
##BP= -300
##MW= 226
##$RETENTION INDEX=0
##$CONDENSED SPECTRUM=NO
##NPOINTS= 52
##XYDATA=(XY..XY) 1 
    26        102
    27        513
    28        909
    29         52
    30         16
    31         61
    32          6
    33          0
    37          0
    38          1
    39         11
    40          3
    41         11
    42        109
    43         36
    44         14
    45         10
    51          1
    52          0
    53         16
    54         12
    55        999
    56         38
    57         15
    58         96
    59         48
    60          2
    68         23
    69          2
    71          5
    73          0
    78          0
    81          0
    82          3
    83          1
    84          5
    85        128
    86         20
    87          1
    88          0
   112          0
   114          3
   115          0
   127          0
   140          0
   142          4
   143          0
   168          0
   170          3
   197          0
   198          2
   226          0