##TITLE=Library Entry 16262
##JCAMP-DX=Revision 4.10 
##DATA TYPE=MASS SPECTRUM
##SAMPLE DESCRIPTION=Drug Lab
##NAMES=HP
##CAS NAME=4-Methoxyamphetamine, N-acetyl
##MOLFORM=C12H17NO2
##CAS REGISTRY NO=51920-74-2
##MP= -300
##BP= -300
##MW= 207
##$RETENTION INDEX=1768
##$CONDENSED SPECTRUM=NO
##NPOINTS= 74
##XYDATA=(XY..XY) 1 
    38          3
    39         23
    40          4
    41         18
    42         38
    43        157
    44        999
    45         27
    50         11
    51         36
    52         28
    53         13
    54          2
    55          7
    56          4
    57          8
    58          2
    60          1
    62          4
    63         19
    64          8
    65         29
    66          3
    67          2
    68          1
    74          2
    75          3
    76          5
    77         90
    78        105
    79         23
    80          3
    81          1
    86        149
    87          8
    88          1
    89         23
    90         14
    91         70
    92         11
    93          4
    94          2
   102          3
   103         13
   104          7
   105         17
   106         15
   107         19
   108          7
   109          1
   115         17
   116         10
   117         43
   118         10
   119          8
   121        353
   122         89
   123          7
   130          1
   131          5
   132          7
   133         33
   134         13
   135          3
   145          1
   147        105
   148        956
   149        112
   150         14
   151          1
   163          2
   164          6
   207          5
   208          1