##TITLE=Library Entry 1358
##JCAMP-DX=Revision 4.10 
##DATA TYPE=MASS SPECTRUM
##SAMPLE DESCRIPTION=Chemical Concepts
##NAMES=HP
##CAS NAME=Propanoic acid, 3-[(2-ethoxy-2-oxoethyl)amino]-3-oxo-, ethyl este
r
##MOLFORM=C9H15NO5
##CAS REGISTRY NO=51925-56-5
##MP= -300
##BP= -300
##MW= 217
##$RETENTION INDEX=0
##$CONDENSED SPECTRUM=NO
##NPOINTS= 67
##XYDATA=(XY..XY) 1 
    26          9
    27         84
    28         56
    29        355
    30        999
    31         37
    39          2
    40          1
    41         15
    42        120
    43        199
    44         18
    45         27
    46          4
    47          2
    49          2
    54          5
    55          4
    56         63
    57          8
    58          8
    59          7
    60         46
    61         14
    69         29
    70         15
    71         43
    72          9
    73         12
    74         75
    75          4
    76          2
    83          2
    84          4
    86          5
    87         69
    88         24
    89          3
    97          2
    98         12
    99         13
   100          3
   101          2
   102         97
   103         26
   104         77
   105          5
   115        160
   116         15
   117         10
   125          4
   126         34
   127          5
   129          2
   130         14
   142          6
   144        715
   145         77
   146          8
   171        203
   172        219
   173         20
   182          2
   189          3
   217        105
   218         19
   219          3