##TITLE=Library Entry 33459
##JCAMP-DX=Revision 4.10 
##DATA TYPE=MASS SPECTRUM
##SAMPLE DESCRIPTION=NIST Mass Spectrometry Data Center, 1998.
##NAMES=HP
##CAS NAME=9,12-Tetradecadien-1-ol, (Z,E)-
##MOLFORM=C14H26O
##CAS REGISTRY NO=51937-00-9
##MP= -300
##BP= -300
##MW= 210
##$RETENTION INDEX=1664
##$CONDENSED SPECTRUM=NO
##NPOINTS= 120
##XYDATA=(XY..XY) 1 
    15          2
    19          2
    26          3
    27         71
    28         17
    29        123
    30          5
    31        187
    32          2
    33          1
    37          1
    38          4
    39        172
    40         33
    41        492
    42         51
    43        110
    44         11
    45         14
    50          6
    51         28
    52         21
    53        211
    54        158
    55        662
    56         47
    57         54
    58          6
    59          3
    62          1
    63          7
    64          2
    65         80
    66         73
    67        975
    68        999
    69        195
    70         29
    71         36
    72          4
    73          2
    74          1
    75          1
    77        137
    78         39
    79        550
    80        212
    81        843
    82        535
    83         81
    84         26
    85         25
    86          4
    87          1
    89          2
    91         85
    92         17
    93        225
    94        153
    95        434
    96        207
    97         54
    98         68
    99         10
   100          2
   103          3
   104          1
   105         12
   106          4
   107        103
   108         66
   109        100
   110         86
   111         41
   112         23
   113          3
   114          2
   115          2
   117          1
   119          2
   120          2
   121        107
   122         38
   123         31
   124         24
   125         12
   126          6
   127          1
   128          3
   129          1
   133          1
   134          1
   135         56
   136         24
   137         11
   138          7
   139          4
   140          4
   141          1
   142          1
   149         21
   150          9
   151          5
   152          1
   153          3
   154          2
   155          1
   163         10
   164          4
   165          1
   166          6
   167          4
   168          1
   177          1
   179          2
   181          2
   192          5
   193          1
   210          6
   211          1