##TITLE=Library Entry 70126
##JCAMP-DX=Revision 4.10 
##DATA TYPE=MASS SPECTRUM
##SAMPLE DESCRIPTION=Patti Price, Georgia Bureau of Investigation, Decatur,
 Georgia
##NAMES=HP
##CAS NAME=3-Cyclohexene-1-carboxylic acid, 2-(dimethylamino)-1-phenyl-, eth
yl ester, trans-
##MOLFORM=C17H23NO2
##CAS REGISTRY NO=51931-66-9
##MP= -300
##BP= -300
##MW= 273
##$RETENTION INDEX=0
##$CONDENSED SPECTRUM=NO
##NPOINTS= 123
##XYDATA=(XY..XY) 1 
    42         31
    43          1
    44          4
    49          1
    50          5
    51         17
    52          4
    53          7
    54          3
    55         18
    56          5
    57          1
    58          5
    62          1
    63          9
    64          2
    65         12
    66          3
    67         20
    68         12
    69          2
    70          6
    71          5
    72         24
    75          4
    76          8
    77         84
    78         21
    79         11
    80         16
    81         19
    82        634
    83         42
    84          5
    86          1
    87          1
    89         10
    90          1
    91         53
    92          4
    93          2
    94         16
    95          3
    96         46
    97        999
    98         60
    99          6
   101          2
   102         17
   103        123
   104         20
   105          5
   106          1
   107          2
   108          3
   110          4
   113          1
   115         48
   116          9
   117          3
   118          1
   119          2
   120          4
   122          2
   123          1
   126          3
   127         17
   128         45
   129         27
   130          4
   131         10
   132         17
   133          1
   134          1
   135          1
   139          4
   140          2
   141         32
   142          4
   143          3
   144          5
   145          1
   146          1
   147          1
   148          6
   151          5
   152         22
   153         29
   154         21
   155         44
   156         37
   157          6
   159          1
   160          1
   161          1
   163          1
   166          1
   167          2
   168          2
   169          1
   170          2
   175          1
   176         19
   177          1
   180          1
   181          1
   182          3
   183          1
   185          1
   196          1
   198          5
   199          1
   200          2
   201          1
   210          1
   216          1
   217          1
   228          9
   229          1
   258          1
   271          1
   273          7
   274          1