##TITLE=Library Entry 32904
##JCAMP-DX=Revision 4.10 
##DATA TYPE=MASS SPECTRUM
##SAMPLE DESCRIPTION=Japan AIST/NIMC Database- Spectrum MS-NW-3426
##NAMES=HP
##CAS NAME=2,4-Hexadiene, (E,Z)-
##MOLFORM=C6H10
##CAS REGISTRY NO=5194-50-3
##MP= -300
##BP= -300
##MW= 82
##$RETENTION INDEX=654
##$CONDENSED SPECTRUM=NO
##NPOINTS= 47
##XYDATA=(XY..XY) 1 
    14          1
    15         11
    25          2
    26         21
    27        134
    28         11
    29         33
    36          2
    37         15
    38         32
    39        290
    40         55
    41        351
    42         58
    43          8
    44          2
    48          1
    49          8
    50         48
    51         71
    52         37
    53        176
    54        169
    55         66
    56         11
    57          1
    60          1
    61          6
    62          9
    63         20
    64          4
    65         94
    66         42
    67        999
    68         56
    69          2
    73          3
    74          8
    75          3
    77         40
    78          9
    79        103
    80         14
    81        127
    82        516
    83         31
    84          1