##TITLE=Library Entry 38349
##JCAMP-DX=Revision 4.10 
##DATA TYPE=MASS SPECTRUM
##SAMPLE DESCRIPTION=CARL DJERASSI DEPT OF CHEM STANFORD UNIV STANFORD CALIF
 94305
##NAMES=HP
##CAS NAME=1,5-Heptadiene-3,4-diol
##MOLFORM=C7H12O2
##CAS REGISTRY NO=51945-98-3
##MP= -300
##BP= -300
##MW= 128
##$RETENTION INDEX=1085
##$CONDENSED SPECTRUM=NO
##NPOINTS= 18
##XYDATA=(XY..XY) 1 
    38         10
    39        160
    40         20
    41        270
    42         20
    43        300
    44         10
    51         10
    53        170
    54         10
    55         50
    57        160
    58         70
    59         10
    69         30
    70         10
    71        999
    72         80