##TITLE=Library Entry 79772
##JCAMP-DX=Revision 4.10 
##DATA TYPE=MASS SPECTRUM
##SAMPLE DESCRIPTION=Asinex Ltd, Moscow, Russia
##NAMES=HP
##CAS NAME=N-(4,5-Dimethyl-thiophen-2-yl)-benzamide
##MOLFORM=C13H13NOS
##CAS REGISTRY NO=51948-21-1
##MP= -300
##BP= -300
##MW= 231
##$RETENTION INDEX=0
##$CONDENSED SPECTRUM=NO
##NPOINTS= 124
##XYDATA=(XY..XY) 1 
    34          0
    35          0
    36          0
    37          1
    38          4
    39         33
    40          6
    41         14
    42          2
    43          1
    44          4
    45         22
    46          1
    47          5
    48          0
    49          1
    50         25
    51         97
    52         11
    53         10
    54          3
    55          9
    56          1
    57          2
    58          9
    59         42
    60          3
    61          2
    62          1
    63          3
    64          4
    65         52
    66         16
    67          4
    68          1
    69          5
    70          2
    71          4
    72          2
    73          1
    74          4
    75          6
    76         27
    77        404
    78         29
    79          1
    80          3
    81          2
    82          3
    83          2
    84          6
    85          4
    86          2
    87          0
    88          0
    89          0
    90          0
    91          1
    92         18
    93          4
    94          1
    95          1
    96          0
    97          6
    98          2
    99         16
   100          1
   101          1
   102          1
   105        999
   106         76
   107          4
   108          0
   109          1
   110          4
   111          1
   112          0
   113          0
   114          0
   115          0
   121          0
   122          1
   123          0
   124          1
   125          4
   126         32
   127          3
   128          5
   129          0
   130          0
   136          0
   138          1
   139          0
   140          0
   141          0
   142          0
   152          0
   153          0
   154          0
   155          0
   160          0
   163          0
   167          0
   168          0
   169          0
   171          0
   172          0
   182          0
   183          0
   186          0
   187          0
   196          0
   197          0
   198          0
   200          0
   202          0
   212          0
   214          0
   215          0
   229          3
   231        327
   232         47
   233         17
   234          2