##TITLE=Library Entry 69221
##JCAMP-DX=Revision 4.10 
##DATA TYPE=MASS SPECTRUM
##SAMPLE DESCRIPTION=A.A.Kutin, Moscow, Russia
##NAMES=HP
##CAS NAME=Pyrimidine, 4-hydroxy-
##MOLFORM=C4H4N2O
##CAS REGISTRY NO=51953-18-5
##MP= -300
##BP= -300
##MW= 96
##$RETENTION INDEX=0
##$CONDENSED SPECTRUM=NO
##NPOINTS= 41
##XYDATA=(XY..XY) 1 
    34          3
    35          0
    36          2
    38         57
    39         69
    40         31
    41        227
    42        352
    43         73
    44          2
    47          4
    48          2
    50         12
    51         41
    52         66
    53         53
    54         10
    55          9
    56          2
    57          4
    60          1
    64          0
    65          2
    66          5
    67         28
    68        474
    69        201
    70          9
    71          3
    77          1
    78          0
    79         12
    80          1
    81          1
    90          0
    93          2
    94          0
    95         31
    96        999
    97         43
    98          4