##TITLE=Library Entry 3762
##JCAMP-DX=Revision 4.10 
##DATA TYPE=MASS SPECTRUM
##SAMPLE DESCRIPTION=Exported from NIST MS Search
##NAMES=HP
##CAS NAME=Podocarpa-1,12-diene-.delta.14,.alpha.-acetic acid, 7-hydroxy-8,1
3-dimethyl-3-oxo-, .delta.-lactone
##MOLFORM=C21H26O3
##CAS REGISTRY NO=5195-83-5
##MP= -300
##BP= -300
##MW= 326
##$RETENTION INDEX=0
##$CONDENSED SPECTRUM=NO
##NPOINTS= 216
##XYDATA=(XY..XY) 1 
    27         20
    28        260
    29         20
    30        190
    31         10
    32         20
    38         20
    39        330
    40         70
    41        999
    42         60
    43        400
    44         10
    45         10
    49         20
    50        160
    51         10
    52        100
    53        570
    54         60
    55        200
    56         20
    57         10
    59         10
    63         70
    64         30
    65        300
    66         90
    67        260
    68         40
    69        510
    70         40
    71         20
    74         10
    75         20
    76         20
    77        600
    78        190
    79        450
    80        180
    81        120
    82         20
    83         40
    84         10
    85         10
    87         70
    88         10
    89         40
    90         20
    91        950
    92        120
    93        200
    94         30
    95         90
    96         80
    97         20
    98         30
    99         10
   101         10
   102         30
   103        130
   104         90
   105        270
   106         50
   107        160
   108         60
   109         80
   110         10
   115        170
   116         60
   117        120
   118         40
   119        320
   120         80
   121         50
   122         40
   123         40
   124         10
   125         10
   126         10
   127         40
   128        120
   129        100
   130         40
   131        140
   132         40
   133         50
   134         20
   135         60
   136         20
   137         10
   138         20
   139         20
   141        120
   142        120
   143        110
   144         50
   145        190
   146         70
   147        140
   148         40
   149        170
   150         80
   151         40
   152         40
   153         50
   154         30
   155         60
   156         40
   157        130
   158         50
   159        100
   160         30
   161         70
   162         40
   163         80
   164         50
   165         70
   166         50
   167         30
   168         20
   169         40
   170         30
   171         70
   172         40
   173         90
   174         30
   175        240
   176         50
   177         40
   178         20
   179         20
   180         10
   181         20
   182         10
   183         70
   184         20
   185         70
   186         30
   187         40
   188         10
   189         20
   190         10
   191         20
   192         10
   193         10
   194         10
   195         30
   196         20
   197         40
   198         10
   199         40
   200         20
   201        150
   202         30
   203         10
   204         40
   205         10
   206         40
   207         10
   208         10
   209         10
   210         10
   211         60
   212         10
   213         80
   214         20
   215         20
   216         20
   217         10
   218         10
   219         20
   220         10
   221         10
   222         10
   223         10
   224         10
   225         20
   226         10
   227         10
   228         10
   229        320
   230         70
   231         30
   232         10
   237         20
   239         30
   240         10
   241         10
   242         10
   243         10
   244         10
   253         20
   255         20
   256         10
   257        130
   258         90
   259         20
   260         10
   265         20
   266         10
   267         10
   280         20
   281         10
   282         10
   283         10
   284         10
   293         10
   298         40
   299         10
   308         10
   311         20
   312         10
   326        300
   327        100
   328         20