##TITLE=Library Entry 91041
##JCAMP-DX=Revision 4.10 
##DATA TYPE=MASS SPECTRUM
##SAMPLE DESCRIPTION=Japan AIST/NIMC Database- Spectrum MS-NW-7060
##NAMES=HP
##CAS NAME=Benzyltri-n-propylammonium chloride
##MOLFORM=C16H28ClN
##CAS REGISTRY NO=5197-87-5
##MP= -300
##BP= -300
##MW= 269
##$RETENTION INDEX=0
##$CONDENSED SPECTRUM=NO
##NPOINTS= 109
##XYDATA=(XY..XY) 1 
    15         10
    16          1
    25          1
    26          9
    27         90
    28         29
    29         20
    30        204
    31          2
    35          3
    36          7
    37         11
    38         22
    39         95
    40         12
    41        216
    42        112
    43        186
    44         44
    45         14
    46          1
    47          2
    48          1
    49          6
    50         28
    51         35
    52         12
    53          3
    54         10
    55          8
    56         25
    57         13
    58         41
    59          3
    60          3
    61         11
    62         27
    63         58
    64         17
    65         92
    66          8
    67          3
    68          9
    69          3
    70         35
    71          5
    72        199
    73         11
    74          4
    75          6
    76          3
    77          4
    78          2
    79          1
    80          1
    81          3
    82          5
    83          2
    84         26
    85          5
    86        113
    87          6
    88          2
    89         46
    90         24
    91        825
    92         76
    93          8
    95          1
    96          2
    97          2
    98          9
    99          8
   100         13
   101          3
   103          1
   105          1
   106          1
   107          1
   108          1
   109          1
   110          2
   111          2
   112         17
   113          3
   114        999
   115         86
   116          3
   118          1
   120          1
   122          1
   125         19
   126        158
   127         15
   128         50
   129          4
   134          1
   139          1
   141          3
   142         13
   143         82
   144         10
   146          1
   160          1
   162         63
   163          9
   164          1
   191          6
   192          1