##TITLE=Library Entry 17139
##JCAMP-DX=Revision 4.10 
##DATA TYPE=MASS SPECTRUM
##SAMPLE DESCRIPTION=Japan AIST/NIMC Database- Spectrum MS-IW- 913
##NAMES=HP
##CAS NAME=Ethanol, 2-[2-(2-chloroethoxy)ethoxy]-
##MOLFORM=C6H13ClO3
##CAS REGISTRY NO=5197-62-6
##MP= -300
##BP= -300
##MW= 168
##$RETENTION INDEX=0
##$CONDENSED SPECTRUM=NO
##NPOINTS= 75
##XYDATA=(XY..XY) 1 
    14          1
    15         13
    18          2
    26          8
    27        159
    28         65
    29         34
    30          7
    31         84
    32          2
    33          1
    36          8
    38          2
    39          1
    41          4
    42          7
    43        116
    44        120
    45        999
    46         31
    47          3
    49          7
    50          2
    51          2
    57         11
    58        240
    59        154
    60          7
    61          8
    62         15
    63        569
    64         16
    65        180
    66          4
    70          4
    71          2
    72          9
    73         38
    74          1
    75        333
    76         12
    77          2
    78          1
    79          7
    80          1
    81          3
    86          2
    87         52
    88         36
    89        181
    90          8
    91          1
    93         77
    94          3
    95         25
    96          1
   100          1
   101         30
   102         24
   103          2
   106         61
   107        264
   108         31
   109         84
   110          4
   115          2
   119          7
   125          4
   127          1
   137         71
   138          4
   139         22
   140          1
   151          1
   169          2