##TITLE=Library Entry 97826
##JCAMP-DX=Revision 4.10 
##DATA TYPE=MASS SPECTRUM
##SAMPLE DESCRIPTION=Institute of Organic Chemistry, Novosibirsk, USSR 1988
##NAMES=HP
##CAS NAME=2,6-Dimethyl-6-phenyl-5,6-dihydro(4H)-1,3-oxazine
##MOLFORM=C12H15NO
##CAS REGISTRY NO=51973-03-6
##MP= -300
##BP= -300
##MW= 189
##$RETENTION INDEX=0
##$CONDENSED SPECTRUM=NO
##NPOINTS= 114
##XYDATA=(XY..XY) 1 
    12         60
    13         17
    15         97
    24          5
    25         19
    26         80
    27        219
    28        102
    29         79
    30        197
    31         28
    36          2
    37         13
    38         25
    39        218
    40         43
    41        164
    42        450
    43        748
    44         55
    45         47
    46          5
    49          7
    50        109
    51        351
    52         69
    53         42
    54         32
    55         63
    56         45
    57         28
    58          5
    60          6
    61          1
    62         17
    63         63
    64         16
    65         82
    66         12
    67         14
    68         25
    69         90
    70         20
    71         24
    72         58
    73         12
    74         25
    75         34
    76         63
    77        626
    78        252
    79         48
    80          4
    81          9
    82          4
    83          9
    84         21
    85          6
    86          4
    87         13
    88          3
    89         43
    90         18
    91        274
    92         26
    93          5
    94          4
    95          4
    96          3
    97          4
    98          7
    99          2
   101          8
   102         52
   103        274
   104        104
   105        263
   106         26
   107          4
   111          3
   112          4
   113          2
   114          3
   115        153
   116         54
   117        318
   118        999
   119         77
   120          9
   121          5
   122          8
   123          3
   127          9
   128         18
   129         40
   130        154
   131         35
   132         74
   133         28
   134         10
   135          2
   144         10
   145          8
   146         52
   147         16
   148          3
   160          9
   161          7
   174         40
   175          9
   188         12
   189        109
   190         15
   191          1