##TITLE=Library Entry 60393
##JCAMP-DX=Revision 4.10 
##DATA TYPE=MASS SPECTRUM
##SAMPLE DESCRIPTION=Japan AIST/NIMC Database- Spectrum MS-NW-8237
##NAMES=HP
##CAS NAME=Triethylbenzylammonium bromide
##MOLFORM=C13H22BrN
##CAS REGISTRY NO=5197-95-5
##MP= -300
##BP= -300
##MW= 271
##$RETENTION INDEX=0
##$CONDENSED SPECTRUM=NO
##NPOINTS= 69
##XYDATA=(XY..XY) 1 
    15          7
    26          8
    27         41
    28         25
    29         61
    30        157
    31          2
    37          4
    38         12
    39         61
    40          8
    41         22
    42         49
    43          9
    44         65
    45         12
    49          2
    50         19
    51         31
    52         14
    53          2
    54          4
    55          3
    56         30
    57          9
    58        163
    59          6
    61          5
    62         17
    63         51
    64         16
    65        127
    66          7
    70         15
    71          7
    72         20
    73          1
    74          3
    75          3
    76          2
    77          2
    79          2
    80          2
    81          2
    82          2
    84          3
    85          8
    86        557
    87         34
    88          1
    89         44
    90         24
    91        999
    92         78
    93          3
   100         38
   101        109
   102          8
   108          7
   110          6
   148         25
   149          3
   162          1
   163          6
   169          1
   170         54
   171          5
   172         53
   173          4