##TITLE=Library Entry 44662
##JCAMP-DX=Revision 4.10 
##DATA TYPE=MASS SPECTRUM
##SAMPLE DESCRIPTION=V.A.KOPTYUG, ATLAS OF MASS SPECTRA OF ORGANIC COMPOUNDS
##NAMES=HP
##CAS NAME=1-Hydroxy-4-dibromomethyl-2,2,5,5-tetramethyl-3-imidazoline-3-oxi
de
##MOLFORM=C8H14Br2N2O2
##CAS REGISTRY NO=51973-30-9
##MP= -300
##BP= -300
##MW= 328
##$RETENTION INDEX=0
##$CONDENSED SPECTRUM=NO
##NPOINTS= 177
##XYDATA=(XY..XY) 1 
    37          9
    39        161
    53         64
    54         36
    55         57
    56        243
    57         26
    58        132
    59         59
    60          3
    61          1
    62          2
    63          5
    64          3
    65        147
    66         68
    67        565
    68        125
    69         45
    70         16
    71          4
    72         12
    73         99
    74        999
    75         39
    76          3
    77          9
    78          5
    79        148
    80        396
    81        152
    82        506
    83         28
    84         18
    85          5
    86          1
    87          2
    91          6
    92          3
    93          7
    94         11
    95         16
    96         11
    97         23
    98         17
    99         11
   100          2
   101          1
   102          1
   103         80
   104          4
   105          2
   106          9
   107         11
   108         52
   109         20
   110         12
   111          5
   112          7
   113          2
   114          1
   115          1
   117          2
   118          3
   119         12
   120          8
   121         13
   122         36
   123         23
   124         22
   126          5
   127          2
   128          2
   129          2
   131          4
   132          2
   133          5
   134          1
   135          7
   136          4
   137          3
   138         12
   139         17
   140         25
   141          9
   145         32
   146         20
   147         49
   148         21
   149         22
   150          2
   151          1
   152          2
   153          3
   154          2
   155          9
   156          9
   157          2
   158          3
   159          1
   160         18
   161          4
   162         14
   163          7
   164          1
   165          3
   168          1
   169         10
   170         11
   171         22
   172          3
   173         19
   175          9
   176         13
   177         30
   178         16
   179         28
   180          3
   184          1
   185          1
   186          2
   187          1
   188          3
   189          2
   190          1
   198          2
   199          4
   201          6
   202          9
   203         15
   204         12
   205          9
   206          2
   216          1
   217         10
   218         10
   219         22
   220         10
   221         11
   222          1
   223          1
   225          7
   226          1
   227         14
   228          1
   229          7
   233          2
   234          9
   235          3
   236          9
   237          2
   249         23
   250          8
   251         24
   252          6
   255         35
   256          3
   257         66
   258          4
   259         32
   260          2
   281          1
   283          2
   285          1
   297          1
   299          2
   313          1
   314          1
   315          2
   316          1
   317          1
   327          1
   328          2
   329          2
   330          5
   331          2
   332          2