##TITLE=Library Entry 98644
##JCAMP-DX=Revision 4.10 
##DATA TYPE=MASS SPECTRUM
##SAMPLE DESCRIPTION=Japan AIST/NIMC Database- Spectrum MS-IW-1896
##NAMES=HP
##CAS NAME=2-Oxo-3-(p-tolyl)-1,3-oxazolidine
##MOLFORM=C10H11NO2
##CAS REGISTRY NO=5198-46-9
##MP= -300
##BP= -300
##MW= 177
##$RETENTION INDEX=0
##$CONDENSED SPECTRUM=NO
##NPOINTS= 89
##XYDATA=(XY..XY) 1 
    14          1
    15          5
    26          8
    27         30
    28         24
    29          9
    30          3
    31          4
    37          5
    38         13
    39         77
    40          8
    41         22
    42         10
    43          4
    44          4
    45         21
    46          3
    49          2
    50         30
    51         70
    52         37
    53         12
    54          5
    55          1
    56          2
    58         43
    59         32
    61          4
    62         12
    63         48
    64         20
    65        162
    66         26
    67          3
    73          1
    74          6
    75          9
    76         15
    77         65
    78         55
    79         23
    80          6
    85          1
    86          2
    87          3
    88          2
    89         42
    90         29
    91        584
    92         50
    93          8
    94          1
   100          1
   102          4
   103         10
   104         57
   105         46
   106         19
   107          7
   108          3
   115          6
   116         16
   117        114
   118        999
   119        107
   120         60
   121          5
   130         19
   131          9
   132        212
   133         40
   134          6
   144          1
   146         24
   147         54
   148         20
   151          2
   160         36
   161          4
   162        227
   163         24
   164          2
   175          1
   176          8
   177        985
   178        114
   179         13
   180          1