##TITLE=Library Entry 55991
##JCAMP-DX=Revision 4.10 
##DATA TYPE=MASS SPECTRUM
##SAMPLE DESCRIPTION=B.GIOIA FARMITALIA, VIALE E. BEZZI, MILAN, ITALY
##NAMES=HP
##CAS NAME=.alpha.-L-Lyxo-Hexopyranose, 2,3,6-trideoxy-3-[(trifluoroacetyl)a
mino]-
##MOLFORM=C8H12F3NO4
##CAS REGISTRY NO=51996-45-3
##MP= -300
##BP= -300
##MW= 243
##$RETENTION INDEX=0
##$CONDENSED SPECTRUM=NO
##NPOINTS= 75
##XYDATA=(XY..XY) 1 
    39         60
    40         30
    41        100
    42         60
    43        240
    44        120
    45        280
    46         10
    47         30
    50         10
    51         30
    53         10
    54         20
    55         80
    56         40
    57        640
    58        230
    59         40
    60         20
    66         20
    67         30
    68         50
    69        210
    70         60
    71         30
    72         30
    73         20
    74         10
    75         10
    78         20
    81         10
    82         20
    83         30
    84         50
    85        190
    86        999
    87         50
    88         10
    92         10
    93         10
    94         20
    95         20
    96         20
    97         30
    98         10
   100         10
   101         10
   110         10
   111         10
   112         20
   113         60
   114        160
   126         40
   128          6
   130         20
   138         40
   139         10
   140        330
   141         40
   152         50
   153         50
   154         20
   155        400
   156         80
   158         20
   168         50
   169        180
   170         20
   180         80
   181         20
   182         10
   192         10
   198         60
   199         30
   225          5