##TITLE=Library Entry 79467
##JCAMP-DX=Revision 4.10 
##DATA TYPE=MASS SPECTRUM
##SAMPLE DESCRIPTION=B.GIOIA FARMITALIA, VIALE E. BEZZI, MILAN, ITALY
##NAMES=HP
##CAS NAME=.alpha.-L-Lyxo-Hexopyranoside, methyl 3-(benzoylamino)-2,3,6-trid
eoxy-
##MOLFORM=C14H19NO4
##CAS REGISTRY NO=51996-42-0
##MP= -300
##BP= -300
##MW= 265
##$RETENTION INDEX=0
##$CONDENSED SPECTRUM=NO
##NPOINTS= 53
##XYDATA=(XY..XY) 1 
    27         10
    28        140
    29         20
    31         20
    32         30
    39         20
    41         20
    43         20
    45         10
    50         10
    51         40
    57         20
    58         70
    59         20
    68         10
    69         20
    71         20
    76         20
    77        240
    78         20
    79         20
    84         10
    95         20
   100         40
   103         20
   104         10
   105        999
   106         70
   112         10
   113         60
   121         10
   122        170
   123         20
   128         20
   142         60
   146         10
   148         30
   161         10
   163        190
   164         30
   176         30
   188         10
   190         30
   191         70
   192         10
   200          7
   215         30
   219         20
   220         10
   221         10
   233         90
   234         50
   247         30