##TITLE=Library Entry 94579
##JCAMP-DX=Revision 4.10 
##DATA TYPE=MASS SPECTRUM
##SAMPLE DESCRIPTION=NIST Mass Spectrometry Data Center, 1998.
##NAMES=HP
##CAS NAME=Thiotepa
##MOLFORM=C6H12N3PS
##CAS REGISTRY NO=52-24-4
##MP= -300
##BP= -300
##MW= 189
##$RETENTION INDEX=1522
##$CONDENSED SPECTRUM=NO
##NPOINTS= 113
##XYDATA=(XY..XY) 1 
    14          4
    15         49
    25          1
    26         12
    27         24
    28         41
    29          7
    30          7
    31          2
    32          4
    33          4
    34          1
    35          1
    38          3
    39          7
    40         46
    41        115
    42        789
    43         35
    44         99
    45         38
    46        165
    47         27
    48          4
    52          1
    54          6
    55          4
    56        187
    57         17
    58         10
    59         53
    60        130
    61         39
    62          1
    63        451
    64         12
    65         29
    66          1
    67          1
    68          8
    69         23
    70         22
    71          6
    72        152
    73         98
    74         95
    75         10
    76          4
    77         46
    78         19
    79          9
    80          3
    81          1
    82          1
    83          7
    84          3
    85          7
    86         15
    87         29
    88         19
    89          3
    90         17
    91         11
    92         12
    93          3
    94          4
    98          1
    99          1
   100          2
   101         85
   102         10
   103         10
   104        283
   105         50
   106        181
   107          9
   108          8
   113          8
   115        999
   116         55
   117          3
   118          9
   119         47
   120         17
   121          5
   122          1
   129          1
   130          4
   131          1
   132          1
   133          8
   134          2
   135          1
   143          7
   144          1
   145          1
   146         19
   147        973
   148         71
   149         48
   150          3
   156          2
   157          1
   161          8
   162         18
   163          2
   164          1
   174          1
   188         15
   189        850
   190         77
   191         42
   192          3