##TITLE=Library Entry 53888
##JCAMP-DX=Revision 4.10 
##DATA TYPE=MASS SPECTRUM
##SAMPLE DESCRIPTION=Japan AIST/NIMC Database- Spectrum MS-NW-9342
##NAMES=HP
##CAS NAME=Cyclopentanecarboxylic acid, 1-amino-
##MOLFORM=C6H11NO2
##CAS REGISTRY NO=52-52-8
##MP= -300
##BP= -300
##MW= 129
##$RETENTION INDEX=0
##$CONDENSED SPECTRUM=NO
##NPOINTS= 61
##XYDATA=(XY..XY) 1 
    14          1
    15         18
    16          1
    17          3
    18         11
    26          8
    27         41
    28        122
    29         34
    30         95
    31          2
    32          2
    36          1
    37          2
    38          6
    39         55
    40         14
    41        133
    42        124
    43         23
    44         15
    45          9
    46          1
    50          3
    51          5
    52          7
    53         11
    54        119
    55         94
    56         60
    57         30
    58          1
    59          2
    62          1
    63          1
    65         16
    66          5
    67        191
    68         16
    69          9
    70          4
    72          1
    73          1
    74          2
    80          6
    81          2
    82         34
    83         26
    84        999
    85         60
    86          1
    87         32
    88          3
    94          1
    96          1
    97          1
   100         85
   101          5
   111          2
   112          1
   130          2