##TITLE=Library Entry 1558
##JCAMP-DX=Revision 4.10 
##DATA TYPE=MASS SPECTRUM
##SAMPLE DESCRIPTION=NIST Mass Spectrometry Data Center, 1998.
##NAMES=HP
##CAS NAME=Bronopol
##MOLFORM=C3H6BrNO4
##CAS REGISTRY NO=52-51-7
##MP= -300
##BP= -300
##MW= 199
##$RETENTION INDEX=0
##$CONDENSED SPECTRUM=NO
##NPOINTS= 109
##XYDATA=(XY..XY) 1 
    12          2
    13          3
    14         19
    15         71
    16          8
    17          4
    18          9
    24          2
    25         12
    26        111
    27        477
    28        141
    29        563
    30        312
    31        999
    32         16
    33          3
    36          2
    37         14
    38         34
    39         61
    40         30
    41         42
    42        263
    43        625
    44        344
    45        133
    46         71
    47         42
    48         21
    49          2
    51          2
    52          3
    53         41
    54        127
    55        254
    56         97
    57         87
    58          7
    59          5
    60          5
    61          2
    62          2
    64          1
    68          1
    69          6
    70          5
    71         33
    72        175
    73         46
    74         18
    75          1
    79         43
    80         26
    81         48
    82         26
    83          6
    85          8
    86          1
    87          1
    90         79
    91         11
    92         14
    93         77
    94         20
    95         69
    96          7
    97          1
   102         46
   103          3
   104         12
   105        329
   106         57
   107        721
   108         56
   109        418
   110         10
   111         16
   112          1
   119          1
   120          8
   121         27
   122        156
   123        494
   124        153
   125        453
   126         11
   127          1
   133         14
   134         70
   135        683
   136         91
   137        648
   138         22
   139          6
   140          5
   141          4
   142          4
   149          2
   151         91
   152         57
   153         88
   154         54
   155          2
   169        281
   170          9
   171        273
   172          8
   173          2