##TITLE=Library Entry 85829
##JCAMP-DX=Revision 4.10 
##DATA TYPE=MASS SPECTRUM
##SAMPLE DESCRIPTION=Japan AIST/NIMC Database- Spectrum MS-NW-7741
##NAMES=HP
##CAS NAME=Metrifonate
##MOLFORM=C4H8Cl3O4P
##CAS REGISTRY NO=52-68-6
##MP= -300
##BP= -300
##MW= 256
##$RETENTION INDEX=1446
##$CONDENSED SPECTRUM=NO
##NPOINTS= 131
##XYDATA=(XY..XY) 1 
    12          2
    13          4
    14          8
    15        296
    16          3
    18          3
    25          3
    26          1
    27          4
    28         19
    29        121
    30         11
    31        101
    32          4
    33         49
    35         14
    36         30
    37          3
    38          9
    39          2
    40          1
    41          7
    42          9
    43          2
    44          1
    45         11
    47        310
    48        119
    49         68
    50         30
    51          9
    55          2
    57          1
    59          2
    60         19
    61          6
    62         13
    63         43
    64          4
    65         37
    66          3
    67          2
    71          1
    73          1
    75          1
    76         69
    77         29
    78         30
    79        932
    80        251
    81         13
    82         97
    83         82
    84         61
    85         52
    86         10
    87          8
    89          2
    92          1
    93        142
    94          4
    95        192
    96          9
    97         28
    98          1
    99         12
   101          2
   103          1
   107          1
   108          1
   109        999
   110        595
   111         77
   112        267
   113        111
   114        179
   115         35
   116         30
   117         24
   118          9
   119         22
   120          9
   121          7
   122          3
   123          3
   124          1
   125          1
   126          1
   127         25
   128          5
   130         25
   131          4
   132         23
   133          2
   134          8
   136          1
   137          1
   139        458
   140         16
   141          4
   145        487
   146         13
   147        157
   148          7
   149          4
   150          2
   151          3
   153          2
   155          1
   158          1
   169          2
   185        106
   186          6
   187         32
   188          2
   189          1
   191          1
   192          7
   193          1
   194          5
   196          1
   220          7
   221        104
   222          9
   223         68
   224          3
   225         10
   227          1
   257          4
   259          5
   261          1