##TITLE=Library Entry 44706
##JCAMP-DX=Revision 4.10 
##DATA TYPE=MASS SPECTRUM
##SAMPLE DESCRIPTION=Japan AIST/NIMC Database- Spectrum MS-NW-1942
##NAMES=HP
##CAS NAME=L-Cysteine
##MOLFORM=C3H7NO2S
##CAS REGISTRY NO=52-90-4
##MP= -300
##BP= -300
##MW= 121
##$RETENTION INDEX=0
##$CONDENSED SPECTRUM=NO
##NPOINTS= 74
##XYDATA=(XY..XY) 1 
    12          3
    13          2
    14          9
    15         74
    16         11
    17          9
    18         42
    19          4
    25          4
    26         19
    27         48
    28        497
    29         85
    30        117
    31          3
    32         32
    33         36
    34         72
    35          3
    36          4
    37          2
    38          9
    39         12
    40         39
    41         95
    42        301
    43        283
    44        111
    45        140
    46        140
    47        136
    48         40
    49          9
    50          2
    52          1
    53          5
    54          5
    55         16
    56         20
    57        117
    58         62
    59        414
    60         19
    61         19
    64          5
    66          1
    67          1
    68          5
    69          7
    70          7
    71          3
    72         14
    73          7
    74        999
    75        574
    76        981
    77         34
    78         43
    79          1
    83          1
    85          3
    86         38
    87         22
    88          3
    99          1
   100          2
   101          1
   102          2
   103          3
   104         12
   105          1
   121         27
   122          6
   123          1