##TITLE=Library Entry 12935
##JCAMP-DX=Revision 4.10 
##DATA TYPE=MASS SPECTRUM
##SAMPLE DESCRIPTION=Japan AIST/NIMC Database- Spectrum MS-NW-4803
##NAMES=HP
##CAS NAME=Dehydroacetic Acid
##MOLFORM=C8H8O4
##CAS REGISTRY NO=520-45-6
##MP= -300
##BP= -300
##MW= 168
##$RETENTION INDEX=1458
##$CONDENSED SPECTRUM=NO
##NPOINTS= 96
##XYDATA=(XY..XY) 1 
    12          1
    13          2
    14          9
    15         70
    17          1
    18          4
    25          4
    26         15
    27         44
    28         38
    29         27
    30          2
    31          8
    32          1
    34          1
    36          2
    37         15
    38         24
    39         66
    40         14
    41         25
    42         44
    43        999
    44         25
    45          5
    48          1
    49          4
    50         10
    51         13
    52          6
    53         36
    54         13
    55         55
    56          7
    57          1
    58          3
    59          3
    60          1
    61          4
    62          3
    63          3
    64          1
    65          4
    66         11
    67         27
    68          9
    69        174
    70         14
    71          8
    72          2
    74          1
    75          1
    77          2
    79          2
    80          5
    81          2
    82          3
    83          3
    84        102
    85        488
    86         20
    87          3
    93          4
    94          4
    95          1
    96          1
    97         17
    98        121
    99          9
   100          1
   108          2
   109          1
   110          2
   111         95
   112          7
   113          2
   121          1
   122          5
   123          3
   124          1
   125        197
   126         28
   127          7
   139          3
   140         35
   141          4
   150          2
   151          1
   152          1
   153        410
   154         31
   155          4
   167          1
   168        593
   169         55
   170          8