##TITLE=Library Entry 29269
##JCAMP-DX=Revision 4.10 
##DATA TYPE=MASS SPECTRUM
##SAMPLE DESCRIPTION=Patti Price, Georgia Bureau of Investigation, Decatur,
 Georgia
##NAMES=HP
##CAS NAME=Psilocin
##MOLFORM=C12H16N2O
##CAS REGISTRY NO=520-53-6
##MP= -300
##BP= -300
##MW= 204
##$RETENTION INDEX=1968
##$CONDENSED SPECTRUM=NO
##NPOINTS= 37
##XYDATA=(XY..XY) 1 
    41         10
    42         67
    43         11
    44         30
    48          9
    50         16
    51         31
    56          3
    57          4
    58        999
    59         40
    63         23
    64         13
    65         24
    70         13
    77         51
    78         18
    79         14
    81          5
    82          3
    84          9
    89         32
    90         15
    91         16
   103         19
   104         17
   115         24
   116         14
   117         36
   118         20
   130         29
   131         23
   146         36
   159         31
   160         16
   204        154
   205         21