##TITLE=Library Entry 29273
##JCAMP-DX=Revision 4.10 
##DATA TYPE=MASS SPECTRUM
##SAMPLE DESCRIPTION=AAFS Toxicology Section MS DB Committee, U. Alberta, Ca
nada
##NAMES=HP
##CAS NAME=Psilocybine
##MOLFORM=C12H17N2O4P
##CAS REGISTRY NO=520-52-5
##MP= -300
##BP= -300
##MW= 284
##$RETENTION INDEX=0
##$CONDENSED SPECTRUM=NO
##NPOINTS= 106
##XYDATA=(XY..XY) 1 
    40          8
    41         17
    42         43
    43         42
    45          9
    50          7
    51         15
    53          6
    55         19
    57         25
    58        999
    59         47
    60          6
    61         13
    63         37
    64         17
    65         35
    67         15
    69         15
    70         12
    71         12
    73         19
    74         21
    75         29
    77         66
    78         35
    80          6
    81         18
    82         11
    83         23
    84         12
    85         11
    86         15
    87         21
    89         80
    90         67
    91         53
    92         20
    93          8
    94         12
    95         19
    96          9
    97         15
    98         15
    99          9
   100         12
   101         17
   102         45
   103         44
   104         22
   106          6
   107         11
   109         12
   110          6
   111          8
   113         16
   114         19
   115         66
   116         39
   117         88
   118         58
   119         19
   121         11
   122          6
   123         12
   126          6
   128         28
   129         22
   130        104
   131         57
   132         18
   133          9
   135         10
   137          7
   140         17
   141          7
   142          9
   143         17
   145         98
   146        192
   147         43
   148          7
   149          9
   151          9
   155         10
   157         12
   158         35
   159        177
   160         87
   161          7
   162          6
   165          6
   166          6
   169          6
   170          6
   179          7
   185          9
   188          6
   193          7
   195          6
   199         14
   200         11
   202         45
   204        700
   205        111
   206          8