##TITLE=Library Entry 14633
##JCAMP-DX=Revision 4.10 
##DATA TYPE=MASS SPECTRUM
##SAMPLE DESCRIPTION=Patti Price, Georgia Bureau of Investigation, Decatur,
 Georgia
##NAMES=HP
##CAS NAME=Medroxyprogesterone
##MOLFORM=C22H32O3
##CAS REGISTRY NO=520-85-4
##MP= -300
##BP= -300
##MW= 344
##$RETENTION INDEX=0
##$CONDENSED SPECTRUM=NO
##NPOINTS= 196
##XYDATA=(XY..XY) 1 
    41        397
    43        999
    45         55
    51         36
    52         32
    53        214
    54         17
    55        339
    57         81
    58         83
    59          2
    65         93
    66         30
    67        248
    68         41
    69         56
    71        203
    77        222
    78         52
    79        317
    80         54
    81        152
    83         34
    85         30
    87         26
    91        464
    92         60
    93        269
    94         49
    95        158
    96         33
    97         91
   103         56
   104         26
   105        294
   106         57
   107        223
   108         79
   109        214
   110         60
   111         48
   115         99
   116         47
   117        136
   118         36
   119        254
   120         73
   121        264
   122         63
   123        164
   124         29
   128        107
   129        126
   130         46
   131        188
   132         51
   133        170
   134         58
   135        224
   136        267
   137        619
   138        722
   139         85
   141         51
   142         53
   143        100
   144         44
   145        234
   146         61
   147        197
   148         86
   149         90
   150         58
   151         98
   152         32
   153         27
   155         47
   156         30
   157        105
   158         47
   159        159
   160         65
   161        254
   162        111
   163        194
   164         34
   165         38
   169         45
   170         22
   171        102
   172         41
   173        199
   174         73
   175        122
   176         57
   177         50
   178         11
   179         84
   181         21
   183         51
   184         21
   185         93
   186         48
   187        128
   188        117
   189         84
   190         51
   191          3
   195         25
   197         42
   198         35
   199        114
   200         59
   201        105
   202         26
   203         37
   204         26
   205         12
   207          1
   209         25
   211         38
   212         24
   213         80
   214         57
   215         54
   216         94
   217         35
   223         38
   225        102
   226         33
   227        118
   228         37
   229         46
   230         21
   231         62
   232         13
   237         19
   238         16
   239         46
   240         59
   241        221
   242         82
   243        491
   244         92
   245         62
   246         27
   251         12
   253         21
   254         26
   255         77
   256        183
   257        112
   258        200
   259        228
   260         46
   265         39
   266         18
   267         20
   268         13
   269         33
   270         15
   271         19
   273         13
   274         25
   281         94
   282         27
   283        171
   284         93
   285         19
   286         23
   287         19
   293         13
   296         36
   297         17
   298         83
   299         46
   301        232
   302         58
   309         19
   311         55
   312         14
   314         24
   316        850
   317        223
   318         30
   324         44
   325         12
   326         63
   327         26
   329         49
   330         13
   342        111
   343         27
   344        446
   345        117
   346         18