##TITLE=Library Entry 49633
##JCAMP-DX=Revision 4.10 
##DATA TYPE=MASS SPECTRUM
##SAMPLE DESCRIPTION=Exported from NIST MS Search
##NAMES=HP
##CAS NAME=1H-Pyrrolizine-7-methanol, 2,3,5,7a-tetrahydro-1-hydroxy-, (1S-ci
s)-
##MOLFORM=C8H13NO2
##CAS REGISTRY NO=520-63-8
##MP= -300
##BP= -300
##MW= 155
##$RETENTION INDEX=1495
##$CONDENSED SPECTRUM=NO
##NPOINTS= 63
##XYDATA=(XY..XY) 1 
    38         20
    39        100
    40         60
    41        130
    42         60
    43         60
    45         80
    50         20
    52         40
    53         40
    54        110
    55         40
    56         60
    57         20
    58         30
    59         10
    63         20
    64         10
    65         20
    66         20
    67         50
    68        130
    69         20
    70         10
    77         20
    78         30
    79         30
    80        999
    81        130
    82         70
    83         20
    84         10
    91         10
    92         20
    93         80
    94        140
    95         20
    96         20
   104         30
   105         20
   106         40
   107         20
   108         30
   109         30
   110         50
   111        580
   112         40
   117         20
   118         20
   119         20
   120         20
   121         10
   122         10
   125         20
   134         10
   135         10
   136         20
   137         10
   138         20
   153         20
   154         10
   155        180
   156         10