##TITLE=Library Entry 48786
##JCAMP-DX=Revision 4.10 
##DATA TYPE=MASS SPECTRUM
##SAMPLE DESCRIPTION=James Little,Eastman Chem.Co.,Kingsport,TN
##NAMES=HP
##CAS NAME=4-Hydroxymethylbenzaldehyde
##MOLFORM=C8H8O2
##CAS REGISTRY NO=52010-97-6
##MP= -300
##BP= -300
##MW= 136
##$RETENTION INDEX=0
##$CONDENSED SPECTRUM=NO
##NPOINTS= 37
##XYDATA=(XY..XY) 1 
    27         96
    29        229
    31         72
    37         34
    38         59
    39        166
    41         18
    50        256
    51        410
    52         88
    53         95
    62         71
    63        139
    64         29
    65         45
    74         98
    76         78
    77        740
    78        131
    79        999
    80         75
    89        234
    90        110
    91        105
    92         10
   104         23
   105         80
   106         27
   107        644
   108         99
   118         32
   119         14
   134         10
   135        176
   136        358
   137         40
   138          5