##TITLE=Library Entry 16751
##JCAMP-DX=Revision 4.10 
##DATA TYPE=MASS SPECTRUM
##SAMPLE DESCRIPTION=Chuck Anderson, Aldrich Chemical Co.
##NAMES=HP
##CAS NAME=2-Hexanol, (S)-
##MOLFORM=C6H14O
##CAS REGISTRY NO=52019-78-0
##MP= -300
##BP= -300
##MW= 102
##$RETENTION INDEX=0
##$CONDENSED SPECTRUM=NO
##NPOINTS= 48
##XYDATA=(XY..XY) 1 
    14          1
    15         14
    16          0
    18          0
    19         13
    26          6
    27         72
    28         20
    29         74
    30          2
    31         23
    32          0
    36          0
    37          0
    38          3
    39         42
    40          6
    41        139
    42         30
    43        123
    44         70
    45        999
    46         16
    47          2
    49          0
    50          1
    51          2
    52          0
    53          3
    54          1
    55         21
    56         17
    57         14
    58          3
    59          2
    63          0
    65          0
    67          2
    68          3
    69         89
    70          4
    71          1
    83          2
    84         15
    85          2
    87         18
    88          0
   101          1