##TITLE=Library Entry 73637
##JCAMP-DX=Revision 4.10 
##DATA TYPE=MASS SPECTRUM
##SAMPLE DESCRIPTION=Exported from NIST MS Search
##NAMES=HP
##CAS NAME=Tricyclo[3.3.1.1(3,7)]decane-2-carboxylic acid, 4,8-dioxo-, methy
l ester
##MOLFORM=C12H14O4
##CAS REGISTRY NO=5202-38-0
##MP= -300
##BP= -300
##MW= 222
##$RETENTION INDEX=0
##$CONDENSED SPECTRUM=NO
##NPOINTS= 104
##XYDATA=(XY..XY) 1 
    40         71
    41        306
    42         30
    43         27
    44          9
    45          7
    50         29
    51         59
    52        134
    53         46
    54        298
    55         18
    56         39
    59        132
    63         21
    64          9
    65        108
    66         94
    67        126
    68        160
    69         66
    70         11
    71         11
    77        184
    78        106
    79        499
    80         78
    81         92
    82         62
    83         33
    87         20
    91        234
    92         87
    93         56
    94        114
    95        369
    96        142
    97         28
    98         29
    99         16
   100        999
   101         78
   102         11
   103         33
   104          9
   105        112
   106         91
   107        369
   108        138
   109        108
   110         21
   111         11
   112          9
   113         35
   114         11
   115         35
   116         65
   117        132
   118         18
   119         53
   120         45
   121        112
   122         16
   123         67
   124         13
   125         10
   126          8
   127         21
   128         14
   131         27
   133         82
   134        343
   135        331
   136         61
   137         29
   144         53
   145         76
   146         49
   147         16
   148         20
   149         14
   151         11
   152         59
   153         85
   154         16
   155         28
   161         21
   162        269
   163        267
   164         42
   165         27
   166         24
   167         14
   176         45
   189         21
   190        291
   191         69
   194        134
   195         26
   204         23
   221         18
   222        966
   223        147
   224         27