##TITLE=Library Entry 69160
##JCAMP-DX=Revision 4.10 
##DATA TYPE=MASS SPECTRUM
##SAMPLE DESCRIPTION=V.A.KOPTYUG, ATLAS OF MASS SPECTRA OF ORGANIC COMPOUNDS
##NAMES=HP
##CAS NAME=1-Silacyclo-2,4-hexadiene
##MOLFORM=C5H8Si
##CAS REGISTRY NO=52023-17-3
##MP= -300
##BP= -300
##MW= 96
##$RETENTION INDEX=0
##$CONDENSED SPECTRUM=NO
##NPOINTS= 39
##XYDATA=(XY..XY) 1 
    27         90
    28        140
    29        180
    30         30
    31        210
    39        220
    40         80
    41        190
    42        250
    43        709
    44        180
    45        110
    51         30
    52         20
    53        330
    54        100
    55        639
    56        130
    57        170
    58         20
    59         70
    65        110
    66        350
    67        669
    68        619
    69        330
    70        689
    71        160
    72         50
    79         40
    80         60
    81        300
    82         40
    93        330
    94        140
    95        679
    96        999
    97        120
    98         50