##TITLE=Library Entry 12627
##JCAMP-DX=Revision 4.10 
##DATA TYPE=MASS SPECTRUM
##SAMPLE DESCRIPTION=A.A.Kutin, Moscow, Russia
##NAMES=HP
##CAS NAME=2-(Acetylamino)-5-chlorobenzoic acid
##MOLFORM=C9H8ClNO3
##CAS REGISTRY NO=5202-87-9
##MP= -300
##BP= -300
##MW= 213
##$RETENTION INDEX=0
##$CONDENSED SPECTRUM=NO
##NPOINTS= 119
##XYDATA=(XY..XY) 1 
    33          6
    34          6
    35          4
    36         18
    37         28
    38         54
    39         62
    40        122
    41         29
    43        999
    44         71
    45         35
    46          0
    47          4
    49         16
    50         35
    51         55
    52         57
    53         27
    54          5
    55         10
    56          3
    57          9
    60          3
    61         32
    62         91
    63        194
    64         52
    65         30
    66          8
    67          3
    68          0
    69          4
    70          5
    71          6
    72         11
    73         66
    74         33
    75         56
    76         16
    77         16
    78         15
    79          7
    80         12
    81          2
    83          0
    84          5
    85          3
    86          4
    87         12
    88         21
    89         28
    90        115
    91         36
    92          7
    93          2
    95          4
    96          0
    97         17
    98         48
    99         92
   100         23
   101         26
   102          6
   103          2
   104          3
   105          2
   106          1
   107          0
   108          8
   109          2
   110          7
   111         11
   112          6
   113          4
   114          5
   115          5
   116          1
   117          4
   118          3
   119          2
   123         11
   124         65
   125        154
   126        151
   127         73
   128         44
   129          7
   131          2
   132          3
   133          0
   136          3
   138          2
   139          0
   140          2
   149          2
   151          7
   153        975
   155        366
   156         25
   160          3
   166          8
   167          2
   168          4
   169          0
   171        702
   172         53
   173        222
   174         15
   180         19
   181          1
   182          5
   194          0
   195          3
   196          0
   213        214
   214         22
   215         66
   216          5