##TITLE=Library Entry 84921
##JCAMP-DX=Revision 4.10 
##DATA TYPE=MASS SPECTRUM
##SAMPLE DESCRIPTION=NIST Mass Spectrometry Data Center
##NAMES=HP
##CAS NAME=(1S,4aR,7R)-1,4a-Dimethyl-7-(prop-1-en-2-yl)-1,2,3,4,4a,5,6,7-oct
ahydronaphthalene
##MOLFORM=C15H24
##CAS REGISTRY NO=52026-55-8
##MP= -300
##BP= -300
##MW= 204
##$RETENTION INDEX=1447
##$CONDENSED SPECTRUM=NO
##NPOINTS= 81
##XYDATA=(XY..XY) 1 
    27         31
    29         71
    39        148
    40         36
    41        340
    42         26
    43         75
    51         62
    52         32
    53        159
    54         17
    55        323
    56         18
    57         26
    63         27
    64         12
    65        124
    66         29
    67        204
    68         29
    69         85
    77        389
    78        117
    79        486
    80         57
    81        489
    82         61
    83         42
    89         15
    91        835
    92        115
    93        722
    94        156
    95        296
    96         74
    97        437
    98         38
   102         11
   103         81
   104         47
   105        662
   106        120
   107        711
   108        999
   109        622
   110         99
   115        108
   116         57
   117        142
   118         32
   119        350
   120        147
   121        458
   122        249
   123        131
   127         25
   128         66
   129         60
   130         16
   131         74
   132         19
   133        433
   134        191
   135         80
   136         45
   143         13
   145         63
   146         25
   147        435
   148        179
   149         46
   159         22
   161        363
   162         87
   163         36
   175        143
   176        100
   189        300
   190         41
   204        278
   205         39