##TITLE=Library Entry 98757
##JCAMP-DX=Revision 4.10 
##DATA TYPE=MASS SPECTRUM
##SAMPLE DESCRIPTION=NIST Mass Spectrometry Data Center, 1994
##NAMES=HP
##CAS NAME=p-Butoxybenzonitrile
##MOLFORM=C11H13NO
##CAS REGISTRY NO=5203-14-5
##MP= -300
##BP= -300
##MW= 175
##$RETENTION INDEX=0
##$CONDENSED SPECTRUM=NO
##NPOINTS= 73
##XYDATA=(XY..XY) 1 
    13          1
    14          3
    15         30
    18          1
    26         41
    27        270
    28         83
    29        556
    30         13
    32          0
    37         42
    38         45
    39        228
    40          0
    41        496
    42         24
    43          7
    44          0
    49          4
    50         46
    51         64
    52         23
    53         23
    54          6
    55         45
    56        191
    57        231
    58          9
    61          7
    62         28
    63         97
    64        124
    65         26
    66          3
    67          1
    68          2
    73          1
    74          9
    75         69
    76         48
    77         13
    78          2
    79          2
    80          2
    86          1
    87          3
    88          6
    89          1
    90        101
    91         88
    92         17
    93          3
    99          3
   100          2
   102        110
   103         13
   104         17
   105          2
   116          7
   117          6
   119        999
   120        348
   121         26
   122          1
   128          1
   132         23
   133          2
   144          0
   145          1
   146          2
   175        165
   176         21
   177          1