##TITLE=Library Entry 66625
##JCAMP-DX=Revision 4.10 
##DATA TYPE=MASS SPECTRUM
##SAMPLE DESCRIPTION=Chemical Concepts
##NAMES=HP
##CAS NAME=2,4,6-Octatrienoic acid
##MOLFORM=C8H10O2
##CAS REGISTRY NO=5205-32-3
##MP= -300
##BP= -300
##MW= 138
##$RETENTION INDEX=0
##$CONDENSED SPECTRUM=NO
##NPOINTS= 76
##XYDATA=(XY..XY) 1 
    26         14
    27         85
    29         47
    37          8
    38         34
    39        217
    40         39
    41        136
    42         25
    43         63
    44        124
    45         51
    46          8
    49         11
    50         47
    51         97
    52         47
    53         93
    54         24
    55         76
    56         17
    57         33
    59          9
    60         20
    61         12
    62         21
    63         62
    64         23
    65        141
    66         82
    67         76
    68         30
    69         70
    70         14
    71         16
    73         11
    74         11
    76         12
    77        515
    78        125
    79        244
    80         19
    81         56
    82         25
    83         22
    84         56
    85         12
    86         20
    89         22
    90         13
    91        551
    92        135
    93        999
    94        109
    95         90
    96         13
    97         69
    98          9
   103         13
   104          7
   105         50
   107          9
   109         25
   110         18
   111          9
   118          7
   119         27
   120         22
   121         52
   122          9
   123         76
   124          8
   137         30
   138        577
   139         57
   140          8