##TITLE=Library Entry 91299
##JCAMP-DX=Revision 4.10 
##DATA TYPE=MASS SPECTRUM
##SAMPLE DESCRIPTION=NIST Mass Spectrometry Data Center
##NAMES=HP
##CAS NAME=Ethyl glutaryl chloride
##MOLFORM=C7H11ClO3
##CAS REGISTRY NO=5205-39-0
##MP= -300
##BP= -300
##MW= 178
##$RETENTION INDEX=0
##$CONDENSED SPECTRUM=NO
##NPOINTS= 96
##XYDATA=(XY..XY) 1 
    13          1
    14          6
    15         31
    16          1
    19          3
    25          3
    26         59
    27        365
    29        698
    30         25
    31         36
    34          3
    35         29
    36         17
    37         14
    38         36
    39        260
    40         52
    41        527
    42        840
    43        314
    44         27
    45        241
    46          6
    47          2
    48          1
    49         78
    50          6
    51         13
    52          2
    53         10
    54          5
    55        730
    56         28
    57         16
    58         20
    59          8
    60         53
    61         23
    62          2
    63        100
    64          1
    65         32
    66          1
    67          1
    68         34
    69         56
    70        192
    71         25
    72          3
    73         42
    74          2
    75          4
    76         13
    77        134
    78         76
    79         45
    80         25
    81          1
    84          1
    85         79
    86         96
    87        474
    88         57
    89          7
    91          4
    93          1
    95          4
    96          6
    97        298
    98        160
    99         10
   100          1
   101          9
   104         23
   105        229
   106         22
   107         75
   108          4
   113          5
   114        572
   115        999
   116         57
   117          8
   124          1
   132         25
   133        692
   134         45
   135        227
   136         11
   137          1
   142         11
   143        285
   144         20
   145          2
   150          1