##TITLE=Library Entry 5785
##JCAMP-DX=Revision 4.10 
##DATA TYPE=MASS SPECTRUM
##SAMPLE DESCRIPTION=D.N. Harpp, Dep. Chem., McGill Univ., Montreal, Quebec,
 Canada
##NAMES=HP
##CAS NAME=Di-n-hexyl-diselenide
##MOLFORM=C12H26Se2
##CAS REGISTRY NO=52056-08-3
##MP= -300
##BP= -300
##MW= 330
##$RETENTION INDEX=0
##$CONDENSED SPECTRUM=NO
##NPOINTS= 15
##XYDATA=(XY..XY) 1 
    27        560
    28        150
    29        630
    39        350
    41        670
    42        440
    43        999
    55        370
    56        490
    57        530
    69        200
    84        200
    85        300
   164         40
   166        170