##TITLE=Library Entry 43122
##JCAMP-DX=Revision 4.10 
##DATA TYPE=MASS SPECTRUM
##SAMPLE DESCRIPTION=O A MAMER, MCGILL UNIVERSITY, MONTREAL, CANADA
##NAMES=HP
##CAS NAME=Dinoprost methyl, 3TMS derivative
##MOLFORM=C30H60O5Si3
##CAS REGISTRY NO=52058-16-9
##MP= -300
##BP= -300
##MW= 584
##$RETENTION INDEX=0
##$CONDENSED SPECTRUM=NO
##NPOINTS= 193
##XYDATA=(XY..XY) 1 
    15         26
    25         10
    26         10
    27          9
    29          7
    39          5
    41         26
    43         54
    45         31
    47         11
    55         32
    59         34
    61          7
    67         60
    69         12
    71         18
    72          7
    73        999
    74         83
    75        107
    76          4
    77         11
    79         38
    80         11
    81         72
    83          6
    89         19
    91         43
    92         10
    93         27
    95         11
    99         32
   101         22
   102          8
   103         79
   104         14
   105         38
   106         10
   107          7
   109         17
   113          5
   115         10
   118          5
   119         13
   120          5
   121          5
   122          8
   123          5
   127         12
   128         12
   129        107
   130         31
   131         36
   133         25
   139          9
   140          8
   141         21
   142         18
   143         25
   144         16
   147        137
   148         21
   149         21
   151         17
   153          8
   154          9
   155         28
   157         14
   158         10
   159         14
   160          9
   161         17
   163         12
   164         17
   166          8
   167         39
   168         22
   169         19
   170          8
   171          9
   172          8
   173        123
   174         23
   175          6
   177          9
   179         18
   180         23
   181         36
   182         10
   183         20
   184          8
   185         13
   186         11
   187         16
   188          9
   189         10
   191        293
   192         50
   193         24
   194         13
   195          9
   199         49
   200         13
   202          7
   203         14
   204         13
   205          7
   206          8
   207         17
   208         20
   210          8
   211          5
   212          9
   213         11
   215          9
   216         22
   217        117
   218         45
   219         31
   225         13
   227         12
   228          7
   229         36
   230          9
   231          8
   235         10
   237         37
   238         15
   239         18
   243         55
   244         16
   245          8
   249          9
   251          7
   254         11
   255         42
   256         32
   257         29
   258         11
   263         23
   264         11
   265          8
   269         11
   271          9
   272          8
   275         11
   277          9
   287         16
   288         12
   289         29
   293         11
   295         18
   296          9
   301          8
   304         15
   306          8
   307         60
   308         47
   309         16
   312         12
   314          8
   315         14
   321          8
   323          7
   325         11
   327         11
   333         62
   334         17
   335          9
   347          8
   352          7
   353         19
   354         11
   361         21
   362          8
   373          8
   378         16
   379         13
   383         11
   385          9
   397         28
   398         12
   399          8
   404         20
   416          7
   423         66
   424         28
   425         12
   445         75
   494         47
   495         22
   513         22
   514          9