##TITLE=Library Entry 35499
##JCAMP-DX=Revision 4.10 
##DATA TYPE=MASS SPECTRUM
##SAMPLE DESCRIPTION=Japan AIST/NIMC Database- Spectrum MS-NW-1581
##NAMES=HP
##CAS NAME=5-Decanol
##MOLFORM=C10H22O
##CAS REGISTRY NO=5205-34-5
##MP= -300
##BP= -300
##MW= 158
##$RETENTION INDEX=1175
##$CONDENSED SPECTRUM=NO
##NPOINTS= 72
##XYDATA=(XY..XY) 1 
    14          2
    15          7
    16          1
    17          1
    18          3
    26          5
    27        124
    28         22
    29        212
    30          8
    31         62
    32          2
    36          1
    38          2
    39         66
    40         10
    41        432
    42         57
    43        206
    44         96
    45        105
    46          2
    50          1
    51          4
    52          2
    53         16
    54         15
    55        646
    56        112
    57        126
    58         38
    59         24
    60          2
    65          3
    66          1
    67         20
    68         10
    69        999
    70         95
    71         22
    72          9
    73          7
    77          2
    79          2
    81          6
    82         26
    83        819
    84         75
    85         10
    86         54
    87        658
    88         34
    89          2
    95          1
    96          3
    97         21
    98          9
    99          4
   100         26
   101        369
   102         23
   103          1
   110          1
   111         10
   112          7
   113          1
   115          2
   129          3
   139          1
   140         56
   141          6
   157          5