##TITLE=Library Entry 78245
##JCAMP-DX=Revision 4.10 
##DATA TYPE=MASS SPECTRUM
##SAMPLE DESCRIPTION=Japan AIST/NIMC Database- Spectrum MS-IW-2172
##NAMES=HP
##CAS NAME=2-Buten-1-ol, 3-methyl-, benzoate
##MOLFORM=C12H14O2
##CAS REGISTRY NO=5205-11-8
##MP= -300
##BP= -300
##MW= 190
##$RETENTION INDEX=1459
##$CONDENSED SPECTRUM=NO
##NPOINTS= 69
##XYDATA=(XY..XY) 1 
    15          1
    26          2
    27         30
    28          6
    29         17
    37          1
    38          5
    39         45
    40         25
    41        201
    42         19
    43          6
    44          1
    49          1
    50         22
    51         79
    52          9
    53         73
    54          7
    55          8
    56          1
    57          3
    58          1
    62          1
    63          2
    65          5
    66          8
    67        197
    68        536
    69        307
    70         15
    73          1
    74          5
    75          5
    76         10
    77        255
    78         21
    79         10
    83          4
    84          3
    85         66
    86          3
    91          4
   104          2
   105        999
   106         80
   107          5
   117          1
   121          1
   122         10
   123         31
   124          2
   129          2
   130          1
   131         10
   132          1
   134          4
   135          2
   143          1
   145          9
   146          1
   147          4
   148          2
   157          3
   161          2
   172          2
   175          1
   190         37
   191          5