##TITLE=Library Entry 86200
##JCAMP-DX=Revision 4.10 
##DATA TYPE=MASS SPECTRUM
##SAMPLE DESCRIPTION=Exported from NIST MS Search
##NAMES=HP
##CAS NAME=Benzeneethanol, 3-fluoro-
##MOLFORM=C8H9FO
##CAS REGISTRY NO=52059-53-7
##MP= -300
##BP= -300
##MW= 140
##$RETENTION INDEX=0
##$CONDENSED SPECTRUM=NO
##NPOINTS= 11
##XYDATA=(XY..XY) 1 
    50         50
    51         60
    57        100
    63         90
    83        190
    96         70
   107         60
   109        999
   110        759
   122         50
   140        320