##TITLE=Library Entry 33745
##JCAMP-DX=Revision 4.10 
##DATA TYPE=MASS SPECTRUM
##SAMPLE DESCRIPTION=Chemical Concepts
##NAMES=HP
##CAS NAME=3-Buten-1-ol, 3-methyl-, benzoate
##MOLFORM=C12H14O2
##CAS REGISTRY NO=5205-12-9
##MP= -300
##BP= -300
##MW= 190
##$RETENTION INDEX=1422
##$CONDENSED SPECTRUM=NO
##NPOINTS= 59
##XYDATA=(XY..XY) 1 
    26          4
    27         46
    28          1
    29         26
    31          2
    37          3
    38          7
    39         70
    40         33
    41         83
    42         15
    43          8
    44          2
    45          2
    49          3
    50         41
    51        148
    52         12
    53         56
    54          7
    55         11
    56          3
    57          4
    62          2
    63          4
    65          7
    66         17
    67        159
    68        999
    69         81
    70          4
    71          2
    73          2
    74         11
    75         11
    76         26
    77        409
    78         37
    79         14
    80          2
    83          2
    84          3
    85          2
    91          5
    92          3
    93          2
   104          6
   105        812
   106         81
   107          6
   121          2
   122          8
   123         47
   124          4
   135          3
   141          2
   149          1
   175          2
   190          2