##TITLE=Library Entry 84099
##JCAMP-DX=Revision 4.10 
##DATA TYPE=MASS SPECTRUM
##SAMPLE DESCRIPTION=Exported from NIST MS Search
##NAMES=HP
##CAS NAME=Phenol, 3-(2-bromoethyl)-
##MOLFORM=C8H9BrO
##CAS REGISTRY NO=52059-50-4
##MP= -300
##BP= -300
##MW= 200
##$RETENTION INDEX=0
##$CONDENSED SPECTRUM=NO
##NPOINTS= 15
##XYDATA=(XY..XY) 1 
    50        100
    51        160
    53         90
    63        150
    65        200
    77        300
    78         70
    91        270
   104        130
   107        999
   108        100
   120        160
   121        460
   200        450
   202        430