##TITLE=Library Entry 32309
##JCAMP-DX=Revision 4.10 
##DATA TYPE=MASS SPECTRUM
##SAMPLE DESCRIPTION=A.Pleshkova, Nesmeyanov Inst.Org.Elem.Cpds, Moscow
##NAMES=HP
##CAS NAME=Hex-2-yn-4-one, 2-methyl-
##MOLFORM=C7H10O
##CAS REGISTRY NO=52066-33-8
##MP= -300
##BP= -300
##MW= 110
##$RETENTION INDEX=0
##$CONDENSED SPECTRUM=NO
##NPOINTS= 20
##XYDATA=(XY..XY) 1 
    27         70
    28         30
    37         20
    38         30
    39        150
    40         30
    41        110
    42         20
    43         70
    44          2
    66         20
    67        999
    68         50
    69          2
    82         60
    83          5
    95         60
    96          5
   110         20
   111          1