##TITLE=Library Entry 41269
##JCAMP-DX=Revision 4.10 
##DATA TYPE=MASS SPECTRUM
##SAMPLE DESCRIPTION=NIST Mass Spectrometry Data Center
##NAMES=HP
##CAS NAME=Pyruvic acid, TMS derivative
##MOLFORM=C6H12O3Si
##CAS REGISTRY NO=52060-85-2
##MP= -300
##BP= -300
##MW= 160
##$RETENTION INDEX=0
##$CONDENSED SPECTRUM=NO
##NPOINTS= 62
##XYDATA=(XY..XY) 1 
    14          7
    15         57
    16          1
    25          1
    26          3
    27          7
    28         19
    29         29
    30          3
    31          9
    39          1
    40          1
    41          6
    42         32
    43        262
    44         36
    45        248
    46         17
    47         50
    48          2
    49          2
    51          1
    53          9
    54          3
    55         15
    56          5
    57         12
    58         42
    59         48
    60         12
    61         34
    62          2
    63          1
    66          1
    67          1
    69          1
    70          4
    71          5
    72         17
    73        999
    74        102
    75        671
    76         49
    77         25
    78          1
    85          1
    87          1
    88          1
    89          1
   101         78
   102          9
   103         12
   104          1
   105          1
   116         86
   117         42
   118          6
   119          2
   145        253
   146         27
   147         11
   148          1