##TITLE=Library Entry 17953
##JCAMP-DX=Revision 4.10 
##DATA TYPE=MASS SPECTRUM
##SAMPLE DESCRIPTION=Exported from NIST MS Search
##NAMES=HP
##CAS NAME=1,3,2,4,6-Dithia(3-SIV)triazine, 5-[(trimethylsilyl)oxy]-, 1,1-di
oxide
##MOLFORM=C4H9N3O3S2Si
##CAS REGISTRY NO=52065-92-6
##MP= -300
##BP= -300
##MW= 239
##$RETENTION INDEX=0
##$CONDENSED SPECTRUM=NO
##NPOINTS= 34
##XYDATA=(XY..XY) 1 
    42         30
    43        270
    44         50
    45        190
    46        999
    47         50
    48        180
    56         30
    58         40
    59         80
    60         20
    61         20
    63         20
    64        190
    70        100
    72        130
    73        380
    74         60
    75         50
    76         40
    77         60
    78         20
    85         70
    86         50
    87         20
    99         20
   100        460
   101         50
   104         60
   115         20
   135         30
   136        130
   224        599
   239         10