##TITLE=Library Entry 30586
##JCAMP-DX=Revision 4.10 
##DATA TYPE=MASS SPECTRUM
##SAMPLE DESCRIPTION=J.HAUSLER UNIVERSITY OF VIENNA, A-1090 VIENNA 9, AUSTRI
A
##NAMES=HP
##CAS NAME=2-Pyrrolidinecarboxamide, 1-[2,2-bis(ethylthio)-1-oxopropyl]-N-me
thyl-, (S)-
##MOLFORM=C13H24N2O2S2
##CAS REGISTRY NO=52060-83-0
##MP= -300
##BP= -300
##MW= 304
##$RETENTION INDEX=0
##$CONDENSED SPECTRUM=NO
##NPOINTS= 56
##XYDATA=(XY..XY) 1 
    26         10
    27        150
    28        110
    29        160
    30         30
    32         10
    35         30
    39         20
    40         10
    41        130
    42         60
    43         50
    44         10
    45         40
    46         10
    47         10
    53         10
    54         10
    55         30
    56         20
    58        240
    59        999
    60         50
    61         70
    62         10
    67         10
    68         90
    69         20
    70        470
    71         20
    87        170
    88         90
    89         20
    92         10
   115         60
   116        170
   117         10
   118         10
   119         10
   121         10
   127         40
   149        650
   150         60
   151         60
   155         40
   156         30
   184        220
   185         40
   186         20
   212         50
   213         20
   214         10
   243         30
   244         70
   245         10
   304          0