##TITLE=Library Entry 1290
##JCAMP-DX=Revision 4.10 
##DATA TYPE=MASS SPECTRUM
##SAMPLE DESCRIPTION=Chemical Concepts
##NAMES=HP
##CAS NAME=Piperidine-2,5-dione
##MOLFORM=C5H7NO2
##CAS REGISTRY NO=52065-78-8
##MP= -300
##BP= -300
##MW= 113
##$RETENTION INDEX=0
##$CONDENSED SPECTRUM=NO
##NPOINTS= 89
##XYDATA=(XY..XY) 1 
    25         13
    26        106
    27        198
    28        657
    29        227
    30        999
    31         24
    36          2
    37         11
    38         15
    39         40
    40         12
    41         40
    42        189
    43         63
    44         17
    45          3
    46          1
    47          1
    48          1
    49          2
    50          6
    51          7
    52         11
    53         16
    54         28
    55        119
    56        272
    57         41
    58         19
    59          3
    60          2
    61          1
    62          1
    63          2
    64          3
    65          1
    66          2
    67          4
    68          5
    69          5
    70          4
    71          5
    72          2
    73          1
    74          1
    75          1
    76          1
    77          1
    78          1
    79          2
    80          1
    81          2
    82          4
    83          6
    84        115
    85        197
    86         18
    87          2
    88          1
    89          1
    90          1
    91          2
    92          1
    93          1
    94          1
    95          2
    96          1
    97          2
    98          3
    99          2
   100          1
   101          2
   102          1
   103          1
   104          2
   105          2
   106          1
   107          2
   108          1
   109          2
   110          1
   111          2
   112          3
   113        826
   114         68
   115          8
   116          1
   117          1