##TITLE=Library Entry 86118
##JCAMP-DX=Revision 4.10 
##DATA TYPE=MASS SPECTRUM
##SAMPLE DESCRIPTION=TNO Volatile Compounds in Food - Chemical Concepts
##NAMES=HP
##CAS NAME=1-Butanamine, N-(2-furanylmethylene)-3-methyl-
##MOLFORM=C10H15NO
##CAS REGISTRY NO=52074-26-7
##MP= -300
##BP= -300
##MW= 165
##$RETENTION INDEX=0
##$CONDENSED SPECTRUM=NO
##NPOINTS= 85
##XYDATA=(XY..XY) 1 
    34          0
    36          1
    37         29
    38         76
    39        509
    40         93
    41        471
    42         80
    43        276
    44         11
    47          1
    49          4
    50         65
    51        173
    52        224
    53        343
    54         96
    55        134
    56         17
    57         10
    58         27
    59          1
    61          2
    62          2
    63          6
    64         17
    65         31
    66         35
    67         92
    68         58
    69         39
    70         31
    71         12
    74          1
    75          1
    76          3
    77         13
    78         24
    79         59
    80        201
    81        718
    82         73
    83         11
    84          4
    85          0
    86          1
    91          8
    92          5
    93         32
    94        312
    95        477
    96         96
    97         14
    98         10
   103         16
   104          4
   105          3
   106          9
   107         16
   108        912
   109        999
   110         76
   111         20
   112          1
   117          5
   119          1
   120          7
   121         52
   122        373
   123         65
   124          6
   133          1
   134          2
   135          9
   136        210
   137        169
   138         24
   139          2
   148         26
   149          4
   150         49
   151          6
   164        107
   165         73
   166          8