##TITLE=Library Entry 47892
##JCAMP-DX=Revision 4.10 
##DATA TYPE=MASS SPECTRUM
##SAMPLE DESCRIPTION=A.A.Kutin, Moscow, Russia
##NAMES=HP
##CAS NAME=Furo[2,3-d]pyrimidin-4-amine, 5,6-diphenyl-
##MOLFORM=C18H13N3O
##CAS REGISTRY NO=5207-52-3
##MP= -300
##BP= -300
##MW= 287
##$RETENTION INDEX=0
##$CONDENSED SPECTRUM=NO
##NPOINTS= 58
##XYDATA=(XY..XY) 1 
    38          9
    39        173
    40        231
    41         55
    42         23
    43         85
    44        157
    50        144
    51        486
    52         61
    53         14
    55         36
    62         15
    63         98
    69          3
    71         54
    74         33
    75         83
    76        114
    77        999
    78         72
    87         26
    88         39
    89         16
    94         26
    99          3
   100         33
   101         80
   102         50
   104         89
   105        211
   107          5
   113          7
   126          4
   127        106
   128        195
   129         20
   143         91
   144         40
   155         34
   163          4
   165          8
   176          8
   177          4
   188          3
   189        145
   190         46
   203         18
   204         13
   214         34
   216         58
   217         12
   231         42
   232          4
   244          6
   286        436
   287        535
   288         78