##TITLE=Library Entry 6030
##JCAMP-DX=Revision 4.10 
##DATA TYPE=MASS SPECTRUM
##SAMPLE DESCRIPTION=Exported from NIST MS Search
##NAMES=HP
##CAS NAME=11-Tricosene
##MOLFORM=C23H46
##CAS REGISTRY NO=52078-56-5
##MP= -300
##BP= -300
##MW= 322
##$RETENTION INDEX=2287
##$CONDENSED SPECTRUM=NO
##NPOINTS= 150
##XYDATA=(XY..XY) 1 
    41        766
    43        999
    55        741
    56        353
    57        675
    58         39
    69        483
    70        276
    71        296
    72         18
    77         15
    78          5
    79         34
    83        508
    84        180
    85        174
    86         12
    91         10
    92          2
    97        381
    98        112
   103          1
   104          1
   105          4
   106          1
   111        175
   112         71
   117          1
   118          1
   119          2
   120          1
   121          2
   122          1
   123         10
   124         17
   125         77
   126         45
   131          1
   132          1
   133          1
   134          1
   135          1
   136          1
   137          5
   138         13
   139         30
   140         31
   145          1
   146          1
   147          1
   148          1
   149          1
   150          1
   151          2
   152          9
   153         18
   154         22
   159          1
   160          1
   161          1
   162          1
   163          1
   164          1
   165          2
   166          7
   167         12
   168         16
   173          1
   174          1
   175          1
   176          1
   177          1
   178          1
   179          1
   180          5
   181          8
   182         12
   183         15
   187          1
   188          1
   189          1
   190          1
   191          1
   192          1
   193          1
   194          4
   195          5
   196          9
   205          1
   206          1
   207          1
   208          3
   209          4
   210          6
   215          1
   216          1
   217          1
   218          1
   219          1
   220          1
   221          1
   222          2
   223          3
   224          4
   229          1
   230          1
   231          1
   232          1
   233          1
   234          1
   235          1
   236          2
   237          2
   238          3
   243          1
   244          1
   245          1
   246          1
   247          1
   248          1
   249          1
   250          1
   251          1
   252          2
   257          1
   258          1
   259          1
   260          1
   261          1
   262          1
   263          1
   264          1
   265          1
   266          2
   277          1
   278          1
   279          1
   280          1
   291          1
   292          1
   293          1
   294          6
   305          1
   306          1
   307          1
   308          1
   319          1
   320          1
   321          1
   322         28