##TITLE=Library Entry 66607
##JCAMP-DX=Revision 4.10 
##DATA TYPE=MASS SPECTRUM
##SAMPLE DESCRIPTION=G.VON BUNAU MAX-PLANCK-INST., MULHEIM-RHUR, GERMANY, FR
G
##NAMES=HP
##CAS NAME=m-Mentha-4,8-diene, (1S,3S)-(+)-
##MOLFORM=C10H16
##CAS REGISTRY NO=5208-51-5
##MP= -300
##BP= -300
##MW= 136
##$RETENTION INDEX=988
##$CONDENSED SPECTRUM=NO
##NPOINTS= 62
##XYDATA=(XY..XY) 1 
    15         44
    27        196
    29        135
    37         17
    38         34
    39        356
    41        326
    43        226
    45         66
    46         41
    47         56
    50         54
    51        135
    52         63
    53        176
    54         34
    55        228
    56         14
    58         24
    59         14
    61         24
    62         34
    63         78
    64         34
    65        169
    66         66
    67        196
    68        115
    69         36
    74         19
    75         95
    76         27
    77        317
    78         83
    79        931
    80        149
    81        169
    82         49
    89         56
    90         63
    91        882
    92        574
    93        999
    94        265
    95        142
    96         46
   103         24
   105        145
   106         44
   107        594
   108        113
   109         14
   117         27
   119         76
   120         24
   121        803
   122        164
   123         17
   134         22
   135         24
   136        990
   137        115