##TITLE=Library Entry 12101
##JCAMP-DX=Revision 4.10 
##DATA TYPE=MASS SPECTRUM
##SAMPLE DESCRIPTION=NIST Mass Spectrometry Data Center
##NAMES=HP
##CAS NAME=m-Cymen-8-ol
##MOLFORM=C10H14O
##CAS REGISTRY NO=5208-37-7
##MP= -300
##BP= -300
##MW= 150
##$RETENTION INDEX=1180
##$CONDENSED SPECTRUM=NO
##NPOINTS= 82
##XYDATA=(XY..XY) 1 
    26          1
    27          8
    29          6
    31         10
    37          1
    38          6
    39         51
    40          6
    41         24
    42          4
    43        999
    44         24
    45          5
    49          1
    50         17
    51         46
    52         13
    53         14
    54          1
    55          4
    57         11
    59         49
    60          5
    61          4
    62         19
    63         60
    64         20
    65        136
    66         19
    67         47
    72          1
    73          2
    74         20
    75         10
    76          7
    77         59
    78         17
    79         18
    85          1
    86          4
    87          5
    88          2
    89         40
    90         13
    91        222
    92         59
    93         16
    94          2
    98          1
   101          2
   102          9
   103         16
   104          4
   105         42
   106          6
   107         35
   108          3
   113          1
   114          1
   115         62
   116         20
   117         31
   118          6
   119         33
   120          5
   121          3
   127          3
   128          5
   129          4
   130          1
   131         14
   132         16
   133         17
   134          3
   135        724
   136         69
   137          4
   148          1
   149          2
   150        108
   151         12
   152          1