##TITLE=Library Entry 47357
##JCAMP-DX=Revision 4.10 
##DATA TYPE=MASS SPECTRUM
##SAMPLE DESCRIPTION=ASES Database, Dalian Institute, P.R. China
##NAMES=HP
##CAS NAME=Tri-N-(phenylsulfonyl)hexahydro-s-triazine
##MOLFORM=C21H21N3O6S3
##CAS REGISTRY NO=52082-67-4
##MP= -300
##BP= -300
##MW= 507
##$RETENTION INDEX=0
##$CONDENSED SPECTRUM=NO
##NPOINTS= 23
##XYDATA=(XY..XY) 1 
    30         20
    39         20
    42        218
    50         50
    51        179
    52         10
    77        999
    78        109
   125         89
   141        447
   142         39
   143         29
   170        160
   171         20
   197        149
   198         20
   224         20
   310         30
   366        100
   367         10
   506         19
   507         29
   508          9