##TITLE=Library Entry 62618
##JCAMP-DX=Revision 4.10 
##DATA TYPE=MASS SPECTRUM
##SAMPLE DESCRIPTION=ASES Database, Dalian Institute, P.R. China
##NAMES=HP
##CAS NAME=1,3,5-Tris(o-tolylsulfonyl)-hexahydro-1,3,5-triazine
##MOLFORM=C24H27N3O6S3
##CAS REGISTRY NO=52082-68-5
##MP= -300
##BP= -300
##MW= 549
##$RETENTION INDEX=0
##$CONDENSED SPECTRUM=NO
##NPOINTS= 15
##XYDATA=(XY..XY) 1 
    30         20
    42        197
    65        141
    91        999
   118         89
   119         69
   139         39
   155        397
   183        110
   184        230
   211        219
   238         19
   394        129
   548         10
   549         20