##TITLE=Library Entry 29568
##JCAMP-DX=Revision 4.10 
##DATA TYPE=MASS SPECTRUM
##SAMPLE DESCRIPTION=Japan AIST/NIMC Database- Spectrum MS-NW-3080
##NAMES=HP
##CAS NAME=Butanoic acid, 2-hydroxy-, ethyl ester
##MOLFORM=C6H12O3
##CAS REGISTRY NO=52089-54-0
##MP= -300
##BP= -300
##MW= 132
##$RETENTION INDEX=910
##$CONDENSED SPECTRUM=NO
##NPOINTS= 48
##XYDATA=(XY..XY) 1 
    14          2
    15          9
    17          1
    18          5
    19         28
    26         11
    27         75
    28         27
    29        152
    30         10
    31        284
    32          3
    38          2
    39         16
    40          3
    41        115
    42         10
    43         45
    44          5
    45         39
    46          4
    47         17
    55          9
    56          2
    57         45
    58         31
    59        999
    60         34
    61          2
    68          1
    69          5
    70          4
    71          2
    73          3
    74          2
    75         48
    76         13
    85          2
    86          2
    87          1
    89         23
    90          1
   101          1
   103         15
   104          3
   115          1
   116          1
   117          2