##TITLE=Library Entry 77847
##JCAMP-DX=Revision 4.10 
##DATA TYPE=MASS SPECTRUM
##SAMPLE DESCRIPTION=NIST Mass Spectrometry Data Center, 1998.
##NAMES=HP
##CAS NAME=Tetrantoin
##MOLFORM=C12H12N2O2
##CAS REGISTRY NO=52094-70-9
##MP= -300
##BP= -300
##MW= 216
##$RETENTION INDEX=0
##$CONDENSED SPECTRUM=NO
##NPOINTS= 82
##XYDATA=(XY..XY) 1 
    14          3
    27         23
    38          7
    39         76
    40          9
    41         38
    42         11
    46          4
    49          2
    50         36
    51         34
    52         68
    54          7
    55          6
    56          7
    57          2
    58         59
    60          3
    62         15
    63         91
    64         43
    65         81
    68         10
    69          3
    72        129
    75         44
    76         27
    77        148
    78        222
    79         19
    80          7
    86         18
    89        115
    91        124
   101         20
   102         54
   103        225
   104        999
   105         92
   106          6
   107          5
   114         25
   115        200
   116         44
   117        110
   118         47
   126          7
   127         51
   128        148
   129        112
   130        364
   131         27
   139          3
   141          7
   143         24
   144        104
   145         73
   147          5
   154          5
   155          9
   156         11
   157         21
   158          9
   159          9
   170          3
   171         13
   172         23
   173         49
   174         12
   186          4
   187         11
   197          9
   198         18
   199        316
   200          4
   201        121
   202         10
   203          5
   213          4
   215         25
   216        524
   217         70