##TITLE=Library Entry 57849
##JCAMP-DX=Revision 4.10 
##DATA TYPE=MASS SPECTRUM
##SAMPLE DESCRIPTION=James Little,Eastman Chem.Co.,Kingsport,TN
##NAMES=HP
##CAS NAME=5-(Methylamino)-1,2,3,4-thiatriazole
##MOLFORM=C2H4N4S
##CAS REGISTRY NO=52098-72-3
##MP= -300
##BP= -300
##MW= 116
##$RETENTION INDEX=0
##$CONDENSED SPECTRUM=NO
##NPOINTS= 27
##XYDATA=(XY..XY) 1 
    27        141
    29        159
    31         96
    40         67
    41         86
    42        303
    45         72
    46        474
    47        109
    55        237
    56         80
    58         62
    59        104
    60         83
    61         40
    69         14
    72         39
    73        486
    74         92
    75         24
    86         10
    87        105
    88        999
    89         42
    90         45
   116         85
   117         11