##TITLE=Library Entry 51818
##JCAMP-DX=Revision 4.10 
##DATA TYPE=MASS SPECTRUM
##SAMPLE DESCRIPTION=Finnigan MAT: Toxicological Library (LIBR-TX)
##NAMES=HP
##CAS NAME=cis-Cinnamoylcocaine
##MOLFORM=C19H23NO4
##CAS REGISTRY NO=521-67-5
##MP= -300
##BP= -300
##MW= 329
##$RETENTION INDEX=0
##$CONDENSED SPECTRUM=NO
##NPOINTS= 33
##XYDATA=(XY..XY) 1 
    42        201
    55         51
    68         35
    77        129
    82        999
    83        557
    94        257
    96        554
    97        119
   103        153
   108         35
   119         26
   122         47
   131        138
   150         16
   152         17
   154         26
   166         18
   168         70
   180          9
   182        599
   183         61
   194         21
   198         62
   199          6
   226         10
   238        115
   239         12
   270          7
   298         36
   299          3
   329        138
   330         22