##TITLE=Library Entry 7133
##JCAMP-DX=Revision 4.10 
##DATA TYPE=MASS SPECTRUM
##SAMPLE DESCRIPTION=P.A. Leclercq, Lab. Instrum. Anal., Tech. Univ. Eindhov
en, Netherlands
##NAMES=HP
##CAS NAME=Mestanolone
##MOLFORM=C20H32O2
##CAS REGISTRY NO=521-11-9
##MP= -300
##BP= -300
##MW= 304
##$RETENTION INDEX=2609
##$CONDENSED SPECTRUM=NO
##NPOINTS= 139
##XYDATA=(XY..XY) 1 
    39        116
    41        536
    43        999
    44         29
    45         40
    51         15
    53        196
    55        613
    56         49
    57        146
    58        150
    59         49
    65         89
    67        445
    68        180
    69        174
    71        352
    72        100
    77        194
    79        404
    80         88
    81        450
    82         88
    83        116
    84         13
    85         37
    91        347
    92         64
    93        324
    94         80
    95        320
    96         69
    97        105
    98         22
    99         32
   103         22
   105        268
   106         89
   107        298
   108        148
   109        280
   110         91
   111         94
   112         15
   115         34
   116         17
   117         63
   118         53
   119        206
   120         96
   121        249
   122        186
   123        483
   124        236
   125         59
   128         21
   129         31
   130         13
   131         99
   132         41
   133        175
   134         77
   135        187
   136         76
   137        132
   138         20
   142         10
   143         27
   144         18
   145        114
   146         36
   147        156
   148         51
   149        117
   150         31
   151         37
   152          9
   157         33
   158         23
   159        156
   160         47
   161        205
   162        140
   163        460
   164         98
   165         45
   171         36
   172         26
   173        117
   174         80
   175        151
   176        106
   177         67
   178         21
   179         25
   185         13
   186         13
   187         68
   188         27
   189        111
   190         44
   191         19
   192          9
   197         12
   199         22
   201         44
   202         13
   203         39
   204         49
   205         20
   211         24
   213        106
   215        194
   216         67
   217        118
   218         25
   219         23
   229        194
   230        116
   231        419
   232         79
   233         71
   234         42
   235         10
   244        146
   245         32
   246        124
   247        293
   248         50
   253         18
   257         18
   271        175
   272         39
   286        120
   287         26
   289        295
   290         57
   304         86
   305         20