##TITLE=Library Entry 61817
##JCAMP-DX=Revision 4.10 
##DATA TYPE=MASS SPECTRUM
##SAMPLE DESCRIPTION=NIST Mass Spectrometry Data Center
##NAMES=HP
##CAS NAME=2-Methoxyphenylacetone
##MOLFORM=C10H12O2
##CAS REGISTRY NO=5211-62-1
##MP= -300
##BP= -300
##MW= 164
##$RETENTION INDEX=0
##$CONDENSED SPECTRUM=NO
##NPOINTS= 65
##XYDATA=(XY..XY) 1 
    15         23
    26          3
    27         13
    29          5
    37          3
    38         12
    39         69
    40          4
    41         15
    42         10
    43        289
    44          7
    45          2
    49          2
    50         43
    51        109
    52         67
    53         20
    54          2
    55          4
    61          5
    62         18
    63         57
    64         15
    65        173
    66         12
    73          1
    74         11
    75          8
    76         11
    77        120
    78        121
    79         26
    80          1
    85          1
    86          3
    87          3
    88          1
    89         50
    90         20
    91        999
    92         86
    93        105
    94          8
   102          3
   103         12
   104          2
   105         21
   106          7
   107         38
   108          2
   115          3
   118          2
   119          5
   121        885
   122        172
   123         13
   131          6
   132          2
   133          4
   135          1
   148          1
   164        387
   165         43
   166          3