##TITLE=Library Entry 21021
##JCAMP-DX=Revision 4.10 
##DATA TYPE=MASS SPECTRUM
##SAMPLE DESCRIPTION=CARL DJERASSI DEPT OF CHEM STANFORD UNIV STANFORD CALIF
 94305
##NAMES=HP
##CAS NAME=Cholestan-3-ol, methyl carbonodithioate, (3.beta.,5.alpha.)-
##MOLFORM=C29H50OS2
##CAS REGISTRY NO=5211-17-6
##MP= -300
##BP= -300
##MW= 478
##$RETENTION INDEX=0
##$CONDENSED SPECTRUM=NO
##NPOINTS= 193
##XYDATA=(XY..XY) 1 
    41        620
    42         69
    43        920
    44         49
    45        169
    46         49
    47        329
    48        260
    49         20
    50         20
    53         89
    54         40
    55        999
    56        149
    57        929
    58         40
    60        369
    61         20
    62         20
    65         29
    66         20
    67        569
    68        149
    69        709
    70        120
    71        529
    72         29
    75        100
    76          9
    77        120
    78         29
    79        409
    80        100
    81        889
    82        169
    83        720
    84         89
    85        209
    86          9
    91        329
    92        100
    93        489
    94        209
    95        960
    96        149
    97        480
    98         60
    99         60
   101          9
   104         29
   105        300
   106        220
   107        489
   108        289
   109        629
   110        100
   111        360
   112         49
   113         49
   115         20
   117         40
   118         20
   119        180
   120         89
   121        309
   122        109
   123        329
   124         60
   125        140
   126         29
   127         80
   128          9
   129          9
   131         60
   132         20
   133        160
   134        100
   135        340
   136         69
   137        160
   138         40
   139         60
   140         20
   141         20
   143          9
   145        100
   146         29
   147        260
   148         80
   149        349
   150         60
   151        120
   152         40
   153         40
   154          9
   155          9
   159         49
   160         40
   161        229
   162        120
   163        249
   164         40
   165         80
   166         20
   167         20
   168          9
   169          9
   173         49
   174         40
   175        100
   176        120
   177        160
   178         20
   179         69
   180          9
   181         49
   182          9
   183          9
   187         49
   188         40
   189         89
   190         29
   191         80
   192          9
   193         89
   194         20
   195          9
   201         89
   202         40
   203        249
   204         49
   205         69
   206         20
   207         80
   208         20
   215        389
   216        220
   217        220
   218         60
   219         69
   220         20
   221         29
   229         20
   230         80
   231         89
   232         29
   233         29
   235         40
   243         20
   245         89
   246         20
   247         60
   248          9
   249          9
   256          9
   257        160
   258         49
   259         49
   260         29
   261         80
   262         49
   263         20
   273          9
   274         29
   275         69
   276         29
   285          9
   287         40
   288         20
   289         40
   301         49
   302         20
   313         20
   314         20
   315         49
   316        320
   317         89
   318         20
   328         20
   329         40
   355        240
   356         80
   357         29
   369         20
   370        749
   371        929
   372        269
   373         49
   418         60
   419         40
   478          4
   479          1
   480          1