##TITLE=Library Entry 63163
##JCAMP-DX=Revision 4.10 
##DATA TYPE=MASS SPECTRUM
##SAMPLE DESCRIPTION=Japan AIST/NIMC Database- Spectrum MS-IW-3307
##NAMES=HP
##CAS NAME=dl-2-Amino-4-benzyloxy-2-methylbutyric acid
##MOLFORM=C12H17NO3
##CAS REGISTRY NO=5211-26-7
##MP= -300
##BP= -300
##MW= 223
##$RETENTION INDEX=0
##$CONDENSED SPECTRUM=NO
##NPOINTS= 98
##XYDATA=(XY..XY) 1 
    15          9
    16          1
    17          9
    18          1
    26          2
    27         12
    28         20
    29          9
    30         31
    31          3
    37          1
    38          3
    39         36
    40          5
    41         31
    42        125
    43         47
    44         60
    45          5
    46          2
    50          8
    51         26
    52          8
    53          6
    54          9
    55         13
    56         17
    57         43
    58         35
    59          2
    60          1
    62          3
    63         16
    64          5
    65         91
    66          5
    67          1
    68          1
    69          6
    70         76
    71         58
    72         73
    73          7
    74          2
    75          1
    76          2
    77         33
    78          9
    79         25
    80          2
    81          1
    82          2
    83          2
    84          1
    85          2
    86         16
    87          4
    88        212
    89        157
    90         18
    91        999
    92         91
    93          4
    95          1
    97          2
    98          1
    99          3
   100          6
   101          1
   102          4
   104          1
   105         14
   106          6
   107         15
   108          9
   109          1
   111          1
   116          2
   117        175
   118         10
   119          1
   120          1
   122          2
   131          3
   132         40
   133          3
   135          1
   143          1
   148         18
   149          2
   160          4
   161          1
   164          1
   178        578
   179         72
   180          5
   192          1
   208          1