##TITLE=Library Entry 84340
##JCAMP-DX=Revision 4.10 
##DATA TYPE=MASS SPECTRUM
##SAMPLE DESCRIPTION=MASS SPECTROMETRY CENTER, UNIV. OF UTAH ALDRICH 18418-7
##NAMES=HP
##CAS NAME=Benzenemethanol, 4,4'-sulfonylbis-
##MOLFORM=C14H14O4S
##CAS REGISTRY NO=52123-62-3
##MP= -300
##BP= -300
##MW= 278
##$RETENTION INDEX=0
##$CONDENSED SPECTRUM=NO
##NPOINTS= 82
##XYDATA=(XY..XY) 1 
    27         58
    28         30
    29         49
    31         54
    32          4
    36         27
    39        112
    41         78
    42         20
    43         68
    44         62
    45         30
    50         80
    51        231
    52         57
    53         68
    55         59
    56          5
    57        117
    62         33
    63         93
    64         22
    65         92
    66         12
    67         58
    69          5
    71         83
    74          7
    75         29
    76         74
    77        594
    78        254
    79        514
    80         39
    85         55
    89        277
    90        166
    91        183
    92         25
    95         57
    97         12
    99          5
   104          5
   105        127
   106         92
   107        999
   108         94
   109        361
   110         41
   111         27
   121         39
   123         80
   124         28
   125         55
   126         16
   127          5
   138         28
   139        169
   140         13
   141         51
   152         28
   153        122
   154         36
   155        934
   156        121
   157         51
   165         18
   167         28
   168          5
   171         29
   173         34
   183         33
   233         43
   249        465
   250         70
   251         24
   262        101
   263          6
   277         63
   278        528
   279         91
   280         28