##TITLE=Library Entry 869
##JCAMP-DX=Revision 4.10 
##DATA TYPE=MASS SPECTRUM
##SAMPLE DESCRIPTION=J. F. SMITH, LA TROBE UNIVERSITY, AUSTRALIA
##NAMES=HP
##CAS NAME=Benzofurazan, 5,7-dibromo-4-nitro-
##MOLFORM=C6HBr2N3O3
##CAS REGISTRY NO=52120-98-6
##MP= -300
##BP= -300
##MW= 321
##$RETENTION INDEX=0
##$CONDENSED SPECTRUM=NO
##NPOINTS= 25
##XYDATA=(XY..XY) 1 
    17        170
    18        630
    28        140
    29         60
    30        999
    37         70
    44         50
    51         50
    61         80
    62         60
    75         70
    86         70
    87        270
    89         70
   164         70
   166        110
   168        110
   182         60
   184         60
   261         60
   263         90
   265         60
   321         80
   323        140
   325         70