##TITLE=Library Entry 86283
##JCAMP-DX=Revision 4.10 
##DATA TYPE=MASS SPECTRUM
##SAMPLE DESCRIPTION=Japan AIST/NIMC Database- Spectrum MS-IW-1087
##NAMES=HP
##CAS NAME=(+-)-1,2,3,4-Tetrachlorobutane
##MOLFORM=C4H6Cl4
##CAS REGISTRY NO=52134-24-4
##MP= -300
##BP= -300
##MW= 194
##$RETENTION INDEX=0
##$CONDENSED SPECTRUM=NO
##NPOINTS= 81
##XYDATA=(XY..XY) 1 
    25          2
    26         26
    27        103
    28          5
    35          5
    36         22
    37          9
    38         15
    39         87
    40          4
    41          3
    43          4
    44          1
    47          5
    48          6
    49        161
    50         35
    51        146
    52         15
    53         68
    54         25
    55          1
    60          9
    61        237
    62        762
    63        107
    64        241
    65         10
    72          2
    73         23
    74          3
    75        133
    76          5
    77         40
    78          1
    83        230
    84          4
    85        153
    86          4
    87        210
    88         19
    89         72
    90          7
    91          4
    95          4
    96        135
    97        303
    98         93
    99        192
   100         18
   101         30
   107          1
   109        999
   110         39
   111        641
   112         25
   113        104
   114          4
   121          5
   122        175
   123        971
   124        158
   125        620
   126         47
   127        101
   128          4
   143          1
   144          1
   145         25
   146          2
   147         24
   148          1
   149          8
   157          1
   158        234
   159         16
   160        228
   161         14
   162         73
   163          5
   164          8