##TITLE=Library Entry 35494
##JCAMP-DX=Revision 4.10 
##DATA TYPE=MASS SPECTRUM
##SAMPLE DESCRIPTION=V.G.Zaikin,TIPS,Russian Acad.Sci.Moscow
##NAMES=HP
##CAS NAME=Acetic acid, chloro-, hexadecyl ester
##MOLFORM=C18H35ClO2
##CAS REGISTRY NO=52132-58-8
##MP= -300
##BP= -300
##MW= 318
##$RETENTION INDEX=2210
##$CONDENSED SPECTRUM=NO
##NPOINTS= 106
##XYDATA=(XY..XY) 1 
    29         29
    31          3
    35          5
    36         11
    38          8
    39         45
    40         19
    41        419
    42        179
    43        665
    44         45
    45         11
    48          7
    49         45
    50         29
    51         26
    52         11
    53         41
    54        129
    55        927
    56        572
    57        955
    58         43
    59          8
    60          3
    61         29
    65          6
    66         19
    67        196
    68        259
    69        999
    70        575
    71        509
    72         39
    73          8
    76          8
    77        235
    78          9
    79         83
    80          7
    81        105
    82        435
    83        999
    84        399
    85        341
    86         13
    91          8
    92          3
    93          7
    94         29
    95        118
    96        255
    97        761
    98        245
    99         95
   100         14
   103          6
   107         15
   108          6
   109         25
   110         89
   111        339
   112        155
   113         68
   121          9
   123         19
   124         49
   125        169
   126         69
   127         49
   133          8
   134          3
   135          8
   136          3
   137         18
   138         39
   139         49
   140         65
   141         39
   142          7
   146          7
   151          7
   152         32
   153         32
   154         45
   155         35
   156          7
   159          5
   165          8
   166         11
   167         15
   168         19
   169         11
   180         11
   182         15
   183         17
   194         11
   195          6
   196         45
   197         15
   222         29
   223          4
   224         49
   225         35
   226          5
   269         12