##TITLE=Library Entry 53644
##JCAMP-DX=Revision 4.10 
##DATA TYPE=MASS SPECTRUM
##SAMPLE DESCRIPTION=ASES Database, Dalian Institute, P.R. China
##NAMES=HP
##CAS NAME=N-(2-Methyl-propenyl)-pyrrolidin-2-one
##MOLFORM=C8H13NO
##CAS REGISTRY NO=52132-71-5
##MP= -300
##BP= -300
##MW= 139
##$RETENTION INDEX=0
##$CONDENSED SPECTRUM=NO
##NPOINTS= 9
##XYDATA=(XY..XY) 1 
    42        519
    43        130
    55        150
    68        160
    69         99
    84        999
    96        129
   124        269
   139        470