##TITLE=Library Entry 2640
##JCAMP-DX=Revision 4.10 
##DATA TYPE=MASS SPECTRUM
##SAMPLE DESCRIPTION=ASES Database, Dalian Institute, P.R. China
##NAMES=HP
##CAS NAME=7,8-Dioxabicyclo[4.2.2]dec-9-ene
##MOLFORM=C8H12O2
##CAS REGISTRY NO=52148-56-8
##MP= -300
##BP= -300
##MW= 140
##$RETENTION INDEX=0
##$CONDENSED SPECTRUM=NO
##NPOINTS= 33
##XYDATA=(XY..XY) 1 
    26         70
    27        659
    28        502
    29        748
    39        468
    40         40
    41        999
    42         99
    43         79
    53         98
    54         79
    55        899
    56        119
    57        149
    66         40
    67        248
    68        100
    69         79
    70         80
    77         49
    79        258
    80        199
    81        281
    82         30
    83        179
    84         49
    93        110
    94         30
    95         40
    96         49
    97         30
   108         39
   140         50