##TITLE=Library Entry 61386
##JCAMP-DX=Revision 4.10 
##DATA TYPE=MASS SPECTRUM
##SAMPLE DESCRIPTION=A.A.Kutin, Moscow, Russia
##NAMES=HP
##CAS NAME=Propanamide, 3-phenyl-N-(3-fluorophenyl)-
##MOLFORM=C15H14FNO
##CAS REGISTRY NO=5215-33-8
##MP= -300
##BP= -300
##MW= 243
##$RETENTION INDEX=0
##$CONDENSED SPECTRUM=NO
##NPOINTS= 108
##XYDATA=(XY..XY) 1 
    33         22
    34          4
    36          1
    37         24
    38         82
    39        303
    40         99
    41         85
    42         87
    43         41
    44         41
    45         25
    46          6
    48          6
    50        165
    51        313
    52        116
    53         49
    54         17
    55         65
    56         29
    57        225
    58         14
    59          8
    61         14
    62         80
    63        202
    64         89
    65        347
    66         20
    67          8
    68         13
    69         27
    70         24
    71          7
    72          4
    74         51
    75        124
    76         77
    77        406
    78        201
    79        167
    81         63
    82         89
    83        529
    84        108
    85          6
    86          4
    87          7
    88          8
    89         78
    90         69
    91        999
    93         99
    95        144
    96         31
    97         18
    98          1
   100          1
   101          7
   102         44
   103        179
   104        134
   105        347
   106         35
   107         11
   108         12
   109         71
   110        190
   111        823
   112         56
   113          2
   115          1
   117          1
   118          1
   119          4
   122         14
   124         72
   125          7
   129          1
   131         24
   132          4
   133         12
   134          1
   135          3
   137         13
   138         10
   139          1
   146          1
   147          0
   150          2
   151          4
   152          3
   164          3
   165          2
   166          1
   171          2
   175          0
   185          3
   186          1
   198          4
   199          3
   200          1
   241          4
   242          6
   243         83
   244         15
   245          0