##TITLE=Library Entry 40142
##JCAMP-DX=Revision 4.10 
##DATA TYPE=MASS SPECTRUM
##SAMPLE DESCRIPTION=Exported from NIST MS Search
##NAMES=HP
##CAS NAME=DL-Valine, N-acetyl-, methyl ester
##MOLFORM=C8H15NO3
##CAS REGISTRY NO=52152-47-3
##MP= -300
##BP= -300
##MW= 173
##$RETENTION INDEX=1249
##$CONDENSED SPECTRUM=NO
##NPOINTS= 48
##XYDATA=(XY..XY) 1 
    15         55
    18         10
    26         26
    27         71
    28         16
    29         20
    32         32
    39         16
    41         34
    42         18
    43        285
    44         14
    54          8
    55        112
    56         65
    57         61
    59         26
    60        120
    65          4
    69          6
    70         44
    71         44
    72        999
    73         59
    74         26
    82         16
    83         28
    84          8
    85          4
    86          8
    88        457
    89         77
    98         14
    99        238
   100         12
   102         14
   103          2
   113          4
   114        877
   115         61
   116         16
   126         16
   128          2
   130         24
   131         61
   142         14
   173         10
   174         14