##TITLE=Library Entry 27477
##JCAMP-DX=Revision 4.10 
##DATA TYPE=MASS SPECTRUM
##SAMPLE DESCRIPTION=Chemical Concepts
##NAMES=HP
##CAS NAME=Propanoic acid, 2,2-dimethyl-, dianhydride with ethylboronic acid
 bimol. monoanhydride
##MOLFORM=C14H28B2O5
##CAS REGISTRY NO=52164-70-2
##MP= -300
##BP= -300
##MW= 298
##$RETENTION INDEX=0
##$CONDENSED SPECTRUM=NO
##NPOINTS= 137
##XYDATA=(XY..XY) 1 
    25          1
    26          5
    27         39
    28         17
    29        188
    30          4
    31          1
    37          1
    38          2
    39         42
    40         14
    41        276
    42         52
    43         17
    44          2
    45          9
    50          0
    51          1
    52          1
    53         10
    54         12
    55         49
    56         37
    57        999
    58         44
    59          3
    65          0
    67          5
    68          5
    69         67
    70         41
    71          4
    72          1
    73          3
    80          0
    81          1
    82          4
    83         12
    84          2
    85         82
    86          6
    87          2
    88          0
    89          1
    90          2
    91          1
    96          0
    97          2
    98          0
    99          2
   100          6
   101         11
   102          1
   103          0
   106          0
   109          0
   110          1
   111          4
   112          6
   113          8
   114          1
   115          0
   125          1
   126          2
   127          4
   128         58
   129        239
   130         15
   131          2
   136          0
   137          1
   138          4
   139          9
   140         33
   141        116
   142         11
   143          3
   153          1
   154          6
   155         10
   156          1
   157          2
   158          0
   166          1
   167          5
   168         10
   169         10
   170          3
   171          1
   179          0
   180          2
   181          6
   182          3
   183         20
   184         92
   185        161
   186         15
   187          2
   188          0
   189          0
   191          0
   192          0
   195         29
   196        171
   197        354
   198         42
   199          5
   200          1
   201          0
   208          0
   209          1
   210          1
   212         25
   213        100
   214         12
   215          2
   227          0
   252          2
   253          3
   254          1
   255          0
   267         53
   268        333
   269        689
   270        104
   271         18
   272          4
   273          2
   274          1
   275          0
   276          0
   280          0
   281          1
   282          2
   283          3
   284          0
   299          0