##TITLE=Library Entry 99733
##JCAMP-DX=Revision 4.10 
##DATA TYPE=MASS SPECTRUM
##SAMPLE DESCRIPTION=Exported from NIST MS Search
##NAMES=HP
##CAS NAME=Benzene, 1,1'-(1,4-dimethyl-1-butene-1,4-diyl)bis-
##MOLFORM=C18H20
##CAS REGISTRY NO=52161-54-3
##MP= -300
##BP= -300
##MW= 236
##$RETENTION INDEX=0
##$CONDENSED SPECTRUM=NO
##NPOINTS= 179
##XYDATA=(XY..XY) 1 
    14         16
    15         31
    16          6
    19          6
    20          2
    25          1
    26          8
    27         88
    28        116
    29         29
    30          1
    31          2
    32         37
    34          1
    37          5
    38         12
    39        176
    40         61
    41        298
    42         15
    43         47
    44         11
    45          3
    48          2
    49          2
    50         41
    51        150
    52         36
    53         31
    54          3
    55         12
    56          4
    57         10
    58         18
    59          5
    60          3
    61          3
    62         11
    63         47
    64         12
    65         64
    66          7
    67          4
    71         10
    72          3
    73          4
    74         10
    75         18
    76         28
    77        160
    78         57
    79         86
    80          8
    81          4
    82          6
    83          5
    84          1
    85          3
    86          5
    87          9
    88         10
    89         51
    90         11
    91        527
    92         46
    93          6
    94          4
    95          8
    96          7
    97          3
    98          3
    99          3
   100          4
   101         27
   102         48
   103        137
   104         25
   105        116
   106         12
   107          3
   108          3
   109          2
   110          3
   111          3
   112          1
   113          6
   114          8
   115        137
   116         40
   117         64
   118         44
   119        999
   120        101
   121          6
   122          1
   125          3
   126          8
   127         37
   128        126
   129         59
   130         13
   131         60
   132          9
   133          3
   134          2
   135          2
   137          2
   138          2
   139         11
   140          5
   141         27
   142         19
   143        281
   144         40
   145         27
   146          4
   147          1
   149          2
   150          4
   151          6
   152         14
   153          6
   154          3
   155          3
   156          2
   157          7
   158         17
   159         24
   160          4
   161          1
   162          2
   163          5
   164          4
   165         32
   166          9
   167          8
   168          2
   174          2
   175          2
   176          8
   177          7
   178         41
   179         33
   180         16
   181         11
   182          3
   187          3
   188          3
   189         21
   190         12
   191         43
   192         33
   193         37
   194          7
   195          2
   200          3
   201          5
   202         21
   203         19
   204         14
   205         22
   206         26
   207         26
   208          9
   213          3
   215          5
   216          3
   217          3
   218          3
   219          5
   220          8
   221        419
   222         78
   223          8
   234          2
   235          7
   236        246
   237         50
   238          5