##TITLE=Library Entry 22290
##JCAMP-DX=Revision 4.10 
##DATA TYPE=MASS SPECTRUM
##SAMPLE DESCRIPTION=A.Pleshkova, Nesmeyanov Inst.Org.Elem.Cpds, Moscow
##NAMES=HP
##CAS NAME=3,3-Diethyldiaziridine
##MOLFORM=C5H12N2
##CAS REGISTRY NO=52175-94-7
##MP= -300
##BP= -300
##MW= 100
##$RETENTION INDEX=0
##$CONDENSED SPECTRUM=NO
##NPOINTS= 21
##XYDATA=(XY..XY) 1 
    29        450
    30         22
    38         30
    39        270
    40         53
    41        370
    42        310
    43         84
    44         56
    45          6
    54        180
    55        580
    56        999
    57         47
    70        150
    71        130
    72         13
    84         81
    85        150
    86         13
   100          3