##TITLE=Library Entry 52154
##JCAMP-DX=Revision 4.10 
##DATA TYPE=MASS SPECTRUM
##SAMPLE DESCRIPTION=Chemical Concepts
##NAMES=HP
##CAS NAME=Cyclopentanecarboxylic acid, 1-methyl-
##MOLFORM=C7H12O2
##CAS REGISTRY NO=5217-05-0
##MP= -300
##BP= -300
##MW= 128
##$RETENTION INDEX=0
##$CONDENSED SPECTRUM=NO
##NPOINTS= 84
##XYDATA=(XY..XY) 1 
    25          0
    26         12
    27        130
    28         13
    29         91
    30          2
    31          6
    33          0
    36          0
    37          2
    38          9
    39        149
    40         35
    41        324
    42         55
    43         36
    44          2
    45         33
    46          1
    47          1
    49          0
    50          8
    51         17
    52          8
    53         46
    54         21
    55        546
    56         34
    57          9
    58          6
    59         24
    60          3
    61          2
    62          1
    63          3
    64          0
    65         10
    66          5
    67         98
    68         12
    69         17
    70          2
    71          3
    72          1
    73         14
    74         14
    75          1
    77          6
    78          1
    79         13
    80          2
    81         28
    82         38
    83        999
    84         63
    85         16
    86          8
    87        232
    88         12
    89          1
    90          0
    91          0
    92          0
    93          0
    94          0
    95         15
    96          1
    97          0
    98          0
    99          5
   100         30
   101          1
   102          0
   109          1
   110          2
   111          2
   112          0
   113        154
   114         10
   115          1
   127          2
   128         71
   129          5
   130          0