##TITLE=Library Entry 76520
##JCAMP-DX=Revision 4.10 
##DATA TYPE=MASS SPECTRUM
##SAMPLE DESCRIPTION=Div. of Experiment Therapeutics WRAIR, WRAMC, Washingto
n DC 20307
##NAMES=HP
##CAS NAME=2-Cyanomethyl-benzisothiazolinone-1,1-dioxide
##MOLFORM=C9H6N2O3S
##CAS REGISTRY NO=52188-12-2
##MP= -300
##BP= -300
##MW= 222
##$RETENTION INDEX=0
##$CONDENSED SPECTRUM=NO
##NPOINTS= 104
##XYDATA=(XY..XY) 1 
    41         12
    42          4
    43          9
    45         35
    46         17
    48        157
    50        944
    51        145
    53        186
    54         40
    55         22
    56         50
    57          9
    58         10
    59          3
    61         27
    62         50
    63        172
    64        150
    65         40
    66          8
    67          2
    69         73
    70         43
    71          6
    72          2
    73          2
    74        353
    75        316
    76        971
    77        184
    78         26
    79          4
    81         23
    82         14
    83          5
    84         14
    85          4
    86          6
    87          4
    88          9
    90         75
    92        165
    93         13
    95         34
    96         36
    97         12
    98          3
    99          4
   100          2
   102        153
   103        999
   104        598
   105        203
   106         55
   107          5
   108          9
   109          2
   110          2
   112          3
   113          4
   115         60
   116          8
   118         19
   120         69
   121         13
   122          5
   123          0
   124          1
   125          1
   129        106
   130        152
   131         75
   132         21
   133          2
   135          5
   136          6
   137          0
   140          8
   142        105
   143          9
   150          3
   152         25
   153          2
   157         99
   158        462
   159         38
   160          3
   166          3
   168         11
   169         16
   170          1
   175          2
   179          0
   196         66
   197          7
   198          3
   199          3
   200          0
   221          0
   222        350
   223         53
   224         20
   225          2