##TITLE=Library Entry 59998
##JCAMP-DX=Revision 4.10 
##DATA TYPE=MASS SPECTRUM
##SAMPLE DESCRIPTION=Chemical Concepts
##NAMES=HP
##CAS NAME=Benzene, [[(3,7-dimethyl-2,6-octadienyl)oxy]methyl]-, (E)-
##MOLFORM=C17H24O
##CAS REGISTRY NO=52188-73-5
##MP= -300
##BP= -300
##MW= 244
##$RETENTION INDEX=0
##$CONDENSED SPECTRUM=NO
##NPOINTS= 150
##XYDATA=(XY..XY) 1 
    24          0
    25          0
    26          1
    27         58
    28          5
    29         56
    30          1
    31          0
    37          0
    38          2
    39         88
    40          4
    41        590
    42         29
    43         48
    44          1
    45          1
    50          5
    51         30
    52         12
    53         77
    54          9
    55         54
    56          5
    57         19
    58          0
    59         13
    61          0
    62          1
    63         10
    64          4
    65        112
    66         11
    67        114
    68        203
    69        873
    70         64
    71         13
    72          1
    73          1
    74          0
    75          0
    76          1
    77         62
    78         14
    79         55
    80         76
    81         79
    82         30
    83         16
    84          6
    85         12
    86          1
    87          0
    89         14
    90          9
    91        999
    92        161
    93        173
    94         49
    95        147
    96         19
    97         17
    98          1
    99          0
   103          2
   104          4
   105         19
   106          3
   107         74
   108         30
   109         66
   110          5
   111          3
   112          0
   115          1
   116          0
   117          5
   118          2
   119          5
   120          2
   121         66
   122         14
   123        207
   124         21
   125          2
   127          0
   128          1
   129          3
   130          2
   131          7
   132          2
   133          1
   134          2
   135         23
   136        101
   137         15
   138         14
   139          2
   140          0
   141          0
   142          0
   143          3
   144          1
   145          5
   146          0
   147          0
   148          0
   149         18
   150          1
   151          0
   152         22
   153         50
   154          5
   155          0
   156          0
   157          1
   158          0
   159          6
   160          3
   161          1
   162          7
   163          2
   164          0
   167          0
   169          0
   170          0
   171          1
   173          4
   174          4
   175          0
   183          1
   186          0
   187          0
   199          0
   201          2
   202          0
   204          0
   211          0
   213          0
   215          0
   223          0
   224          0
   226          0
   229          3
   230          0
   241          0
   244         28
   245          5
   246          0