##TITLE=Library Entry 81582
##JCAMP-DX=Revision 4.10 
##DATA TYPE=MASS SPECTRUM
##SAMPLE DESCRIPTION=Japan AIST/NIMC Database- Spectrum MS-NW-6397
##NAMES=HP
##CAS NAME=Benzeneacetic acid, .alpha.-hydroxy-.alpha.-phenyl-, ethyl ester
##MOLFORM=C16H16O3
##CAS REGISTRY NO=52182-15-7
##MP= -300
##BP= -300
##MW= 256
##$RETENTION INDEX=0
##$CONDENSED SPECTRUM=NO
##NPOINTS= 117
##XYDATA=(XY..XY) 1 
    14          2
    15          7
    16          2
    18          2
    26          7
    27         33
    28         41
    29         67
    30          2
    31         10
    32          2
    36          2
    38          3
    39         13
    40          1
    41          1
    42          1
    43          6
    44         16
    45          6
    46          1
    49          1
    50         16
    51         72
    52          9
    53          3
    55          2
    56          1
    57          1
    60          1
    61          1
    62          5
    63         11
    64          4
    65          4
    66          1
    69          3
    70          1
    73          1
    74          7
    75          8
    76         18
    77        407
    78         35
    79          3
    81          2
    82          7
    83          2
    84          1
    86          3
    87          5
    88          3
    89          5
    90          1
    91          4
    98          1
    99          1
   100          1
   101          2
   102          3
   103          2
   104          5
   105        999
   106         81
   107          6
   110          1
   113          3
   114          2
   115          9
   116          1
   121          1
   122          1
   126          4
   127          4
   128          4
   129          1
   133          4
   137          1
   138          1
   139         10
   140          1
   141          1
   150          2
   151          6
   152         25
   153         13
   154          5
   155          4
   158          1
   159          1
   162          1
   163          9
   164          9
   165         78
   166         29
   167         20
   168          5
   178          2
   179          1
   180          1
   181         24
   182         32
   183        882
   184        130
   185         11
   186          1
   193          1
   194          9
   195          2
   209          3
   210          2
   211        489
   212         84
   213          9
   239          5
   240          2
   256          1