##TITLE=Library Entry 99796
##JCAMP-DX=Revision 4.10 
##DATA TYPE=MASS SPECTRUM
##SAMPLE DESCRIPTION=A.A.Kutin, Moscow, Russia
##NAMES=HP
##CAS NAME=Propenone, 3-(3-chlorophenyl)-1-(4-methylphenyl)-
##MOLFORM=C16H13ClO
##CAS REGISTRY NO=52182-34-0
##MP= -300
##BP= -300
##MW= 256
##$RETENTION INDEX=0
##$CONDENSED SPECTRUM=NO
##NPOINTS= 154
##XYDATA=(XY..XY) 1 
    35          2
    37         11
    38         40
    39        280
    40         24
    41         68
    42          3
    43          0
    45          1
    50        171
    51        262
    52         48
    53         29
    54          2
    55          1
    60          3
    61         21
    62         78
    63        224
    64         57
    65        613
    66         37
    67          1
    69          4
    70          5
    72          2
    73         18
    74        106
    75        331
    76        109
    77         45
    78          7
    79          2
    82         30
    84          8
    85         23
    86         22
    87         30
    88         29
    89        170
    90         86
    91        980
    92         91
    93          6
    95         86
    96         50
    97         17
    98         19
    99         24
   101        362
   102        423
   103         43
   104          3
   105          5
   106          2
   108          1
   109         17
   110         57
   111         66
   112          9
   113         42
   114         26
   115         57
   116         26
   117          8
   119        999
   120         89
   121          6
   122          2
   123          2
   125          5
   126          8
   127         13
   128          6
   129          4
   130          1
   131          2
   136         58
   137        158
   138         36
   139         65
   140          7
   141          3
   144         47
   145         33
   146          4
   149          7
   150          9
   151         18
   152         25
   153          6
   161          1
   162          3
   163         16
   165        324
   166         40
   167         84
   168          9
   173          1
   174          2
   175          4
   176         36
   177         48
   178        352
   179         75
   180          8
   181          1
   186          2
   187          4
   188          5
   189         50
   190         28
   191         71
   192        103
   193        164
   194         26
   195          2
   199         11
   200          4
   201          6
   202         12
   203          9
   204          3
   205         11
   206         10
   207          1
   212         17
   213         80
   214         18
   215         28
   216          4
   218          1
   219          6
   221        584
   222        104
   223         10
   225          3
   227         35
   228         79
   229         24
   230         25
   231          4
   239          8
   241        304
   242         52
   243        100
   244         16
   245          1
   255        540
   256        893
   257        322
   258        299
   259         49
   260          4