##TITLE=Library Entry 86044
##JCAMP-DX=Revision 4.10 
##DATA TYPE=MASS SPECTRUM
##SAMPLE DESCRIPTION=CARL DJERASSI DEPT OF CHEM STANFORD UNIV STANFORD CALIF
 94305
##NAMES=HP
##CAS NAME=1-Piperidinecarboxaldehyde, 2-(3,4-dihydro-2H-pyrrol-5-yl)-
##MOLFORM=C10H16N2O
##CAS REGISTRY NO=52196-11-9
##MP= -300
##BP= -300
##MW= 180
##$RETENTION INDEX=1580
##$CONDENSED SPECTRUM=NO
##NPOINTS= 17
##XYDATA=(XY..XY) 1 
    41        130
    65         60
    66         70
    80         30
    81         60
    82         30
    83         60
    84         70
    96        720
    97         40
   109        999
   110         90
   113         40
   135         40
   151         80
   163         10
   180         20