##TITLE=Library Entry 86465
##JCAMP-DX=Revision 4.10 
##DATA TYPE=MASS SPECTRUM
##SAMPLE DESCRIPTION=NIST Mass Spectrometry Data Center
##NAMES=HP
##CAS NAME=2-(Phenylthio)acetonitrile
##MOLFORM=C8H7NS
##CAS REGISTRY NO=5219-61-4
##MP= -300
##BP= -300
##MW= 149
##$RETENTION INDEX=0
##$CONDENSED SPECTRUM=NO
##NPOINTS= 76
##XYDATA=(XY..XY) 1 
    12          3
    13          7
    14          4
    18          4
    25          2
    26          8
    27         15
    28         10
    32          2
    37         14
    38         39
    39        155
    40         49
    41          3
    44          4
    45         67
    46          9
    47          4
    48          2
    49          8
    50         76
    51        122
    52         10
    53          2
    54          2
    56          1
    57         22
    58         20
    59          8
    60          2
    61         11
    62         18
    63         37
    64          8
    65        239
    66         17
    68          2
    69        108
    70         13
    71         10
    72          2
    73          7
    74         30
    75         15
    76          9
    77         41
    78         18
    79          2
    80          1
    81         16
    82         31
    83         18
    84          3
    89          3
    91          1
    93          5
    95          1
   103          3
   104         14
   105          3
   106          2
   107          4
   108         55
   109        999
   110         75
   111         46
   112          2
   116         25
   117          6
   121         23
   122         11
   123          3
   149        460
   150         50
   151         24
   152          2