##TITLE=Library Entry 98081
##JCAMP-DX=Revision 4.10 
##DATA TYPE=MASS SPECTRUM
##SAMPLE DESCRIPTION=Exported from NIST MS Search
##NAMES=HP
##CAS NAME=2,3-Pyrazinedicarbonitrile, 5-amino-6-[(2,3-dihydro-3-hydroxy-2-o
xo-1H-indol-3-yl)amino]-
##MOLFORM=C14H9N7O2
##CAS REGISTRY NO=52197-20-3
##MP= -300
##BP= -300
##MW= 307
##$RETENTION INDEX=0
##$CONDENSED SPECTRUM=NO
##NPOINTS= 15
##XYDATA=(XY..XY) 1 
    75        110
    76         30
    89         90
    90        220
    91        609
    92         60
   105         30
   118        999
   119        100
   132        100
   146        559
   147         70
   159        150
   160         20
   307         10