##TITLE=Library Entry 87365
##JCAMP-DX=Revision 4.10 
##DATA TYPE=MASS SPECTRUM
##SAMPLE DESCRIPTION=Chemical Concepts
##NAMES=HP
##CAS NAME=Propanoic acid, 3-(phenylthio)-
##MOLFORM=C9H10O2S
##CAS REGISTRY NO=5219-65-8
##MP= -300
##BP= -300
##MW= 182
##$RETENTION INDEX=0
##$CONDENSED SPECTRUM=NO
##NPOINTS= 106
##XYDATA=(XY..XY) 1 
    26         27
    27         67
    29          9
    36         10
    37         14
    38         20
    39         80
    40         10
    41         20
    42          8
    43         23
    44         27
    45        190
    46          6
    47         13
    49          3
    50         47
    51        101
    52         16
    53         19
    54         16
    55        159
    56          9
    57         22
    58         31
    59         27
    60         15
    61         13
    62         16
    63         37
    64          5
    65        156
    66        325
    67         27
    68          9
    69        116
    70         11
    71         33
    72        215
    73         34
    74         28
    75         17
    76         19
    77        161
    78         48
    79         36
    80          9
    81         29
    82         40
    83         21
    84        193
    85         14
    86         10
    87          5
    89          4
    90          2
    91         33
    92         10
    93         13
    94          7
    95         14
    97          8
    98          7
    99          3
   100          4
   101          5
   102          3
   103          9
   104          7
   105         13
   106          5
   107         12
   108         49
   109        335
   110        999
   111        104
   112         67
   113          7
   114          3
   115         10
   116          3
   117          4
   118          4
   119          4
   120          5
   121          9
   122          6
   123        290
   124         37
   125         21
   126          3
   127          7
   128          7
   129         16
   130          7
   131          5
   135         41
   136         40
   137         19
   138          5
   141          7
   149         12
   182        308
   183         42
   184         19
   185         11