##TITLE=Library Entry 76678
##JCAMP-DX=Revision 4.10 
##DATA TYPE=MASS SPECTRUM
##SAMPLE DESCRIPTION=Japan AIST/NIMC Database- Spectrum MS-NW-4472
##NAMES=HP
##CAS NAME=Ethanedione, diphenyl-, dioxime, (E,E)-
##MOLFORM=C14H12N2O2
##CAS REGISTRY NO=522-34-9
##MP= -300
##BP= -300
##MW= 240
##$RETENTION INDEX=0
##$CONDENSED SPECTRUM=NO
##NPOINTS= 181
##XYDATA=(XY..XY) 1 
    12          1
    14          1
    16          4
    17         22
    18         89
    25          2
    26         25
    27         53
    28         28
    29          2
    30         29
    32          4
    34          1
    36          4
    37         39
    38         56
    39        210
    40         16
    41         20
    42          3
    43          5
    44          6
    45          2
    48          4
    49         24
    50        235
    51        363
    52         96
    53         14
    54          2
    55          5
    56          3
    57          4
    59          1
    60          3
    61         27
    62         71
    63        255
    64        165
    65         51
    66          8
    67          3
    68          1
    69          4
    70          3
    71          3
    72          3
    73         13
    74         65
    75        111
    76        418
    77        657
    78         63
    79          7
    80          2
    81          5
    82         20
    83         13
    84          6
    85          7
    86         18
    87         30
    88         43
    89        713
    90         70
    91        201
    92         22
    93          7
    94          6
    95         10
    96          6
    97          4
    98          9
    99         14
   100          9
   101          7
   102         46
   103        999
   104        329
   105        207
   106         20
   107          2
   109          2
   110          4
   111         10
   112          3
   113          7
   114         12
   115         23
   116         14
   117          4
   118          3
   119        542
   120         97
   121         16
   122         13
   123          2
   124          1
   125          4
   126         17
   127          7
   128          6
   129          7
   130          3
   132         26
   133          3
   135          5
   136          1
   137          5
   138          6
   139         17
   140          9
   141          3
   142          1
   143          1
   145          2
   146          1
   147          2
   149          2
   150         12
   151         28
   152         36
   153          8
   154          2
   155          2
   156          1
   161          1
   162          3
   163         17
   164         19
   165        189
   166         98
   167         23
   168          4
   169          1
   170          1
   171          1
   174          2
   175          5
   176         44
   177         42
   178        384
   179         65
   180         84
   181         13
   182          9
   183          4
   184          1
   188          3
   189          5
   190         42
   191         29
   192        792
   193        407
   194        102
   195         17
   196          5
   202          1
   203          4
   204          6
   205         49
   206         26
   207         21
   208         21
   209         13
   210          3
   214          1
   218          1
   219          1
   220          1
   221          6
   222        469
   223        147
   224         65
   225         20
   226          3
   238         39
   239         15
   240        374
   241         63
   242          7