##TITLE=Library Entry 65757
##JCAMP-DX=Revision 4.10 
##DATA TYPE=MASS SPECTRUM
##SAMPLE DESCRIPTION=NIST Mass Spectrometry Data Center, 1998.
##NAMES=HP
##CAS NAME=Furil dioxime
##MOLFORM=C10H8N2O4
##CAS REGISTRY NO=522-27-0
##MP= -300
##BP= -300
##MW= 220
##$RETENTION INDEX=0
##$CONDENSED SPECTRUM=NO
##NPOINTS= 141
##XYDATA=(XY..XY) 1 
    25          4
    26         34
    27         50
    28         68
    29        146
    30         57
    36          8
    37        147
    38        357
    39        839
    40         62
    41         95
    42         52
    43         10
    48          3
    49         21
    50        144
    51        331
    52        179
    53        155
    54        109
    55        226
    56         27
    57          8
    58          4
    59         15
    60          5
    61         25
    62         75
    63        151
    64        438
    65        327
    66        136
    67        121
    68         84
    69         39
    70         15
    71         11
    72          6
    73         18
    74         40
    75         90
    76        133
    77        187
    78         75
    79        112
    80         96
    81         66
    82         51
    83        192
    84        198
    85         18
    86         16
    87         25
    88         32
    89        244
    90        114
    91         74
    92         63
    93        999
    94        615
    95        202
    96         20
    97         32
    98         18
    99          9
   100          6
   101         14
   102         87
   103         72
   104         53
   105         46
   106        160
   107         72
   108         13
   109        243
   110         96
   111         14
   112          3
   114         15
   115         12
   116        172
   117        259
   118        250
   119         84
   120         30
   121        147
   122         37
   123          3
   124          5
   126          2
   127          3
   128          5
   129         21
   130         18
   131         96
   132         28
   133         26
   134         24
   135         12
   136          9
   137        164
   138         14
   143          8
   144         90
   145         97
   146        177
   147         70
   148         35
   149          8
   150          3
   156          4
   157          5
   158         29
   159         10
   160         23
   161         45
   162         30
   163         11
   172        441
   173        312
   174         95
   175        325
   176         47
   177          4
   185          2
   186         29
   187          9
   188         62
   189         14
   190         13
   191         84
   192          9
   202        193
   203         76
   204         22
   205          3
   218          5
   220        341
   221         42
   222          5