##TITLE=Library Entry 73618
##JCAMP-DX=Revision 4.10 
##DATA TYPE=MASS SPECTRUM
##SAMPLE DESCRIPTION=AAFS Toxicology Section MS DB Committee, U. Alberta, Ca
nada
##NAMES=HP
##CAS NAME=Ethopropazine
##MOLFORM=C19H24N2S
##CAS REGISTRY NO=522-00-9
##MP= -300
##BP= -300
##MW= 312
##$RETENTION INDEX=2360
##$CONDENSED SPECTRUM=NO
##NPOINTS= 115
##XYDATA=(XY..XY) 1 
    42         24
    43          4
    44         50
    45          4
    50          2
    51          4
    54          3
    55          2
    56         30
    57          7
    58          4
    63          5
    64          1
    65          6
    68          3
    69         12
    70         27
    71          9
    72         55
    73          3
    74          2
    75          4
    76          4
    77         11
    78          3
    82          5
    83          1
    84          9
    85          2
    86          3
    88          1
    89          4
    91          2
    93          1
    95          3
    96          1
    98          8
   100        999
   101         70
   102          4
   103          2
   105          1
   106          2
   108          7
   109          8
   112          1
   113          2
   114          4
   115          5
   116          1
   119          1
   121          2
   122          1
   126          3
   127         10
   128          6
   129          1
   133          3
   135          1
   136          1
   138          2
   139         14
   140          9
   145          2
   146          2
   150          2
   151          8
   152         23
   153         11
   154         19
   155          2
   157          1
   159          1
   164          3
   165          1
   166         11
   167         11
   168          1
   169          2
   171          9
   172          3
   173          1
   177          2
   178         10
   179         17
   180         68
   181         10
   182          1
   183          4
   184          8
   185          2
   196          6
   197         13
   198         71
   199         20
   200          5
   201          1
   204          2
   205          1
   206          1
   208          2
   209          6
   211          2
   212         19
   213         27
   214          4
   223          6
   224          4
   225          2
   238          2
   239          5
   240          3
   312         50
   313         13
   314          3