##TITLE=Library Entry 16642
##JCAMP-DX=Revision 4.10 
##DATA TYPE=MASS SPECTRUM
##SAMPLE DESCRIPTION=CARL DJERASSI DEPT OF CHEM STANFORD UNIV STANFORD CALIF
 94305
##NAMES=HP
##CAS NAME=11H-Dibenzo[b,e][1,4]dioxepin-7-carboxylic acid, 8-hydroxy-3-meth
oxy-11-oxo-1-(1-oxopentyl)-6-pentyl-
##MOLFORM=C25H28O8
##CAS REGISTRY NO=522-53-2
##MP= -300
##BP= -300
##MW= 456
##$RETENTION INDEX=0
##$CONDENSED SPECTRUM=NO
##NPOINTS= 177
##XYDATA=(XY..XY) 1 
    41        191
    42         10
    43        141
    44        999
    45         10
    51         10
    52         10
    53         40
    55        191
    56         10
    57         60
    62         10
    63         30
    65         50
    66         10
    67         40
    69        121
    71         10
    77         50
    78         10
    79         20
    80         20
    82         20
    84         10
    89         20
    90         10
    91         40
    93         20
    94         10
    95         20
    96         10
    97        131
   102         10
   103         10
   105         50
   106         50
   107         40
   111         10
   115         30
   117         10
   118         10
   119         20
   120         10
   121         30
   122         40
   123        434
   124        131
   125         10
   128         10
   129         10
   131         10
   132         10
   133         10
   134         30
   135         40
   136         40
   137         30
   138         10
   139         40
   140         10
   144         10
   145         10
   147         20
   148         10
   149        131
   150         30
   151         50
   152         10
   157         20
   159         10
   161         40
   162         10
   163         60
   164         10
   171         10
   173         10
   175         20
   177         70
   178        313
   179        141
   180         20
   181         10
   185         10
   186         10
   187         10
   189         30
   190         10
   191         10
   192        191
   193         60
   198         10
   199         10
   200         10
   201         20
   203         50
   204         30
   205        161
   206         30
   207         10
   213         10
   214         10
   215         20
   217         60
   218         20
   219         10
   226         10
   227         20
   228         10
   229         20
   231         10
   232         20
   233         10
   235        202
   236         30
   241         10
   242         10
   243         40
   244         10
   245         20
   248         20
   253         10
   255         10
   257         30
   258         10
   261         10
   267         20
   269         20
   271         60
   272         20
   281         10
   283         10
   285         60
   286         10
   287         20
   295         10
   297         10
   299         40
   300         80
   301         20
   308         20
   310         20
   312        101
   313         40
   314         10
   325         10
   327        121
   328         40
   329         10
   339         30
   341         50
   342         10
   343         10
   353         10
   355        171
   356        101
   357         20
   365         10
   367         10
   369         20
   370         30
   371         10
   381         20
   382         10
   383        101
   384        131
   385         20
   396         20
   400         10
   410         40
   411         20
   412        969
   413        262
   414         40
   438        101
   439         20
   456        222
   457         60