##TITLE=Library Entry 54006
##JCAMP-DX=Revision 4.10 
##DATA TYPE=MASS SPECTRUM
##SAMPLE DESCRIPTION=Div. of Experiment Therapeutics WRAIR, WRAMC, Washingto
n DC 20307
##NAMES=HP
##CAS NAME=Dodecahydro-1H,6H,11H-tripyrido[1,2-a:1',2'-c:1'',2''-e][1,3,5]tr
iazine
##MOLFORM=C15H27N3
##CAS REGISTRY NO=522-33-8
##MP= -300
##BP= -300
##MW= 249
##$RETENTION INDEX=0
##$CONDENSED SPECTRUM=NO
##NPOINTS= 116
##XYDATA=(XY..XY) 1 
    41        280
    42        117
    43         31
    44         23
    45          5
    47         26
    49         14
    51          7
    53         63
    54        182
    55        560
    56        146
    57         12
    58          4
    60          1
    61          2
    62          2
    63          1
    64          1
    65         14
    67         50
    68         67
    70         56
    71          5
    72          4
    73          2
    74          1
    75          0
    76          0
    77          9
    79         13
    80         44
    82        190
    83        714
    84        999
    85         62
    86         43
    88          8
    91          5
    92          3
    93          8
    94         22
    95          6
    96         58
    97         19
    98         10
    99          4
   100          1
   101          1
   103          7
   105          1
   106          9
   108         18
   109         17
   110         44
   111         39
   112          7
   113          1
   118          0
   120          7
   121          6
   122         29
   123        122
   124         25
   125          6
   126          3
   132          1
   133          2
   134          8
   135         15
   136         19
   137         42
   138         54
   139          9
   140          2
   147          0
   148          8
   149         15
   150         17
   151          7
   152          2
   153          0
   154          1
   160          0
   161          1
   162          2
   163          9
   164          9
   165        139
   166         72
   167         17
   168          2
   175          3
   177         13
   178          7
   179          6
   180          2
   190          2
   191         11
   192        290
   193         43
   194          2
   205          2
   206         16
   207          5
   218          0
   219          0
   220          9
   221          3
   233          0
   234          1
   246          1
   248         13
   249        120
   250         18
   251          0