##TITLE=Library Entry 7255
##JCAMP-DX=Revision 4.10 
##DATA TYPE=MASS SPECTRUM
##SAMPLE DESCRIPTION=J. Klune, Insect Chem. Ecol. Lab., USDA, Beltsville, MD
 20705
##NAMES=HP
##CAS NAME=cis-7,cis-11-Hexadecadien-1-yl acetate
##MOLFORM=C18H32O2
##CAS REGISTRY NO=52207-99-5
##MP= -300
##BP= -300
##MW= 280
##$RETENTION INDEX=0
##$CONDENSED SPECTRUM=NO
##NPOINTS= 151
##XYDATA=(XY..XY) 1 
    41        428
    43        999
    44         27
    45          8
    47          0
    49          1
    50          2
    51          9
    52          7
    53         90
    54        268
    55        672
    56         54
    57         46
    58          5
    59          3
    61         67
    62          1
    63          2
    65         37
    67        490
    68        134
    69        152
    70         20
    71         22
    72          2
    73         39
    74          1
    75          0
    77         44
    78         18
    79        155
    80        117
    81        487
    82        212
    83         80
    84         14
    85         13
    86          2
    87          3
    89          0
    91         35
    92          9
    93         99
    94         82
    95        188
    96        215
    97         76
    98         11
    99          8
   100          2
   101          4
   102          0
   103          2
   104          0
   105         10
   106          3
   107         59
   108         35
   109         63
   110         72
   111         18
   112          5
   113          5
   114          1
   115          4
   116          0
   117          1
   118          1
   119          5
   120          3
   121         80
   122         73
   123         86
   124         66
   125         12
   126          2
   127          1
   128          1
   129          2
   130          1
   131          0
   133          2
   134          1
   135         56
   136         48
   137         48
   138         37
   139          7
   140          1
   141          3
   142          0
   143          1
   145          0
   147          2
   148          1
   149         61
   150         31
   151         14
   152         11
   153          2
   154          0
   155          1
   157          0
   158          0
   159          1
   161          1
   162          0
   163         37
   164         17
   165          6
   166          4
   167          1
   168          0
   170          0
   173          0
   175          1
   177         12
   178          5
   179          3
   180          1
   181          1
   182          1
   189          0
   191          7
   192          6
   193          2
   194          3
   195          1
   196          2
   199          0
   205          2
   209          2
   210          0
   211          0
   218          0
   219          2
   220         16
   221          5
   222         17
   223          6
   224          2
   227          0
   236          1
   237          6
   238          1
   251          0
   279          0
   280         72
   281         14
   282          2