##TITLE=Library Entry 53074
##JCAMP-DX=Revision 4.10 
##DATA TYPE=MASS SPECTRUM
##SAMPLE DESCRIPTION=NIST Mass Spectrometry Data Center, 1994
##NAMES=HP
##CAS NAME=3-Amino-2-cyclohexenone
##MOLFORM=C6H9NO
##CAS REGISTRY NO=5220-49-5
##MP= -300
##BP= -300
##MW= 111
##$RETENTION INDEX=0
##$CONDENSED SPECTRUM=NO
##NPOINTS= 40
##XYDATA=(XY..XY) 1 
    17          2
    25          4
    26         29
    27         95
    30          9
    37         18
    38         43
    39        140
    40        107
    41        188
    42        104
    43         18
    44         30
    49          4
    50         15
    51         23
    52         37
    53         33
    54        277
    55        513
    56         22
    61          3
    62          6
    63          9
    65         19
    66         12
    67         30
    68         72
    69          6
    80         20
    81          8
    83        999
    84         51
    93          3
    94          5
    96         15
   109          4
   111        540
   112         36
   113          3