##TITLE=Library Entry 40288
##JCAMP-DX=Revision 4.10 
##DATA TYPE=MASS SPECTRUM
##SAMPLE DESCRIPTION=J.P.AUNE UNIVERSITY OF PROVENCE, MARSEILLES, FRANCE
##NAMES=HP
##CAS NAME=Thiazole, 5-methyl-2-phenyl-
##MOLFORM=C10H9NS
##CAS REGISTRY NO=5221-69-2
##MP= -300
##BP= -300
##MW= 175
##$RETENTION INDEX=0
##$CONDENSED SPECTRUM=NO
##NPOINTS= 19
##XYDATA=(XY..XY) 1 
    39        105
    43         83
    45         65
    50         27
    51         52
    58         25
    63         20
    71        280
    72        999
    73         35
    74         32
    76         20
    77         40
   103         25
   104         22
   174         21
   175        720
   176         61
   177         31