##TITLE=Library Entry 66979
##JCAMP-DX=Revision 4.10 
##DATA TYPE=MASS SPECTRUM
##SAMPLE DESCRIPTION=Japan AIST/NIMC Database- Spectrum MS-IW-3941
##NAMES=HP
##CAS NAME=Acetamide, N-4-pyridinyl-
##MOLFORM=C7H8N2O
##CAS REGISTRY NO=5221-42-1
##MP= -300
##BP= -300
##MW= 136
##$RETENTION INDEX=0
##$CONDENSED SPECTRUM=NO
##NPOINTS= 63
##XYDATA=(XY..XY) 1 
    14          3
    15         27
    26         13
    27          7
    28         64
    29          3
    30          7
    37         11
    38         31
    39         87
    40         56
    41         70
    42         43
    43        572
    44         17
    45          3
    48          1
    49          4
    50         27
    51         72
    52         46
    53         11
    54         18
    55          3
    57          1
    61          1
    62          2
    63          5
    64          9
    65         13
    66         43
    67        353
    68         34
    69          1
    73          1
    74          3
    75          7
    76          5
    77          9
    78         38
    79          9
    80          7
    81          2
    90          1
    91          2
    92          6
    93         54
    94        999
    95         77
    96          3
   105          5
   106          1
   107         12
   108         53
   109          4
   120          2
   121          7
   134          1
   135          4
   136        547
   137         48
   138          3
   139          1