##TITLE=Library Entry 85155
##JCAMP-DX=Revision 4.10 
##DATA TYPE=MASS SPECTRUM
##SAMPLE DESCRIPTION=Exported from NIST MS Search
##NAMES=HP
##CAS NAME=2-Cyclohexen-1-one, 4-(3-hydroxy-1-butenyl)-3,5,5-trimethyl-, [R-
[R*,R*-(E)]]-
##MOLFORM=C13H20O2
##CAS REGISTRY NO=52210-15-8
##MP= -300
##BP= -300
##MW= 208
##$RETENTION INDEX=0
##$CONDENSED SPECTRUM=NO
##NPOINTS= 96
##XYDATA=(XY..XY) 1 
    26          6
    27         27
    28         25
    29         63
    31          6
    38          9
    39        134
    40         25
    41        175
    42          6
    43        265
    44          6
    45        245
    46          6
    50          6
    51         36
    52         18
    53         81
    54         18
    55         75
    56         18
    57         18
    58         11
    59         11
    62          9
    63         18
    64          6
    65         54
    66         27
    67         72
    68         11
    69         45
    70          9
    71         27
    72         11
    75         11
    76         11
    77        104
    78         36
    79        104
    80         56
    81         86
    82         29
    83         18
    89          9
    90          9
    91        154
    92         27
    93         45
    94         36
    95        131
    96         18
    97         11
   102          9
   104          9
   105         34
   106         22
   107        102
   108        999
   109        286
   110         38
   114          9
   116          9
   117          9
   119         34
   120          9
   121         25
   122          9
   123         43
   124          9
   130          4
   133         27
   134         54
   135         72
   136         18
   137         27
   138         11
   147         11
   148         13
   149         20
   150          9
   151         18
   152        163
   153         18
   159          4
   160          2
   163          2
   164          7
   165         18
   166          4
   175         11
   190          8
   192          4
   193         11
   208         19
   209          5