##TITLE=Library Entry 90842
##JCAMP-DX=Revision 4.10 
##DATA TYPE=MASS SPECTRUM
##SAMPLE DESCRIPTION=Exported from NIST MS Search
##NAMES=HP
##CAS NAME=2H-Pyran-2-one, 5,6-dihydro-5-hydroxy-4-methoxy-6-(2-phenyletheny
l)-, [5R-[5.alpha.,6.alpha.(E)]]-
##MOLFORM=C14H14O4
##CAS REGISTRY NO=52247-79-7
##MP= -300
##BP= -300
##MW= 246
##$RETENTION INDEX=0
##$CONDENSED SPECTRUM=NO
##NPOINTS= 15
##XYDATA=(XY..XY) 1 
    56        849
    69        110
    77        130
    86        529
    98         15
   103         80
   104         70
   105         80
   114        999
   115        180
   131         80
   133        529
   134         50
   228         15
   246         42