##TITLE=Library Entry 71383
##JCAMP-DX=Revision 4.10 
##DATA TYPE=MASS SPECTRUM
##SAMPLE DESCRIPTION=B.Kh. Kimsanov, Ufa Petroleum Inst., Ufa, USSR
##NAMES=HP
##CAS NAME=2-Propanol, 1-hexyloxy-(1-piperidinyl)-
##MOLFORM=C14H29NO2
##CAS REGISTRY NO=52250-82-5
##MP= -300
##BP= -300
##MW= 243
##$RETENTION INDEX=0
##$CONDENSED SPECTRUM=NO
##NPOINTS= 24
##XYDATA=(XY..XY) 1 
    29          7
    30          7
    41         21
    42         21
    43         27
    44         14
    55         14
    56          7
    57          7
    69         14
    70         14
    84          7
    85         14
    96          7
    97          7
    98        999
    99         85
   124          7
   128         85
   129         14
   142          4
   157          4
   225          7
   243         14