##TITLE=Library Entry 28939
##JCAMP-DX=Revision 4.10 
##DATA TYPE=MASS SPECTRUM
##SAMPLE DESCRIPTION=Chemical Concepts
##NAMES=HP
##CAS NAME=Pseudoephedrine, N-acryloyl-
##MOLFORM=C13H17NO2
##CAS REGISTRY NO=52253-60-8
##MP= -300
##BP= -300
##MW= 219
##$RETENTION INDEX=0
##$CONDENSED SPECTRUM=NO
##NPOINTS= 110
##XYDATA=(XY..XY) 1 
    26         10
    27        150
    28          7
    29         30
    30         33
    31         21
    37          0
    38          1
    39         16
    40          4
    41         13
    42         87
    43         21
    44         25
    45         12
    50          6
    51         38
    52          9
    53          9
    54          7
    55        392
    56         63
    57         30
    58        999
    59         53
    60          0
    62          1
    63          5
    64          1
    65          7
    67          1
    68          9
    69          3
    70          5
    71          1
    72          1
    73          2
    74          8
    75          2
    76          2
    77        104
    78         23
    79         80
    80          4
    81          1
    82          2
    83          1
    84          3
    86          7
    88          1
    89          6
    90          1
    91         16
    92          1
    93          0
    94          0
    95          1
    96          0
    97          2
    98         79
    99          4
   100          3
   101          1
   102          1
   103          2
   105         17
   106          3
   107         28
   108          2
   109          0
   110          4
   111          0
   112        651
   113        269
   114         20
   115          9
   116          4
   117          6
   118          5
   119          1
   120          0
   125          0
   126          1
   127          1
   128          1
   129          0
   130          2
   131          4
   132          1
   133          4
   134          2
   135          0
   143          1
   144          1
   146          7
   147          2
   148          8
   149          8
   150          3
   151          1
   158          1
   159          0
   164          1
   186          1
   187          0
   192          0
   197          0
   198          0
   201          1
   218          0