##TITLE=Library Entry 10676
##JCAMP-DX=Revision 4.10 
##DATA TYPE=MASS SPECTRUM
##SAMPLE DESCRIPTION=Exported from NIST MS Search
##NAMES=HP
##CAS NAME=7,9-Docosanedione
##MOLFORM=C22H42O2
##CAS REGISTRY NO=52262-76-7
##MP= -300
##BP= -300
##MW= 338
##$RETENTION INDEX=2480
##$CONDENSED SPECTRUM=NO
##NPOINTS= 107
##XYDATA=(XY..XY) 1 
    26         31
    27        114
    29        244
    36         75
    38         26
    39         77
    40         20
    41        690
    42         98
    43        999
    44         41
    53         41
    54         31
    55         85
    56        462
    57         77
    58         36
    67        119
    68         46
    69        220
    70         57
    71        220
    72         33
    79         44
    80         41
    81        124
    82         44
    83        124
    84         96
    85        327
    86         31
    93         31
    94        129
    95        168
    96         44
    97        122
    98         72
    99         49
   100        831
   101         72
   107         28
   108         41
   109        129
   110         59
   111         72
   112         77
   113        597
   114        124
   121         26
   122         15
   123         57
   124         57
   125         31
   126         15
   127         39
   128         64
   129         20
   135         26
   136         15
   137         70
   138         96
   139         28
   141         18
   142         39
   151         18
   152        129
   153         26
   154         39
   155        314
   165         20
   166         15
   167         10
   168         13
   169         18
   170        306
   171         72
   183         85
   184         20
   192        103
   193         33
   194         20
   207         26
   208         36
   209         10
   210         26
   211        168
   212         51
   213         10
   225         18
   226         23
   235         33
   236         13
   250         90
   251         20
   253        129
   254         26
   268         41
   269         10
   281         28
   282         10
   295          7
   296          7
   320         57
   321         15
   337          7
   338         36
   339         15