##TITLE=Library Entry 83752
##JCAMP-DX=Revision 4.10 
##DATA TYPE=MASS SPECTRUM
##SAMPLE DESCRIPTION=Japan AIST/NIMC Database- Spectrum MS-IW-1790
##NAMES=HP
##CAS NAME=Benzyl methyl malonate
##MOLFORM=C11H12O4
##CAS REGISTRY NO=52267-39-7
##MP= -300
##BP= -300
##MW= 208
##$RETENTION INDEX=0
##$CONDENSED SPECTRUM=NO
##NPOINTS= 88
##XYDATA=(XY..XY) 1 
    13          1
    14          4
    15         44
    26          2
    27         14
    28          3
    29         27
    30          3
    31         11
    32          1
    37          2
    38          7
    39         59
    40          6
    41         19
    42         55
    43         95
    44         10
    45          8
    49          1
    50         22
    51         69
    52         19
    53          7
    55          1
    57         38
    58          2
    59        161
    60          4
    61          3
    62          8
    63         33
    64         10
    65        123
    66          7
    68          1
    69         29
    70          2
    71          1
    73          1
    74        207
    75         19
    76          6
    77        110
    78         30
    79        195
    80         16
    81          1
    86          1
    87          9
    88         10
    89         71
    90        188
    91        815
    92         66
    93          2
   100          6
   101         98
   102          4
   103          2
   104          4
   105        105
   106         46
   107        999
   108        464
   109         34
   110          2
   115          2
   119          2
   120         22
   121          6
   122          1
   131          2
   132          1
   134          3
   147          1
   148          9
   149          1
   176          1
   177          1
   180         82
   181          9
   182          1
   190          5
   193          1
   208        129
   209         15
   210          2