##TITLE=Library Entry 7426
##JCAMP-DX=Revision 4.10 
##DATA TYPE=MASS SPECTRUM
##SAMPLE DESCRIPTION=Exported from NIST MS Search
##NAMES=HP
##CAS NAME=14,16-Hentriacontanedione, 25-hydroxy-
##MOLFORM=C31H60O3
##CAS REGISTRY NO=52262-75-6
##MP= -300
##BP= -300
##MW= 480
##$RETENTION INDEX=0
##$CONDENSED SPECTRUM=NO
##NPOINTS= 228
##XYDATA=(XY..XY) 1 
    27         21
    28         78
    29        173
    32         18
    33        278
    38          7
    39         71
    40         39
    41        460
    42        110
    43        999
    44         36
    45         18
    53         36
    54         68
    55        931
    56        147
    57        868
    58        139
    59         63
    60         10
    65          7
    66         18
    67        281
    68        102
    69        578
    70        113
    71        542
    72         47
    73         21
    76         10
    77         18
    78         10
    79         65
    80         73
    81        394
    82        136
    83        439
    84        144
    85        334
    86         28
    87         21
    91         31
    92         18
    93         28
    94         89
    95        342
    96        157
    97        357
    98        215
    99         73
   100        881
   101         89
   102         10
   105         18
   106         15
   107         63
   108         50
   109        236
   110         84
   111        178
   112         84
   113        194
   114         44
   115         28
   119         23
   120         26
   121        105
   122         84
   123        150
   124        115
   125        110
   126         34
   127         44
   128         28
   129         15
   133         42
   134         47
   135         81
   136         47
   137        110
   138        213
   139         84
   140         47
   141         94
   142         65
   143         13
   147         26
   148         34
   149         57
   150         23
   151         68
   152         71
   153         57
   154         42
   155         39
   156         42
   157         13
   161         23
   162         21
   163         31
   164         21
   165         57
   166         42
   167         84
   168         28
   169        242
   170         44
   171         15
   175         18
   177         21
   178         21
   179         26
   180         63
   181         31
   182         18
   183         78
   184         31
   185         21
   189         13
   191         21
   192        147
   193         60
   194         42
   195         26
   196         13
   197         21
   198         94
   199         18
   205          5
   206         15
   207         26
   208         28
   209         44
   210         36
   211        510
   212         89
   213         15
   217         15
   218        144
   219         52
   220         13
   222         13
   223         18
   224         10
   225         23
   226         23
   227         21
   229         15
   232         18
   233        102
   234         39
   235         68
   236        105
   237        113
   238         26
   239         21
   240         15
   250        163
   251         55
   252         28
   253        360
   254         68
   255         42
   261         28
   263         21
   265         13
   268         94
   269         57
   270         15
   276         55
   277         23
   278         13
   279        142
   280         26
   281        126
   282         26
   289         23
   292         21
   293         18
   294         57
   295         26
   297         52
   298         13
   303          7
   304         13
   305         26
   306         26
   307         60
   308         15
   310         18
   312         21
   317         21
   318         10
   319         15
   321         21
   323         10
   331          7
   332         21
   333          7
   335         52
   336         15
   337          7
   345          7
   348         73
   349         28
   351         36
   352         15
   362         10
   365          7
   366         39
   367         15
   395        494
   396        131
   397         18
   409         34
   410          7
   444        131
   445         39
   446         10
   460         10
   461         15
   462         57
   463         26
   478          4
   479          3
   480         14
   481          4