##TITLE=Library Entry 93227
##JCAMP-DX=Revision 4.10 
##DATA TYPE=MASS SPECTRUM
##SAMPLE DESCRIPTION=NIST Mass Spectrometry Data Center, 1994
##NAMES=HP
##CAS NAME=4-Methyl-.beta.-methyl-.beta.-nitrostyrene
##MOLFORM=C10H11NO2
##CAS REGISTRY NO=52287-56-6
##MP= -300
##BP= -300
##MW= 177
##$RETENTION INDEX=0
##$CONDENSED SPECTRUM=NO
##NPOINTS= 105
##XYDATA=(XY..XY) 1 
     4          2
    14          7
    15         42
    16          4
    17          2
    18          9
    26         17
    27        113
    28         54
    29         13
    30         95
    32          4
    37          9
    38         42
    39        245
    40         31
    41         78
    42         20
    43         40
    46         18
    50        111
    51        256
    52         54
    53        101
    54          9
    55         10
    57          7
    58          6
    61         15
    62         72
    63        219
    64        151
    65        223
    66         26
    67          8
    68          6
    69          4
    74         49
    75         63
    76         55
    77        257
    78         86
    79        142
    80        211
    81         49
    82         10
    85          7
    86         17
    87         30
    88         18
    89        160
    90          7
    91        802
    92         89
    93         51
    94         12
    95          5
    97          8
    98         10
    99          6
   100          3
   101         21
   102         76
   103        133
   104         61
   105         57
   106         69
   107         53
   108         47
   109          8
   110         22
   111          3
   113         12
   115        999
   116        600
   117        150
   118         62
   119        427
   120        103
   121         30
   122          4
   126         25
   127        141
   128        305
   129        386
   130        251
   131        128
   132        122
   133         17
   134         44
   135          6
   144         13
   145         16
   146         16
   147         32
   148         15
   149         86
   150         12
   160        146
   161         20
   162         23
   163          3
   175          3
   177        253
   178         32