##TITLE=Library Entry 76340
##JCAMP-DX=Revision 4.10 
##DATA TYPE=MASS SPECTRUM
##SAMPLE DESCRIPTION=JAFCAU, 26(5)1179(1978); M. SAKAGUCHI, ET AL
##NAMES=HP
##CAS NAME=Thiazolidine, 3-methyl-
##MOLFORM=C4H9NS
##CAS REGISTRY NO=52288-89-8
##MP= -300
##BP= -300
##MW= 103
##$RETENTION INDEX=0
##$CONDENSED SPECTRUM=NO
##NPOINTS= 9
##XYDATA=(XY..XY) 1 
    42        300
    43         92
    44        165
    57        675
    60         80
    61         25
    70         30
   102        220
   103        999