##TITLE=Library Entry 49361
##JCAMP-DX=Revision 4.10 
##DATA TYPE=MASS SPECTRUM
##SAMPLE DESCRIPTION=NIST Mass Spectrometry Data Center
##NAMES=HP
##CAS NAME=3,4-Ethylenedioxybromobenzene
##MOLFORM=C8H7BrO2
##CAS REGISTRY NO=52287-51-1
##MP= -300
##BP= -300
##MW= 214
##$RETENTION INDEX=0
##$CONDENSED SPECTRUM=NO
##NPOINTS= 109
##XYDATA=(XY..XY) 1 
    12          2
    13          4
    14         14
    15         27
    16          1
    17          1
    18          1
    24          3
    25         12
    26         86
    27        150
    28         90
    29         56
    30         11
    32          1
    36          5
    37         46
    38         48
    39         19
    41         10
    42         12
    43         26
    44          2
    49         70
    50        333
    51        579
    52         51
    53         59
    54          5
    55         15
    60          7
    61         46
    62         78
    63        149
    64         13
    65         12
    66         10
    67          1
    69          1
    72          2
    73         17
    74         70
    75         66
    76         15
    77         57
    79        999
    80         61
    81         22
    82          5
    90          2
    91          5
    92          5
    93          2
    94          1
   104         18
   105          4
   106         21
   107        109
   108         17
   109          7
   115          1
   116          3
   117          7
   118          4
   119          5
   120          2
   128          3
   129          8
   130         13
   131         17
   132         10
   133          9
   134          4
   135         14
   136          1
   141          3
   142          7
   143         10
   144          5
   145          7
   153          1
   154          3
   155          5
   156          5
   158        358
   159         76
   160        362
   161         47
   162          3
   170          2
   171          2
   172          2
   173          1
   185          7
   186         29
   187         33
   188         44
   189         27
   190         13
   199         67
   200          8
   201         69
   202          6
   211          1
   214        646
   215         75
   216        637
   217         52
   218          5