##TITLE=Library Entry 61245
##JCAMP-DX=Revision 4.10 
##DATA TYPE=MASS SPECTRUM
##SAMPLE DESCRIPTION=NIST Mass Spectrometry Data Center, 1998.
##NAMES=HP
##CAS NAME=Dibenzyl phthalate
##MOLFORM=C22H18O4
##CAS REGISTRY NO=523-31-9
##MP= -300
##BP= -300
##MW= 346
##$RETENTION INDEX=2724
##$CONDENSED SPECTRUM=NO
##NPOINTS= 84
##XYDATA=(XY..XY) 1 
    27          2
    29          1
    37          1
    38          3
    39         35
    40          3
    41         12
    44          1
    49          1
    50         34
    51         45
    52         11
    53          4
    61          1
    62          5
    63         27
    64         10
    65        213
    66         11
    73          1
    74          6
    75          9
    76         64
    77         96
    78         16
    79         63
    80          4
    87          1
    89         43
    90         26
    91        999
    92        221
    93         41
    94          2
   104         66
   105         65
   106         12
   107        901
   108         73
   109          4
   115          2
   118          1
   119          1
   121         28
   122          6
   123          1
   127          1
   128          1
   132         26
   133         18
   134          2
   139          1
   141          1
   149        765
   150         73
   151         10
   152         12
   153          5
   154          1
   163          1
   164          2
   165         27
   166          7
   167          6
   168          1
   178          3
   179          3
   180          9
   181          6
   182          1
   193          4
   194          4
   195          1
   197          1
   198          1
   210          1
   211          2
   225          1
   238          8
   239          3
   240          1
   255          7
   256          1
   346          2