##TITLE=Library Entry 17184
##JCAMP-DX=Revision 4.10 
##DATA TYPE=MASS SPECTRUM
##SAMPLE DESCRIPTION=Div. of Experiment Therapeutics WRAIR, WRAMC, Washingto
n DC 20307
##NAMES=HP
##CAS NAME=.alpha.-[5-Chloro-2-thienyl]-.beta.-[p-trifluoromethylphenyl]acry
lic acid
##MOLFORM=C14H8ClF3O2S
##CAS REGISTRY NO=52300-53-5
##MP= -300
##BP= -300
##MW= 332
##$RETENTION INDEX=0
##$CONDENSED SPECTRUM=NO
##NPOINTS= 198
##XYDATA=(XY..XY) 1 
    41         14
    43         16
    45        999
    46          7
    47         64
    48         11
    49        110
    50        119
    51        166
    53         33
    55         24
    57        144
    58         25
    59          6
    60         13
    61         37
    62        139
    63        246
    64         23
    65         17
    67          3
    69        387
    70         25
    71         30
    73        128
    74        146
    75        250
    76         48
    77         33
    79         91
    81        111
    82        145
    83         50
    84         53
    85         47
    86        114
    87        100
    88         32
    89         23
    91         18
    92         73
    93         80
    94         70
    95        117
    96         23
    97         17
    98         40
    99         50
   100         30
   101         97
   102          6
   103         14
   104          7
   105         50
   106         49
   107         62
   108         17
   109         16
   110         20
   111         28
   112         18
   113         46
   114         30
   115         32
   116          9
   117         67
   118         46
   119         25
   120         39
   121          7
   122         10
   123         28
   124          9
   125         81
   126         76
   127        235
   128         22
   130        138
   131         32
   132         98
   133         60
   134         39
   135         14
   136         13
   137         52
   138         48
   139        127
   140         17
   142         37
   143         31
   144         54
   145         71
   146         19
   147         49
   149         16
   150         15
   151         66
   152         23
   155         19
   156         39
   157        117
   158        266
   160         73
   161         12
   162         22
   163         16
   164         21
   167         23
   168         17
   169         36
   170         22
   171         29
   172         11
   173         20
   174          3
   175        213
   176         29
   177         20
   180          4
   181         13
   182         75
   183        139
   184        182
   185         33
   186         50
   187         29
   188         81
   189         21
   193         22
   194         17
   195         30
   196          3
   197          7
   199         16
   200         12
   201         18
   202         58
   203          7
   204         11
   205         14
   206         76
   207        176
   208         24
   209         19
   211          3
   213         45
   214          3
   217         27
   218        194
   219         54
   220         69
   221         14
   225         12
   226         14
   227          3
   228         14
   231         30
   232         19
   233         72
   234         18
   235         29
   236         51
   237         12
   239         11
   243         14
   245         30
   246          3
   247         15
   249          4
   250         10
   251         65
   252        306
   253        122
   254         42
   255          7
   263         12
   267         38
   268         20
   269         16
   275          6
   276         18
   277         10
   278         11
   279         32
   285          7
   286         50
   287         91
   288         31
   289         30
   296         57
   297         15
   313         44
   314          7
   315         25
   332        216
   333         44
   334         78
   335         13