##TITLE=Library Entry 70233
##JCAMP-DX=Revision 4.10 
##DATA TYPE=MASS SPECTRUM
##SAMPLE DESCRIPTION=Div. of Experiment Therapeutics WRAIR, WRAMC, Washingto
n DC 20307
##NAMES=HP
##CAS NAME=Hexahydro-3H-1-[2'-trifluoromethyl]-6'-[4''-trifluoromethylphenyl
]-
##MOLFORM=C20H18F6N2O
##CAS REGISTRY NO=52300-90-0
##MP= -300
##BP= -300
##MW= 416
##$RETENTION INDEX=0
##$CONDENSED SPECTRUM=NO
##NPOINTS= 217
##XYDATA=(XY..XY) 1 
    41        141
    42        109
    43         60
    44          6
    45          1
    47         11
    48          3
    49         30
    50          4
    51         18
    52          2
    53         11
    54         41
    55         96
    56         35
    57          5
    62          1
    63          8
    64          2
    65          6
    66          2
    67         15
    68         43
    69        167
    70         14
    71          1
    74          2
    75         10
    76          3
    77          3
    78          1
    79          1
    80          4
    81          3
    82         25
    83          9
    84         56
    85          2
    86         24
    87          1
    88          3
    89          1
    91          2
    92          1
    93          3
    94          8
    95         10
    96        229
    97        999
    98         69
    99          4
   100          3
   101          2
   102          2
   103          1
   104          2
   105          1
   106          1
   107          2
   109          1
   111          1
   112          3
   113          3
   114          3
   115          3
   116          1
   119          3
   120          2
   121          3
   122          1
   123          1
   124          2
   125          6
   126          9
   127          4
   128          1
   132          1
   133          3
   134          2
   135          1
   137          1
   138          1
   139          5
   140          1
   141          1
   142          1
   144          4
   145         13
   146          3
   149          1
   150          1
   151          3
   152          8
   153          5
   154          2
   156          1
   157          2
   158          1
   162          2
   163          1
   164          3
   165          4
   166          3
   167          2
   168          1
   169          2
   170          2
   171          3
   172          7
   173          1
   174          1
   175         16
   176          4
   177          3
   178          2
   182          2
   183          3
   184          2
   185          1
   186          1
   187          1
   188          2
   189          1
   190          2
   191          1
   192          1
   193          3
   194          2
   195         26
   196          7
   200          1
   202         21
   203          3
   205          1
   206          1
   207          3
   208          2
   209          2
   213          1
   214          2
   215          2
   216          2
   220          3
   221          2
   222         11
   223          1
   226          6
   227          1
   228          1
   232          1
   233          2
   234          3
   235          5
   236          2
   237          1
   239          1
   240          2
   241          1
   244          1
   245          1
   246          2
   248          1
   250          1
   251          1
   252          1
   253          1
   258          1
   259          1
   260          1
   261          1
   264          4
   267          1
   269          1
   270          6
   271          1
   272          1
   273          1
   274          1
   275          1
   276          1
   283          1
   284          3
   285          1
   286          1
   289          1
   290         10
   291          8
   292          1
   296          2
   298          1
   300          9
   304          2
   305          1
   308          1
   309          1
   310          1
   311          1
   316          2
   317          2
   318         12
   319         30
   320          4
   329          1
   330          1
   331          1
   332          1
   343          3
   344          1
   357          1
   359          1
   385          1
   387          7
   397         46
   398         10
   415          6
   416          4
   417          1