##TITLE=Library Entry 49505
##JCAMP-DX=Revision 4.10 
##DATA TYPE=MASS SPECTRUM
##SAMPLE DESCRIPTION=F. TURECEK,HEYROVSKY INST PHYS CHEM & ELECTROCHEM,PRAGU
E,CZECH
##NAMES=HP
##CAS NAME=(4R,5S)-4-Hydroxymethyl-5-hydroxytricyclo[4.4.0.0(3,8)]decane
##MOLFORM=C11H18O2
##CAS REGISTRY NO=52305-50-7
##MP= -300
##BP= -300
##MW= 182
##$RETENTION INDEX=0
##$CONDENSED SPECTRUM=NO
##NPOINTS= 68
##XYDATA=(XY..XY) 1 
    27        150
    29        140
    31         90
    39        200
    40         30
    41        350
    42         30
    43         70
    50         10
    51         60
    52         20
    53        130
    54         90
    55        210
    56         30
    57        140
    58         30
    65         80
    66        130
    67        390
    68         70
    69         50
    70         60
    71         30
    77        220
    78        160
    79        810
    80        999
    81        290
    82         60
    83        160
    84         30
    85         30
    91        630
    92        210
    93        260
    94        110
    95        100
    96         60
    97         20
   103         40
   104        130
   105        250
   106        280
   107        350
   108        170
   109         90
   110         50
   115         10
   117        150
   118        130
   119         50
   120        150
   121         80
   122         40
   123         20
   131        260
   132         40
   133        330
   134         50
   135         90
   136         50
   146        170
   147         20
   149         30
   164        250
   165         30
   182          2