##TITLE=Library Entry 76138
##JCAMP-DX=Revision 4.10 
##DATA TYPE=MASS SPECTRUM
##SAMPLE DESCRIPTION=G.MICHEL FACULTY OF SCIENCE, UNIV. OF LYON, LYON, FRANC
E
##NAMES=HP
##CAS NAME=Tridecanoic acid, 3-(acetylamino)-12-methyl-, methyl ester
##MOLFORM=C17H33NO3
##CAS REGISTRY NO=52315-85-2
##MP= -300
##BP= -300
##MW= 299
##$RETENTION INDEX=0
##$CONDENSED SPECTRUM=NO
##NPOINTS= 18
##XYDATA=(XY..XY) 1 
    87        580
   102        999
   113        270
   137        250
   144        670
   145        180
   166        140
   184        160
   201         50
   209        110
   219         50
   226         90
   256        360
   257         60
   268         50
   284         20
   298         40
   299         40