##TITLE=Library Entry 32908
##JCAMP-DX=Revision 4.10 
##DATA TYPE=MASS SPECTRUM
##SAMPLE DESCRIPTION=S.A. Rang et al., IR & MS of Unsatd. Hydrocarbons, 1977
##NAMES=HP
##CAS NAME=Cyclopentene, 1-octyl-
##MOLFORM=C13H24
##CAS REGISTRY NO=52315-44-3
##MP= -300
##BP= -300
##MW= 180
##$RETENTION INDEX=1328
##$CONDENSED SPECTRUM=NO
##NPOINTS= 87
##XYDATA=(XY..XY) 1 
    15          3
    25          1
    26          6
    27        112
    28         23
    29        170
    30          4
    31          2
    37          0
    38          2
    39         98
    40         21
    41        384
    42         43
    43        139
    44          3
    50          3
    51         14
    52         14
    53        108
    54         60
    55        170
    56         35
    57         70
    58          3
    63          3
    64          1
    65         40
    66         88
    67        999
    68        122
    69         63
    70         18
    71         11
    75          0
    76          0
    77         60
    78         17
    79        170
    80         59
    81        253
    82        607
    83        179
    84         17
    85          1
    91         36
    92          7
    93         36
    94         35
    95        266
    96         58
    97         12
    98          8
   103          1
   104          1
   105          7
   106          6
   107          4
   108          3
   109         27
   110         19
   111          6
   112          3
   113          1
   119          3
   121          2
   122          3
   123         35
   124         21
   125          2
   133          2
   134          8
   135          1
   136          1
   137         12
   138          7
   139          1
   148          1
   149          1
   150          3
   151          2
   152          7
   153          1
   178          0
   180        122
   181         17
   182          1