##TITLE=Library Entry 31348
##JCAMP-DX=Revision 4.10 
##DATA TYPE=MASS SPECTRUM
##SAMPLE DESCRIPTION=Chemical Concepts
##NAMES=HP
##CAS NAME=1,1-Bis(methylthio)pentane
##MOLFORM=C7H16S2
##CAS REGISTRY NO=52317-55-2
##MP= -300
##BP= -300
##MW= 164
##$RETENTION INDEX=0
##$CONDENSED SPECTRUM=NO
##NPOINTS= 100
##XYDATA=(XY..XY) 1 
    25          2
    27         69
    29         31
    30          1
    31          2
    33          0
    34          0
    35         10
    37          1
    38          3
    39         62
    40          7
    41        369
    42         20
    43         59
    44          6
    45        125
    46         24
    47         64
    48         14
    49         17
    50          5
    51          9
    52          2
    53         20
    54          2
    55         29
    56          8
    57         24
    58         24
    59         63
    60         28
    61        999
    62         34
    63         51
    64          5
    65         12
    66          3
    67         48
    68         16
    69        828
    70         49
    71         18
    72         12
    73         46
    74        112
    75         56
    76         11
    77         20
    78          2
    79         10
    80          2
    81          6
    82          2
    83         11
    84          4
    85         15
    86          2
    87         62
    88          7
    89         10
    90          2
    91         10
    92          7
    93          9
    94          3
    95          6
    96          2
    97          8
    98          2
    99          5
   101         19
   102          4
   103          3
   104          3
   105          5
   106          4
   107         88
   108          5
   109          9
   110          1
   111          4
   112          2
   113          2
   114          1
   115         12
   116         13
   117        918
   118         70
   119         50
   120          6
   121          6
   122          1
   149         58
   150          5
   151          1
   163          1
   164        427
   165         45
   166         12