##TITLE=Library Entry 30448
##JCAMP-DX=Revision 4.10 
##DATA TYPE=MASS SPECTRUM
##SAMPLE DESCRIPTION=Exported from NIST MS Search
##NAMES=HP
##CAS NAME=1,2,8-Octanetricarboxylic acid, trimethyl ester
##MOLFORM=C14H24O6
##CAS REGISTRY NO=52323-07-6
##MP= -300
##BP= -300
##MW= 288
##$RETENTION INDEX=0
##$CONDENSED SPECTRUM=NO
##NPOINTS= 147
##XYDATA=(XY..XY) 1 
    14         11
    15        629
    16         11
    17         10
    18         31
    25          2
    26         20
    27        215
    28        105
    29        298
    30         22
    31         59
    37         16
    38          2
    39        236
    40         53
    41        677
    42        208
    43        316
    44         26
    45         36
    50         29
    51         15
    52          8
    53        119
    54         88
    55        784
    56         65
    57         48
    58         25
    59        999
    60         24
    61         12
    65         21
    66         15
    67        235
    68         96
    69        212
    70         22
    71        130
    72         19
    73         48
    74        316
    75         25
    77         27
    78          7
    79         78
    80         41
    81        312
    82         60
    83        126
    84         29
    85        131
    86         32
    87        197
    88         35
    91         35
    92         11
    93         79
    94         67
    95        345
    96         62
    97         74
    98         29
    99         86
   100         35
   101         98
   102          1
   103          1
   104         21
   105         17
   107         22
   108         20
   109        103
   110         15
   111         50
   112         17
   113        113
   114        812
   115         81
   116         12
   117          8
   118          5
   119        113
   120         16
   121         20
   122         55
   123        186
   124         74
   125         19
   126         10
   127        129
   128         38
   129          7
   133         12
   135         22
   136         74
   137        226
   138         46
   139          6
   140         10
   141         31
   142         21
   143         10
   145         22
   146        591
   147         72
   148         11
   149          7
   150         38
   151        145
   152         21
   153          7
   154         13
   155         88
   156         69
   157          3
   159         24
   162          6
   163         12
   164        138
   165        174
   166         22
   167         10
   168         65
   169         24
   173         15
   178          8
   179         12
   182         24
   183        177
   184         19
   192         22
   193        111
   194         15
   195          6
   196        151
   197         96
   198         10
   215         29
   224        177
   225         32
   226          2
   228          2
   256         22
   257        301
   258         40