##TITLE=Library Entry 17538
##JCAMP-DX=Revision 4.10 
##DATA TYPE=MASS SPECTRUM
##SAMPLE DESCRIPTION=Chemical Concepts
##NAMES=HP
##CAS NAME=Oxiraneacetic acid, 2-(methoxycarbonyl)-, methyl ester, (.+-.)-
##MOLFORM=C7H10O5
##CAS REGISTRY NO=52336-07-9
##MP= -300
##BP= -300
##MW= 174
##$RETENTION INDEX=0
##$CONDENSED SPECTRUM=NO
##NPOINTS= 81
##XYDATA=(XY..XY) 1 
    25          8
    26         88
    27        164
    28         99
    29        201
    30         25
    31         57
    33         11
    37          7
    38         13
    39         64
    40         23
    41         80
    42        172
    43        115
    44         15
    45        999
    46         32
    47         13
    49          4
    51          3
    52          4
    53        118
    54         71
    55        188
    56         52
    57        511
    58         46
    59        472
    60         18
    61         11
    67          4
    68          7
    69         40
    70          5
    71         21
    72          7
    73         14
    74        195
    75         15
    81          3
    82         15
    83        160
    84         23
    85         40
    86         13
    87         64
    88         32
    89          3
    93          3
    98          3
    99         12
   100          4
   101        141
   102          8
   103         15
   110        140
   111         22
   112          4
   113         21
   114         76
   115        795
   116         64
   117         14
   118          8
   119          4
   126          4
   127          8
   128          3
   129          8
   142        132
   143        231
   144         19
   145          5
   157          3
   158          2
   159         12
   160          2
   161          2
   174         11
   175          3