##TITLE=Library Entry 7221
##JCAMP-DX=Revision 4.10 
##DATA TYPE=MASS SPECTRUM
##SAMPLE DESCRIPTION=CARL DJERASSI DEPT OF CHEM STANFORD UNIV STANFORD CALIF
 94305
##NAMES=HP
##CAS NAME=5.alpha.-Cholest-8-en-3-one, 14-methyl-
##MOLFORM=C28H46O
##CAS REGISTRY NO=5234-53-7
##MP= -300
##BP= -300
##MW= 398
##$RETENTION INDEX=0
##$CONDENSED SPECTRUM=NO
##NPOINTS= 173
##XYDATA=(XY..XY) 1 
    41        633
    42         99
    43        999
    44         79
    53         79
    54         39
    55        732
    56        128
    57        673
    58         39
    65         19
    66          9
    67        198
    68         79
    69        475
    70        138
    71        376
    72         19
    77         59
    78          9
    79        138
    80         39
    81        257
    82        118
    83        356
    84         69
    85        178
    86          9
    91        138
    92         29
    93        158
    94         49
    95        326
    96         79
    97        257
    98         59
    99         79
   105        138
   106         39
   107        168
   108         49
   109        158
   110         49
   111        148
   112         39
   113         49
   115          9
   117         49
   118         19
   119        168
   120         49
   121        108
   122         39
   123         99
   124         49
   125         69
   126         19
   127         49
   128          9
   129         29
   130          9
   131         59
   132         19
   133         99
   134         29
   135         79
   136         19
   137         49
   138         19
   139         29
   140          9
   141         29
   142         19
   143         39
   144         19
   145         79
   146         19
   147         69
   148         19
   149         79
   150         19
   151         29
   152         19
   153          9
   154          9
   155         29
   157         39
   158          9
   159         79
   160         19
   161         59
   162         19
   163         29
   164          9
   165         39
   166          9
   167         29
   169         19
   171         19
   173         29
   174          9
   175         29
   176          9
   177          9
   178         19
   179         29
   180          9
   181          9
   183         19
   184          9
   185         29
   186          9
   187         29
   188          9
   189         29
   190         29
   191         29
   192          9
   193         19
   194          9
   195          9
   196          9
   197         29
   199         19
   201         39
   202          9
   203         59
   204         39
   205         49
   206         19
   207         19
   211          9
   213          9
   215         79
   216         29
   217        188
   218         39
   219         19
   225          9
   227          9
   229        138
   230         19
   231         69
   232          9
   243        138
   244         29
   245         59
   246         19
   247          9
   253          9
   255          9
   257         59
   258         69
   259         39
   260         29
   261         19
   269         19
   271         49
   272          9
   273         39
   274         19
   275         19
   276          9
   277         19
   285         39
   286          9
   313          9
   365          9
   383        514
   384        148
   385         19
   398         79
   399         19