##TITLE=Library Entry 61320
##JCAMP-DX=Revision 4.10 
##DATA TYPE=MASS SPECTRUM
##SAMPLE DESCRIPTION=RADIAN CORP
##NAMES=HP
##CAS NAME=Acetamide, 2-[(4-methylphenyl)sulfonyl]-
##MOLFORM=C9H11NO3S
##CAS REGISTRY NO=52345-47-8
##MP= -300
##BP= -300
##MW= 213
##$RETENTION INDEX=0
##$CONDENSED SPECTRUM=NO
##NPOINTS= 89
##XYDATA=(XY..XY) 1 
    27          5
    28          6
    29          5
    30         33
    38          7
    39         61
    40          9
    41         27
    42         58
    43         11
    44         66
    45         12
    48          3
    50         22
    51         39
    52         12
    53         10
    55          5
    57          5
    58         40
    59          5
    60          3
    61          7
    62         29
    63         96
    64         34
    65        259
    66         18
    67         10
    69         11
    70          2
    71          5
    73          3
    74          3
    75         10
    76          9
    77         79
    78         27
    79         37
    80         10
    81          5
    82          2
    83          3
    84          1
    85          5
    86          9
    87         13
    89        134
    90         86
    91        999
    92        105
    93         10
    94          1
    95          6
    96          2
    97          4
   102          2
   103         28
   104         21
   105        230
   106        464
   107        168
   108        595
   109         69
   110          7
   111         11
   120          3
   121         11
   122          6
   123          5
   132          7
   135          2
   137          4
   138          1
   139         83
   140         13
   141          4
   147          3
   148         14
   149        251
   150         28
   151          3
   155        191
   156         18
   157         10
   171          9
   173          6
   195          2
   214          3