##TITLE=Library Entry 44519
##JCAMP-DX=Revision 4.10 
##DATA TYPE=MASS SPECTRUM
##SAMPLE DESCRIPTION=R.T.HOLMAN,UNIVERSITY OF MINNESOTA
##NAMES=HP
##CAS NAME=6-Octadecenoic acid, methyl ester
##MOLFORM=C19H36O2
##CAS REGISTRY NO=52355-31-4
##MP= -300
##BP= -300
##MW= 296
##$RETENTION INDEX=2082
##$CONDENSED SPECTRUM=NO
##NPOINTS= 156
##XYDATA=(XY..XY) 1 
    27        150
    28        120
    29        440
    30         10
    31         20
    32         50
    39        200
    40         40
    41        980
    42        160
    43        850
    44         40
    45         40
    51         20
    52         20
    53        130
    54        280
    55        970
    56        210
    57        440
    58         20
    59        250
    60         20
    61         10
    65         40
    66         40
    67        430
    68        310
    69        540
    70        150
    71        190
    72         20
    73         60
    74        999
    75        160
    76         10
    77         40
    78         20
    79        160
    80        110
    81        470
    82        290
    83        450
    84        550
    85        150
    86         10
    87        530
    88         70
    89         10
    91         60
    92         20
    93         80
    94         80
    95        350
    96        470
    97        440
    98        340
    99         50
   100         20
   101        100
   102         20
   105         20
   106         10
   107         30
   108         30
   109        140
   110        240
   111        210
   112         60
   113         40
   114         50
   115         80
   116         20
   119         30
   120         10
   121         50
   122         20
   123        180
   124        100
   125        100
   126         20
   127         40
   128         50
   129          5
   130         10
   133         20
   134         20
   135         40
   136         10
   137         90
   138         80
   139         40
   140         10
   141         70
   142         20
   143         70
   144         10
   147         20
   148         20
   149         20
   150         10
   151         50
   152         70
   153         20
   154         10
   155         20
   156         10
   157         20
   158         10
   161         10
   162         10
   163         10
   164         10
   165         30
   166         50
   167         20
   169         30
   171         10
   175         10
   179         20
   180        110
   181         30
   183         10
   185         10
   193         20
   194         30
   195         10
   199         20
   200         10
   207         10
   208         10
   213         10
   214         10
   220         30
   221         20
   222        140
   223         30
   227         20
   228         10
   235         20
   236         20
   239         10
   241         10
   246         20
   247         20
   253         10
   255         10
   264        240
   265        110
   266         20
   267         10
   270         20
   278         10
   296         30
   297         10
   298         10