##TITLE=Library Entry 40752
##JCAMP-DX=Revision 4.10 
##DATA TYPE=MASS SPECTRUM
##SAMPLE DESCRIPTION=R.T.HOLMAN,UNIVERSITY OF MINNESOTA
##NAMES=HP
##CAS NAME=Cyclopropanetetradecanoic acid, 2-octyl-, methyl ester
##MOLFORM=C26H50O2
##CAS REGISTRY NO=52355-42-7
##MP= -300
##BP= -300
##MW= 394
##$RETENTION INDEX=0
##$CONDENSED SPECTRUM=NO
##NPOINTS= 141
##XYDATA=(XY..XY) 1 
    38          8
    39         69
    40         16
    41        200
    42         65
    43        710
    44        170
    45        820
    46         33
    47         12
    51         12
    53         37
    54         24
    55        190
    56         73
    57        180
    58         45
    59         41
    60         53
    61         57
    65         12
    66         16
    67         65
    68         37
    69        110
    70        110
    71         98
    72         24
    73        999
    74         90
    75         16
    77         24
    78          8
    79         39
    80         12
    81         65
    82         41
    83         86
    84         45
    85         37
    86         12
    87         45
    88         41
    89         12
    91         24
    92         12
    93         37
    94         29
    95         57
    96         41
    97         61
    98         29
    99         29
   100         20
   101         49
   102          8
   103          8
   105         24
   106          8
   107         20
   108         12
   109         29
   110         20
   111         41
   112         65
   113         41
   114          8
   115         12
   116          8
   117          8
   119         16
   120          8
   121         20
   122         12
   123         20
   124         12
   125         20
   126         12
   127          8
   128         12
   129        140
   130         12
   131          8
   133          8
   134          8
   135         12
   136          8
   137         12
   138         12
   139         20
   140          8
   141          8
   142          8
   143         12
   147         37
   148          8
   149         24
   150          8
   151          8
   152          8
   153          8
   154          8
   155          8
   157          8
   163          8
   165         12
   166          8
   167          8
   168          8
   169          8
   178         16
   179         12
   180          8
   181          8
   183          8
   189          8
   190          8
   191          8
   192          8
   193         12
   194          8
   195          8
   203          8
   206          8
   207          8
   208          8
   209          8
   210          8
   211          8
   212          8
   219          8
   220          8
   221          8
   222          8
   223          8
   236          8
   241         20
   259         12
   362         20
   363          8
   394         10