##TITLE=Library Entry 56895
##JCAMP-DX=Revision 4.10 
##DATA TYPE=MASS SPECTRUM
##SAMPLE DESCRIPTION=Japan AIST/NIMC Database- Spectrum MS-NW- 405
##NAMES=HP
##CAS NAME=N,N-Diethyl-N'-(1-naphthyl)ethylenediamine
##MOLFORM=C16H22N2
##CAS REGISTRY NO=5235-86-9
##MP= -300
##BP= -300
##MW= 242
##$RETENTION INDEX=0
##$CONDENSED SPECTRUM=NO
##NPOINTS= 124
##XYDATA=(XY..XY) 1 
    27          6
    28          3
    29         18
    30         38
    39          5
    41         16
    42         11
    43         20
    44          6
    45          3
    46          3
    50          2
    51          5
    53          3
    54          4
    55         18
    56         17
    57         21
    58         43
    59          2
    60          7
    61          3
    62          1
    63          5
    64          2
    65          3
    67          8
    68          7
    69         30
    70          9
    71         12
    72         15
    73          8
    74          2
    75          4
    76          3
    77         13
    78          2
    79          3
    80          2
    81         15
    82          6
    83         11
    84         10
    85          9
    86        999
    87         65
    88          2
    89          2
    91          4
    92          2
    93          4
    94          2
    95          8
    96          5
    97          9
    98          5
    99          5
   101          5
   102          2
   103          1
   105          9
   106          1
   107          3
   108          3
   109          5
   110          3
   111          5
   112          2
   113          3
   114          3
   115         17
   116          3
   117          2
   119          2
   120          2
   121          4
   122          7
   123          4
   124          2
   125          2
   126          6
   127         22
   128         19
   129         17
   130          3
   133          1
   134          1
   135          4
   136          4
   137          5
   138          2
   139          2
   140          2
   141          5
   142          3
   143          5
   147          2
   149          3
   151          2
   152          3
   153          3
   154         19
   155         12
   156         21
   157          4
   161          1
   166          2
   167         20
   168          9
   169          6
   170          7
   171          2
   181          2
   185          2
   192          1
   198          5
   199          1
   208          1
   213          2
   241          2
   242        101
   243         19
   244          2