##TITLE=Library Entry 8770
##JCAMP-DX=Revision 4.10 
##DATA TYPE=MASS SPECTRUM
##SAMPLE DESCRIPTION=NIST Mass Spectrometry Data Center, 1998.
##NAMES=HP
##CAS NAME=2-Methylvaleroyl chloride
##MOLFORM=C6H11ClO
##CAS REGISTRY NO=5238-27-7
##MP= -300
##BP= -300
##MW= 134
##$RETENTION INDEX=0
##$CONDENSED SPECTRUM=NO
##NPOINTS= 64
##XYDATA=(XY..XY) 1 
    14          1
    15          8
    25          1
    26         25
    27        195
    28         65
    29        151
    30          3
    31          2
    35          4
    36          6
    37          9
    38         26
    39        236
    40         37
    41        401
    42        146
    43        999
    44         32
    45          1
    47          1
    49          8
    50         16
    51         24
    52          8
    53         49
    54         12
    55        227
    56        199
    57         75
    58          3
    61          6
    62          5
    63         51
    64          2
    65         21
    66          1
    67          7
    68          2
    69         45
    70         48
    71        806
    72         45
    73          3
    74          1
    75          2
    77          4
    78          2
    79          2
    81          2
    83          2
    89          1
    91         10
    92        263
    93         11
    94         84
    95          3
    98         11
    99        141
   100         10
   105         15
   106          1
   107          4
   119          2