##TITLE=Library Entry 19082
##JCAMP-DX=Revision 4.10 
##DATA TYPE=MASS SPECTRUM
##SAMPLE DESCRIPTION=R.T.HOLMAN,UNIVERSITY OF MINNESOTA
##NAMES=HP
##CAS NAME=11-Octadecenoic acid, methyl ester
##MOLFORM=C19H36O2
##CAS REGISTRY NO=52380-33-3
##MP= -300
##BP= -300
##MW= 296
##$RETENTION INDEX=2115
##$CONDENSED SPECTRUM=NO
##NPOINTS= 225
##XYDATA=(XY..XY) 1 
    26         15
    27        160
    28         80
    29        330
    30         10
    31         18
    32          9
    33          4
    35          4
    36          6
    37          5
    38          7
    39        170
    40         37
    41        860
    42        180
    43        590
    44         28
    45         32
    46          2
    47          3
    48          2
    49          2
    50          6
    51         13
    52         10
    53        100
    54        220
    55        999
    56        210
    57        190
    58         13
    59        220
    60         11
    61          5
    62          3
    63          5
    64          2
    65         26
    66         20
    67        280
    68        130
    69        530
    70        120
    71         66
    72          9
    73         49
    74        400
    75         53
    76          5
    77         26
    78          9
    79         59
    80         28
    81        180
    82        100
    83        190
    84        170
    85         49
    86          5
    87        240
    88         24
    89          4
    90          1
    91         18
    92          5
    93         27
    94         22
    95        130
    96        170
    97        200
    98        120
    99         21
   100          7
   101         44
   102          7
   103          5
   104          2
   105          9
   106          5
   107         17
   108         14
   109         66
   110         83
   111         90
   112         31
   113         17
   114         20
   115         39
   116          9
   117          4
   118          2
   119         12
   120          6
   121         21
   122          9
   123         53
   124         41
   125         46
   126         10
   127         14
   128         21
   129         30
   130          8
   131          3
   132          1
   133         12
   134          8
   135         17
   136          6
   137         31
   138         32
   139         31
   140          6
   141         30
   142         14
   143         22
   144          4
   145          2
   146          1
   147         11
   148          7
   149         12
   150          6
   151         21
   152         24
   153         18
   154          4
   155          7
   156          2
   157          7
   158          2
   159          1
   161          6
   162          3
   163          7
   164          5
   165         14
   166         18
   167         11
   168          3
   169          9
   170          2
   171          8
   172          2
   173          1
   175          6
   176          2
   177          4
   178          2
   179          9
   180         35
   181         12
   182         30
   183          6
   184          2
   185          6
   186          2
   187          2
   188          1
   189          4
   190          2
   191          3
   192          2
   193          7
   194          9
   195          5
   196          2
   197          2
   198          1
   199          5
   200          3
   201          1
   203          3
   204          1
   205          1
   206          1
   207          6
   208          6
   209          3
   210          2
   211          2
   212          1
   213          4
   214          2
   217          2
   218          3
   219          2
   220         13
   221         10
   222         44
   223         11
   224          2
   225          2
   227          3
   228          2
   229          1
   235          8
   236          9
   237          3
   239          2
   240          1
   241          2
   246         12
   247          4
   248          1
   249          2
   250          1
   253          4
   254          1
   255          2
   264        100
   265         58
   266         11
   267          5
   268          1
   269          1
   270          1
   278          2
   279          1
   294          2
   296         22
   297          6
   298          3
   299          1