##TITLE=Library Entry 107179
##JCAMP-DX=Revision 4.10 
##DATA TYPE=MASS SPECTRUM
##SAMPLE DESCRIPTION=Japan AIST/NIMC Database- Spectrum MS-IW-1748
##NAMES=HP
##CAS NAME=p-Nitrophenyl (2-(phenylthio)ethyl)carbamate
##MOLFORM=C15H14N2O4S
##CAS REGISTRY NO=52387-93-6
##MP= -300
##BP= -300
##MW= 318
##$RETENTION INDEX=0
##$CONDENSED SPECTRUM=NO
##NPOINTS= 96
##XYDATA=(XY..XY) 1 
    15          7
    17          2
    18          1
    26          6
    27         17
    28         14
    29          4
    30         11
    31          1
    36          1
    37          9
    38         24
    39        132
    40          9
    41          7
    42         21
    43          3
    44          2
    45        253
    46         12
    47         11
    49          4
    50         40
    51         89
    52         17
    53         35
    54          5
    55          5
    56         10
    57          5
    58          9
    59          6
    60          2
    61         10
    62         22
    63         52
    64         21
    65        256
    66         37
    67          4
    68          2
    69         35
    70         13
    71          6
    73          3
    74         18
    75         14
    76          9
    77         92
    78         16
    79         58
    80          7
    81         54
    82         11
    83          5
    84          9
    85          1
    89          3
    90          2
    91         24
    92          8
    93         70
    94          5
    95          2
    96          1
    97          5
   100          1
   103          1
   104          2
   105          1
   106          1
   107          5
   108         19
   109        201
   110        117
   111         11
   112          5
   121         12
   122          6
   123        999
   124         88
   125         46
   126          3
   134          1
   135          9
   136          4
   137          5
   139        407
   140         31
   141          3
   149          1
   150          1
   179        677
   180         71
   181         31
   182          3