##TITLE=Library Entry 90449
##JCAMP-DX=Revision 4.10 
##DATA TYPE=MASS SPECTRUM
##SAMPLE DESCRIPTION=R.T.HOLMAN,UNIVERSITY OF MINNESOTA
##NAMES=HP
##CAS NAME=Pyrrolidine, 1-(1-oxo-6-octadecenyl)-
##MOLFORM=C22H41NO
##CAS REGISTRY NO=52380-34-4
##MP= -300
##BP= -300
##MW= 335
##$RETENTION INDEX=0
##$CONDENSED SPECTRUM=NO
##NPOINTS= 86
##XYDATA=(XY..XY) 1 
    39         31
    40         27
    41        205
    42         48
    43        278
    44         28
    53         26
    54         43
    55        326
    56         91
    57         83
    58          7
    65          7
    66          6
    67         90
    68         40
    69         95
    70        271
    71        168
    72        179
    73         10
    77         10
    79         25
    80         13
    81         54
    82         15
    83         31
    84         22
    85         98
    86          8
    91          8
    93          9
    95         30
    96         15
    97         26
    98        212
    99         58
   100         10
   109          9
   110         24
   111         26
   112         47
   113        999
   114         84
   115          6
   116         15
   123          6
   124         10
   125          6
   126        626
   127        249
   128         20
   138          8
   139         10
   140         76
   141         22
   152         17
   153          8
   154         19
   155          6
   166         62
   167         15
   168         14
   180         69
   181         14
   182          8
   194        157
   195         25
   196          6
   208         56
   209         11
   222         23
   236         18
   250         19
   252          6
   264         14
   278         10
   280          8
   292         16
   294          9
   306         13
   320          5
   334         17
   335        161
   336         40
   337          6