##TITLE=Library Entry 90023
##JCAMP-DX=Revision 4.10 
##DATA TYPE=MASS SPECTRUM
##SAMPLE DESCRIPTION=Japan AIST/NIMC Database- Spectrum MS-IW-2018
##NAMES=HP
##CAS NAME=.+/-.-.beta.,.beta.-Dimethyl-.gamma.-(hydroxy-methyl)-.gamma.-but
yrolactone
##MOLFORM=C7H12O3
##CAS REGISTRY NO=52398-48-8
##MP= -300
##BP= -300
##MW= 144
##$RETENTION INDEX=0
##$CONDENSED SPECTRUM=NO
##NPOINTS= 88
##XYDATA=(XY..XY) 1 
    14          9
    15         32
    16          4
    17          3
    18         10
    19          1
    26          9
    27        108
    28        121
    29        246
    30          9
    31         95
    32         21
    33          1
    37          3
    38          9
    39        132
    40         33
    41        542
    42         54
    43        449
    44         30
    45         30
    46          2
    50          6
    51          9
    52          3
    53         28
    54          9
    55        126
    56        581
    57        270
    58         22
    59         50
    60          9
    61          7
    62          1
    63          1
    65          6
    66          2
    67         88
    68         12
    69         59
    70         12
    71         63
    72         17
    73          9
    74          2
    75          3
    77          1
    79          2
    80          1
    81          5
    82          6
    83         56
    84         16
    85        237
    86         24
    87          3
    89          2
    95        139
    96         12
    97          4
    98          7
    99          8
   100          2
   101          3
   102          1
   103          3
   105          1
   109          1
   110          1
   111         24
   112          2
   113        999
   114         70
   115          9
   116         18
   117          1
   125          1
   126         13
   127          9
   128          3
   129          2
   130          1
   143          1
   144          4
   145          7