##TITLE=Library Entry 19430
##JCAMP-DX=Revision 4.10 
##DATA TYPE=MASS SPECTRUM
##SAMPLE DESCRIPTION=NIST Mass Spectrometry Data Center, 1994
##NAMES=HP
##CAS NAME=Cyclohexanemethyl isothiocyanate
##MOLFORM=C8H13NS
##CAS REGISTRY NO=52395-66-1
##MP= -300
##BP= -300
##MW= 155
##$RETENTION INDEX=0
##$CONDENSED SPECTRUM=NO
##NPOINTS= 87
##XYDATA=(XY..XY) 1 
     4          3
    14          2
    15         10
    26         16
    27        161
    28         47
    29        111
    30          8
    32          7
    37          3
    38         16
    39        235
    40         41
    41        423
    42         26
    43         48
    44         12
    45         35
    46          6
    47          2
    50         11
    51         27
    52         16
    53         79
    54          2
    55        999
    56         51
    57          7
    58         13
    59         14
    60          8
    61          1
    62          4
    63          4
    64          2
    65         18
    66         13
    67         91
    68         26
    69         31
    70          8
    71          1
    72        129
    73         58
    74         23
    75         20
    76          6
    77         16
    78          7
    79         22
    80         17
    81         58
    82          6
    83        250
    84         20
    85          5
    86          3
    88          2
    89          5
    91          4
    93          8
    94         14
    95         17
    96          8
    97         76
    98         14
    99         13
   100         41
   101          4
   102          2
   108          3
   112         30
   113         64
   114         16
   115          4
   122        107
   123         12
   124          2
   125          2
   126         41
   127         24
   128          3
   140         11
   154         17
   155        180
   156         19
   157          8