##TITLE=Library Entry 63914
##JCAMP-DX=Revision 4.10 
##DATA TYPE=MASS SPECTRUM
##SAMPLE DESCRIPTION=Tox21 Consortium/NIST Mass Spectrometry Data Center, 20
12
##NAMES=HP
##CAS NAME=Mebhydrolin
##MOLFORM=C19H20N2
##CAS REGISTRY NO=524-81-2
##MP= -300
##BP= -300
##MW= 276
##$RETENTION INDEX=2450
##$CONDENSED SPECTRUM=NO
##NPOINTS= 156
##XYDATA=(XY..XY) 1 
    15          3
    27          7
    30          2
    39         40
    40          5
    41         17
    42        107
    43         10
    44          7
    50          7
    51         31
    52         10
    56          3
    61          3
    62          4
    63         38
    64         10
    65        148
    66         10
    74          7
    75         33
    76         21
    77         37
    78         13
    80          2
    82          2
    84          2
    86          2
    87          6
    88          8
    89         65
    90         21
    91        999
    92         79
    93          5
    94          2
    95          3
    98          4
    99          2
   100          2
   101         43
   102         44
   103         17
   104         10
   105          3
   106          2
   107          1
   108          4
   113         11
   114         27
   115        236
   116        113
   117         31
   118          8
   124          1
   125          1
   126         10
   127         32
   128         59
   129         29
   130         38
   131          5
   132          1
   135          2
   139          7
   140         84
   141         30
   142        121
   143        100
   144         56
   145          8
   146          2
   150          1
   151          5
   152         11
   153          6
   154         37
   155         15
   156         48
   157         11
   158          3
   164          4
   165          8
   166          4
   167         13
   168         41
   169         52
   170         15
   171          4
   175          2
   176          4
   177          3
   178          6
   179          4
   180          3
   181         10
   182         39
   183        130
   184        103
   185         82
   186         12
   187          2
   188          2
   189          6
   190          4
   191          8
   192          4
   193          2
   194          2
   195          2
   196          2
   197          3
   200          1
   201          3
   202          9
   203          4
   204         12
   205          2
   206          9
   208          2
   214          2
   215          4
   216         11
   217         67
   218        166
   219         33
   220          7
   222          1
   227          1
   228          7
   229          6
   230         48
   231         27
   232        757
   233        882
   234        161
   235         16
   236          1
   241          1
   242          1
   243          2
   244          2
   246          3
   247         14
   248          5
   255          1
   259          1
   261          2
   262          1
   273         13
   274          4
   275        342
   276        368
   277         74
   278         10
   279          1