##TITLE=Library Entry 67984
##JCAMP-DX=Revision 4.10 
##DATA TYPE=MASS SPECTRUM
##SAMPLE DESCRIPTION=Japan AIST/NIMC Database- Spectrum MS-IW-3590
##NAMES=HP
##CAS NAME=Bicyclo[2.2.1]heptane-2-methanol
##MOLFORM=C8H14O
##CAS REGISTRY NO=5240-72-2
##MP= -300
##BP= -300
##MW= 126
##$RETENTION INDEX=0
##$CONDENSED SPECTRUM=NO
##NPOINTS= 62
##XYDATA=(XY..XY) 1 
    15          3
    26          4
    27         56
    28         14
    29         48
    30          1
    31         37
    32          1
    37          1
    38          6
    39        113
    40         22
    41        192
    42         18
    43         25
    44          5
    45          3
    50          7
    51         19
    52          9
    53         62
    54         62
    55        120
    56         15
    57         67
    58         10
    59          2
    62          2
    63          6
    64          1
    65         42
    66        419
    67        472
    68         98
    69         25
    70         26
    71         12
    72          1
    77         51
    78         48
    79        237
    80        166
    81         39
    82         17
    83         24
    84         11
    85          4
    91         34
    92          5
    93        206
    94         25
    95        999
    96         88
    97         16
    98          6
   105          2
   106          1
   107         10
   108         49
   109          8
   111          3
   126          1