##TITLE=Library Entry 20388
##JCAMP-DX=Revision 4.10 
##DATA TYPE=MASS SPECTRUM
##SAMPLE DESCRIPTION=Chemical Concepts
##NAMES=HP
##CAS NAME=2-Cyclohexyl-isoxazolidin-5-ol
##MOLFORM=C9H17NO2
##CAS REGISTRY NO=52400-49-4
##MP= -300
##BP= -300
##MW= 171
##$RETENTION INDEX=0
##$CONDENSED SPECTRUM=NO
##NPOINTS= 88
##XYDATA=(XY..XY) 1 
    26        113
    27        332
    28        471
    29        289
    30        113
    31        125
    33         19
    34         19
    38         22
    39        193
    40         66
    41        541
    42        199
    43        296
    44        255
    45         94
    46        168
    51         25
    52         24
    53         95
    54        207
    55        999
    56        636
    57        259
    58         36
    59        225
    60         25
    61        109
    65         26
    66         20
    67        212
    68        164
    69        137
    70        163
    71         69
    72        849
    73         65
    74         52
    77         40
    78         19
    79         68
    80         37
    81        114
    82        293
    83        418
    84        102
    85         24
    86         66
    89        142
    91         29
    93         27
    94         29
    95         39
    96         97
    97         74
    98        116
    99         99
   100         18
   105         19
   107         32
   108         18
   109         24
   110        149
   111         28
   112        243
   113         40
   114         20
   115        434
   116         38
   121         19
   122         40
   123         18
   124         46
   125         50
   126         21
   127         51
   128        578
   129         50
   134         21
   135         35
   136         30
   150         17
   153        132
   154         34
   155         25
   170         18
   171        247
   172         30