##TITLE=Library Entry 89707
##JCAMP-DX=Revision 4.10 
##DATA TYPE=MASS SPECTRUM
##SAMPLE DESCRIPTION=R. TABACCHI, INST. CHIM., UNIV. NEUCHATEL, BASEL, SWITZ
.
##NAMES=HP
##CAS NAME=2-Methyl-5-propylthiazole
##MOLFORM=C7H11NS
##CAS REGISTRY NO=52414-83-2
##MP= -300
##BP= -300
##MW= 141
##$RETENTION INDEX=1053
##$CONDENSED SPECTRUM=NO
##NPOINTS= 48
##XYDATA=(XY..XY) 1 
    26         67
    27        282
    28         69
    29         77
    38         56
    39        308
    40         56
    41        210
    42        190
    45        515
    46         26
    47         36
    50         26
    51         46
    52         46
    53         67
    54         46
    55         62
    57        154
    58        308
    59        308
    60         41
    65        108
    66         41
    67        205
    68        102
    69         77
    70         46
    71        718
    72        164
    73         62
    80         37
    84         36
    85        288
    86         26
    87         20
    97         51
    98         51
    99        128
   100        179
   108         26
   112        999
   113        359
   114        190
   126         87
   141        948
   142        185
   143         92