##TITLE=Library Entry 72366
##JCAMP-DX=Revision 4.10 
##DATA TYPE=MASS SPECTRUM
##SAMPLE DESCRIPTION=T. TABACCHI, INST. CHIM., UNIV. NEUCHATEL, BASEL, SWITZ
.
##NAMES=HP
##CAS NAME=Thiazole, 5-butyl-
##MOLFORM=C7H11NS
##CAS REGISTRY NO=52414-90-1
##MP= -300
##BP= -300
##MW= 141
##$RETENTION INDEX=0
##$CONDENSED SPECTRUM=NO
##NPOINTS= 22
##XYDATA=(XY..XY) 1 
    27        540
    28        180
    29        495
    41        605
    43        585
    45        670
    58        246
    59        135
    71        830
    72        875
    81        224
    85        270
    86        180
    98        965
    99        999
   100        360
   101        200
   112        160
   114        610
   141        850
   142        160
   143         70