##TITLE=Library Entry 90160
##JCAMP-DX=Revision 4.10 
##DATA TYPE=MASS SPECTRUM
##SAMPLE DESCRIPTION=TNO Volatile Compounds in Food - Chemical Concepts
##NAMES=HP
##CAS NAME=2-Propyl-4-methylthiazole
##MOLFORM=C7H11NS
##CAS REGISTRY NO=52414-87-6
##MP= -300
##BP= -300
##MW= 141
##$RETENTION INDEX=1047
##$CONDENSED SPECTRUM=NO
##NPOINTS= 77
##XYDATA=(XY..XY) 1 
    30          5
    33          4
    34          6
    35          2
    37         31
    38         65
    40         47
    41        294
    42        133
    43         78
    44          1
    45        630
    46         62
    47         58
    48          6
    49          4
    50         16
    51         26
    52         33
    53         42
    54         64
    55         46
    56          8
    57         31
    58         45
    59         47
    60         11
    61          4
    63         31
    64         14
    65         10
    66         25
    67         10
    68        256
    69        120
    70         95
    71        919
    72        801
    73        363
    74         45
    75         10
    76          3
    77          2
    78         10
    79          3
    80          6
    81          3
    82          4
    83          5
    84          6
    85         68
    86          8
    87         11
    91          5
    94          5
    96         17
    97          5
    98          9
    99         20
   100         24
   101          3
   107          2
   112        589
   113        999
   114        331
   115        137
   116          7
   124          5
   126        574
   127         46
   128         31
   138          7
   140        307
   141        451
   142         51
   143         17
   144          2