##TITLE=Library Entry 43217
##JCAMP-DX=Revision 4.10 
##DATA TYPE=MASS SPECTRUM
##SAMPLE DESCRIPTION=L.BIRKOFER UNIV. DUSSELDORF, DUSSELDORF, GERMANY, F.R.G
.
##NAMES=HP
##CAS NAME=Methyl 4,6-di-O-methyl-.alpha.-D-glucoside, 2TMS derivative
##MOLFORM=C15H34O6Si2
##CAS REGISTRY NO=52430-38-3
##MP= -300
##BP= -300
##MW= 366
##$RETENTION INDEX=0
##$CONDENSED SPECTRUM=NO
##NPOINTS= 57
##XYDATA=(XY..XY) 1 
    41         60
    43         40
    44         75
    45        345
    47         22
    59        162
    61         27
    69         27
    71        255
    72         47
    73        999
    74         85
    75        222
    85         22
    88         42
    89        223
    90         22
    99         49
   101         80
   102         44
   103         42
   111         33
   115         20
   116         60
   117         40
   129         47
   131         85
   133        420
   134         47
   135         20
   146        218
   147        182
   148         33
   149         51
   157         29
   159        220
   160         31
   173         18
   185         18
   187         18
   189         22
   204        865
   205        162
   206         71
   207         22
   217         62
   229          9
   232         26
   233         15
   243          6
   245         18
   247         11
   259          4
   261          9
   277          7
   287          5
   319          9