##TITLE=Library Entry 7524
##JCAMP-DX=Revision 4.10 
##DATA TYPE=MASS SPECTRUM
##SAMPLE DESCRIPTION=James Little,Eastman Chem.Co.,Kingsport,TN
##NAMES=HP
##CAS NAME=4-Isopropylcyclohexylamine
##MOLFORM=C9H19N
##CAS REGISTRY NO=52430-81-6
##MP= -300
##BP= -300
##MW= 141
##$RETENTION INDEX=0
##$CONDENSED SPECTRUM=NO
##NPOINTS= 31
##XYDATA=(XY..XY) 1 
    28        278
    29        574
    30        107
    31        124
    39        362
    41        617
    42        171
    43        999
    44        182
    53        104
    54        105
    55        384
    56        788
    57        506
    58        299
    67        149
    68         66
    69         96
    70        118
    79         69
    81        423
    82        336
    83         49
    84         36
    85         63
    95        104
    96         52
    98         45
   109         15
   124         18
   141          6