##TITLE=Library Entry 57883
##JCAMP-DX=Revision 4.10 
##DATA TYPE=MASS SPECTRUM
##SAMPLE DESCRIPTION=L.BIRKOFER UNIV. DUSSELDORF, DUSSELDORF, GERMANY, F.R.G
.
##NAMES=HP
##CAS NAME=1,2,3,4-Tetramethylmannose, TMS derivative
##MOLFORM=C13H28O6Si
##CAS REGISTRY NO=52430-37-2
##MP= -300
##BP= -300
##MW= 308
##$RETENTION INDEX=0
##$CONDENSED SPECTRUM=NO
##NPOINTS= 35
##XYDATA=(XY..XY) 1 
    41         78
    43         34
    44         48
    45        220
    59         93
    69         20
    71         68
    73        300
    74         42
    75        725
    76         27
    85         27
    88        999
    89        205
   101        383
   102         26
   103         44
   111         20
   117        170
   129         33
   131         36
   133         33
   145         26
   146         22
   159         47
   173         14
   175          6
   176          9
   185         12
   201          6
   207         39
   208          6
   229         12
   245         16
   261          5