##TITLE=Library Entry 109668
##JCAMP-DX=Revision 4.10 
##DATA TYPE=MASS SPECTRUM
##SAMPLE DESCRIPTION=NIST Mass Spectrometry Data Center
##NAMES=HP
##CAS NAME=Benzeneacetic acid, 4-chloro-, methyl ester
##MOLFORM=C9H9ClO2
##CAS REGISTRY NO=52449-43-1
##MP= -300
##BP= -300
##MW= 184
##$RETENTION INDEX=1382
##$CONDENSED SPECTRUM=NO
##NPOINTS= 95
##XYDATA=(XY..XY) 1 
    14          1
    15         26
    26          2
    27          3
    28          4
    29         13
    30          5
    31          4
    32          1
    35          1
    36          1
    37          4
    38         11
    39         37
    40          4
    41          2
    42          2
    43          4
    44          8
    47          1
    49          4
    50         20
    51         23
    52          3
    53          1
    59         74
    60          3
    61         10
    62         33
    63         91
    64         17
    65         11
    66          1
    72          2
    73         25
    74         10
    75         20
    76          3
    77         14
    78          4
    79          3
    84          2
    85          6
    86         10
    87         11
    88          4
    89        196
    90         60
    91         13
    92          1
    96          1
    97          5
    98          1
    99         53
   100          3
   101         17
   102          1
   103          3
   104          1
   105         63
   106          7
   111          3
   112          2
   113          2
   114          1
   117          1
   118          1
   121          2
   123          6
   124         12
   125        999
   126         84
   127        334
   128         26
   129          1
   133          1
   134          1
   139          4
   140          1
   141          3
   142          2
   143          1
   144          1
   149          3
   152         10
   153         11
   154          4
   155          4
   169          2
   171          1
   184        228
   185         24
   186         76
   187          7
   188          1