##TITLE=Library Entry 31329
##JCAMP-DX=Revision 4.10 
##DATA TYPE=MASS SPECTRUM
##SAMPLE DESCRIPTION=Japan AIST/NIMC Database- Spectrum MS-NW-9918
##NAMES=HP
##CAS NAME=Ethanol, 2,2'-[1,2-ethanediylbis(thio)]bis-
##MOLFORM=C6H14O2S2
##CAS REGISTRY NO=5244-34-8
##MP= -300
##BP= -300
##MW= 182
##$RETENTION INDEX=1703
##$CONDENSED SPECTRUM=NO
##NPOINTS= 112
##XYDATA=(XY..XY) 1 
    14          1
    15         10
    17          9
    18         31
    19          7
    26          7
    27         72
    28         24
    29         21
    30          2
    31         67
    32          3
    33          1
    34          4
    35         27
    37          1
    39          3
    41         16
    42          6
    43         36
    44         19
    45        370
    46         72
    47        111
    48         29
    49          9
    50          1
    53         18
    54          1
    55          4
    57          3
    58         24
    59        114
    60        264
    61        999
    62         45
    63         48
    64         14
    65          3
    66          3
    70          1
    71         29
    72          6
    73         64
    74         21
    75        132
    76         39
    77         33
    78         15
    79         56
    80          3
    81          4
    82          1
    84          1
    85         27
    86         23
    87        132
    88          9
    89         12
    90          3
    91        305
    92         43
    93         21
    94        102
    95          6
    96          9
    97          1
   102          3
   103         20
   104        434
   105        824
   106         64
   107         56
   108         14
   109         31
   110          5
   111          2
   112          3
   118          9
   119         19
   120        113
   121         12
   122         10
   123          2
   125          1
   127          1
   130          1
   132          3
   133          9
   134          1
   135          2
   136          5
   137         20
   138        277
   139         34
   140         25
   141          3
   142          1
   146          1
   151          5
   153          2
   154          8
   155          2
   164        313
   165         27
   166         29
   167          2
   168          1
   182         86
   183          8
   184          9
   185          1