##TITLE=Library Entry 82254
##JCAMP-DX=Revision 4.10 
##DATA TYPE=MASS SPECTRUM
##SAMPLE DESCRIPTION=Exported from NIST MS Search
##NAMES=HP
##CAS NAME=Ethanone, 1,2-diphenyl-2-(4-phenyl-3H-1,2-dithiol-3-ylidene)-
##MOLFORM=C23H16OS2
##CAS REGISTRY NO=5245-04-5
##MP= -300
##BP= -300
##MW= 372
##$RETENTION INDEX=0
##$CONDENSED SPECTRUM=NO
##NPOINTS= 32
##XYDATA=(XY..XY) 1 
    51         77
    56         33
    77        611
    78         38
    84         22
    89         11
   105        999
   106         83
   121         44
   187         44
   189         33
   193         27
   202         33
   221         44
   234        105
   235         27
   266         33
   267        111
   268         33
   295        133
   296         33
   307         55
   308         16
   339         66
   340         16
   355        111
   356         33
   371         38
   372        933
   373        272
   374        138
   375         27