##TITLE=Library Entry 64781
##JCAMP-DX=Revision 4.10 
##DATA TYPE=MASS SPECTRUM
##SAMPLE DESCRIPTION=A.A.Kutin, Moscow, Russia
##NAMES=HP
##CAS NAME=1H-Pyrrole-2,4-dicarboxylic acid, 3,5-dimethyl-, bis(phenylmethyl
) ester
##MOLFORM=C22H21NO4
##CAS REGISTRY NO=52459-55-9
##MP= -300
##BP= -300
##MW= 363
##$RETENTION INDEX=0
##$CONDENSED SPECTRUM=NO
##NPOINTS= 116
##XYDATA=(XY..XY) 1 
    38          0
    39          9
    40          9
    41          4
    42          4
    43          2
    44          1
    50          2
    51          7
    52          3
    53          2
    54          1
    57          0
    63          4
    65         54
    66          8
    67          4
    68          0
    70          0
    75          0
    76          0
    77         10
    78          3
    79          5
    80          4
    81          0
    83          0
    87          0
    89         11
    91        999
    92         54
    93          6
    94          0
    95          1
    96          0
   105          5
   107          4
   108          4
   109          0
   115          1
   119          2
   120          2
   121          6
   122          3
   123          1
   127          0
   128          2
   129          2
   130          0
   134          0
   135          0
   136          1
   137          4
   138         21
   139          1
   141          2
   142          1
   143          1
   144          0
   146          0
   148         30
   149          1
   150          1
   152          0
   153          0
   154          0
   155          1
   157          1
   160          1
   164          3
   165          2
   166          8
   167          3
   168          2
   169          3
   171          1
   180          1
   181          3
   182          5
   183          4
   184         12
   185          2
   186          0
   197          0
   198          0
   199          0
   203          0
   210          5
   211          1
   212          0
   213          0
   224          0
   226          0
   227          0
   228         16
   229          4
   230          0
   236          4
   237          0
   238          0
   242         19
   243          1
   252          0
   254          7
   255          2
   256         19
   257          3
   270          4
   272         39
   273          5
   274          0
   312          0
   318          0
   363         71
   364         19
   365          1