##TITLE=Library Entry 34438
##JCAMP-DX=Revision 4.10 
##DATA TYPE=MASS SPECTRUM
##SAMPLE DESCRIPTION=W.Jennings, T.Shibamoto
##NAMES=HP
##CAS NAME=3-Cyclohexene-1-carboxaldehyde, 3-(4-methyl-3-pentenyl)-
##MOLFORM=C13H20O
##CAS REGISTRY NO=52475-89-5
##MP= -300
##BP= -300
##MW= 192
##$RETENTION INDEX=1491
##$CONDENSED SPECTRUM=NO
##NPOINTS= 45
##XYDATA=(XY..XY) 1 
    24         21
    29          7
    41        315
    42          7
    43         27
    53          7
    55         38
    57          7
    67         56
    68         18
    69        999
    70         77
    77         19
    79         68
    80          7
    81         56
    82          7
    85          7
    91         37
    92         18
    93        188
    94         27
    95         75
    96          7
   104         18
   105         45
   106          7
   107         35
   108          7
   109          7
   110          7
   119          7
   121         27
   122         18
   123          7
   131          7
   135         19
   136          7
   148          7
   149         45
   161          7
   163        128
   164          7
   177          7
   192         38