##TITLE=Library Entry 5669
##JCAMP-DX=Revision 4.10 
##DATA TYPE=MASS SPECTRUM
##SAMPLE DESCRIPTION=TNO Volatile Compounds in Food - Chemical Concepts
##NAMES=HP
##CAS NAME=3-Pentyn-2-ol, 5-chloro-
##MOLFORM=C5H7ClO
##CAS REGISTRY NO=52481-72-8
##MP= -300
##BP= -300
##MW= 118
##$RETENTION INDEX=0
##$CONDENSED SPECTRUM=NO
##NPOINTS= 57
##XYDATA=(XY..XY) 1 
    25          1
    26         11
    27         73
    28          1
    29         69
    31         12
    32          1
    33          0
    34          0
    35          0
    36         12
    37         30
    38         50
    39        355
    41         15
    42         18
    43        999
    44         42
    45         19
    47          0
    48          0
    49         21
    50         27
    51         29
    52          4
    53         43
    54          7
    55         43
    60          1
    61         10
    62         12
    63         31
    64          2
    65         52
    66         20
    67         27
    68         48
    69         49
    70          0
    72          1
    73         16
    74          1
    75         46
    76          0
    77         10
    81          3
    82          4
    83         90
    84          3
   101          5
   102          4
   103        291
   104         12
   105         84
   106          2
   117          3
   119          0