##TITLE=Library Entry 91166
##JCAMP-DX=Revision 4.10 
##DATA TYPE=MASS SPECTRUM
##SAMPLE DESCRIPTION=A.A.Kutin, Moscow, Russia
##NAMES=HP
##CAS NAME=Tetrazolo[5,1-a]phthalazine, 6-chloro-
##MOLFORM=C8H4ClN5
##CAS REGISTRY NO=52494-54-9
##MP= -300
##BP= -300
##MW= 205
##$RETENTION INDEX=0
##$CONDENSED SPECTRUM=NO
##NPOINTS= 88
##XYDATA=(XY..XY) 1 
    33         20
    34         61
    35         15
    36         56
    37        107
    38        118
    39        276
    40         78
    41         72
    42         44
    43        126
    44         60
    45         12
    47          8
    48         23
    49         49
    50        138
    51         78
    52         24
    53          8
    54          6
    55         40
    56         78
    57         79
    58          9
    59          1
    60         30
    61        156
    62        162
    63        166
    64        108
    65         17
    66          2
    67          6
    69         40
    70         13
    71         20
    72         28
    73         49
    74         57
    75        115
    76         50
    77         19
    78          4
    79          2
    81          6
    82          5
    83         19
    84         32
    85         46
    86         69
    87        159
    88        147
    89         16
    91         16
    92          3
    93          2
    96          8
    97         19
    98         17
    99         17
   100          6
   101         11
   102          4
   103          2
   105         18
   106          3
   108          3
   109          5
   111          9
   112         23
   114        999
   115         87
   121         11
   122          4
   123          5
   125          7
   128         16
   129         21
   135         27
   136          2
   149        600
   150         62
   151        186
   152         18
   171          8
   205          9
   207          1