##TITLE=Library Entry 39622
##JCAMP-DX=Revision 4.10 
##DATA TYPE=MASS SPECTRUM
##SAMPLE DESCRIPTION=R RYHAGE MS-LAB KAROLINSKA INSTITUTET STOCKHOLM SWEDEN
##NAMES=HP
##CAS NAME=Propranolol
##MOLFORM=C16H21NO2
##CAS REGISTRY NO=525-66-6
##MP= -300
##BP= -300
##MW= 259
##$RETENTION INDEX=2136
##$CONDENSED SPECTRUM=NO
##NPOINTS= 192
##XYDATA=(XY..XY) 1 
    29         10
    30        366
    31         13
    32          8
    33          0
    34          0
    36         16
    38          9
    39         12
    41         34
    42         19
    43         55
    44          8
    45          2
    46          2
    47          0
    49          1
    50          2
    51          4
    52          3
    53          0
    54          4
    55          3
    56         48
    57         24
    58         17
    59          3
    60         13
    61          1
    62          3
    63         10
    64          2
    65          6
    66          1
    67          0
    68          0
    69          7
    70         15
    71         22
    72        999
    73         57
    74         11
    75          6
    76          4
    77          4
    78          1
    79          0
    80          1
    81          4
    82          2
    84          5
    85          3
    86          9
    87          2
    88          2
    89          6
    90          3
    91          2
    93          0
    94          0
    95          0
    96          0
    97          0
    98          7
    99          1
   100         27
   101          8
   102         24
   103          3
   105          1
   106          0
   107          0
   108          0
   109          0
   110          0
   111          4
   112          2
   113          5
   114         16
   115         78
   116         55
   117          3
   118          0
   119          0
   120          1
   121          3
   122         18
   123          1
   125          1
   126          9
   127         41
   128         21
   129         10
   130          1
   131          1
   132          0
   133          0
   135          2
   137          0
   140          1
   141          3
   142          0
   143         12
   144         72
   145         10
   146          0
   148          0
   149          2
   150          0
   152          0
   153          2
   154          0
   155          3
   156          3
   157         11
   158          3
   159          0
   161          0
   163          0
   164          0
   165          1
   166          0
   167          0
   168          0
   169          3
   170          3
   171          2
   172          0
   173          0
   174          0
   176          0
   178          0
   181          0
   182          0
   183          9
   184          0
   185          0
   186         11
   187          0
   188          0
   191          0
   192          0
   193          1
   194          0
   195          0
   197          0
   198          0
   199          0
   200          1
   203          0
   204          0
   205          0
   206          0
   208          0
   209          0
   210          0
   212          0
   213          0
   214          0
   215         33
   216          7
   217          0
   218          0
   220          0
   221          0
   222          0
   225          1
   226          0
   227          1
   230          0
   232          0
   236          0
   238          0
   239          0
   240          0
   241          0
   242          1
   243          9
   244         18
   245          3
   246          0
   248          0
   249          0
   251          0
   253          0
   255          0
   256          1
   257          2
   258         33
   259         38
   260          8
   261          1