##TITLE=Library Entry 78307
##JCAMP-DX=Revision 4.10 
##DATA TYPE=MASS SPECTRUM
##SAMPLE DESCRIPTION=J. SHAW, BORRISTON RESEARCH, ROCKVILLE, MD, USA
##NAMES=HP
##CAS NAME=Acetic acid, [(benzoylamino)oxy]-
##MOLFORM=C9H9NO4
##CAS REGISTRY NO=5251-93-4
##MP= -300
##BP= -300
##MW= 195
##$RETENTION INDEX=0
##$CONDENSED SPECTRUM=NO
##NPOINTS= 95
##XYDATA=(XY..XY) 1 
    12         19
    13         16
    14         29
    15         16
    16         44
    17         49
    18        136
    19         31
    22          1
    24          1
    25          5
    26         35
    27         83
    28        122
    29        368
    30        146
    31        537
    32        130
    33          3
    36          8
    37         52
    38         94
    39        129
    40         17
    41         33
    42         31
    43         27
    44        247
    45        161
    46         38
    47         15
    48          2
    49         30
    50        236
    51        501
    52         84
    53         14
    54          3
    55          3
    56          7
    57          3
    58          4
    59         10
    60         20
    61         14
    62         22
    63         63
    64        108
    65         47
    66          9
    67          2
    69          1
    70          2
    71          1
    72          2
    73         12
    74         49
    75         48
    76        133
    77        833
    78         90
    79          7
    80          2
    81          1
    85          1
    86          1
    87          2
    88          3
    89          2
    90         10
    91        115
    92         22
    93          5
    94          2
    95          3
    97          1
    99          2
   100          1
   103        153
   105        999
   106        102
   107          7
   119        160
   120         50
   121        168
   122         24
   123          2
   129          1
   147          1
   149          6
   150          2
   178          3
   195         36
   196          7
   197          1