##TITLE=Library Entry 1229
##JCAMP-DX=Revision 4.10 
##DATA TYPE=MASS SPECTRUM
##SAMPLE DESCRIPTION=NIST Mass Spectrometry Data Center, 1994
##NAMES=HP
##CAS NAME=2,4-Dichlorophenethylamine
##MOLFORM=C8H9Cl2N
##CAS REGISTRY NO=52516-13-9
##MP= -300
##BP= -300
##MW= 189
##$RETENTION INDEX=0
##$CONDENSED SPECTRUM=NO
##NPOINTS= 105
##XYDATA=(XY..XY) 1 
     4          3
    14          0
    15          3
    16          0
    17          1
    18          1
    26          2
    27          6
    28         48
    29          0
    30        999
    31         18
    35          1
    36          2
    37          4
    38          8
    39         19
    40          3
    41          5
    42         10
    43          6
    44          1
    46          1
    47          1
    49          4
    50         16
    51         12
    52          2
    53          0
    54          0
    58         10
    60          2
    61          7
    62         22
    63         38
    64          5
    65          3
    66          0
    68          0
    71          0
    72          2
    73         19
    74         12
    75         17
    76          4
    77          3
    78          1
    83          1
    84          3
    85          6
    86          8
    87          9
    88          0
    89         50
    90          8
    91          5
    92          0
    96          1
    97          7
    98          2
    99         12
   100          1
   101          5
   102          5
   103          1
   107          1
   108          0
   109          3
   110          1
   111          2
   113          0
   114          0
   115          0
   116          2
   117         10
   118          4
   119          1
   123         18
   124          7
   125         20
   126          4
   127          5
   133          4
   135          3
   136          1
   137          3
   138          1
   139          0
   151          1
   152          1
   153          2
   154         18
   155          3
   156          7
   157          0
   159         17
   160          4
   161         11
   162          3
   163          2
   172          1
   173          0
   174          0
   188          1
   190          1