##TITLE=Library Entry 83921
##JCAMP-DX=Revision 4.10 
##DATA TYPE=MASS SPECTRUM
##SAMPLE DESCRIPTION=Organic Synthesis Lab, MSU, Moscow.TRC 1617
##NAMES=HP
##CAS NAME=2-Methyl-5-(2-cyclohexylethyl)pyridine
##MOLFORM=C14H21N
##CAS REGISTRY NO=52535-40-7
##MP= -300
##BP= -300
##MW= 203
##$RETENTION INDEX=0
##$CONDENSED SPECTRUM=NO
##NPOINTS= 47
##XYDATA=(XY..XY) 1 
    39        119
    40         19
    41        199
    42         39
    43         69
    44          9
    51         49
    52         29
    53         99
    54         49
    55        369
    56         39
    64         29
    65         79
    66         39
    67        139
    68         19
    69         59
    77        229
    78         69
    79        189
    80         29
    81         39
    83         49
    91         89
    92         49
    93         59
    94         69
    95        159
    96         19
    97         99
   104         29
   105         29
   106        479
   107        999
   108        199
   109         39
   115         39
   117         29
   119         89
   120        229
   121         79
   133         29
   147         29
   202          9
   203        269
   204         29