##TITLE=Library Entry 82870
##JCAMP-DX=Revision 4.10 
##DATA TYPE=MASS SPECTRUM
##SAMPLE DESCRIPTION=V.A.KOPTYUG, ATLAS OF MASS SPECTRA OF ORGANIC COMPOUNDS
##NAMES=HP
##CAS NAME=2-Methyl-5-(3-methylbutyl)pyridine
##MOLFORM=C11H17N
##CAS REGISTRY NO=52535-39-4
##MP= -300
##BP= -300
##MW= 163
##$RETENTION INDEX=0
##$CONDENSED SPECTRUM=NO
##NPOINTS= 33
##XYDATA=(XY..XY) 1 
    39        191
    40         10
    41        205
    42         46
    43        190
    44        141
    50         48
    51         96
    52         70
    53         67
    55         35
    56         10
    57        164
    63         37
    65         81
    66         43
    77        342
    78        145
    79        150
    91         61
    92         46
    93         54
    94         63
   105         23
   106        999
   107        704
   108         84
   119         43
   120        200
   121         21
   148         35
   163        402
   164         57