##TITLE=Library Entry 21009
##JCAMP-DX=Revision 4.10 
##DATA TYPE=MASS SPECTRUM
##SAMPLE DESCRIPTION=V.A.KOPTYUG, ATLAS OF MASS SPECTRA OF ORGANIC COMPOUNDS
##NAMES=HP
##CAS NAME=5-(2-Cyclohexylethyl)-2-pyridine carboxylic acid
##MOLFORM=C14H19NO2
##CAS REGISTRY NO=52535-46-3
##MP= -300
##BP= -300
##MW= 233
##$RETENTION INDEX=0
##$CONDENSED SPECTRUM=NO
##NPOINTS= 56
##XYDATA=(XY..XY) 1 
    51        125
    52         80
    53        153
    54         70
    55        999
    56         65
    57         30
    63         65
    64         40
    65        305
    66         65
    67        124
    68         48
    69         85
    76         10
    77        125
    78        100
    79        115
    80        105
    81         80
    83        115
    91         80
    92        384
    93        975
    94        184
    95         40
    97        184
   103         20
   104         55
   105        100
   106        295
   107        110
   108         25
   117         45
   118         45
   119        100
   120         25
   124         10
   130         35
   132         20
   133         45
   134         20
   136         20
   137         75
   138         10
   146         10
   149         20
   150         20
   160         10
   161         10
   188         50
   189        384
   190         65
   232          6
   233         17
   234          4