##TITLE=Library Entry 17211
##JCAMP-DX=Revision 4.10 
##DATA TYPE=MASS SPECTRUM
##SAMPLE DESCRIPTION=Institute of Organic Chemistry, Novosibirsk, USSR 1988
##NAMES=HP
##CAS NAME=Pentanoic acid, 5-methoxy-, methyl ester
##MOLFORM=C7H14O3
##CAS REGISTRY NO=52546-36-8
##MP= -300
##BP= -300
##MW= 146
##$RETENTION INDEX=0
##$CONDENSED SPECTRUM=NO
##NPOINTS= 69
##XYDATA=(XY..XY) 1 
    26         16
    27        125
    28        116
    29        215
    30         13
    31         57
    32         12
    33         40
    37          2
    38         14
    39         93
    40         13
    41        185
    42        143
    43        161
    44         21
    45        999
    46         51
    47          8
    50          4
    51          7
    52          4
    53         31
    54        104
    55        440
    56         58
    57         91
    58        336
    59        368
    60         26
    61          4
    67          2
    68          4
    69         15
    70         15
    71        549
    72        120
    73        143
    74         46
    75          8
    81         12
    82        118
    83        123
    84        141
    85         35
    86         89
    87        296
    88         80
    89          6
    97          5
    98          2
    99        377
   100         24
   101         66
   102          4
   103          4
   112          4
   113         50
   114        494
   115        417
   116         93
   117          8
   118          2
   131        186
   132         13
   133          2
   145          2
   146         10
   147          1