##TITLE=Library Entry 41306
##JCAMP-DX=Revision 4.10 
##DATA TYPE=MASS SPECTRUM
##SAMPLE DESCRIPTION=NIST Mass Spectrometry Data Center
##NAMES=HP
##CAS NAME=N-(Trifluoroacetyl)glycine, TMS derivative
##MOLFORM=C7H12F3NO3Si
##CAS REGISTRY NO=52558-79-9
##MP= -300
##BP= -300
##MW= 243
##$RETENTION INDEX=1098
##$CONDENSED SPECTRUM=NO
##NPOINTS= 123
##XYDATA=(XY..XY) 1 
    15          5
    26          1
    27          5
    28         34
    29         27
    30          3
    31          8
    33          5
    36          1
    39          1
    40          2
    41          3
    42         20
    43         86
    44         38
    45        238
    46         21
    47         88
    48          5
    49         10
    50          9
    51          5
    53          6
    54          3
    55         15
    56        254
    57         22
    58         47
    59         48
    60         24
    61         70
    62          6
    63         13
    64         17
    65         18
    67          1
    69        121
    70          8
    71          5
    72         58
    73        999
    74        100
    75        360
    76         43
    77        196
    78         68
    79         63
    81          3
    83          2
    84          9
    85          4
    86         13
    87          8
    88          6
    89          4
    90          3
    91          8
    92          2
    93          1
    95          1
    96          1
    97         14
    98          3
   100         13
   101          6
   102         26
   103          4
   104         60
   105          5
   106        203
   107        249
   108         18
   109          2
   116          5
   117         45
   118          5
   119          2
   120         14
   121         51
   122          7
   123          2
   124          1
   125          2
   126         59
   127          5
   130         94
   131         11
   132          4
   134         10
   135          1
   136          1
   139          2
   143         52
   144          4
   145          2
   146         14
   147          1
   148          1
   150        123
   151         12
   152          5
   153          1
   154          1
   158          6
   159          1
   162          1
   168          1
   170          2
   171          4
   172          3
   174          2
   176          1
   178          1
   180          3
   184          5
   185          1
   199         26
   200          9
   201          2
   228        208
   229         25
   230          9
   231          1