##TITLE=Library Entry 43325
##JCAMP-DX=Revision 4.10 
##DATA TYPE=MASS SPECTRUM
##SAMPLE DESCRIPTION=NIST Mass Spectrometry Data Center
##NAMES=HP
##CAS NAME=N-(Trifluoroacetyl)-L-leucine, TMS derivative
##MOLFORM=C11H20F3NO3Si
##CAS REGISTRY NO=52558-82-4
##MP= -300
##BP= -300
##MW= 299
##$RETENTION INDEX=1231
##$CONDENSED SPECTRUM=NO
##NPOINTS= 188
##XYDATA=(XY..XY) 1 
    15          2
    26          1
    27         25
    28         24
    29         23
    30          4
    31          3
    38          1
    39         21
    40          5
    41        100
    42         19
    43        170
    44         33
    45        115
    46         10
    47         49
    48          2
    49          5
    50          3
    51          7
    52          1
    53         16
    54          7
    55         41
    56         14
    57         20
    58         16
    59         23
    60          9
    61         35
    62          3
    63          6
    64          2
    65          5
    66          3
    67         17
    68         17
    69        149
    70         42
    71          9
    72         19
    73        999
    74        102
    75        272
    76         23
    77         83
    78         19
    79         11
    80          2
    81          9
    82          4
    83          8
    84          6
    85         10
    86          3
    87          3
    88          2
    89          6
    90          4
    91         36
    92         14
    93          5
    94          3
    95         11
    96         17
    97         17
    98          7
    99         18
   100         13
   101          6
   102         13
   103          3
   104          8
   105          4
   106          7
   107         16
   108          3
   109          1
   110          3
   111          3
   112          9
   113          3
   114          6
   115          2
   116          2
   117         16
   118          5
   119          2
   120         59
   121         21
   122          5
   123          2
   124          2
   125         11
   126         14
   127         15
   128          6
   129         84
   130         33
   131          7
   132          2
   133          4
   134          2
   135          1
   138          5
   139         14
   140         41
   141          2
   142          4
   143         13
   144          5
   145          2
   146          2
   147          1
   148          6
   149          1
   150          5
   151          2
   152          4
   153         12
   154          1
   155          2
   156          1
   157          1
   158          8
   159          1
   160          1
   162          5
   163         10
   164          3
   166         44
   167          4
   168          2
   169          2
   170         15
   171         46
   172          9
   173          2
   174          1
   179          1
   180          5
   181          3
   182          7
   183          1
   184          1
   185          3
   186         18
   187          3
   188          2
   190          1
   191          1
   194          2
   196          1
   197          1
   198          2
   199          4
   200          2
   202          6
   203          1
   206          7
   207          1
   209          2
   210          1
   212        436
   213         56
   214         20
   215          2
   225          1
   226          1
   227          7
   228          4
   229          1
   232          3
   233          1
   236          1
   240          5
   241          1
   242          2
   243          5
   244          1
   255         11
   256          7
   257          1
   284        151
   285         25
   286          8
   287          1