##TITLE=Library Entry 43547
##JCAMP-DX=Revision 4.10 
##DATA TYPE=MASS SPECTRUM
##SAMPLE DESCRIPTION=L. BIRKOFER
##NAMES=HP
##CAS NAME=L-Serine, N-(trifluoroacetyl)-, trimethylsilyl ester, trifluoroac
etate (ester)
##MOLFORM=C10H13F6NO5Si
##CAS REGISTRY NO=52558-89-1
##MP= -300
##BP= -300
##MW= 369
##$RETENTION INDEX=0
##$CONDENSED SPECTRUM=NO
##NPOINTS= 41
##XYDATA=(XY..XY) 1 
    43         24
    45         17
    69         18
    70         46
    73        999
    74         92
    75        187
    76         15
    77        296
    78         24
    88         28
    96         63
   101         17
   117         89
   118         20
   119         55
   120         15
   121        118
   127         24
   138         66
   139        322
   140         18
   142         31
   143         22
   146         30
   147         15
   165         20
   166         15
   170         31
   171         22
   196         15
   211        113
   212         98
   213         20
   240        518
   241         89
   242         41
   255         66
   256         22
   354        148
   355         41