##TITLE=Library Entry 6245
##JCAMP-DX=Revision 4.10 
##DATA TYPE=MASS SPECTRUM
##SAMPLE DESCRIPTION=DKFZ HD OPFERKUCH, HEIDELBERG, GERMANY, F.R.G.
##NAMES=HP
##CAS NAME=1H-2,8a-Methanocyclopenta[a]cyclopropa[e]cyclodecen-11-one, 1a,2,
5,5a,6,9,10,10a-octahydro-5,5a,6-trihydroxy-1,4-bis(hydroxymethyl)-1,7,9-tri
methyl-, [1S-(1.alpha.,1a.alpha.,2.alpha.,5.beta.,5a.beta.,6.beta.,8a.alpha.
,9.alpha.,10a.alpha.)]-
##MOLFORM=C20H28O6
##CAS REGISTRY NO=52557-29-6
##MP= -300
##BP= -300
##MW= 364
##$RETENTION INDEX=0
##$CONDENSED SPECTRUM=NO
##NPOINTS= 339
##XYDATA=(XY..XY) 1 
    12          2
    13          3
    14         10
    15         52
    16          7
    17         22
    18        104
    19         13
    24          0
    25          3
    26         30
    27        315
    28        174
    29        281
    30         22
    31        255
    32          5
    33          0
    35          0
    36          2
    37          5
    38         18
    39        436
    40         73
    41        818
    42         56
    43        999
    44         38
    45        118
    46         34
    47         10
    48          0
    49          2
    50         25
    51        154
    52         77
    53        483
    54         83
    55        442
    56         44
    57        201
    58        108
    59         20
    60         10
    61         56
    62         12
    63         65
    64         30
    65        348
    66        135
    67        348
    68         48
    69        241
    70         53
    71         79
    72          8
    73         28
    74         10
    75         18
    76         19
    77        718
    78        194
    79        442
    80        107
    81        255
    82         83
    83        147
    84         34
    85         41
    86          8
    87         20
    88         23
    89         36
    90         17
    91        711
    92        147
    93        536
    94        174
    95        429
    96        120
    97         75
    98         26
    99         22
   100          6
   101         13
   102         25
   103        100
   104         53
   105        348
   106         96
   107        241
   108         88
   109        241
   110        103
   111        174
   112         44
   113         17
   114          8
   115        154
   116         60
   117        130
   118         45
   119        208
   120        118
   121        536
   122        402
   123        375
   124         95
   125         52
   126         16
   127         55
   128        119
   129        126
   130         51
   131        138
   132         61
   133        208
   134        147
   135        288
   136        104
   137        187
   138        147
   139        161
   140         54
   141         71
   142         55
   143         90
   144         53
   145        161
   146         80
   147        221
   148        139
   149        147
   150        106
   151        248
   152         93
   153         63
   154         27
   155         58
   156         34
   157         87
   158         64
   159        174
   160         96
   161        167
   162         60
   163        108
   164         60
   165        109
   166         79
   167         70
   168         48
   169         69
   170         33
   171         81
   172         55
   173        111
   174         63
   175        119
   176         65
   177        115
   178         85
   179         65
   180         30
   181         64
   182         32
   183         57
   184         28
   185         83
   186         53
   187        107
   188         64
   189         95
   190         45
   191         57
   192         26
   193         57
   194         33
   195         80
   196         46
   197         69
   198         38
   199         76
   200         38
   201         68
   202         37
   203         67
   204         30
   205         55
   206         28
   207         36
   208         26
   209         60
   210         33
   211         75
   212         38
   213         68
   214         33
   215         62
   216         33
   217         50
   218         23
   219         26
   220         17
   221         34
   222         21
   223         64
   224         29
   225         57
   226         29
   227         59
   228         22
   229         39
   230         20
   231         27
   232         13
   233         34
   234         14
   235         30
   236         19
   237         41
   238         22
   239         65
   240         32
   241         57
   242         24
   243         34
   244         16
   245         20
   246         12
   247         20
   248          8
   249         28
   250         13
   251         60
   252         40
   253         48
   254         25
   255         34
   256         13
   257         30
   258         14
   259         18
   260          9
   261         16
   262          8
   263         14
   264         14
   265         24
   266          9
   267         43
   268         18
   269         69
   270         33
   271         29
   272         12
   273         12
   274          3
   275          5
   276          2
   277         10
   278          3
   279         34
   280         32
   281         26
   282         22
   283         14
   284          7
   285         20
   286         17
   287         25
   288          8
   289          4
   290          2
   291          3
   292          5
   293          9
   294          3
   295         20
   296          6
   297         57
   298         38
   299         29
   300         29
   301          8
   302          2
   303          4
   304          3
   305          3
   306          1
   307          0
   309          1
   310         17
   311         10
   312          4
   313         10
   314          2
   315         29
   316         16
   317          8
   318          5
   319          2
   320          0
   321          0
   323          0
   325          0
   326          2
   327          1
   328         28
   329          8
   330          2
   331          3
   332          1
   333         33
   334          7
   335          1
   336          0
   337          0
   338          0
   339          0
   340          0
   341          0
   342          0
   343          0
   344          2
   345          1
   346         10
   347          2
   348          1
   349          0
   355          0
   356          0
   357          0
   358          0
   360          0
   361          0
   362          0
   364          2
   365          0