##TITLE=Library Entry 43469
##JCAMP-DX=Revision 4.10 
##DATA TYPE=MASS SPECTRUM
##SAMPLE DESCRIPTION=NIST Mass Spectrometry Data Center
##NAMES=HP
##CAS NAME=L-Isoleucine, N-trifluoroacetyl-, TMS derivative
##MOLFORM=C11H20F3NO3Si
##CAS REGISTRY NO=52558-83-5
##MP= -300
##BP= -300
##MW= 299
##$RETENTION INDEX=1243
##$CONDENSED SPECTRUM=NO
##NPOINTS= 149
##XYDATA=(XY..XY) 1 
    15          3
    27         30
    28         37
    29          5
    31          4
    36          2
    38          2
    39         31
    40         14
    41        174
    42         30
    43         49
    44         10
    45        111
    46         12
    47         66
    48          3
    49          6
    50          3
    51          8
    52          4
    53         18
    55         22
    56         24
    57         88
    58         11
    59         33
    60         14
    61         45
    63          4
    65          2
    66          1
    67         14
    68          4
    69        259
    70         31
    71          9
    72          6
    73        999
    74         71
    75        314
    76         22
    77        129
    78         25
    80          8
    81          7
    82          9
    83         11
    84         45
    85          3
    86         19
    87          7
    89          4
    91        145
    92         13
    93         12
    94          5
    95         18
    96         19
    97         36
    98         20
    99         34
   100         16
   101          8
   104         12
   106         23
   107         20
   108          2
   110          6
   112         23
   113          3
   114         18
   115          4
   116          4
   118          3
   120        109
   121          7
   122          8
   123          7
   124          3
   125         13
   126         37
   127         65
   128          8
   129          6
   130         18
   132          2
   133          7
   134         41
   135          9
   138          5
   139          3
   140          7
   141          2
   143         28
   144          3
   145          5
   146          2
   148         22
   149          5
   150          8
   151          7
   152         12
   153         21
   155          2
   156          4
   157          3
   160          4
   161          2
   162          5
   164          4
   167          3
   168          7
   170         35
   171         66
   172          6
   173          3
   179          4
   180          7
   182         18
   183          5
   184          6
   185          5
   186         71
   187         11
   193          1
   197          2
   198          3
   199          6
   202         15
   207          2
   212          6
   214          3
   225          8
   226        403
   227         96
   228         30
   232          2
   240         41
   241         10
   242          5
   243         13
   244          3
   255         40
   256         14
   273          2
   284        191
   285         28
   286         11