##TITLE=Library Entry 83429
##JCAMP-DX=Revision 4.10 
##DATA TYPE=MASS SPECTRUM
##SAMPLE DESCRIPTION=Japan AIST/NIMC Database- Spectrum MS-NW-2366
##NAMES=HP
##CAS NAME=3.beta.-Hydroxy-5-cholen-24-oic acid
##MOLFORM=C24H38O3
##CAS REGISTRY NO=5255-17-4
##MP= -300
##BP= -300
##MW= 374
##$RETENTION INDEX=0
##$CONDENSED SPECTRUM=NO
##NPOINTS= 346
##XYDATA=(XY..XY) 1 
    12          1
    14          6
    15         16
    16          4
    17          8
    18         36
    25          2
    26         16
    27        135
    28         74
    29        330
    30         12
    31         44
    32          4
    36          2
    37          2
    38          4
    39        144
    40         30
    41        719
    42         43
    43        238
    44         18
    45         52
    46          2
    47          2
    50          7
    51         34
    52         18
    53        214
    54         38
    55        995
    56         61
    57        119
    58         11
    59        108
    60         84
    61          6
    62          2
    63         12
    64          6
    65        113
    66         44
    67        585
    68         96
    69        287
    70         24
    71         50
    72          9
    73         42
    74         11
    75          7
    76         13
    77        308
    78         88
    79        643
    80        105
    81        839
    82        102
    83        212
    84         25
    85        109
    86         10
    87         25
    88          5
    89         11
    90          9
    91        722
    92        185
    93        708
    94        200
    95        721
    96         83
    97        107
    98         16
    99         56
   100         13
   101        118
   102         18
   103         61
   104         62
   105        802
   106        261
   107        999
   108        246
   109        387
   110         62
   111         62
   112         11
   113         13
   114         11
   115        116
   116         54
   117        270
   118        160
   119        560
   120        459
   121        596
   122        149
   123        191
   124        137
   125        146
   126         19
   127         94
   128         99
   129        167
   130         81
   131        409
   132        139
   133        511
   134        195
   135        444
   136        103
   137         86
   138         45
   139         28
   140         21
   141        122
   142         66
   143        388
   144        145
   145        873
   146        220
   147        527
   148        176
   149        245
   150         48
   151         58
   152         50
   153         63
   154         21
   155         62
   156         39
   157        209
   158        211
   159        523
   160        372
   161        583
   162        159
   163        169
   164         42
   165         61
   166         16
   167         48
   168         14
   169         48
   170         22
   171        187
   172         80
   173        284
   174        122
   175        150
   176         64
   177         78
   178        164
   179         75
   180         22
   181        117
   182         23
   183         48
   184         20
   185        181
   186         89
   187        162
   188         47
   189         97
   190         24
   191         37
   192         25
   193         86
   194        102
   195        170
   196         36
   197         68
   198         26
   199        199
   200         72
   201        121
   202         38
   203         53
   204         17
   205         22
   206         14
   207         66
   208         60
   209         49
   210         15
   211         48
   212         27
   213        590
   214        162
   215        119
   216         33
   217         65
   218         26
   219         31
   220         14
   221         38
   222         10
   223         20
   224          9
   225         29
   226         17
   227         87
   228        181
   229        128
   230         37
   231        238
   232         68
   233         55
   234         47
   235        374
   236         81
   237         23
   238          9
   239         19
   240         14
   241         33
   242         13
   243         13
   244         14
   245         47
   246         89
   247         60
   248         92
   249        106
   250         43
   251         20
   252          9
   253         71
   254         20
   255        314
   256         71
   257         17
   258          8
   259         12
   260          9
   261         23
   262        144
   263        812
   264        158
   265         28
   266          8
   267         13
   268          7
   269         16
   270          9
   271         18
   272          8
   273        143
   274         40
   275         28
   276         16
   277          7
   278          5
   279          6
   280          7
   281         14
   282         16
   283         19
   284          9
   285          9
   286          7
   287         20
   288         34
   289        349
   290         80
   291         13
   292          8
   293          4
   294          5
   295         11
   296          8
   297          7
   298         31
   299         28
   300         11
   301         34
   302         36
   303         17
   304          9
   305         15
   306          6
   307          3
   308          4
   309          3
   310         14
   311          5
   312          5
   313         11
   314         66
   315         55
   316         23
   317         41
   318         14
   319          6
   320          8
   321          4
   322          4
   323         26
   324          9
   325          4
   326          4
   327         14
   328         18
   329          7
   330         17
   331         12
   332          6
   333          2
   334          2
   335          2
   336          5
   337          4
   338         27
   339         18
   340          9
   341        291
   342         76
   343         15
   344          5
   345          5
   346          5
   347          2
   348          2
   349          1
   350          2
   351          1
   352          3
   353          3
   354         10
   355         11
   356        407
   357        111
   358         22
   359        120
   360         31
   361          6
   370         14
   371          5
   372         14
   373          9
   374        340
   375         89
   376         13
   377          1