##TITLE=Library Entry 52624
##JCAMP-DX=Revision 4.10 
##DATA TYPE=MASS SPECTRUM
##SAMPLE DESCRIPTION=Chemical Concepts
##NAMES=HP
##CAS NAME=Bicyclo[2.2.1]heptane-2-carboxylic acid, 3,3-dimethyl-
##MOLFORM=C10H16O2
##CAS REGISTRY NO=52557-98-9
##MP= -300
##BP= -300
##MW= 168
##$RETENTION INDEX=0
##$CONDENSED SPECTRUM=NO
##NPOINTS= 124
##XYDATA=(XY..XY) 1 
    26          9
    27        164
    28         10
    29        128
    30          4
    31         12
    37          4
    38         13
    39        268
    40         62
    41        521
    42         58
    43        131
    44          7
    45         38
    46          4
    47          4
    50         16
    51         57
    52         30
    53        161
    54         50
    55        342
    56         61
    57         52
    58          8
    59         85
    60         10
    61          3
    62          6
    63         16
    64          5
    65         77
    66         93
    67        842
    68        292
    69        222
    70        133
    71         33
    72          6
    73         26
    74          5
    75          6
    76          4
    77        108
    78         31
    79        198
    80         58
    81        270
    82        103
    83        999
    84         88
    85         42
    86         83
    87        213
    88         17
    89          5
    90          2
    91         75
    92         14
    93        129
    94         24
    95         70
    96         39
    97         64
    98         15
    99        117
   100        194
   101        610
   102        188
   103         18
   104          4
   105         17
   106         17
   107        150
   108        441
   109        127
   110         14
   111         48
   112         26
   113         15
   114         12
   115          5
   116          2
   117          5
   118          1
   119          4
   120          2
   121         13
   122         52
   123        147
   124         20
   125        635
   126         88
   127         15
   128          3
   129          2
   130          1
   131          3
   132          2
   133          3
   134          2
   135         33
   136          5
   137          4
   138          2
   139         27
   140          8
   149          4
   150         38
   151         13
   152          2
   153        124
   154         15
   155          6
   156          2
   163          1
   164          2
   165          2
   166          3
   167          7
   168        126
   169         17
   170          3