##TITLE=Library Entry 114763
##JCAMP-DX=Revision 4.10 
##DATA TYPE=MASS SPECTRUM
##SAMPLE DESCRIPTION=KC74-214-1C
##NAMES=HP
##CAS NAME=2-Oxazolidinone, 5-methyl-4-methylene-3-phenyl-
##MOLFORM=C11H11NO2
##CAS REGISTRY NO=52569-43-4
##MP= -300
##BP= -300
##MW= 189
##$RETENTION INDEX=0
##$CONDENSED SPECTRUM=NO
##NPOINTS= 12
##XYDATA=(XY..XY) 1 
    77        919
    89         30
    91         80
   103        300
   104        210
   117         60
   118         80
   119         50
   130        999
   144        310
   145        180
   189        470