##TITLE=Library Entry 67828
##JCAMP-DX=Revision 4.10 
##DATA TYPE=MASS SPECTRUM
##SAMPLE DESCRIPTION=Exported from NIST MS Search
##NAMES=HP
##CAS NAME=Cyclohexanol, 2-methyl-5-(1-methylethyl)-, acetate, (1.alpha.,2.b
eta.,5.alpha.)-
##MOLFORM=C12H22O2
##CAS REGISTRY NO=5256-66-6
##MP= -300
##BP= -300
##MW= 198
##$RETENTION INDEX=1281
##$CONDENSED SPECTRUM=NO
##NPOINTS= 39
##XYDATA=(XY..XY) 1 
    27         40
    29         60
    39         40
    41        160
    42         30
    43        710
    53         30
    54         10
    55        170
    56         20
    57         70
    58         10
    67         80
    68        100
    69        140
    70         30
    71         20
    72         20
    77         10
    79         30
    80         20
    81        200
    82        140
    83        110
    84         10
    93         10
    94         90
    95        999
    96        180
    97         30
   109         50
   110         20
   113        110
   123        150
   124         10
   137         10
   138        420
   139         50
   155         10