##TITLE=Library Entry 70900
##JCAMP-DX=Revision 4.10 
##DATA TYPE=MASS SPECTRUM
##SAMPLE DESCRIPTION=Exported from NIST MS Search
##NAMES=HP
##CAS NAME=1-Naphthalenepentanoic acid, decahydro-2-hydroxy-.beta.,2,5,5,8a-
pentamethyl-6-oxo-, methyl ester, [1S-[1.alpha.(S*),2.beta.,4a.beta.,8a.alph
a.]]-
##MOLFORM=C21H36O4
##CAS REGISTRY NO=52567-63-2
##MP= -300
##BP= -300
##MW= 352
##$RETENTION INDEX=0
##$CONDENSED SPECTRUM=NO
##NPOINTS= 26
##XYDATA=(XY..XY) 1 
    41        400
    43        599
    55        370
    67        220
    69        350
    71        340
    83        499
    98        999
   109        220
   123        330
   139        549
   193        160
   209         80
   225         70
   249         30
   267         50
   282        240
   305          1
   307          1
   319          0
   321          2
   323          0
   334          0
   335          0
   337          0
   352          3