##TITLE=Library Entry 67962
##JCAMP-DX=Revision 4.10 
##DATA TYPE=MASS SPECTRUM
##SAMPLE DESCRIPTION=Chemical Concepts
##NAMES=HP
##CAS NAME=Cyclohexene, 3-methyl-6-(1-methylethyl)-
##MOLFORM=C10H18
##CAS REGISTRY NO=5256-65-5
##MP= -300
##BP= -300
##MW= 138
##$RETENTION INDEX=1004
##$CONDENSED SPECTRUM=NO
##NPOINTS= 82
##XYDATA=(XY..XY) 1 
    25          0
    26         15
    27        254
    29        113
    30          2
    37          6
    38         20
    39        267
    40         40
    41        368
    42         27
    43        110
    44          3
    45          0
    47          2
    48          1
    49          1
    50         25
    51         72
    52         33
    53        133
    54         32
    55        234
    56         15
    57         16
    58          1
    59          0
    61          2
    62          8
    63         22
    64          4
    65         64
    66         24
    67        464
    68        138
    69         67
    70         12
    71          0
    73          0
    74          3
    75          4
    76          2
    77        129
    78         32
    79        208
    80         66
    81        311
    82        112
    83         26
    84          2
    86          0
    87          0
    89          3
    90          1
    91         64
    92          9
    93         72
    94        102
    95        999
    96        155
    97         10
   102          0
   103          2
   104          0
   105          4
   106          0
   107          5
   108          1
   109         24
   110          9
   111          0
   115          0
   117          0
   119          0
   121          1
   122          0
   123        107
   124         10
   137          1
   138        144
   139         16
   140          0