##TITLE=Library Entry 42367
##JCAMP-DX=Revision 4.10 
##DATA TYPE=MASS SPECTRUM
##SAMPLE DESCRIPTION=H.B.BOREN ARRHENIUS LAB., UNIVERSITY, STOCKHOLM, SWEDEN
##NAMES=HP
##CAS NAME=.beta.-D-Galactopyranoside, methyl 3,4,6-tris-O-(trimethylsilyl)-
, acetate
##MOLFORM=C18H40O7Si3
##CAS REGISTRY NO=52565-09-0
##MP= -300
##BP= -300
##MW= 452
##$RETENTION INDEX=0
##$CONDENSED SPECTRUM=NO
##NPOINTS= 78
##XYDATA=(XY..XY) 1 
    43        160
    44         70
    45         80
    59         50
    73        999
    74         90
    75        180
    81         30
    89         60
    93         50
    95         20
   101         30
   103        140
   116         40
   117        160
   118         20
   119         20
   129        110
   131         50
   132        430
   133        190
   134         30
   143         40
   145         90
   147        320
   148         50
   149         40
   159         60
   161         30
   171         30
   174        120
   175         50
   187         30
   189         50
   191        100
   203         40
   204         70
   205         60
   217        390
   218        310
   219         90
   230         20
   231         40
   233         10
   243         40
   244         20
   245         50
   246         10
   247         40
   259         11
   260         37
   261         13
   265          7
   273         18
   274          5
   275         10
   287         12
   289         13
   291          5
   303         53
   304         14
   305         31
   306          8
   317         14
   318          6
   331          6
   332          6
   333         50
   334         15
   335          8
   345          7
   347         11
   349          6
   363          2
   377          5
   378          4
   405          2
   437          2