##TITLE=Library Entry 19570
##JCAMP-DX=Revision 4.10 
##DATA TYPE=MASS SPECTRUM
##SAMPLE DESCRIPTION=A.A.Kutin, Moscow, Russia
##NAMES=HP
##CAS NAME=1H,5H-1,2,4-Triazolo[1,2-a]1,2,4-triazole-1,5-dithione, tetrahydr
o-3,7-diethyl-3,7-dimethyl-
##MOLFORM=C10H18N4S2
##CAS REGISTRY NO=52578-79-7
##MP= -300
##BP= -300
##MW= 258
##$RETENTION INDEX=0
##$CONDENSED SPECTRUM=NO
##NPOINTS= 172
##XYDATA=(XY..XY) 1 
    33          7
    34          7
    35          2
    36          5
    37          2
    39        196
    40         85
    41        330
    42        878
    43        119
    44         58
    45         47
    46         16
    47         15
    48          5
    50         12
    51         18
    52         14
    53         92
    54         74
    55        999
    56        210
    57         74
    58         74
    59        132
    60        125
    61         13
    62         10
    63          4
    64          7
    65          5
    66          5
    67         42
    68         39
    69         31
    70        223
    71         86
    72        855
    73         56
    74         33
    75         21
    76          8
    77          9
    78          5
    79          5
    80         13
    81         20
    82         35
    83          9
    84         44
    85         40
    86         59
    87         72
    88         11
    89         10
    90          5
    91          4
    92          3
    93          2
    94          2
    95         17
    96         13
    97        102
    98         18
    99         19
   100         86
   101         13
   102         58
   103          8
   104          5
   105          3
   106          0
   107          0
   108          1
   109          2
   110          6
   111         45
   112         17
   114        776
   115        109
   116        670
   117         40
   118         31
   120         33
   121          3
   122          3
   123          1
   124          1
   125          7
   126          3
   127         14
   128         37
   129        603
   130        122
   131         37
   133         90
   134         11
   135          8
   136          1
   137          0
   138          1
   139         10
   140          8
   141          4
   142          3
   143          3
   144         32
   145         15
   146          3
   147          1
   149          0
   150          1
   151          1
   152          2
   154         36
   155          6
   156          3
   157          4
   158          6
   159          2
   160          0
   161          0
   162          6
   163          1
   164          1
   165          6
   166          2
   167          2
   168          2
   170        216
   171         25
   172         54
   173          5
   174          3
   175          0
   181          0
   183         21
   184         28
   185         13
   186          7
   187          8
   188          6
   189          1
   190          0
   198          1
   199          1
   200          0
   207          0
   208          2
   216          0
   217          0
   225         65
   226          8
   227          3
   229         41
   230          3
   231          2
   235          0
   236          0
   237          0
   243          0
   248          0
   249          3
   250          3
   251          0
   256          0
   257          2
   258        543
   259         71
   260         50
   261          5
   262          1