##TITLE=Library Entry 73740
##JCAMP-DX=Revision 4.10 
##DATA TYPE=MASS SPECTRUM
##SAMPLE DESCRIPTION=Exported from NIST MS Search
##NAMES=HP
##CAS NAME=2H-Thiopyran, tetrahydro-3-methyl-
##MOLFORM=C6H12S
##CAS REGISTRY NO=5258-50-4
##MP= -300
##BP= -300
##MW= 116
##$RETENTION INDEX=939
##$CONDENSED SPECTRUM=NO
##NPOINTS= 86
##XYDATA=(XY..XY) 1 
     1          8
     2          2
    13          1
    14          4
    15         64
    16          2
    26         39
    27        418
    28         79
    29        156
    30          4
    32          4
    33          5
    34          8
    35         19
    36          1
    37         12
    38         36
    39        572
    40         83
    41        882
    42        192
    43         36
    44          3
    45        486
    46        424
    47        280
    48         27
    49         15
    50         14
    51         33
    52         14
    53        120
    54         77
    55        317
    56         85
    57        231
    58         73
    59        193
    60        373
    61        406
    62         39
    63         24
    64          1
    65         23
    66         19
    67        452
    68        133
    69        466
    70         50
    71         52
    72         17
    73        103
    74        122
    75        108
    76          9
    77         13
    78          2
    79         13
    80          2
    81         60
    82        102
    83         20
    84          5
    85         29
    86          6
    87        136
    88         42
    89          8
    90          2
    95          1
    97          8
    98          2
    99         14
   100          2
   101        999
   102         66
   103         43
   104          2
   113          2
   114          1
   115         32
   116        758
   117         61
   118         32
   119          2