##TITLE=Library Entry 60592
##JCAMP-DX=Revision 4.10 
##DATA TYPE=MASS SPECTRUM
##SAMPLE DESCRIPTION=NIST Mass Spectrometry Data Center
##NAMES=HP
##CAS NAME=Glycine, N-(phenylacetyl)-, methyl ester
##MOLFORM=C11H13NO3
##CAS REGISTRY NO=5259-87-0
##MP= -300
##BP= -300
##MW= 207
##$RETENTION INDEX=1768
##$CONDENSED SPECTRUM=NO
##NPOINTS= 84
##XYDATA=(XY..XY) 1 
    14          1
    15         20
    18          1
    26          1
    27          7
    28         30
    29         29
    30        158
    31          8
    33          3
    37          2
    38         11
    39         87
    40          9
    41         25
    42         17
    43         10
    44        133
    45         30
    49          1
    50         24
    51         55
    52         16
    53          5
    54          1
    56        236
    57          9
    58          6
    59         59
    60          4
    61          5
    62         21
    63         77
    64         25
    65        250
    66         16
    72          1
    73          2
    74         12
    75          5
    76          4
    77         12
    78          5
    79          2
    83          1
    84          6
    85          2
    86          4
    88        638
    89        123
    90         88
    91        999
    92        645
    93         47
    94          2
   102          1
   103          2
   104          5
   105          4
   106          3
   107          2
   116        155
   117         13
   118        280
   119         35
   120         23
   121          3
   128          1
   130          1
   132          1
   133          1
   146          4
   147          2
   148         55
   149          6
   150          1
   165          1
   175          3
   176         20
   177          2
   205          1
   207        204
   208         26
   209          3