##TITLE=Library Entry 18702
##JCAMP-DX=Revision 4.10 
##DATA TYPE=MASS SPECTRUM
##SAMPLE DESCRIPTION=Exported from NIST MS Search
##NAMES=HP
##CAS NAME=1,5-Cyclooctadiene, (E,Z)-
##MOLFORM=C8H12
##CAS REGISTRY NO=5259-71-2
##MP= -300
##BP= -300
##MW= 108
##$RETENTION INDEX=0
##$CONDENSED SPECTRUM=NO
##NPOINTS= 24
##XYDATA=(XY..XY) 1 
    39        500
    40         50
    41        200
    50         70
    51        120
    52         60
    53        150
    54        999
    55         60
    65         80
    66        170
    67        530
    68         30
    77        150
    78         70
    79        400
    80        390
    81         30
    91         90
    92         10
    93        180
    94         10
   108        120
   109         20