##TITLE=Library Entry 13121
##JCAMP-DX=Revision 4.10 
##DATA TYPE=MASS SPECTRUM
##SAMPLE DESCRIPTION=MASS SPECTROMETRY CENTER, UNIV. OF UTAH EPA-PTSEL 5670
##NAMES=HP
##CAS NAME=Oxycarboxin
##MOLFORM=C12H13NO4S
##CAS REGISTRY NO=5259-88-1
##MP= -300
##BP= -300
##MW= 267
##$RETENTION INDEX=2388
##$CONDENSED SPECTRUM=NO
##NPOINTS= 65
##XYDATA=(XY..XY) 1 
    15         26
    26         31
    27         97
    29         24
    31          3
    37         13
    38         44
    39        174
    40         23
    41         30
    42         23
    43        999
    44         47
    45         21
    48          8
    50         13
    51         72
    52         35
    53         14
    54          8
    55          8
    61          2
    62          9
    63         48
    64         55
    65        167
    66         54
    67         84
    68          3
    69         28
    71          4
    74          4
    75          4
    76          6
    77        115
    78         31
    83         31
    85          4
    87          3
    91         42
    92         55
    93        448
    94         38
   102          3
   103          5
   104         26
   105         13
   119         31
   120          3
   129          3
   130          4
   131          4
   133         17
   147        286
   148         10
   149          7
   157          4
   159          3
   175        914
   176         99
   177         71
   250         17
   267        416
   268         63
   269         27