##TITLE=Library Entry 14864
##JCAMP-DX=Revision 4.10 
##DATA TYPE=MASS SPECTRUM
##SAMPLE DESCRIPTION=CARL DJERASSI DEPT OF CHEM STANFORD UNIV STANFORD CALIF
 94305
##NAMES=HP
##CAS NAME=5.alpha.-Cholest-8-ene-3.beta.,6.alpha.-diol, 14-methyl-, diaceta
te
##MOLFORM=C32H52O4
##CAS REGISTRY NO=5259-11-0
##MP= -300
##BP= -300
##MW= 500
##$RETENTION INDEX=0
##$CONDENSED SPECTRUM=NO
##NPOINTS= 123
##XYDATA=(XY..XY) 1 
    41        290
    42        120
    43        999
    44        420
    45        140
    48         20
    50         10
    51         20
    53         30
    54         10
    55        240
    56        100
    57        200
    58         60
    59         40
    60        100
    64         40
    67         60
    68         20
    69        160
    70         40
    71         70
    73         10
    77         30
    78         20
    79         60
    81        120
    82         20
    83        100
    84         20
    91         50
    92         10
    93         60
    94         20
    95        120
    96         20
    97         60
    98         20
   105         50
   107         40
   109         40
   111         20
   117         10
   119         40
   121         40
   123         10
   125         20
   128         10
   129         30
   131         40
   133         30
   135         20
   141         40
   142         20
   143        140
   144         20
   145         60
   147         20
   149         40
   155         20
   157        100
   158         40
   159        100
   160         20
   161         20
   163         10
   165         20
   167         10
   168         10
   169         30
   170         20
   171         50
   172         30
   173         40
   174         20
   181         10
   183         50
   184         30
   185         60
   186         10
   187         10
   195         30
   196         10
   197         60
   198         20
   199         90
   200         20
   201         10
   207         60
   209         30
   210         20
   211         70
   212         20
   213         30
   223         10
   225         50
   226         20
   227         30
   237         10
   239         10
   241         60
   251         30
   253         40
   267         20
   281         20
   311         10
   313         10
   323         20
   349         20
   350         10
   351         90
   352         20
   365        550
   366        220
   367         50
   368         10
   379         30
   380        280
   381         80
   424         70
   425         30
   427         10
   440        320