##TITLE=Library Entry 19563
##JCAMP-DX=Revision 4.10 
##DATA TYPE=MASS SPECTRUM
##SAMPLE DESCRIPTION=RADIAN CORP
##NAMES=HP
##CAS NAME=1-Pentanol, 5-chloro-
##MOLFORM=C5H11ClO
##CAS REGISTRY NO=5259-98-3
##MP= -300
##BP= -300
##MW= 122
##$RETENTION INDEX=0
##$CONDENSED SPECTRUM=NO
##NPOINTS= 50
##XYDATA=(XY..XY) 1 
    14          4
    15          5
    26         23
    27        187
    28        111
    29        145
    30          2
    32         21
    35          1
    36          5
    37          9
    38         21
    39        193
    40         41
    41        360
    42        414
    43         29
    44          1
    47          2
    48          4
    49         96
    50         12
    51         44
    52          4
    53         67
    54         21
    55        999
    56         47
    61         14
    62         33
    63        111
    64         13
    65         43
    66          2
    67        120
    68        402
    69        218
    70         12
    73          5
    75         38
    76         48
    77         18
    78         16
    89          5
    91         87
    92          3
    93         28
   104         48
   105          2
   106         15