##TITLE=Library Entry 46231
##JCAMP-DX=Revision 4.10 
##DATA TYPE=MASS SPECTRUM
##SAMPLE DESCRIPTION=Japan AIST/NIMC Database- Spectrum MS-NW-9173
##NAMES=HP
##CAS NAME=Mucic acid
##MOLFORM=C6H10O8
##CAS REGISTRY NO=526-99-8
##MP= -300
##BP= -300
##MW= 210
##$RETENTION INDEX=0
##$CONDENSED SPECTRUM=NO
##NPOINTS= 146
##XYDATA=(XY..XY) 1 
    12          3
    13          2
    14         13
    15         58
    16         14
    17         79
    18        321
    19         13
    24          1
    25          6
    26         37
    27        116
    28        173
    29        323
    30         83
    31        166
    32         26
    33          2
    34          7
    36          9
    37         11
    38         19
    39         83
    40         19
    41         29
    42        151
    43        364
    44        807
    45        168
    46         16
    47         16
    48          1
    49          4
    50          6
    51          5
    52          4
    53         19
    54         23
    55        160
    56         58
    57        148
    58        248
    59         36
    60        241
    61        470
    62         11
    63          4
    64          1
    65          2
    66          5
    67          8
    68         40
    69         28
    70         19
    71         96
    72         19
    73        661
    74         34
    75          7
    76        999
    77         31
    78          9
    79          3
    80          3
    81          4
    82         19
    83         48
    84         94
    85        255
    86         36
    87         16
    88         27
    89        174
    90          8
    91         17
    92          2
    93          2
    94          2
    95         50
    96          7
    97          6
    98          2
    99         81
   100         21
   101         56
   102         23
   103         12
   104          2
   105          8
   106          1
   107         33
   108          2
   109          2
   110          3
   111          5
   112         70
   113         13
   114          3
   115          2
   116          1
   117         78
   118         11
   119         35
   120          2
   121          2
   122          1
   123          2
   124          1
   125          1
   126          1
   128          4
   129          6
   130          5
   131          3
   132          1
   133          1
   134          1
   135        182
   136          9
   137          3
   139          4
   140          2
   141          1
   142          1
   145          1
   146          9
   147         30
   148          2
   149          2
   150          1
   151          1
   152          1
   153          1
   155          1
   156         13
   157          2
   162          1
   164          5
   165         12
   166          1
   174         12
   175          2
   178          1
   192          9
   193          9
   194          1