##TITLE=Library Entry 67253
##JCAMP-DX=Revision 4.10 
##DATA TYPE=MASS SPECTRUM
##SAMPLE DESCRIPTION=NIST Mass Spectrometry Data Center
##NAMES=HP
##CAS NAME=3-Tigloyloxy-6,7-dihydroxytropane
##MOLFORM=C13H21NO4
##CAS REGISTRY NO=526-13-6
##MP= -300
##BP= -300
##MW= 255
##$RETENTION INDEX=2080
##$CONDENSED SPECTRUM=NO
##NPOINTS= 97
##XYDATA=(XY..XY) 1 
    27          6
    28          4
    29         14
    30          4
    31          2
    32          4
    38          1
    39         16
    40          2
    41         16
    42         68
    43         13
    44         19
    45          3
    50          1
    51          3
    52          2
    53         19
    54         13
    55        102
    56         16
    57         21
    58         17
    59          3
    60         12
    61          1
    65          4
    66          3
    67         20
    68         14
    69         11
    70         23
    71          6
    72         16
    73         18
    74          8
    77          4
    78          3
    79          5
    80          7
    81         14
    82         24
    83         57
    84         32
    85          5
    86         14
    87          1
    92          1
    93          6
    94        999
    95        610
    96         73
    97          9
    98         10
    99          2
   100          4
   101          1
   106          2
   107          2
   108         16
   109          3
   110         10
   111          3
   112         21
   113          4
   114         10
   115          4
   116          2
   121          1
   122          2
   123          1
   124          6
   125          2
   126         59
   127          5
   128          3
   129          1
   136          3
   137          4
   138         24
   139          2
   154          3
   155         17
   156         51
   157          5
   158          1
   172          9
   173          1
   194         18
   195         53
   196          6
   197          1
   226          2
   240          1
   255         58
   256          9
   257          1