##TITLE=Library Entry 15158
##JCAMP-DX=Revision 4.10 
##DATA TYPE=MASS SPECTRUM
##SAMPLE DESCRIPTION=Japan AIST/NIMC Database- Spectrum MS-IW-2293
##NAMES=HP
##CAS NAME=Dihydroxymaleic acid
##MOLFORM=C4H4O6
##CAS REGISTRY NO=526-84-1
##MP= -300
##BP= -300
##MW= 148
##$RETENTION INDEX=0
##$CONDENSED SPECTRUM=NO
##NPOINTS= 67
##XYDATA=(XY..XY) 1 
    12         14
    13          9
    14         43
    15         26
    16         63
    17         19
    18         82
    19         10
    24          1
    25          3
    26          5
    27          4
    28        144
    29        318
    30        173
    31        372
    32        126
    33          3
    39          1
    40          5
    41         20
    42        146
    43         22
    44        999
    45         79
    46         76
    47          9
    48          1
    50          1
    51          5
    52          1
    53          2
    55          3
    56         10
    57          3
    58        166
    59         32
    60        179
    61          8
    62          1
    63          1
    64         16
    68          2
    69          5
    70          1
    71          2
    72          1
    73          1
    74         42
    75         12
    76         26
    77         17
    78          1
    85          9
    86          1
    87         17
    88          1
    92          8
    95          1
   102         10
   103         17
   104         99
   105         41
   106          3
   120          2
   148         26
   149          2