##TITLE=Library Entry 84113
##JCAMP-DX=Revision 4.10 
##DATA TYPE=MASS SPECTRUM
##SAMPLE DESCRIPTION=Japan AIST/NIMC Database- Spectrum MS-NW-1694
##NAMES=HP
##CAS NAME=Phenol, 2,3-dimethyl-
##MOLFORM=C8H10O
##CAS REGISTRY NO=526-75-0
##MP= -300
##BP= -300
##MW= 122
##$RETENTION INDEX=1180
##$CONDENSED SPECTRUM=NO
##NPOINTS= 76
##XYDATA=(XY..XY) 1 
    15          5
    17          2
    18          9
    26          9
    27         59
    28         14
    29          9
    31          2
    32          2
    37          9
    38         29
    39        154
    40         21
    41         47
    42          4
    43         28
    44          4
    45          7
    46          5
    47          1
    49          6
    50         53
    51        117
    52         46
    53         65
    54          6
    55         26
    56          1
    59          7
    60         18
    61         16
    62         26
    63         61
    64         14
    65         83
    66         22
    67         15
    68          5
    69          2
    73          3
    74         16
    75         13
    76          9
    77        311
    78        116
    79        211
    80         20
    81          9
    82          3
    85          3
    86          4
    87          4
    89         13
    90          5
    91        193
    92         28
    93         54
    94         40
    95          7
    96          1
    98          2
   101          2
   102         11
   103         79
   104         57
   105         31
   106          3
   107        999
   108         76
   109          5
   119          6
   120         10
   121        297
   122        887
   123         77
   124          5