##TITLE=Library Entry 80889
##JCAMP-DX=Revision 4.10 
##DATA TYPE=MASS SPECTRUM
##SAMPLE DESCRIPTION=NIST Mass Spectrometry Data Center, 1992
##NAMES=HP
##CAS NAME=Benzene, 1,2,3-trimethyl-
##MOLFORM=C9H12
##CAS REGISTRY NO=526-73-8
##MP= -300
##BP= -300
##MW= 120
##$RETENTION INDEX=1013
##$CONDENSED SPECTRUM=NO
##NPOINTS= 76
##XYDATA=(XY..XY) 1 
    14          2
    15         16
    16          0
    17          0
    18          2
    26          9
    27         59
    28         24
    29          4
    32          5
    37          5
    38         18
    39         96
    40         12
    41         35
    42          1
    43          0
    44          0
    45          0
    50         36
    51         78
    52         23
    53         27
    54          2
    55          2
    58         18
    59         18
    60          1
    61          5
    62         20
    63         45
    64         10
    65         53
    66          7
    67          1
    69          0
    73          2
    74         11
    75          9
    76         14
    77        124
    78         49
    79         97
    80          7
    84          0
    85          2
    86          4
    87          5
    88          1
    89         15
    90          0
    91        102
    92         14
    93          5
    94          0
    97          0
    98          1
    99          0
   102         16
   103         78
   105        999
   106         88
   107          2
   108          0
   109          0
   110          0
   111          0
   113          0
   115         39
   116          9
   117         30
   118          0
   119        105
   120        395
   121         36
   122          1