##TITLE=Library Entry 57763
##JCAMP-DX=Revision 4.10 
##DATA TYPE=MASS SPECTRUM
##SAMPLE DESCRIPTION=P.A. Leclercq, Lab. Instrum. Anal., Eindhoven Univ. Tec
hnol., Netherlands
##NAMES=HP
##CAS NAME=Nickel, bis(diethylcarbamodithioato-S,S')-
##MOLFORM=C10H20N2NiS4
##CAS REGISTRY NO=52610-81-8
##MP= -300
##BP= -300
##MW= 354
##$RETENTION INDEX=3007
##$CONDENSED SPECTRUM=NO
##NPOINTS= 150
##XYDATA=(XY..XY) 1 
    41         46
    42        151
    43         14
    44        321
    45         81
    46          8
    47         15
    52          8
    54         46
    55         30
    56        171
    57         12
    58        108
    59        126
    60        956
    61         67
    62         61
    64         19
    67         11
    68          9
    70        125
    71         15
    72        637
    73         44
    74          5
    76        134
    77         41
    78         11
    82         10
    84         23
    85         80
    86        106
    87         86
    88        999
    89         82
    90         77
    91         49
    92         17
    93         17
    98         17
    99         15
   100         12
   101         20
   102         39
   103         23
   104         23
   105          9
   106          6
   111         14
   112          6
   113        176
   114         30
   115         77
   116        891
   117        175
   118         95
   119         64
   120         23
   121          9
   122         90
   123         21
   124         45
   125          7
   126         17
   128         34
   129         23
   130         12
   131          9
   134         38
   135         16
   136         16
   143          9
   144         24
   145        153
   146        148
   147         80
   148         80
   149         55
   150         23
   151         10
   152         11
   158         10
   159          7
   160         12
   162          6
   168          8
   170          6
   172         91
   173        251
   174        190
   175        162
   176         82
   177        156
   178         48
   179         73
   180         13
   181         29
   183         11
   200          5
   203         28
   204          7
   205         11
   206        239
   207        275
   208        131
   209        142
   210         39
   211         38
   229        124
   230         21
   231         56
   232         19
   233          9
   240          5
   244          6
   245         38
   246          7
   247         15
   248          5
   261         62
   262          7
   263         31
   264          5
   265          7
   266          2
   267          3
   277          5
   290         56
   291          9
   292         23
   293          9
   294          5
   295          4
   320          5
   321          3
   322        142
   323         21
   324         61
   325         10
   326         15
   327          3
   354        784
   355        161
   356        442
   357         73
   358        110
   359         17
   360         16
   361          3
   362          3