##TITLE=Library Entry 73715
##JCAMP-DX=Revision 4.10 
##DATA TYPE=MASS SPECTRUM
##SAMPLE DESCRIPTION=Exported from NIST MS Search
##NAMES=HP
##CAS NAME=5,8-Ethenopyrrolo[3,2-b][1,5,8]oxadiazacyclotetradecine-12,15(1H,
11H)-dione, 2,3,3a,13,14,15a-hexahydro-1-[3-methyl-2-(methylamino)-1-oxopent
yl]-13-(phenylmethyl)-
##MOLFORM=C29H36N4O4
##CAS REGISTRY NO=52617-26-2
##MP= -300
##BP= -300
##MW= 504
##$RETENTION INDEX=0
##$CONDENSED SPECTRUM=NO
##NPOINTS= 53
##XYDATA=(XY..XY) 1 
    41         22
    42         26
    43         13
    44         20
    56         13
    57          9
    58         13
    67         30
    68         48
    69         17
    70         17
    71         21
    91         17
    96          8
    97          9
    98         12
    99          7
   100        999
   101         52
   120         31
   134         26
   135         87
   165          1
   166          1
   186          1
   197          0
   215          0
   225          0
   229          0
   241          0
   242          0
   243          3
   244          0
   282          0
   308          0
   309          0
   343          0
   344          0
   345          0
   356          0
   358          0
   360          1
   376          5
   377          0
   378          0
   404         30
   405         88
   406         22
   407          8
   447         17
   448          7
   503          7
   504          9