##TITLE=Library Entry 45385
##JCAMP-DX=Revision 4.10 
##DATA TYPE=MASS SPECTRUM
##SAMPLE DESCRIPTION=O A MAMER, MCGILL UNIVERSITY, MONTRE
##NAMES=HP
##CAS NAME=4-Hydroxybenzaldoxime, 2TMS derivative
##MOLFORM=C13H23NO2Si2
##CAS REGISTRY NO=52629-38-6
##MP= -300
##BP= -300
##MW= 281
##$RETENTION INDEX=1642
##$CONDENSED SPECTRUM=NO
##NPOINTS= 176
##XYDATA=(XY..XY) 1 
    25          1
    26          3
    27          6
    29          1
    30          2
    37          1
    38          2
    39          5
    40          0
    42          2
    43         50
    44         14
    45        128
    46          9
    47          0
    48          4
    49          4
    50          8
    51          6
    52          1
    53          5
    54          2
    55          5
    56          0
    57          6
    58          9
    59         50
    60         10
    61         31
    62          4
    63         11
    64          7
    65          7
    66          2
    67          2
    68          2
    69          3
    70          5
    71          3
    72          6
    73        451
    74         45
    75        999
    76         82
    77         47
    78          4
    79          2
    80          1
    81          3
    82          2
    83          7
    84          3
    85          7
    86          2
    87          2
    88          3
    89         30
    90          8
    91         39
    92          5
    93          6
    94          2
    95          6
    96          4
    97          2
    98          2
    99          3
   100          1
   101          1
   102         13
   103          8
   104          5
   105          7
   106          3
   107          6
   108          3
   109          5
   110          2
   111          2
   112          1
   114          1
   115          3
   116         11
   117          5
   118          3
   119          7
   120         12
   121         12
   122          4
   123          5
   124          1
   125          7
   126          4
   127          1
   129          1
   130          1
   131          4
   132          3
   133         14
   134          7
   135         57
   136          9
   137          7
   138          3
   139          1
   143          1
   145          2
   146          7
   147         46
   148         14
   149         19
   150         15
   151          9
   152          2
   153          1
   158          1
   159          1
   160          9
   161          5
   162          9
   163         12
   164          4
   165          9
   166          3
   167          1
   174          2
   176         63
   177         22
   178          8
   179          4
   180          2
   181          3
   182          1
   183          1
   190          4
   191          7
   192        121
   193         23
   194         12
   195          5
   196          1
   206          5
   207          1
   208          5
   209         10
   210          2
   211          1
   215          1
   217          1
   219          1
   220          2
   221          1
   223          9
   224          2
   225          2
   233          1
   234          2
   235          2
   236          3
   237          2
   248          1
   249          9
   250          4
   252         12
   253          3
   254          2
   260          1
   266        142
   267         42
   268         16
   269          4
   281        251
   282         64
   283         29
   284          6
   285          1