##TITLE=Library Entry 36953
##JCAMP-DX=Revision 4.10 
##DATA TYPE=MASS SPECTRUM
##SAMPLE DESCRIPTION=ORMSBG,9(11)1063(1974); YEMUL
##NAMES=HP
##CAS NAME=2-Butenoic acid, 2-methyl-4-[3a,4,5,7-tetrahydro-8-hydroxy-3,3,11
,11-tetramethyl-13-(3-methyl-2-butenyl)-7,15-dioxo-1,5-methano-1H,3H,11H-fur
o[3,4-g]pyrano[3,2-b]xanthen-1-yl]-, [1.alpha.(Z),3a.alpha.,5.beta.,14aS*]-
##MOLFORM=C33H36O8
##CAS REGISTRY NO=5262-69-1
##MP= -300
##BP= -300
##MW= 560
##$RETENTION INDEX=0
##$CONDENSED SPECTRUM=NO
##NPOINTS= 88
##XYDATA=(XY..XY) 1 
    53        200
    55        216
    57         91
    65         85
    67         96
    69        999
    71         96
    77        166
    79        141
    81        146
    83         71
    91        166
    93         65
    95         66
    99        146
   100        130
   103         65
   105        183
   107         76
   109        138
   115        106
   117         56
   119        143
   121         63
   127         91
   128         75
   129         76
   131        350
   133         50
   135        115
   145         76
   147        113
   159         55
   165         50
   169         66
   173         91
   185         53
   187        183
   189        145
   191         51
   199         51
   201         68
   203         70
   205         55
   213        131
   215        266
   216         50
   219        366
   227        103
   229         98
   231        233
   243         86
   245        433
   247        100
   253         68
   271         65
   285        266
   286         61
   287        583
   288        118
   289         61
   295         98
   307        150
   337         68
   347        113
   349        183
   350         78
   361         50
   363        316
   364        103
   389        108
   391        145
   392         56
   405        633
   406        400
   407        131
   419         51
   433         58
   487         56
   517        216
   518         81
   532        266
   533         98
   545        250
   546         96
   560        616
   561        216
   562         80