##TITLE=Library Entry 70759
##JCAMP-DX=Revision 4.10 
##DATA TYPE=MASS SPECTRUM
##SAMPLE DESCRIPTION=A.A.Kutin, Moscow, Russia
##NAMES=HP
##CAS NAME=Propan-2-ol, 1-phenylthio-3-(1-piperidyl)-
##MOLFORM=C14H21NOS
##CAS REGISTRY NO=5262-81-7
##MP= -300
##BP= -300
##MW= 251
##$RETENTION INDEX=0
##$CONDENSED SPECTRUM=NO
##NPOINTS= 91
##XYDATA=(XY..XY) 1 
    33          0
    34          0
    37          0
    39         23
    41         66
    42         53
    43         14
    44         24
    45         20
    47          3
    50          6
    51         16
    53          4
    55         61
    56         14
    57          6
    58          2
    59          1
    60          0
    61          0
    63          3
    65         24
    66          5
    67          4
    68          7
    69         37
    70         35
    71          4
    72          1
    73          1
    74          2
    75          2
    77         21
    78          6
    79          5
    80          1
    81          2
    82          7
    83          8
    84          9
    85          0
    86          1
    87          0
    89          1
    91          8
    92          0
    93          0
    94          1
    96         20
    98        999
    99         46
   100          1
   104          0
   105          0
   106          0
   109         53
   110         14
   112          4
   115          1
   116          1
   121          1
   122          1
   123         19
   124          5
   125          2
   126          2
   128         17
   129          1
   130          0
   135          8
   136          0
   140          1
   142          0
   147          0
   149          1
   150          0
   152          1
   154          0
   155          0
   167          1
   168          0
   170          0
   171          1
   174          0
   207         14
   208          1
   209          0
   249          0
   251          8
   252          1
   253          0