##TITLE=Library Entry 14032
##JCAMP-DX=Revision 4.10 
##DATA TYPE=MASS SPECTRUM
##SAMPLE DESCRIPTION=Chemical Concepts
##NAMES=HP
##CAS NAME=Sucrose, 1',2,3,3',4',6'-hexa-O-acetyl-6-O-trityl-
##MOLFORM=C43H48O17
##CAS REGISTRY NO=52630-86-1
##MP= -300
##BP= -300
##MW= 836
##$RETENTION INDEX=0
##$CONDENSED SPECTRUM=NO
##NPOINTS= 326
##XYDATA=(XY..XY) 1 
    27         12
    28         29
    29         23
    30          5
    31          8
    35          0
    36          3
    37          1
    38          1
    39         12
    40          3
    41         12
    42         22
    43        999
    44         31
    45         28
    46          0
    47          0
    49          1
    50          3
    51          9
    52          2
    53          6
    54          3
    55         13
    56          3
    57         11
    58          1
    59          0
    60         20
    61         11
    62          1
    63          2
    64          0
    65          2
    66          1
    67          2
    68         11
    69         30
    70          6
    71          9
    72          2
    73         44
    74          4
    75          2
    76          2
    77         30
    78          3
    79          1
    80          1
    81         20
    82          4
    83          6
    84          2
    85         22
    86         11
    87          4
    88          1
    89          2
    90          0
    91         14
    92          1
    93          1
    94          2
    95          2
    96          5
    97         50
    98         11
    99         16
   100          3
   101         53
   102          6
   103         16
   104          2
   105         97
   106          7
   107          2
   108          1
   109        148
   110         22
   111         16
   112          4
   113         12
   114          6
   115         33
   116          5
   117          0
   118          0
   119          1
   120          1
   121          1
   122          0
   123          1
   124          0
   125          5
   126         12
   127         43
   128          9
   129          5
   130          0
   131          2
   132          1
   133          1
   134          2
   135          3
   136          2
   137          1
   138          1
   139         20
   140          2
   141          5
   142          1
   143          6
   144          3
   145          9
   146          2
   147          1
   148          0
   149          1
   150          1
   151          3
   152          7
   153         10
   154         11
   155          6
   156          2
   157          4
   158          2
   159          0
   160          0
   161          0
   162          1
   163          4
   164          5
   165        176
   166         32
   167         16
   168          4
   169        172
   170         15
   171          5
   172          1
   173          2
   174          0
   175          0
   176          3
   177          1
   178          1
   179          1
   180          0
   181          6
   182          5
   183         23
   184          4
   185          5
   186          3
   187         11
   188          1
   189          2
   190          0
   191          1
   192          0
   193          0
   194          0
   195          0
   196          0
   197          0
   198          0
   199          0
   200          1
   201          0
   202          5
   203          3
   204          1
   205          0
   206          3
   207          0
   208          0
   209          1
   210          1
   211        296
   212         35
   213          8
   215         14
   216          3
   217          0
   218          0
   219          0
   222          1
   223          0
   224          0
   225          1
   226          4
   227          5
   228         19
   229         18
   230          4
   231          1
   232          0
   233          3
   234          0
   235          0
   236          0
   237          2
   238          1
   239         12
   240          6
   241         27
   242         25
   243        925
   244        207
   245         30
   246          3
   247         12
   248          0
   249          0
   251          0
   253          0
   254          0
   255          1
   256          0
   257          1
   258         19
   259         28
   260          6
   261          0
   266          0
   267          0
   268          0
   270          0
   271          3
   272          1
   273          1
   275          3
   276          0
   277          0
   283          0
   284          0
   285          0
   286          0
   287          1
   288          0
   289         34
   290          5
   291          1
   293          0
   297          0
   298          0
   301          3
   302          1
   303          0
   305          0
   309          0
   310          0
   317          0
   318          0
   319          0
   320          0
   321          0
   323          0
   325          0
   326          0
   328          0
   331        228
   332         33
   333          6
   334          0
   335          0
   338          0
   339          0
   343          0
   347          0
   350          0
   351          3
   352          0
   353          1
   368          0
   369          3
   370          1
   371          0
   377          0
   385          0
   387          0
   393          0
   395          0
   411          1
   412          0
   413          0
   427          0
   428          1
   429         31
   430          9
   431          1
   445          0
   446          0
   458          0
   469          0
   470          0
   471          7
   472          2
   473          0
   478          0
   487          0
   488          9
   489          3
   490          0
   504          0
   505         30
   506          9
   507          2
   508          0
   529          0
   530          1
   531          0
   546          0
   547          9
   548          3
   549          0
   577          2
   578          0
   619          0
   699          0
   759         17
   760          7
   761          2
   762          0