##TITLE=Library Entry 5988
##JCAMP-DX=Revision 4.10 
##DATA TYPE=MASS SPECTRUM
##SAMPLE DESCRIPTION=NIST Mass Spectrometry Data Center, 1990.
##NAMES=HP
##CAS NAME=Heptane, 1-bromo-6-methyl-
##MOLFORM=C8H17Br
##CAS REGISTRY NO=52648-04-1
##MP= -300
##BP= -300
##MW= 192
##$RETENTION INDEX=0
##$CONDENSED SPECTRUM=NO
##NPOINTS= 45
##XYDATA=(XY..XY) 1 
    15         12
    26         23
    27        236
    28         65
    29        160
    32          2
    39        292
    40         81
    41        868
    42        399
    43        999
    44         33
    50          9
    51         23
    52         12
    53         73
    54          9
    55        657
    56        152
    57        314
    58         15
    65         13
    67         48
    69        655
    70         86
    71        149
    79         13
    80          8
    81         10
    83          9
    84          6
    93         18
    95         18
    97        186
    98         15
   107         35
   109         33
   112          9
   121         18
   123         14
   135        120
   137        129
   149        641
   151        620
   152         33