##TITLE=Library Entry 1230
##JCAMP-DX=Revision 4.10 
##DATA TYPE=MASS SPECTRUM
##SAMPLE DESCRIPTION=NIST Mass Spectrometry Data Center, 1994
##NAMES=HP
##CAS NAME=Benzene, 2-chloro-5-methyl-1,3-dinitro-
##MOLFORM=C7H5ClN2O4
##CAS REGISTRY NO=5264-65-3
##MP= -300
##BP= -300
##MW= 216
##$RETENTION INDEX=0
##$CONDENSED SPECTRUM=NO
##NPOINTS= 108
##XYDATA=(XY..XY) 1 
     4          4
    14          4
    15          5
    16          5
    18          4
    26          9
    27         27
    28         41
    29          4
    30        999
    31         10
    32         10
    35          3
    36          8
    37         38
    38         43
    39        180
    40         16
    41         10
    42          4
    43         54
    46         69
    47          7
    49         26
    50         79
    51        206
    52         35
    53         19
    54          5
    61         76
    62        232
    63        522
    64         66
    65         92
    66         10
    67          7
    68          5
    69         23
    72         43
    73        109
    74         91
    75         81
    76         58
    77        556
    78         55
    79          5
    84         70
    85         56
    86        122
    87        137
    88         66
    89        624
    90         65
    91          7
    92          5
    93        104
    94          9
    96         18
    97         81
    98         19
    99         41
   100         53
   101          7
   102         18
   105        109
   106          8
   108          6
   109          8
   110          5
   111         15
   112         58
   113         15
   114         22
   115          4
   121        131
   122         14
   123         83
   124        181
   125         49
   126         57
   127         13
   128         38
   129          5
   130         22
   135        114
   136          8
   138          4
   139         30
   140         20
   141         16
   142         11
   154          5
   155         44
   156          6
   157         13
   169          9
   170          8
   171          4
   172          4
   186         32
   187          3
   188         13
   200         12
   202          6
   216        602
   217         60
   218        193
   219         18