##TITLE=Library Entry 61206
##JCAMP-DX=Revision 4.10 
##DATA TYPE=MASS SPECTRUM
##SAMPLE DESCRIPTION=Chemical Concepts
##NAMES=HP
##CAS NAME=1-Butanol, 3-(phenylmethoxy)-
##MOLFORM=C11H16O2
##CAS REGISTRY NO=52657-84-8
##MP= -300
##BP= -300
##MW= 180
##$RETENTION INDEX=0
##$CONDENSED SPECTRUM=NO
##NPOINTS= 135
##XYDATA=(XY..XY) 1 
    26          4
    27         26
    28          5
    29         15
    30          1
    31         40
    33          0
    37          1
    38          4
    39         48
    40          5
    41         41
    42          8
    43         44
    44          4
    45         16
    46          1
    47          1
    48          0
    49          1
    50         11
    51         36
    52         10
    53          7
    54          2
    55         42
    56         62
    57         13
    59          1
    60          0
    61          1
    62          4
    63         19
    64          6
    65        101
    66          6
    67          1
    68          1
    69          3
    70          3
    71          9
    72          2
    73          2
    74          3
    75          2
    76          3
    77         60
    78         24
    79        117
    80         11
    81          2
    82          2
    83          3
    84          3
    85          2
    86          1
    87          1
    88          1
    89         29
    90         19
    91        999
    92        120
    93          7
    94          1
    95          1
    96          1
    97          2
    98          1
    99          1
   100          0
   101          0
   102          0
   103          1
   104         14
   105         30
   106          8
   107        401
   108         82
   109          7
   110          1
   111          1
   112          0
   113          1
   114          1
   115          2
   116          1
   117         13
   118         15
   119          4
   120          4
   121          1
   122          0
   123          0
   124          0
   125          1
   126          0
   127          1
   128          1
   129          1
   130          0
   131          0
   133          1
   134          1
   135          6
   136          1
   139          0
   140          0
   141          3
   142          1
   143          0
   144          1
   145          1
   146          1
   147          5
   148          0
   151          1
   152          2
   153          1
   154          0
   155          1
   159          2
   161         55
   162         64
   163          8
   164          1
   165          9
   166          4
   169          0
   176          1
   177          1
   178          5
   179         25
   180         36
   181         13
   182          2