##TITLE=Library Entry 22152
##JCAMP-DX=Revision 4.10 
##DATA TYPE=MASS SPECTRUM
##SAMPLE DESCRIPTION=H. LANGHALS, INST. ORG. CHEM. UNIV. MUNICH, MUNICH, W.
 GER.
##NAMES=HP
##CAS NAME=Cyclotridecanamine
##MOLFORM=C13H27N
##CAS REGISTRY NO=5266-81-9
##MP= -300
##BP= -300
##MW= 197
##$RETENTION INDEX=0
##$CONDENSED SPECTRUM=NO
##NPOINTS= 28
##XYDATA=(XY..XY) 1 
    30        190
    39         40
    41        150
    42         50
    43        210
    44         40
    55        100
    56        999
    57         90
    67         50
    68         30
    69         40
    70         90
    81         40
    82         90
    84         40
    96         80
    98         70
   110         20
   112        150
   124         10
   126         40
   140         40
   154         80
   168         30
   180         30
   196         30
   197         40