##TITLE=Library Entry 21947
##JCAMP-DX=Revision 4.10 
##DATA TYPE=MASS SPECTRUM
##SAMPLE DESCRIPTION=H. LANGHALS, INST. ORG. CHEM. UNIV. MUNICH, MUNICH, W.
 GER.
##NAMES=HP
##CAS NAME=Cyclotetradecanamine
##MOLFORM=C14H29N
##CAS REGISTRY NO=5266-68-2
##MP= -300
##BP= -300
##MW= 211
##$RETENTION INDEX=0
##$CONDENSED SPECTRUM=NO
##NPOINTS= 30
##XYDATA=(XY..XY) 1 
    29         70
    30        160
    39         40
    41        160
    42         40
    43        140
    44         40
    55        100
    56        999
    57        100
    67         40
    68         30
    69         50
    70         90
    81         30
    82         80
    83         30
    84         40
    96         50
    98         50
   110         10
   122        120
   126         40
   140         20
   154         30
   168         90
   182         20
   194         20
   210         10
   211         30