##TITLE=Library Entry 81251
##JCAMP-DX=Revision 4.10 
##DATA TYPE=MASS SPECTRUM
##SAMPLE DESCRIPTION=Japan AIST/NIMC Database- Spectrum MS-IW-3342
##NAMES=HP
##CAS NAME=l-Glycero-2-benzamido-1-phenylpropane
##MOLFORM=C16H17NO
##CAS REGISTRY NO=5267-67-4
##MP= -300
##BP= -300
##MW= 239
##$RETENTION INDEX=0
##$CONDENSED SPECTRUM=NO
##NPOINTS= 60
##XYDATA=(XY..XY) 1 
    27          3
    28          7
    39         10
    40          1
    41          7
    42          6
    43          2
    44         28
    50          8
    51         42
    52          4
    53          1
    55          4
    62          1
    63          5
    64          1
    65         21
    66          1
    74          2
    75          3
    76          9
    77        256
    78         20
    79          3
    83         11
    89          4
    90          2
    91         63
    92          7
   102          1
   103          4
   104          6
   105        999
   106         79
   107          5
   111          3
   115          8
   116          3
   117         30
   118         87
   119          9
   120          1
   122         23
   123          2
   128          1
   132          1
   133          1
   134          1
   146          1
   147          2
   148        612
   149         62
   150          4
   152          1
   154         14
   155          1
   165          1
   224          1
   239         39
   240          7