##TITLE=Library Entry 31045
##JCAMP-DX=Revision 4.10 
##DATA TYPE=MASS SPECTRUM
##SAMPLE DESCRIPTION=NIST Mass Spectrometry Data Center, 1994
##NAMES=HP
##CAS NAME=Benzenepropanol, .beta.-amino-, (R)-
##MOLFORM=C9H13NO
##CAS REGISTRY NO=5267-64-1
##MP= -300
##BP= -300
##MW= 151
##$RETENTION INDEX=0
##$CONDENSED SPECTRUM=NO
##NPOINTS= 27
##XYDATA=(XY..XY) 1 
    29         47
    30         98
    31         48
    42         73
    43         43
    44         42
    50          9
    51         53
    52          2
    58          1
    60        999
    61         30
    63         20
    65         75
    77         73
    78          1
    89          7
    91        184
    92         36
    93         15
   103         80
   104          1
   114          2
   118         10
   119          3
   120        284
   121         17