##TITLE=Library Entry 70753
##JCAMP-DX=Revision 4.10 
##DATA TYPE=MASS SPECTRUM
##SAMPLE DESCRIPTION=Humboldt-Universitat zu Berlin, Department of Chemistry
, Analytical Group
##NAMES=HP
##CAS NAME=6-Ethyl-dodecahydro-7,14-methano-dipyrido [1,2-a:1',2'-E][1,5]-di
azocine
##MOLFORM=C17H30N2
##CAS REGISTRY NO=52670-63-0
##MP= -300
##BP= -300
##MW= 262
##$RETENTION INDEX=0
##$CONDENSED SPECTRUM=NO
##NPOINTS= 162
##XYDATA=(XY..XY) 1 
    12          3
    13          2
    15         60
    16          2
    17          4
    18         23
    24          1
    27        220
    28        331
    29        307
    30        138
    32          1
    37          2
    39        185
    41        616
    42        291
    43         85
    44         90
    45          3
    50          3
    51         13
    52         16
    53         97
    54        154
    55        375
    56        163
    57         22
    58         10
    59          1
    60          1
    61          1
    62          1
    63          2
    65         36
    66         21
    67        122
    68        100
    69         91
    70         72
    71          8
    72          6
    73          1
    75          2
    77         40
    78         18
    79         60
    80         81
    81         46
    82         97
    83        124
    84        111
    85          7
    86          1
    88          1
    89          3
    91         35
    92         17
    93         41
    94         62
    95         33
    96        106
    97        133
    98        999
    99         73
   100          3
   102          2
   103          6
   104          4
   105         12
   106         39
   107         24
   108         52
   109         61
   110        138
   111         21
   112          6
   113          0
   115          3
   116          9
   117         14
   118         14
   119         12
   120         41
   121         19
   122         80
   123         34
   124         56
   125         30
   126         63
   127          7
   128          1
   129          1
   130          5
   131          9
   132         15
   134        159
   135         50
   136         98
   137        237
   138         63
   139         15
   140          2
   143          1
   144          2
   145          2
   146          7
   147          7
   148         37
   149         19
   150        118
   151         22
   152         32
   153          5
   154          1
   158          1
   159          1
   160          8
   162         28
   163         16
   164         59
   165         15
   166          6
   167          1
   172          1
   174          4
   175          3
   176         12
   177         13
   178         38
   179         11
   180          9
   181          1
   188          1
   189          2
   190          7
   191         38
   192         27
   193         21
   194          3
   202          1
   203          1
   204          5
   205          7
   206          4
   207          1
   217          1
   218          2
   219         18
   220          6
   221         10
   222          1
   231          2
   233        247
   234         44
   235          4
   245          0
   247          5
   248          1
   261         16
   262         32
   263          7
   264          0