##TITLE=Library Entry 19557
##JCAMP-DX=Revision 4.10 
##DATA TYPE=MASS SPECTRUM
##SAMPLE DESCRIPTION=A.Pleshkova, Nesmeyanov Inst.Org.Elem.Cpds, Moscow
##NAMES=HP
##CAS NAME=R(-)-1-Chloro-2-methylpyrrolidine
##MOLFORM=C5H10ClN
##CAS REGISTRY NO=52682-04-9
##MP= -300
##BP= -300
##MW= 119
##$RETENTION INDEX=0
##$CONDENSED SPECTRUM=NO
##NPOINTS= 34
##XYDATA=(XY..XY) 1 
    26         81
    27        322
    28        603
    29        183
    30         51
    31          6
    39        321
    40        133
    41        756
    42        865
    43         91
    44          8
    52         43
    53        101
    54        203
    55        999
    56        433
    57         28
    67         42
    68        325
    69        121
    70         43
    82        181
    83        573
    84         61
    85          9
   104        501
   105         22
   106        161
   107          8
   119        121
   120          9
   121         43
   122          3