##TITLE=Library Entry 58370
##JCAMP-DX=Revision 4.10 
##DATA TYPE=MASS SPECTRUM
##SAMPLE DESCRIPTION=V.G. Zaikin, TIPS RAS, Moscow, Russia
##NAMES=HP
##CAS NAME=Ethyl(dimethyl)methoxysilane
##MOLFORM=C5H14OSi
##CAS REGISTRY NO=52686-75-6
##MP= -300
##BP= -300
##MW= 118
##$RETENTION INDEX=0
##$CONDENSED SPECTRUM=NO
##NPOINTS= 46
##XYDATA=(XY..XY) 1 
    27         31
    29         84
    30         12
    31        105
    36          7
    38          8
    39          8
    40         15
    42         19
    43        111
    44         48
    45        157
    46          7
    47         12
    50          5
    51          7
    53          9
    55         12
    56          7
    57          9
    58         48
    59        445
    60         42
    61         28
    71          7
    73         19
    74         14
    75        369
    76         29
    77         12
    79          5
    81          5
    82          5
    83          5
    87         15
    88          9
    89        999
    90         92
    91         39
   101          7
   102          5
   103        178
   104         19
   105          8
   118         13
   119          2