##TITLE=Library Entry 45606
##JCAMP-DX=Revision 4.10 
##DATA TYPE=MASS SPECTRUM
##SAMPLE DESCRIPTION=Chemical Concepts
##NAMES=HP
##CAS NAME=.beta.-Alanine, TMS derivative
##MOLFORM=C6H15NO2Si
##CAS REGISTRY NO=5269-40-9
##MP= -300
##BP= -300
##MW= 161
##$RETENTION INDEX=0
##$CONDENSED SPECTRUM=NO
##NPOINTS= 67
##XYDATA=(XY..XY) 1 
    39          0
    40        100
    42         37
    43        673
    44        144
    45        159
    46          9
    47         98
    48          4
    49          3
    53          1
    54          0
    55         41
    58         15
    59         26
    60         15
    61         71
    62          3
    63          2
    64         13
    66          9
    67          0
    68          5
    69          1
    70         28
    72         44
    73        317
    74         75
    75        999
    76         66
    77         36
    78          1
    81          1
    83          1
    86          0
    87          1
    88         10
    89          7
    90          2
    91          0
    97          1
   100          2
   101         11
   102         16
   103          4
   104          6
   110          7
   111          8
   112         16
   113         10
   114         22
   116         11
   117        730
   118         89
   119         21
   120          1
   129         19
   130          3
   132         14
   133          6
   144          3
   145          5
   146         32
   147          5
   148          0
   160          0
   161         22