##TITLE=Library Entry 5865
##JCAMP-DX=Revision 4.10 
##DATA TYPE=MASS SPECTRUM
##SAMPLE DESCRIPTION=W. G. FILBY
##NAMES=HP
##CAS NAME=2-Propanesulfinic acid, methyl ester
##MOLFORM=C4H10O2S
##CAS REGISTRY NO=52693-47-7
##MP= -300
##BP= -300
##MW= 122
##$RETENTION INDEX=0
##$CONDENSED SPECTRUM=NO
##NPOINTS= 12
##XYDATA=(XY..XY) 1 
    41        610
    42        570
    43        999
    44         27
    50         73
    58         26
    65        210
    79         73
    80        560
   122         75
   123          6
   124          6