##TITLE=Library Entry 33811
##JCAMP-DX=Revision 4.10 
##DATA TYPE=MASS SPECTRUM
##SAMPLE DESCRIPTION=Japan AIST/NIMC Database- Spectrum MS-NW-8937
##NAMES=HP
##CAS NAME=2,5-Cyclohexadiene-1,4-dione, 2,6-dimethyl-
##MOLFORM=C8H8O2
##CAS REGISTRY NO=527-61-7
##MP= -300
##BP= -300
##MW= 136
##$RETENTION INDEX=1122
##$CONDENSED SPECTRUM=NO
##NPOINTS= 77
##XYDATA=(XY..XY) 1 
    15          2
    18          1
    25          1
    26          6
    27         28
    28         13
    29          5
    37         23
    38        113
    39        569
    40        503
    41         47
    42          9
    43         10
    44          1
    49          3
    50         30
    51         49
    52         34
    53         90
    54         12
    55          9
    56          1
    57          2
    60          1
    61          5
    62         12
    63         24
    64          7
    65         37
    66         34
    67         83
    68        999
    69         81
    70          5
    71          2
    73          1
    74          9
    75          5
    76          2
    77         74
    78         24
    79        444
    80        211
    81         17
    82          3
    83          1
    85          1
    86          3
    87          2
    89          9
    90         41
    91         21
    92          3
    93         24
    94          6
    95          5
    96        267
    97         14
    98          2
   105          1
   106          2
   107        183
   108        725
   109         58
   110          4
   119          1
   120          1
   121          9
   122          2
   123          8
   124          1
   135          2
   136        821
   137         87
   138         22
   139          2