##TITLE=Library Entry 61658
##JCAMP-DX=Revision 4.10 
##DATA TYPE=MASS SPECTRUM
##SAMPLE DESCRIPTION=NIST Mass Spectrometry Data Center, 1994
##NAMES=HP
##CAS NAME=Benzamide, 2-methyl-
##MOLFORM=C8H9NO
##CAS REGISTRY NO=527-85-5
##MP= -300
##BP= -300
##MW= 135
##$RETENTION INDEX=0
##$CONDENSED SPECTRUM=NO
##NPOINTS= 61
##XYDATA=(XY..XY) 1 
    15          3
    16         34
    17         26
    18          5
    19          4
    25          3
    26         16
    27         39
    28         43
    30         15
    37         32
    38         83
    39        307
    40         28
    41         40
    42          6
    43         20
    44        165
    45          6
    49         13
    50        114
    51        152
    52         48
    53         32
    59         12
    60          3
    61         39
    62        106
    63        252
    64         70
    65        430
    66         37
    67          8
    73          7
    74         19
    75         23
    76         24
    77         67
    78         20
    79         17
    80          7
    84          3
    85         13
    86         21
    87         17
    88          3
    89        202
    90        285
    91        999
    92         92
    93          5
   104         14
   105          5
   106         13
   116         37
   118        362
   119        738
   120         72
   121          8
   135        658
   136         58