##TITLE=Library Entry 99552
##JCAMP-DX=Revision 4.10 
##DATA TYPE=MASS SPECTRUM
##SAMPLE DESCRIPTION=NIST Mass Spectrometry Data Center, 1990.
##NAMES=HP
##CAS NAME=o-Cymene
##MOLFORM=C10H14
##CAS REGISTRY NO=527-84-4
##MP= -300
##BP= -300
##MW= 134
##$RETENTION INDEX=1022
##$CONDENSED SPECTRUM=NO
##NPOINTS= 42
##XYDATA=(XY..XY) 1 
    15         21
    26          5
    27         34
    28          3
    38         14
    39        101
    40         13
    41         59
    50         35
    51         78
    52         22
    53         22
    58         33
    61          6
    62         26
    63         73
    64         25
    65        125
    66         17
    74         16
    75         15
    76         16
    77        127
    78         55
    79         47
    87          8
    89         46
    91        393
    92         37
    93         33
   102         22
   103         64
   104         44
   105         39
   115        110
   116         28
   117        160
   118         22
   119        999
   120         98
   134        256
   135         27