##TITLE=Library Entry 90203
##JCAMP-DX=Revision 4.10 
##DATA TYPE=MASS SPECTRUM
##SAMPLE DESCRIPTION=M.I.LEVENBERG,S.L.MUELLER,ABBOTT LABS,N.CHICAGO,ILL.600
64.USA
##NAMES=HP
##CAS NAME=Azomycin
##MOLFORM=C3H3N3O2
##CAS REGISTRY NO=527-73-1
##MP= -300
##BP= -300
##MW= 113
##$RETENTION INDEX=0
##$CONDENSED SPECTRUM=NO
##NPOINTS= 10
##XYDATA=(XY..XY) 1 
    28         87
    39         47
    40        319
    56        126
    66         35
    67        117
    83        367
    97         98
   113        999
   114         34