##TITLE=Library Entry 67648
##JCAMP-DX=Revision 4.10 
##DATA TYPE=MASS SPECTRUM
##SAMPLE DESCRIPTION=Japan AIST/NIMC Database- Spectrum MS-NW-4738
##NAMES=HP
##CAS NAME=2-Furancarbonyl chloride
##MOLFORM=C5H3ClO2
##CAS REGISTRY NO=527-69-5
##MP= -300
##BP= -300
##MW= 130
##$RETENTION INDEX=0
##$CONDENSED SPECTRUM=NO
##NPOINTS= 58
##XYDATA=(XY..XY) 1 
    12          4
    13          4
    14          3
    16          1
    24          3
    25          9
    26         11
    27          3
    28         30
    29         33
    32          3
    33         13
    35          9
    36         19
    37         87
    38        143
    39        406
    40         13
    41         20
    42          3
    44          9
    47         11
    48          4
    49          9
    50          9
    51         21
    52          6
    53         18
    54          1
    60          1
    63          9
    64          1
    65          4
    66         15
    67         66
    68          5
    72          2
    73         15
    74          3
    75          5
    76          1
    79          1
    84          1
    85          1
    86          1
    93          1
    94          1
    95        999
    96         55
    97          6
   102         35
   103          1
   104         10
   112          5
   130        159
   131          9
   132         51
   133          4