##TITLE=Library Entry 25050
##JCAMP-DX=Revision 4.10 
##DATA TYPE=MASS SPECTRUM
##SAMPLE DESCRIPTION=Chemical Concepts
##NAMES=HP
##CAS NAME=Digitoxose
##MOLFORM=C6H12O4
##CAS REGISTRY NO=527-52-6
##MP= -300
##BP= -300
##MW= 148
##$RETENTION INDEX=0
##$CONDENSED SPECTRUM=NO
##NPOINTS= 66
##XYDATA=(XY..XY) 1 
    25         33
    26        143
    28         25
    29        195
    30         39
    31        125
    37          3
    38          6
    39         55
    40         30
    41         67
    42         74
    43        270
    44         97
    45        565
    46         18
    47         27
    50          4
    51          5
    53          7
    54          3
    55         81
    56        136
    57        999
    58        376
    59         31
    60        923
    61         38
    62          6
    63          5
    65          4
    66          3
    67          6
    68         14
    69         43
    70          7
    71         39
    72          3
    73         76
    74        130
    75         45
    76          3
    81          4
    83         11
    84         23
    85        101
    86        787
    87         47
    88          7
    89          3
    91         10
    94          3
    95          3
    97          6
   101         18
   102          7
   103         71
   104         48
   105          3
   111          3
   112          5
   113          8
   115          3
   119          5
   130          6
   131         13