##TITLE=Library Entry 9464
##JCAMP-DX=Revision 4.10 
##DATA TYPE=MASS SPECTRUM
##SAMPLE DESCRIPTION=NIST Mass Spectrometry Data Center
##NAMES=HP
##CAS NAME=(1aR,3aS,7S,7aS,7bR)-1,1,3a,7-Tetramethyldecahydro-1H-cyclopropa[
a]naphthalen-7-ol
##MOLFORM=C15H26O
##CAS REGISTRY NO=527-90-2
##MP= -300
##BP= -300
##MW= 222
##$RETENTION INDEX=1574
##$CONDENSED SPECTRUM=NO
##NPOINTS= 137
##XYDATA=(XY..XY) 1 
    26          2
    27         68
    28         14
    29        107
    30          3
    31         15
    37          1
    38          3
    39        179
    40         37
    41        606
    42         45
    43        999
    44         27
    45         40
    50          6
    51         38
    52         21
    53        196
    54         39
    55        466
    56         39
    57         89
    58         98
    59        595
    60         21
    61          3
    62          3
    63         13
    64          7
    65        110
    66         37
    67        495
    68         88
    69        331
    70         40
    71        232
    72         25
    73          5
    74          2
    75          3
    76          7
    77        249
    78         42
    79        369
    80         69
    81        703
    82        424
    83        185
    84         50
    85         53
    86          5
    87          2
    88          4
    89          7
    90          4
    91        324
    92         51
    93        447
    94         99
    95        352
    96        129
    97         97
    98         29
    99         18
   100          1
   101          1
   102          4
   103         28
   104         12
   105        328
   106         54
   107        387
   108        204
   109        455
   110         83
   112         12
   113         11
   115         25
   116         10
   117         35
   118         10
   119        191
   120         56
   121        367
   122        285
   123        356
   124         44
   125        415
   126         43
   127          6
   128          7
   129          7
   130          4
   131         26
   132          7
   133        280
   134         97
   135        247
   136         58
   137        119
   138         44
   139         14
   140          4
   145         25
   146          9
   147        170
   148         99
   149        292
   150         47
   151         44
   153          5
   161        389
   162         85
   163         34
   164        103
   165         18
   166          6
   167          1
   173          5
   175         55
   176         14
   178          3
   179         21
   180          3
   189        541
   190         84
   191         10
   192          2
   203          2
   204        381
   205         67
   206          5
   207         37
   208          6
   222         10
   223          2