##TITLE=Library Entry 37541
##JCAMP-DX=Revision 4.10 
##DATA TYPE=MASS SPECTRUM
##SAMPLE DESCRIPTION=Chemical Concepts
##NAMES=HP
##CAS NAME=4-Oxotetrahydropyran-2-carboxylic acid
##MOLFORM=C6H8O4
##CAS REGISTRY NO=5270-59-7
##MP= -300
##BP= -300
##MW= 144
##$RETENTION INDEX=0
##$CONDENSED SPECTRUM=NO
##NPOINTS= 59
##XYDATA=(XY..XY) 1 
    26         39
    27        190
    28         63
    29        262
    30         17
    31        108
    35          8
    38          9
    39         35
    40         38
    41         44
    42        491
    43        430
    44        351
    45        115
    46          9
    47        104
    50          8
    51         14
    52          7
    53         14
    54         11
    55        104
    56         17
    57        204
    58         31
    59         16
    60         22
    61         11
    68          7
    69        119
    70        999
    71        578
    72        239
    73         49
    74          9
    75         92
    76          9
    83          7
    85          8
    86         13
    87         45
    88         12
    89          6
    91          9
    95          6
    97         11
    98        146
    99        494
   100         40
   101         12
   102         10
   114          7
   115         25
   116          7
   143         14
   144        321
   145         31
   146          7