##TITLE=Library Entry 87813
##JCAMP-DX=Revision 4.10 
##DATA TYPE=MASS SPECTRUM
##SAMPLE DESCRIPTION=NIST Mass Spectrometry Data Center
##NAMES=HP
##CAS NAME=2-Thiophenecarbonyl chloride
##MOLFORM=C5H3ClOS
##CAS REGISTRY NO=5271-67-0
##MP= -300
##BP= -300
##MW= 146
##$RETENTION INDEX=0
##$CONDENSED SPECTRUM=NO
##NPOINTS= 68
##XYDATA=(XY..XY) 1 
    12          4
    13          2
    24          3
    25         11
    26         15
    29          2
    32         14
    33          3
    34          1
    35         14
    36         14
    37         63
    38         78
    39        354
    40         15
    41         47
    44         17
    45         87
    46          3
    47          8
    48          8
    49         32
    50         33
    51          4
    53         28
    54          1
    55         25
    57        122
    58         18
    59         20
    60          7
    61          2
    62          1
    63          6
    65          3
    66          1
    67          1
    68          5
    69         17
    70          1
    71          1
    72          3
    73          7
    74          1
    75          2
    77          4
    79          2
    80          5
    81         42
    82         39
    83        151
    84         14
    85          7
    92          2
    93          2
    95          1
   109          2
   111        999
   112         63
   113         49
   114          2
   118          3
   120          1
   146        192
   147         14
   148         76
   149          4
   150          3