##TITLE=Library Entry 39643
##JCAMP-DX=Revision 4.10 
##DATA TYPE=MASS SPECTRUM
##SAMPLE DESCRIPTION=NIST Mass Spectrometry Data Center, 1994
##NAMES=HP
##CAS NAME=1,3-Propane diisothiocyanate
##MOLFORM=C5H6N2S2
##CAS REGISTRY NO=52714-52-0
##MP= -300
##BP= -300
##MW= 158
##$RETENTION INDEX=0
##$CONDENSED SPECTRUM=NO
##NPOINTS= 78
##XYDATA=(XY..XY) 1 
     4          3
    13          2
    14          6
    15         16
    18          2
    25          4
    26         47
    27        153
    28        120
    29          5
    30          5
    31          2
    32         56
    33          5
    34          4
    37         18
    38         37
    39        220
    40         83
    41        678
    42         49
    43          4
    44         68
    45        153
    46         25
    47          9
    50          2
    51         10
    52         20
    53          2
    54         20
    55          7
    56          8
    57         20
    58         78
    59         98
    60         69
    61          6
    62          4
    63          3
    64         18
    65          2
    66         13
    67         41
    68          9
    69          5
    70         46
    71          2
    72        999
    73         66
    74         45
    75          3
    76          4
    79          8
    82        171
    83         13
    84         18
    85         13
    86         38
    88          2
    93          2
    94          3
    98         75
    99        129
   100         22
   101          8
   102          3
   113          3
   117          5
   125          8
   126          4
   131         25
   133          3
   141         11
   158        567
   159         48
   160         55
   161          4