##TITLE=Library Entry 5103
##JCAMP-DX=Revision 4.10 
##DATA TYPE=MASS SPECTRUM
##SAMPLE DESCRIPTION=A.A.Kutin, Moscow, Russia
##NAMES=HP
##CAS NAME=1H-Pyrazol-4-amine, 3,5-dimethyl-
##MOLFORM=C5H9N3
##CAS REGISTRY NO=5272-86-6
##MP= -300
##BP= -300
##MW= 111
##$RETENTION INDEX=0
##$CONDENSED SPECTRUM=NO
##NPOINTS= 63
##XYDATA=(XY..XY) 1 
    33          4
    34          1
    35          0
    36          2
    37          5
    38         16
    39         46
    40         63
    42        999
    43        851
    44         35
    46          0
    47          0
    49          2
    50          5
    51         12
    52         28
    53         39
    54         53
    55         63
    57          4
    58          1
    59          0
    60          0
    61          1
    62          4
    63          6
    64          3
    65          9
    66         13
    67          9
    68          8
    70        343
    71          9
    72          0
    73          0
    74          0
    75          0
    76          0
    77          1
    78          1
    80          5
    81          3
    82          2
    83          2
    84          0
    85          0
    91          0
    93          2
    94          0
    95          2
    96          3
    97          0
    98          0
    99          0
   104          0
   105          1
   106          0
   108          8
   111        876
   112         45
   113          1
   114          0