##TITLE=Library Entry 20335
##JCAMP-DX=Revision 4.10 
##DATA TYPE=MASS SPECTRUM
##SAMPLE DESCRIPTION=NIST Mass Spectrometry Data Center, 1990.
##NAMES=HP
##CAS NAME=Heptane, 3-chloro-3-methyl-
##MOLFORM=C8H17Cl
##CAS REGISTRY NO=5272-02-6
##MP= -300
##BP= -300
##MW= 148
##$RETENTION INDEX=0
##$CONDENSED SPECTRUM=NO
##NPOINTS= 49
##XYDATA=(XY..XY) 1 
    26         17
    27        129
    28          8
    29        111
    35         20
    36         45
    37          9
    38         32
    39        205
    40         51
    41        439
    42         88
    43        104
    50         18
    51         43
    52         21
    53        108
    54          9
    55        999
    56        112
    57        119
    62          7
    63         28
    65         27
    66         10
    67         76
    68         25
    69        171
    70        534
    71        138
    75          9
    76         18
    77         28
    78         11
    79         18
    81         14
    83        430
    84         78
    89          7
    90         62
    91        103
    92         23
    93         32
    97         14
   112        158
   113         34
   118         12
   119         18
   120          5