##TITLE=Library Entry 40849
##JCAMP-DX=Revision 4.10 
##DATA TYPE=MASS SPECTRUM
##SAMPLE DESCRIPTION=ATLAS OF MASS SPECTRA OF ORGANIC COMPOUNDS, V. A. KOPTY
UG, ED.
##NAMES=HP
##CAS NAME=Hydrazine, 1-butyl-1-ethyl-
##MOLFORM=C6H16N2
##CAS REGISTRY NO=52728-56-0
##MP= -300
##BP= -300
##MW= 116
##$RETENTION INDEX=862
##$CONDENSED SPECTRUM=NO
##NPOINTS= 24
##XYDATA=(XY..XY) 1 
    27         47
    28         33
    29         84
    30         44
    31         22
    39         16
    41         45
    42         39
    43         29
    44         60
    45        226
    46          5
    55          7
    56         35
    57         25
    58         22
    59         33
    71          7
    73        999
    74         33
   101         35
   115         48
   116        133
   117         12