##TITLE=Library Entry 48057
##JCAMP-DX=Revision 4.10 
##DATA TYPE=MASS SPECTRUM
##SAMPLE DESCRIPTION=Chemical Concepts
##NAMES=HP
##CAS NAME=Benzenesulfinic acid, 1-methylethyl ester
##MOLFORM=C9H12O2S
##CAS REGISTRY NO=52736-48-8
##MP= -300
##BP= -300
##MW= 184
##$RETENTION INDEX=0
##$CONDENSED SPECTRUM=NO
##NPOINTS= 104
##XYDATA=(XY..XY) 1 
    25          2
    26         18
    27        192
    28         12
    29         69
    30          2
    31         18
    33          2
    34          1
    36          1
    37         14
    38         30
    39        152
    40         17
    41        241
    42         47
    43        707
    44         30
    45        100
    46          2
    47          3
    48          9
    49          8
    50        144
    51        447
    52         45
    53         57
    54          4
    55          3
    56          1
    57          6
    58         15
    59          4
    60          1
    61          2
    62          6
    63         17
    64          5
    65         67
    66         50
    67          3
    68          2
    69         40
    70         10
    71          6
    72          1
    73          6
    74         32
    75         19
    76         34
    77        624
    78        999
    79         98
    80          6
    81         20
    82          9
    83          1
    84          7
    85          1
    89          0
    91         11
    92          2
    93         11
    94        123
    95         13
    96          4
    97        137
    98          8
    99          5
   100          1
   103          4
   104          1
   105         16
   106          2
   107          0
   108          6
   109         29
   110         23
   111          3
   112          1
   114          0
   115          1
   117          0
   119         24
   120          1
   123          1
   125        370
   126         48
   127         18
   128          2
   139          0
   142        449
   143        102
   144         26
   145          6
   151          0
   152          0
   154          1
   155          1
   167          0
   168          1
   184         29
   185          4
   186          2