##TITLE=Library Entry 38734
##JCAMP-DX=Revision 4.10 
##DATA TYPE=MASS SPECTRUM
##SAMPLE DESCRIPTION=U. JENSEN-KORTE, KLAGENFURTER STR., MONHEIM-BAUMBERG, W
. GER.
##NAMES=HP
##CAS NAME=(R)-(-)-4-Methylhexanoic acid
##MOLFORM=C7H14O2
##CAS REGISTRY NO=52745-93-4
##MP= -300
##BP= -300
##MW= 130
##$RETENTION INDEX=0
##$CONDENSED SPECTRUM=NO
##NPOINTS= 31
##XYDATA=(XY..XY) 1 
    41        630
    42        110
    43        500
    44        120
    45        100
    53         50
    54         30
    55        750
    56        200
    57        450
    58         20
    59        220
    60        400
    61         50
    67         20
    68         10
    69        200
    70        120
    71        999
    72        110
    73        750
    74        520
    75         20
    83        400
    84         50
    93         90
    94         20
    97         60
   101        200
   112         40
   131          3