##TITLE=Library Entry 79960
##JCAMP-DX=Revision 4.10 
##DATA TYPE=MASS SPECTRUM
##SAMPLE DESCRIPTION=NIST Mass Spectrometry Data Center, 1995
##NAMES=HP
##CAS NAME=Flamprop-methyl
##MOLFORM=C17H15ClFNO3
##CAS REGISTRY NO=52756-25-9
##MP= -300
##BP= -300
##MW= 335
##$RETENTION INDEX=0
##$CONDENSED SPECTRUM=NO
##NPOINTS= 145
##XYDATA=(XY..XY) 1 
    12          0
    15         51
    16          1
    17          0
    18          1
    26          3
    27         15
    28         13
    29          7
    30          1
    31          4
    32          0
    33          1
    35          0
    36          0
    37          0
    38          1
    39          5
    41          1
    42          3
    43          1
    44          1
    45          1
    47          0
    50         21
    51         88
    52          5
    53          1
    54          0
    55          4
    56          2
    57          4
    59         21
    60          0
    61          0
    62          1
    63          4
    64          1
    65          0
    67          0
    68          1
    69          1
    72          0
    73          1
    74          6
    75         10
    76          0
    77        360
    78         26
    79          0
    80          0
    81          3
    82          2
    83          1
    84          0
    85          1
    86          0
    87          1
    88          1
    89          1
    90          0
    91          1
    92          1
    93          9
    94         10
    95          3
    96          0
    99          0
   100          0
   102          1
   105        999
   106         70
   107          7
   108          4
   109         15
   110          1
   111          3
   116          0
   117          2
   118          0
   119          0
   120          1
   121          0
   122          0
   129         52
   130          4
   131         15
   132          2
   133          0
   134          0
   135          3
   136          2
   137          1
   143          1
   144          0
   145          1
   149          0
   150          0
   151          1
   156         38
   157          4
   158         13
   159          0
   162          0
   168          0
   170         17
   171         15
   172          7
   173          5
   174          0
   184          1
   185          0
   186          0
   190          3
   191          0
   195          0
   197          0
   198          0
   207          0
   209          0
   226          0
   230         72
   231          8
   232         23
   233          3
   234          0
   241          0
   248          0
   249          2
   250          0
   251          0
   274          1
   276         91
   277         15
   278         30
   279          5
   280          0
   303          3
   304          6
   305          2
   306          2
   335         44
   336          8
   337         16
   338          2