##TITLE=Library Entry 73273
##JCAMP-DX=Revision 4.10 
##DATA TYPE=MASS SPECTRUM
##SAMPLE DESCRIPTION=TNO Volatile Compounds in Food - Chemical Concepts
##NAMES=HP
##CAS NAME=1,4-Di(methylthio)-2-butene, (E)-
##MOLFORM=C6H12S2
##CAS REGISTRY NO=52752-62-2
##MP= -300
##BP= -300
##MW= 148
##$RETENTION INDEX=0
##$CONDENSED SPECTRUM=NO
##NPOINTS= 58
##XYDATA=(XY..XY) 1 
    26         14
    27        241
    28          5
    29         13
    30          2
    32          3
    33          2
    35         34
    38         10
    39        151
    41         71
    45        307
    46         80
    47        129
    48         27
    49         64
    50         21
    51         47
    52         19
    53        431
    54        103
    55        798
    56         37
    57          2
    58         42
    59         55
    60          6
    61        312
    62         13
    63         16
    64          3
    65         10
    66          2
    67         28
    68          4
    69         10
    70          1
    71         18
    72          5
    73         22
    74         20
    77          2
    79         28
    81          5
    84         20
    85        881
    86        126
    87         79
    88         10
    94          6
    99          4
   100        999
   101        339
   102         58
   103         18
   148        106
   149          9
   150          8