##TITLE=Library Entry 47595
##JCAMP-DX=Revision 4.10 
##DATA TYPE=MASS SPECTRUM
##SAMPLE DESCRIPTION=A.A.Kutin, Moscow, Russia
##NAMES=HP
##CAS NAME=Benzene, 1-chloro-4,5-dimethyl-2-nitro-
##MOLFORM=C8H8ClNO2
##CAS REGISTRY NO=52753-43-2
##MP= -300
##BP= -300
##MW= 185
##$RETENTION INDEX=0
##$CONDENSED SPECTRUM=NO
##NPOINTS= 134
##XYDATA=(XY..XY) 1 
    35          6
    36          6
    37         26
    38         46
    39        207
    40         18
    41         36
    42          2
    43          8
    44          1
    46         97
    47          4
    48          2
    49         31
    50        165
    51        361
    52         75
    53        111
    54         12
    55          3
    56          0
    57          0
    59          0
    60          7
    61         50
    62        100
    63        228
    64         37
    65        121
    66         13
    67          7
    68          2
    69          1
    70          0
    71          1
    72         16
    73         90
    74         96
    75        183
    76         77
    77        999
    78        189
    79         18
    80          1
    81          0
    82          0
    84         12
    85         28
    86         36
    87         58
    88         12
    89         81
    91        702
    92        119
    93          8
    94          1
    95          1
    96          5
    97         28
    98         22
    99         54
   100          9
   101         75
   102        210
   103        691
   104        261
   105         25
   106          3
   107          0
   108          2
   109          1
   110          2
   111         30
   112         30
   113         23
   114         11
   115          5
   116          5
   117          3
   118          3
   119          9
   120          7
   121          2
   122          2
   123         10
   124          6
   125         41
   127        326
   128         28
   129        101
   130          8
   131          0
   132          0
   133          0
   134          0
   135          0
   136          4
   137         13
   138         32
   139        164
   140         29
   141         51
   142          6
   143          0
   145          0
   147          1
   148          0
   150         15
   151          1
   152          0
   153          1
   155        274
   156         26
   157         89
   158          7
   159          0
   162          0
   164          0
   166          0
   167          0
   168          5
   169         23
   170          8
   171          8
   172          2
   173          0
   177          0
   179          0
   183          2
   185        830
   186         81
   187        273
   188         24
   189          2