##TITLE=Library Entry 79959
##JCAMP-DX=Revision 4.10 
##DATA TYPE=MASS SPECTRUM
##SAMPLE DESCRIPTION=NIST Mass Spectrometry Data Center, 1995
##NAMES=HP
##CAS NAME=Flamprop-isopropyl
##MOLFORM=C19H19ClFNO3
##CAS REGISTRY NO=52756-22-6
##MP= -300
##BP= -300
##MW= 363
##$RETENTION INDEX=2238
##$CONDENSED SPECTRUM=NO
##NPOINTS= 135
##XYDATA=(XY..XY) 1 
    13          0
    15          4
    18          1
    26          1
    27         25
    29          0
    33          0
    35          0
    36          0
    37          0
    38          1
    39          8
    41         24
    43         49
    44          4
    45          1
    50         10
    51         50
    52          3
    53          0
    54          0
    55          2
    56          1
    57          1
    58          0
    61          0
    62          0
    63          2
    64          0
    65          0
    67          0
    68          1
    69          0
    73          1
    74          1
    75          5
    76          0
    77        256
    78         16
    79          0
    81          1
    82          1
    83          1
    84          0
    85          0
    88          0
    89          0
    91          0
    92          0
    93          5
    94          7
    95          1
    96          0
    99          0
   100          0
   101          0
   105        999
   106         71
   107          5
   108          3
   109          9
   110          1
   111          2
   117          1
   119          0
   120          0
   121          0
   122          0
   129         41
   130          3
   131         14
   132          1
   134          0
   135          1
   136          1
   137          1
   143          0
   145          0
   150          0
   156         46
   157          4
   158         14
   159          1
   164          0
   168          0
   170         16
   171         24
   172         10
   173          7
   174          1
   176          1
   184          0
   185          0
   195          0
   196          0
   197          0
   199          0
   212          0
   213          0
   214          0
   216          3
   217          0
   218          1
   219          0
   226          0
   230          0
   232          1
   233          0
   234          0
   240          0
   241          1
   247          0
   248          0
   249          1
   258         36
   259          5
   260         11
   261          1
   274          1
   276        192
   277         33
   278         66
   279         10
   280          1
   303          2
   304         31
   305          6
   306         11
   307          1
   320          0
   363         51
   364         10
   365         18
   366          3
   367          0