##TITLE=Library Entry 42368
##JCAMP-DX=Revision 4.10 
##DATA TYPE=MASS SPECTRUM
##SAMPLE DESCRIPTION=H.B.BOREN ARRHENIUS LAB., UNIVERSITY, STOCKHOLM, SWEDEN
##NAMES=HP
##CAS NAME=.beta.-D-Galactopyranoside, methyl 2,4,6-tris-O-(trimethylsilyl)-
, acetate
##MOLFORM=C18H40O7Si3
##CAS REGISTRY NO=52769-21-8
##MP= -300
##BP= -300
##MW= 452
##$RETENTION INDEX=0
##$CONDENSED SPECTRUM=NO
##NPOINTS= 90
##XYDATA=(XY..XY) 1 
    43        150
    44         60
    45         70
    55         20
    59         60
    69         20
    71         10
    72         20
    73        999
    74         60
    75        240
    81         20
    89        110
    93         60
    95         20
   101         30
   103        110
   113         20
   116         70
   117        260
   118         20
   119         40
   129        340
   130         40
   131         60
   132        690
   133        180
   134         40
   142        130
   143         50
   145         40
   146         40
   147        270
   148         30
   149         40
   155         30
   157         30
   159         40
   161         20
   163         20
   169         30
   171         20
   173         20
   174        280
   175         50
   185         20
   189         30
   191        210
   192         40
   193         20
   199         10
   203         20
   204         20
   205         30
   217        610
   218        240
   219         80
   220         20
   230         30
   231         30
   232         20
   243        110
   244         50
   245         30
   247         20
   257          8
   259         10
   260         12
   261         14
   271         15
   273         24
   274         18
   275         24
   276          7
   287         27
   288          9
   289         20
   305          6
   317          8
   331         13
   332         32
   333         79
   334         29
   335          9
   345          9
   361          3
   363          8
   377         15
   405          1
   437          2