##TITLE=Library Entry 36611
##JCAMP-DX=Revision 4.10 
##DATA TYPE=MASS SPECTRUM
##SAMPLE DESCRIPTION=NIST Mass Spectrometry Data Center, 1994
##NAMES=HP
##CAS NAME=3-(Trifluoromethoxy)benzonitrile
##MOLFORM=C8H4F3NO
##CAS REGISTRY NO=52771-22-9
##MP= -300
##BP= -300
##MW= 187
##$RETENTION INDEX=0
##$CONDENSED SPECTRUM=NO
##NPOINTS= 84
##XYDATA=(XY..XY) 1 
    12          3
    13          2
    14          2
    15          1
    18          3
    19          1
    25          5
    26         22
    27         18
    29          2
    31         14
    36          7
    37         90
    38        117
    39        178
    40          7
    41          8
    42          1
    44          1
    45          1
    47         12
    48          3
    49         19
    50         91
    51         53
    52         18
    53          9
    55          2
    57          5
    60          6
    61         38
    62         65
    63        166
    64        130
    65          7
    66          9
    67          3
    68          2
    69        999
    70          9
    72          2
    73          9
    74         27
    75         62
    76         27
    77          2
    78          4
    81          1
    84          6
    85          1
    86          4
    87          8
    88         18
    89         17
    90        217
    91         16
    92          5
    93          2
    94         26
    95          7
    98          1
    99          9
   100          8
   101          9
   102        109
   103          8
   108          2
   109         20
   114          5
   117          5
   118         26
   119          3
   120         11
   121        102
   122          9
   132          3
   139         17
   140          2
   159         93
   160          7
   168          7
   187        639
   188         58
   189          2