##TITLE=Library Entry 54958
##JCAMP-DX=Revision 4.10 
##DATA TYPE=MASS SPECTRUM
##SAMPLE DESCRIPTION=NIST Mass Spectrometry Data Center
##NAMES=HP
##CAS NAME=5-Docosyldihydrofuran-2(3H)-one
##MOLFORM=C26H50O2
##CAS REGISTRY NO=52788-73-5
##MP= -300
##BP= -300
##MW= 394
##$RETENTION INDEX=3158
##$CONDENSED SPECTRUM=NO
##NPOINTS= 79
##XYDATA=(XY..XY) 1 
    29        125
    41        346
    42         98
    43        642
    44         26
    54         76
    55        732
    56        299
    57        750
    58         49
    60         41
    67        139
    68        153
    69        636
    70        304
    71        414
    72         46
    73         76
    81        181
    82        204
    83        541
    84        310
    85        999
    86         73
    87         36
    95        182
    96        201
    97        603
    98        248
    99         67
   100        274
   101        155
   109        109
   110        144
   111        384
   112        106
   113         45
   114        175
   115         58
   123        107
   124        139
   125        174
   126         78
   127         81
   128        135
   129         48
   137         84
   138         52
   139         75
   141        100
   151         42
   152         44
   153         35
   154         31
   155         29
   165         42
   167         25
   181         23
   190         27
   196         26
   250         27
   263         23
   277         35
   291         22
   292         36
   305         20
   319         17
   320         13
   332        153
   333         56
   334         50
   335         24
   347         17
   348         14
   358        192
   359         51
   376        275
   377         86
   394         42