##TITLE=Library Entry 21494
##JCAMP-DX=Revision 4.10 
##DATA TYPE=MASS SPECTRUM
##SAMPLE DESCRIPTION=Exported from NIST MS Search
##NAMES=HP
##CAS NAME=1H-1,2,3-Triazolo[4,5-c]quinoline-1-hexanoic acid
##MOLFORM=C15H16N4O2
##CAS REGISTRY NO=52799-13-0
##MP= -300
##BP= -300
##MW= 284
##$RETENTION INDEX=0
##$CONDENSED SPECTRUM=NO
##NPOINTS= 81
##XYDATA=(XY..XY) 1 
    51        345
    52        121
    53        134
    54         48
    55        999
    56        119
    57        203
    59         79
    60         95
    62        138
    63        235
    64        134
    65         91
    66         34
    67        162
    68         32
    69        947
    70        105
    71        136
    73        373
    74        150
    75        361
    76        245
    77        341
    78         71
    79         50
    81         56
    82         40
    83         81
    85         48
    87        113
    88        262
    89        109
    90         52
    91         69
    95         65
    96        128
    97        262
    98         50
    99         42
   100         91
   101        648
   102        329
   103         61
   105         65
   114        284
   115        376
   116        138
   127        113
   128        995
   129        300
   130         58
   141        140
   142        955
   143        182
   144         89
   154         56
   155        581
   156        203
   157        203
   158         48
   160         58
   168         97
   169        910
   170        235
   171        101
   181         85
   182         61
   183        300
   184        191
   185         58
   186         93
   197        130
   198         54
   210         44
   211         36
   225         65
   238         36
   239         40
   284        187
   285         40