##TITLE=Library Entry 61550
##JCAMP-DX=Revision 4.10 
##DATA TYPE=MASS SPECTRUM
##SAMPLE DESCRIPTION=Exported from NIST MS Search
##NAMES=HP
##CAS NAME=Benzene, (1-nitropropyl)-
##MOLFORM=C9H11NO2
##CAS REGISTRY NO=5279-14-1
##MP= -300
##BP= -300
##MW= 165
##$RETENTION INDEX=0
##$CONDENSED SPECTRUM=NO
##NPOINTS= 27
##XYDATA=(XY..XY) 1 
    18         20
    27         30
    28         20
    30         20
    39         70
    41        170
    50         30
    51         70
    52         20
    58         20
    63         30
    65         50
    76         10
    77         90
    78         40
    79         30
    89         30
    91        999
    92         80
   103         50
   104         60
   105         30
   115         50
   117         60
   118         20
   119        380
   120         40