##TITLE=Library Entry 53451
##JCAMP-DX=Revision 4.10 
##DATA TYPE=MASS SPECTRUM
##SAMPLE DESCRIPTION=RADIAN CORP
##NAMES=HP
##CAS NAME=L-Glutamic acid, N-[3,5-dichloro-4-[[(2,4-diamino-6-pteridinyl)me
thyl]methylamino]benzoyl]-
##MOLFORM=C20H20Cl2N8O5
##CAS REGISTRY NO=528-74-5
##MP= -300
##BP= -300
##MW= 522
##$RETENTION INDEX=0
##$CONDENSED SPECTRUM=NO
##NPOINTS= 169
##XYDATA=(XY..XY) 1 
    12          3
    15          9
    20          8
    25          5
    26         42
    27         74
    28        449
    29         61
    30         35
    31          6
    32         25
    35          4
    36         17
    37         13
    38         24
    39         56
    40         21
    41        260
    42         59
    43         57
    44        228
    45         67
    46          8
    47          3
    48          8
    49          3
    52         28
    53         24
    54         73
    55         97
    56        170
    57         27
    58          6
    59          8
    60         13
    61         12
    62         12
    63          8
    64         19
    65         11
    66         21
    67         13
    68         19
    70         16
    71         11
    72         11
    73         41
    74         23
    75         16
    76          9
    78          5
    79          5
    80          6
    81         11
    82         16
    83         76
    84        999
    85         62
    86         14
    87         12
    88          8
    89          7
    90          6
    91          8
    92          5
    93          1
    94          8
    95          8
    96         12
    97         28
    98         19
    99         23
   100         13
   101         17
   102         15
   103          5
   104         16
   105          4
   106          6
   108          6
   109         11
   111         17
   112         10
   113         10
   114          8
   115          5
   116          5
   118          2
   119          2
   120          5
   121          4
   122          6
   123          6
   124         13
   125          6
   126          9
   128          4
   129         76
   130          8
   131          4
   132          5
   133         10
   134          8
   135          9
   136          4
   137          8
   138         11
   139         14
   140          6
   141          3
   143          3
   144          3
   145          4
   146          3
   147          3
   148          5
   149          4
   150          3
   151          6
   152          9
   153          4
   154          5
   155          4
   156          3
   157          4
   158          3
   159          3
   160          3
   161          3
   162          3
   163          3
   164          5
   165          3
   166          5
   168          4
   169          3
   171          4
   172          3
   173          5
   174          8
   175         10
   176         45
   177          7
   178          3
   180          3
   182          3
   183          2
   184          4
   185          6
   188          3
   189          2
   190          4
   191          2
   192          1
   194          2
   200          1
   202         28
   203          5
   204         16
   213          3
   216          2
   218        118
   219         94
   220         82
   221         55
   222         19
   223         11
   226          2
   368          1