##TITLE=Library Entry 9507
##JCAMP-DX=Revision 4.10 
##DATA TYPE=MASS SPECTRUM
##SAMPLE DESCRIPTION=NIST Mass Spectrometry Data Center, 2010
##NAMES=HP
##CAS NAME=Cyclopentanecarboxylic acid, 2-acetyl-5-methyl-
##MOLFORM=C9H14O3
##CAS REGISTRY NO=528-25-6
##MP= -300
##BP= -300
##MW= 170
##$RETENTION INDEX=0
##$CONDENSED SPECTRUM=NO
##NPOINTS= 73
##XYDATA=(XY..XY) 1 
    27         29
    29         29
    36         10
    37          7
    39        126
    40         15
    41        160
    42         31
    43        999
    44         34
    45         49
    50         19
    51         33
    52         23
    53         84
    55        140
    56         43
    57         41
    59         18
    60          8
    61         16
    63          7
    65         36
    66         51
    67        491
    68         68
    69         49
    71         59
    72         14
    73         34
    74         14
    75          4
    77         48
    79        136
    81        819
    82        603
    83         71
    84         16
    85         33
    86        138
    87         23
    92          8
    93         20
    97         90
    98        133
    99         30
   100         47
   101         30
   104          5
   107         13
   108          5
   109        230
   111         29
   113        109
   114         11
   115        195
   116         26
   117          5
   124         45
   125         39
   126         16
   127        127
   128         32
   131          5
   133          7
   140          6
   141          7
   143          3
   150          5
   152        138
   153         15
   155         29
   170         50