##TITLE=Library Entry 80085
##JCAMP-DX=Revision 4.10 
##DATA TYPE=MASS SPECTRUM
##SAMPLE DESCRIPTION=J Am Soc Mass Spectrom 2008, 19, 1114-1118
##NAMES=HP
##CAS NAME=N-Benzoyl derivative of m-iodoaniline
##MOLFORM=C13H10INO
##CAS REGISTRY NO=52807-28-0
##MP= -300
##BP= -300
##MW= 323
##$RETENTION INDEX=0
##$CONDENSED SPECTRUM=NO
##NPOINTS= 32
##XYDATA=(XY..XY) 1 
    37         12
    38         40
    39         43
    40         12
    41         12
    50         81
    51        201
    52         30
    53         12
    61         12
    62         23
    63         81
    64         84
    65         30
    74         23
    75         23
    76         40
    77        550
    78         40
    90         12
    91         81
   105        999
   106         81
   127         23
   128         12
   167         12
   191         12
   195         12
   196         12
   218         12
   323        221
   324         30