##TITLE=Library Entry 59778
##JCAMP-DX=Revision 4.10 
##DATA TYPE=MASS SPECTRUM
##SAMPLE DESCRIPTION=Japan AIST/NIMC Database- Spectrum MS-IW-4021
##NAMES=HP
##CAS NAME=4-Benzyloxybenzonitrile
##MOLFORM=C14H11NO
##CAS REGISTRY NO=52805-36-4
##MP= -300
##BP= -300
##MW= 209
##$RETENTION INDEX=0
##$CONDENSED SPECTRUM=NO
##NPOINTS= 35
##XYDATA=(XY..XY) 1 
    27          1
    28          2
    37          2
    38          2
    39         22
    40          1
    41          8
    50          4
    51         11
    52          3
    62          3
    63         14
    64          8
    65         88
    66          4
    74          1
    75          4
    76          3
    77          5
    89         14
    90         15
    91        999
    92         86
    93          3
   102          3
   104          2
   105          1
   118          2
   119          1
   152          1
   153          1
   180          1
   209         84
   210         12
   211          1