##TITLE=Library Entry 60485
##JCAMP-DX=Revision 4.10 
##DATA TYPE=MASS SPECTRUM
##SAMPLE DESCRIPTION=NIST Mass Spectrometry Data Center
##NAMES=HP
##CAS NAME=Sabinyl propionate
##MOLFORM=C13H20O2
##CAS REGISTRY NO=5281-00-5
##MP= -300
##BP= -300
##MW= 208
##$RETENTION INDEX=1380
##$CONDENSED SPECTRUM=NO
##NPOINTS= 61
##XYDATA=(XY..XY) 1 
    26          1
    27         17
    28          5
    29         56
    30          2
    38          2
    39         31
    40          5
    41         74
    42          6
    43         74
    44          4
    45          2
    50          3
    51         15
    52          7
    53         33
    54          6
    57        239
    58         10
    61          1
    62          1
    63          8
    64          2
    65         37
    66          6
    68         25
    69         66
    72          1
    73          1
    74          2
    75         14
    76          2
    77         67
    78         28
    79         55
    80         24
    81         22
    82         22
    87          1
    89          3
    90          4
    91        999
    92        491
    96          2
   101          1
   104          9
   105         52
   106         12
   108        103
   109         31
   110          3
   111          1
   113          1
   118          9
   119        138
   120         18
   133         13
   134         62
   135         14
   164          3