##TITLE=Library Entry 1096
##JCAMP-DX=Revision 4.10 
##DATA TYPE=MASS SPECTRUM
##SAMPLE DESCRIPTION=G. Wolber, Eastman Kodak Company, Rochester, NY
##NAMES=HP
##CAS NAME=2-Propanone, hydrazone
##MOLFORM=C3H8N2
##CAS REGISTRY NO=5281-20-9
##MP= -300
##BP= -300
##MW= 72
##$RETENTION INDEX=700
##$CONDENSED SPECTRUM=NO
##NPOINTS= 24
##XYDATA=(XY..XY) 1 
    26         55
    27        142
    28        189
    29        170
    30        999
    31         54
    32         51
    37         50
    38        103
    39        416
    40        104
    41        210
    42        107
    43         76
    51         16
    52         27
    53         11
    54        187
    55        513
    56         83
    57        959
    58         29
    72        896
    73         35