##TITLE=Library Entry 60473
##JCAMP-DX=Revision 4.10 
##DATA TYPE=MASS SPECTRUM
##SAMPLE DESCRIPTION=NIST Mass Spectrometry Data Center
##NAMES=HP
##CAS NAME=Sabinyl isobutanoate
##MOLFORM=C14H22O2
##CAS REGISTRY NO=5281-01-6
##MP= -300
##BP= -300
##MW= 222
##$RETENTION INDEX=1414
##$CONDENSED SPECTRUM=NO
##NPOINTS= 71
##XYDATA=(XY..XY) 1 
    26          1
    27         16
    29          5
    38          1
    39         28
    40          5
    41         84
    42          8
    43        224
    44          9
    45          1
    50          2
    51         11
    52          5
    53         25
    54          4
    55         20
    56          4
    57          3
    58          1
    59          1
    62          1
    63          5
    64          2
    65         33
    66          6
    67         13
    68          2
    69          8
    70          2
    71        114
    72          5
    73          2
    74          1
    75          1
    76          1
    77         52
    78         23
    79         45
    80          5
    81         10
    83          4
    89         15
    90          3
    91        999
    92        491
    93         58
    94          4
    95          4
   102          1
   103         10
   104          6
   105         44
   106          8
   107         19
   108         46
   109         16
   110          1
   115          8
   116          2
   117         17
   118          4
   119        144
   120         15
   121          3
   133          7
   134         74
   135         23
   136          3
   152          1
   178          1