##TITLE=Library Entry 60484
##JCAMP-DX=Revision 4.10 
##DATA TYPE=MASS SPECTRUM
##SAMPLE DESCRIPTION=NIST Mass Spectrometry Data Center
##NAMES=HP
##CAS NAME=Sabinol isovalerate
##MOLFORM=C15H24O2
##CAS REGISTRY NO=5281-02-7
##MP= -300
##BP= -300
##MW= 236
##$RETENTION INDEX=1515
##$CONDENSED SPECTRUM=NO
##NPOINTS= 73
##XYDATA=(XY..XY) 1 
    27         12
    29         17
    38          1
    39         28
    40          5
    41         98
    42         10
    43         81
    44          3
    45          3
    50          2
    51          9
    52          5
    53         24
    54          3
    55         23
    56          6
    57        159
    58          8
    59          6
    60          6
    61          4
    62          1
    63          4
    64          2
    65         32
    66          6
    67         13
    68          2
    69         11
    70          1
    77         50
    78         22
    79         44
    80          5
    81          7
    83          1
    85        101
    86          6
    87          2
    89          3
    90          3
    91        999
    92        527
    93         70
    94          5
    95          3
   101          1
   102          1
   103         25
   104          7
   105         40
   106          7
   107         22
   108         82
   109         22
   110          2
   115          8
   116          3
   117         21
   118          6
   119        151
   120         16
   121          3
   123          1
   131          1
   132          1
   133          6
   134         88
   135         36
   136          4
   152          1
   192          1