##TITLE=Library Entry 78607
##JCAMP-DX=Revision 4.10 
##DATA TYPE=MASS SPECTRUM
##SAMPLE DESCRIPTION=Humboldt-Universitat zu Berlin, Department of Chemistry
, Analytical Group
##NAMES=HP
##CAS NAME=Benzamide, N-cyclohexyl-N-(1-methylethyl)-
##MOLFORM=C16H23NO
##CAS REGISTRY NO=52812-84-7
##MP= -300
##BP= -300
##MW= 245
##$RETENTION INDEX=0
##$CONDENSED SPECTRUM=NO
##NPOINTS= 137
##XYDATA=(XY..XY) 1 
    14          2
    15          7
    16          3
    17         17
    18         50
    26          3
    27         55
    28         48
    29         26
    30          7
    31          0
    32          6
    37          1
    38          3
    39         35
    40          6
    41         97
    42         28
    43         64
    44         14
    45          1
    50         27
    51        101
    52         10
    53         12
    54         16
    55         47
    56         18
    57          6
    58          9
    59          0
    61          0
    62          1
    63          2
    64          1
    65          4
    66          2
    67          9
    68          6
    69          7
    70         28
    71          3
    72          1
    73          1
    74          6
    75          5
    76         17
    77        389
    78         30
    79         13
    80          2
    81          9
    82          7
    83          8
    84          3
    85          3
    86          1
    89          1
    90          0
    91          5
    92          2
    93          0
    94          1
    95          1
    96          3
    97          2
    98         13
    99          2
   102          0
   103          3
   105        999
   106         80
   107          6
   108          0
   110          1
   111          0
   112          1
   113          1
   115          1
   117          1
   118          1
   119          1
   120          1
   121          1
   122         25
   123          3
   124          2
   125          1
   126          1
   128          1
   129          0
   130          1
   131          0
   132          1
   133          2
   134          2
   135          1
   138          0
   139          2
   140         12
   141          1
   145          0
   146         17
   147          3
   148         78
   149         10
   150          1
   159          0
   160          2
   161          6
   162         56
   163         19
   164         33
   165          3
   171          0
   174          1
   175          0
   176          5
   177          2
   181          0
   182          0
   188         46
   189          6
   190          0
   198          5
   199          1
   202         67
   203         11
   204          1
   216          0
   226          1
   230          7
   231          1
   244          5
   245         29
   246          5
   247          0