##TITLE=Library Entry 17157
##JCAMP-DX=Revision 4.10 
##DATA TYPE=MASS SPECTRUM
##SAMPLE DESCRIPTION=NIST Mass Spectrometry Data Center
##NAMES=HP
##CAS NAME=Cyclopentanemethanol, .alpha.-methyl-
##MOLFORM=C7H14O
##CAS REGISTRY NO=52829-98-8
##MP= -300
##BP= -300
##MW= 114
##$RETENTION INDEX=0
##$CONDENSED SPECTRUM=NO
##NPOINTS= 50
##XYDATA=(XY..XY) 1 
    14          1
    15         34
    19         30
    26          9
    27        104
    29         77
    30          3
    31         22
    37          2
    38          8
    39        112
    40         22
    41        232
    42         72
    43        111
    44        128
    45        999
    46         23
    47         33
    48          1
    50          3
    51          9
    52          3
    53         29
    54          9
    55         62
    56          4
    57         26
    58          4
    62          1
    63          2
    65         11
    66         10
    67        124
    68        483
    69         76
    70          7
    71         16
    72          1
    77          4
    79         20
    81        134
    82          8
    83          1
    95          5
    96         20
    97          5
    99         53
   100          3
   113          1