##TITLE=Library Entry 107898
##JCAMP-DX=Revision 4.10 
##DATA TYPE=MASS SPECTRUM
##SAMPLE DESCRIPTION=Tony Mujsce, AT&T Bell Labs
##NAMES=HP
##CAS NAME=Decanedioic acid, bis(2,2,6,6-tetramethyl-4-piperidinyl) ester
##MOLFORM=C28H52N2O4
##CAS REGISTRY NO=52829-07-9
##MP= -300
##BP= -300
##MW= 480
##$RETENTION INDEX=0
##$CONDENSED SPECTRUM=NO
##NPOINTS= 70
##XYDATA=(XY..XY) 1 
    36          2
    39          6
    41         25
    42         27
    43         15
    44          5
    46          1
    47          1
    50          1
    51          1
    52          1
    53          1
    54          2
    55         29
    56          7
    57         10
    58        145
    59          3
    64          1
    66          5
    67          2
    68          7
    69          4
    70          3
    71          4
    77          1
    79          3
    80          1
    81          2
    82         17
    83         13
    84          6
    92          6
    95          4
    96          7
    97          3
    98         15
    99          6
   107         47
   108         18
   109          4
   110         11
   112          2
   113          1
   121          1
   122          3
   123          1
   124        999
   125         85
   126          3
   139         15
   141         79
   142          8
   156          3
   183          1
   212          1
   231          1
   282          1
   324          1
   326          1
   342        122
   343         28
   344          4
   382          1
   424          1
   465         32
   466          7
   467          1
   481          1
   482          1