##TITLE=Library Entry 3896
##JCAMP-DX=Revision 4.10 
##DATA TYPE=MASS SPECTRUM
##SAMPLE DESCRIPTION=A. MCCORMICK GC-MS UNIT, UNIVERSITY OF GLASGOW
##NAMES=HP
##CAS NAME=Trachylobane
##MOLFORM=C20H32
##CAS REGISTRY NO=5282-35-9
##MP= -300
##BP= -300
##MW= 272
##$RETENTION INDEX=1979
##$CONDENSED SPECTRUM=NO
##NPOINTS= 125
##XYDATA=(XY..XY) 1 
    41        999
    42         90
    43        280
    44         20
    45         30
    51         40
    52         20
    53        240
    54         40
    55        680
    56        110
    57        170
    58         20
    59         40
    63         20
    64         10
    65        120
    66         50
    67        410
    68        170
    69        720
    70         80
    71         70
    73         30
    74         20
    77        380
    78        140
    79        540
    80        210
    81        650
    82        210
    83        250
    84         40
    85         40
    87         40
    91        720
    92        350
    93        770
    94        260
    95        530
    96         90
    97        170
   103         70
   104         70
   105        900
   106        540
   107        390
   108        120
   109        360
   110         50
   111        110
   115         70
   116         40
   117        170
   118        270
   119        760
   120        250
   121        300
   122         90
   123        500
   124        110
   125        110
   128         40
   129         50
   130         40
   131        190
   132        120
   133        270
   134        380
   135        230
   136        170
   137        280
   138         40
   139         10
   141         20
   142         20
   143         40
   144         20
   145        190
   146         80
   147        260
   148        170
   149        110
   150         40
   151         10
   157         20
   159        170
   160         70
   161        160
   162         60
   163         70
   164         10
   165         10
   171         10
   173         90
   174         40
   175        140
   176         50
   177         80
   178         20
   179         20
   187        180
   188         80
   189         70
   190        110
   191         90
   201        560
   202        110
   203         70
   204         30
   205         20
   207         30
   215        100
   216        900
   217        190
   218         40
   229        100
   230        120
   231         50
   257        610
   258        140
   259         10
   272        680
   273        190
   274         20