##TITLE=Library Entry 193
##JCAMP-DX=Revision 4.10 
##DATA TYPE=MASS SPECTRUM
##SAMPLE DESCRIPTION=D.HENNEBERG, MAX-PLANCK INSTITUTE, MULHEIM, WEST GERMAN
Y
##NAMES=HP
##CAS NAME=Propanedinitrile, propylidene-
##MOLFORM=C6H6N2
##CAS REGISTRY NO=52833-34-8
##MP= -300
##BP= -300
##MW= 106
##$RETENTION INDEX=0
##$CONDENSED SPECTRUM=NO
##NPOINTS= 57
##XYDATA=(XY..XY) 1 
    22          0
    23          0
    24          4
    25          8
    26         99
    27        182
    28        999
    29         33
    30          0
    31          0
    33          0
    34          1
    35          1
    36          5
    37         62
    38         71
    39        120
    40         79
    41        131
    42          8
    43          1
    45          3
    48          4
    49         14
    50         44
    51         78
    52        198
    53         36
    54         36
    55         58
    56          2
    58          0
    59          2
    60          0
    61          1
    62         10
    63         29
    64         39
    65         12
    66         15
    67          1
    74          2
    75         15
    76         19
    77         27
    78         22
    79        178
    80         11
    89          2
    90          1
    91         13
    92          0
   103          0
   104          5
   105         34
   106         36
   107          2