##TITLE=Library Entry 6086
##JCAMP-DX=Revision 4.10 
##DATA TYPE=MASS SPECTRUM
##SAMPLE DESCRIPTION=NIST Mass Spectrometry Data Center
##NAMES=HP
##CAS NAME=Octyltrichlorosilane
##MOLFORM=C8H17Cl3Si
##CAS REGISTRY NO=5283-66-9
##MP= -300
##BP= -300
##MW= 246
##$RETENTION INDEX=0
##$CONDENSED SPECTRUM=NO
##NPOINTS= 141
##XYDATA=(XY..XY) 1 
    15          5
    17          1
    18          1
    27        275
    28         93
    29        319
    30          2
    35          3
    36         10
    37          2
    39        193
    41        513
    42        200
    43        999
    44         28
    49          4
    50          4
    51         13
    52          6
    53         34
    54         23
    55        147
    56        123
    57        378
    58         16
    63         54
    64          5
    65         23
    66          4
    67         11
    69         44
    70         46
    71        214
    72         12
    77          3
    78          1
    79          3
    80          1
    81          3
    82          1
    83         10
    85        360
    86         24
    90          1
    91          2
    92          1
    93          1
    95          1
    98         30
    99         26
   100         23
   101         18
   102          5
   103          5
   104          1
   105          2
   112         13
   113         12
   114          9
   115         10
   116          4
   117         12
   118          1
   119          4
   123          2
   125         18
   126          9
   127         14
   128          6
   129          3
   130          2
   131          8
   133        233
   135        234
   136         15
   137         88
   138          9
   139         41
   140          7
   141         20
   142          2
   143          4
   147          1
   149          1
   151          2
   153         20
   154          3
   155         12
   156          1
   157          2
   161         35
   163         33
   164          3
   165         13
   167         14
   168          3
   169          8
   170          2
   171          2
   174         15
   175        100
   176         24
   177        102
   178         14
   179         38
   180          3
   181          9
   182          1
   183          2
   187          1
   188          5
   189         27
   190          8
   191         27
   192          4
   193          9
   194          1
   195          1
   202          3
   203         15
   204          6
   205         14
   206          3
   207         10
   208          2
   209          4
   210          2
   211          1
   212          1
   216          3
   217         16
   218          4
   219         17
   220          2
   221          5
   222          1
   246          9
   247          1
   248         10
   249          1
   250          3