##TITLE=Library Entry 69023
##JCAMP-DX=Revision 4.10 
##DATA TYPE=MASS SPECTRUM
##SAMPLE DESCRIPTION=A.A.Kutin, Moscow, Russia
##NAMES=HP
##CAS NAME=Benzoisothiazole, 3-(3,5-dimethyl-1-pyrazolyl-, 1,1-dioxide
##MOLFORM=C12H11N3O2S
##CAS REGISTRY NO=5283-69-2
##MP= -300
##BP= -300
##MW= 261
##$RETENTION INDEX=0
##$CONDENSED SPECTRUM=NO
##NPOINTS= 121
##XYDATA=(XY..XY) 1 
    33         22
    34          1
    39        327
    41        316
    42         76
    43         14
    45         11
    46          0
    48          6
    50         82
    51         91
    52         50
    53         31
    54         34
    55         13
    56          1
    57          1
    58          3
    62         17
    63         38
    65        103
    66        164
    67         23
    68         14
    69          9
    70          5
    72          2
    73          4
    75        126
    76        136
    77         21
    78         12
    79          5
    80         15
    81         15
    82          2
    84          3
    85          4
    86          1
    87          2
    88          7
    89         11
    90         34
    91          8
    92          3
    95        999
    98          2
    99          5
   102        190
   103        110
   104         15
   105          2
   106          3
   107          3
   108          2
   109          1
   114          3
   115          9
   116         10
   117          6
   118          1
   119          0
   120          1
   121          0
   122          5
   123          1
   124          0
   127          4
   128         18
   129         40
   130          8
   133          1
   134          2
   136          1
   137          3
   139          1
   140          2
   141          3
   142          4
   143         13
   144          3
   150          2
   152          7
   155         81
   156         96
   157          9
   158          0
   166          3
   167          6
   168          6
   169         30
   170         11
   171          8
   172          0
   179          3
   180          3
   181          5
   182         11
   183          7
   184          2
   191          0
   193          0
   194          5
   195          9
   196        110
   197        141
   198         12
   212          0
   219          3
   224          1
   237          0
   239          2
   245          0
   256          1
   257          6
   258          8
   260        468
   261        338
   262         59
   263         13
   264          2