##TITLE=Library Entry 339
##JCAMP-DX=Revision 4.10 
##DATA TYPE=MASS SPECTRUM
##SAMPLE DESCRIPTION=Japan AIST/NIMC Database- Spectrum MS-NW-7045
##NAMES=HP
##CAS NAME=2,6-Bis(4-azidobenzylidene)-4-methylcyclohexanone
##MOLFORM=C21H18N6O
##CAS REGISTRY NO=5284-79-7
##MP= -300
##BP= -300
##MW= 370
##$RETENTION INDEX=0
##$CONDENSED SPECTRUM=NO
##NPOINTS= 235
##XYDATA=(XY..XY) 1 
    14         25
    17          1
    18          3
    26          1
    27          6
    28        999
    29          9
    30          1
    37          2
    38          5
    39         18
    40          2
    41          9
    42          3
    43          3
    44          1
    45          1
    50          6
    51         17
    52          7
    53          5
    54          3
    55          5
    56          1
    57          1
    61          1
    62          5
    63         16
    64         15
    65          9
    66          3
    67          2
    69          1
    71          1
    74          2
    75          6
    76          8
    77         17
    78          9
    79          4
    80          2
    81          1
    82          1
    85          1
    87          2
    88          6
    89          9
    90          8
    91         15
    92          7
    93          9
    94          3
    95          2
    96          1
    99          1
   100          1
   101          7
   102         12
   103         12
   104          7
   105          4
   106          8
   107          4
   108          4
   109          2
   113          2
   114          3
   115         15
   116          9
   117          8
   118          3
   119         14
   120          5
   121          4
   122          4
   123          1
   126          1
   127          7
   128         13
   129         11
   130         10
   131          4
   132          1
   133          1
   134          1
   135          2
   136          1
   137          1
   139          3
   140          6
   141          7
   142          6
   143          5
   144          4
   145          3
   147          5
   148          1
   149          2
   150          2
   151          3
   152          4
   153          4
   154          7
   155          8
   156          7
   157          5
   158          2
   159          1
   163          1
   164          1
   165          6
   166          8
   167          6
   168          5
   169          3
   170          3
   171          1
   172          1
   176          2
   177          3
   178          5
   179          4
   180          6
   181          4
   182          3
   183          3
   184          7
   185          2
   186          2
   187          1
   189          3
   190          6
   191          5
   192          4
   193          3
   194          4
   195          3
   196          3
   197          1
   198          2
   201          1
   202          5
   203          6
   204          6
   205          5
   206          4
   207          4
   208          5
   209          2
   210          3
   211          1
   212          1
   213          2
   214          5
   215         10
   216         13
   217          8
   218          7
   219          4
   220          2
   221          1
   222          1
   224          1
   225          1
   226          2
   227          4
   228          6
   229          7
   230          8
   231          7
   232          5
   233          3
   234          2
   235          1
   236          1
   239          1
   240          1
   241          4
   242         10
   243         23
   244         19
   245          9
   246          5
   247          4
   248          2
   252          1
   253          3
   254          3
   255          4
   256          6
   257          7
   258          6
   259          5
   260          4
   261          2
   262          1
   267          1
   268          2
   269          6
   270          6
   271         13
   272          5
   273          6
   274          2
   281          1
   282          1
   283          1
   284          3
   285         39
   286         21
   287          8
   288         18
   289          6
   290          6
   291          1
   297          2
   299          2
   300          1
   302          1
   303          1
   313          4
   314         20
   315          6
   316          3
   317          4
   318          8
   319          2
   320          1
   342         60
   343         16
   344         13
   345          3
   370         29
   371          8
   372          1