##TITLE=Library Entry 84557
##JCAMP-DX=Revision 4.10 
##DATA TYPE=MASS SPECTRUM
##SAMPLE DESCRIPTION=Japan AIST/NIMC Database- Spectrum MS-IW- 527
##NAMES=HP
##CAS NAME=o-Dodecylphenol
##MOLFORM=C18H30O
##CAS REGISTRY NO=5284-29-7
##MP= -300
##BP= -300
##MW= 262
##$RETENTION INDEX=0
##$CONDENSED SPECTRUM=NO
##NPOINTS= 82
##XYDATA=(XY..XY) 1 
    27          7
    28          3
    29         15
    39          6
    41         31
    42          3
    43         40
    44          1
    51          2
    52          1
    53          4
    54          1
    55         20
    56          3
    57         27
    58          1
    65          4
    66          1
    67          3
    68          1
    69          8
    70          1
    71          9
    77         34
    78          6
    79         23
    80          3
    81          2
    82          4
    83          4
    84          1
    85          5
    89          1
    90          1
    91         11
    92          3
    93          2
    94         58
    95         10
    96         14
    97          3
    98          1
   103          6
   104          2
   105          5
   106          2
   107        999
   108        222
   109         28
   110          3
   111          1
   115          3
   116          1
   117          1
   119          5
   120         35
   121         32
   122         20
   123          2
   124          1
   131          3
   132          1
   133         20
   134          5
   135          8
   136          9
   137          1
   145          1
   147          1
   148          1
   149         10
   150          4
   163          4
   164          2
   173          1
   177          1
   234          1
   260          9
   261          3
   262        509
   263        100
   264          9