##TITLE=Library Entry 40546
##JCAMP-DX=Revision 4.10 
##DATA TYPE=MASS SPECTRUM
##SAMPLE DESCRIPTION=D.H. AUE, DEP. CHEM., CALIF. UNIV., SANTA BARBARA, CALI
F., U
##NAMES=HP
##CAS NAME=Methyl 2,3-dimethyl-3-nitrosobutanoate
##MOLFORM=C7H13NO3
##CAS REGISTRY NO=52856-06-1
##MP= -300
##BP= -300
##MW= 159
##$RETENTION INDEX=0
##$CONDENSED SPECTRUM=NO
##NPOINTS= 27
##XYDATA=(XY..XY) 1 
    39        280
    40        110
    41        790
    42        280
    43        360
    44        210
    45         90
    53        140
    55        430
    56        210
    57        130
    58         70
    59        500
    67         70
    68         70
    69        500
    70        360
    71         70
    73        999
    74         70
    83         70
    88        210
    97        110
   100         60
   113        140
   128        140
   129        210