##TITLE=Library Entry 54247
##JCAMP-DX=Revision 4.10 
##DATA TYPE=MASS SPECTRUM
##SAMPLE DESCRIPTION=D.H. AUE, DEP. CHEM., CALIF. UNIV., SANTA BARBARA, CALI
F., U
##NAMES=HP
##CAS NAME=2-Methoxy-4,4,5-trimethyloxazoline
##MOLFORM=C7H13NO2
##CAS REGISTRY NO=52856-05-0
##MP= -300
##BP= -300
##MW= 143
##$RETENTION INDEX=0
##$CONDENSED SPECTRUM=NO
##NPOINTS= 23
##XYDATA=(XY..XY) 1 
    27        160
    28        250
    29        130
    30         80
    39        120
    41        260
    42        210
    43        190
    49         70
    55        110
    56        250
    58        220
    59        100
    69         70
    70         50
    71         80
    73        100
    84        999
    85         80
   100         60
   128        600
   129         50
   143         90