##TITLE=Library Entry 54142
##JCAMP-DX=Revision 4.10 
##DATA TYPE=MASS SPECTRUM
##SAMPLE DESCRIPTION=D.H. AUE, DEP. CHEM., CALIF. UNIV., SANTA BARBARA, CALI
F.
##NAMES=HP
##CAS NAME=2-Ethoxy-4,4,5,5-tetramethyloxazoline
##MOLFORM=C9H17NO2
##CAS REGISTRY NO=52856-01-6
##MP= -300
##BP= -300
##MW= 171
##$RETENTION INDEX=0
##$CONDENSED SPECTRUM=NO
##NPOINTS= 11
##XYDATA=(XY..XY) 1 
    43         20
    49         30
    58         70
    59         30
    84        999
    98        480
   113        220
   128         40
   142         20
   156         80
   171        110