##TITLE=Library Entry 22039
##JCAMP-DX=Revision 4.10 
##DATA TYPE=MASS SPECTRUM
##SAMPLE DESCRIPTION=D.H. AUE, DEP. CHEM., CALIF. UNIV., SANTA BARBARA, CALI
F., U
##NAMES=HP
##CAS NAME=2-Methoxy-3,4,4-trimethyl.delta.1-azetine
##MOLFORM=C7H13NO
##CAS REGISTRY NO=52856-04-9
##MP= -300
##BP= -300
##MW= 127
##$RETENTION INDEX=0
##$CONDENSED SPECTRUM=NO
##NPOINTS= 22
##XYDATA=(XY..XY) 1 
    15        280
    18         60
    27        340
    28        400
    29        200
    39        280
    41        540
    42        340
    43        120
    54        180
    55        440
    56        999
    57         80
    58        380
    70        160
    71        260
    82         60
    84        380
    98        200
   112        320
   126         60
   127        200