##TITLE=Library Entry 95154
##JCAMP-DX=Revision 4.10 
##DATA TYPE=MASS SPECTRUM
##SAMPLE DESCRIPTION=Japan AIST/NIMC Database- Spectrum MS-IW-2583
##NAMES=HP
##CAS NAME=2,4-Pentadienoic acid, 5-(1,3-benzodioxol-5-yl)-
##MOLFORM=C12H10O4
##CAS REGISTRY NO=5285-18-7
##MP= -300
##BP= -300
##MW= 218
##$RETENTION INDEX=0
##$CONDENSED SPECTRUM=NO
##NPOINTS= 155
##XYDATA=(XY..XY) 1 
    14          1
    15          1
    16          1
    17         16
    18         67
    26          8
    27         26
    28         31
    29         20
    30          3
    31          4
    37          8
    38         26
    39        123
    40         10
    41         14
    42          3
    43          9
    44         15
    45         24
    46          1
    49          4
    50         62
    51        115
    52         35
    53         37
    54          4
    55         22
    56          6
    57         37
    58         10
    59          1
    60          1
    61         12
    62         76
    63        176
    64         38
    65         94
    66         21
    67          5
    68          4
    69          6
    70          1
    71         13
    72          3
    73          5
    74         27
    75         42
    76         26
    77         87
    78         27
    79         27
    80          9
    81          9
    82          1
    83          1
    84          4
    85          9
    86         27
    87         34
    88         55
    89        128
    90         18
    91         33
    92         11
    93          5
    94          5
    95         12
    96          1
    97          5
    98          3
    99          4
   100         15
   101         14
   102         24
   103         76
   104         15
   105         16
   106          3
   107          2
   108          2
   109         22
   110          3
   111          2
   112          1
   113         51
   114        123
   115        999
   116        198
   117         75
   118         11
   119          6
   120          3
   121         19
   122         10
   123          1
   126          5
   127         21
   128         11
   129          7
   130         10
   131         52
   132         13
   133          4
   134          4
   135         16
   136          2
   137          1
   141          5
   142         20
   143        397
   144         65
   145         32
   146         12
   147          8
   148          6
   149         14
   150          2
   155          1
   156          3
   157          1
   158          1
   159         26
   160         12
   161          4
   162          1
   163          1
   164          2
   165          1
   166          1
   169          1
   170          8
   171        109
   172        249
   173        811
   174        100
   175         12
   176          1
   187          6
   188          7
   189          4
   190          2
   191          2
   192          1
   199          9
   200          9
   201         26
   202          4
   203          1
   216          1
   217          9
   218        609
   219         82
   220          9
   221          1