##TITLE=Library Entry 34040
##JCAMP-DX=Revision 4.10 
##DATA TYPE=MASS SPECTRUM
##SAMPLE DESCRIPTION=D.HENNEBERG, MAX-PLANCK INSTITUTE, MULHEIM, WEST GERMAN
Y
##NAMES=HP
##CAS NAME=2-Pentene, 4,4'-oxybis-
##MOLFORM=C10H18O
##CAS REGISTRY NO=52867-34-2
##MP= -300
##BP= -300
##MW= 154
##$RETENTION INDEX=0
##$CONDENSED SPECTRUM=NO
##NPOINTS= 66
##XYDATA=(XY..XY) 1 
    21          0
    22          1
    26         10
    27         83
    28          5
    29         36
    30          0
    31          6
    33          1
    34          1
    36          1
    37         12
    38         22
    39        209
    40         62
    41        575
    42         68
    43        173
    44          3
    45         18
    49          2
    50         10
    51         16
    52         10
    53        121
    54         11
    55         36
    56          2
    57          2
    58          4
    59          0
    60          0
    61          4
    62          6
    63         10
    64          2
    65         28
    66         17
    67        189
    68        153
    69        999
    70         85
    71        123
    72          5
    77          0
    79          0
    81          7
    82          2
    83          2
    84          4
    85         61
    86         20
    87          3
    93          0
    95         18
    96         61
    97          6
    98          0
   109          0
   110         39
   111          5
   112          1
   121          0
   125          4
   139         29
   140          2