##TITLE=Library Entry 3298
##JCAMP-DX=Revision 4.10 
##DATA TYPE=MASS SPECTRUM
##SAMPLE DESCRIPTION=W.Holscher ET AL.J.Agr.Food Chem.,40,655(1992)
##NAMES=HP
##CAS NAME=3-Methyl-2-butene-1-thiol
##MOLFORM=C5H10S
##CAS REGISTRY NO=5287-45-6
##MP= -300
##BP= -300
##MW= 102
##$RETENTION INDEX=821
##$CONDENSED SPECTRUM=NO
##NPOINTS= 33
##XYDATA=(XY..XY) 1 
    33         64
    34         13
    37         28
    38         55
    39        471
    40         66
    41        999
    42         48
    43         20
    45        138
    46         11
    47         55
    50         59
    51         68
    52         18
    53        164
    54         18
    55         11
    56          9
    57         15
    58         24
    59         46
    60          9
    61          9
    65         31
    66          9
    67        169
    68        276
    69        540
    70         20
    87         13
   102         87
   103          9