##TITLE=Library Entry 58498
##JCAMP-DX=Revision 4.10 
##DATA TYPE=MASS SPECTRUM
##SAMPLE DESCRIPTION=ASES Database, Dalian Institute, P.R. China
##NAMES=HP
##CAS NAME=2-Phenyl-3-(4-bromophenyl)-oxirane
##MOLFORM=C14H11BrO
##CAS REGISTRY NO=52881-68-2
##MP= -300
##BP= -300
##MW= 274
##$RETENTION INDEX=0
##$CONDENSED SPECTRUM=NO
##NPOINTS= 24
##XYDATA=(XY..XY) 1 
    63        381
    65         59
    77        220
    89        999
    90        468
    91         80
   105         99
   152         70
   155         39
   157         39
   165        219
   166        228
   167        279
   178        100
   179         39
   183         49
   185         50
   195        459
   245        160
   246         29
   247        159
   248         29
   274        159
   276        159