##TITLE=Library Entry 24024
##JCAMP-DX=Revision 4.10 
##DATA TYPE=MASS SPECTRUM
##SAMPLE DESCRIPTION=CONTINENTAL OIL CO., PONCA CITY, OKLA, USA
##NAMES=HP
##CAS NAME=Heptane, 4-(1-methylethyl)-
##MOLFORM=C10H22
##CAS REGISTRY NO=52896-87-4
##MP= -300
##BP= -300
##MW= 142
##$RETENTION INDEX=925
##$CONDENSED SPECTRUM=NO
##NPOINTS= 81
##XYDATA=(XY..XY) 1 
    13          0
    14          3
    15         21
    16          1
    24          0
    25          0
    26          6
    27        188
    28         30
    29        160
    30          3
    36          0
    37          1
    38          3
    39         88
    40         15
    41        288
    42         71
    43        415
    44         16
    50          2
    51          6
    52          3
    53         21
    54         12
    55        107
    56        134
    57        999
    58         45
    59          1
    62          0
    63          1
    64          0
    65          3
    66          1
    67          8
    68          8
    69         80
    70         67
    71         40
    72          2
    76          0
    77          2
    78          0
    79          2
    80          0
    81          1
    82          1
    83         12
    84          3
    85         13
    86          0
    94          0
    95          0
    96          0
    97          1
    98        239
    99         67
   100          4
   107          0
   108          0
   109          0
   110          0
   111          0
   112          0
   113          1
   114          0
   115          0
   117          0
   119          0
   120          0
   121          0
   122          0
   123          0
   127          0
   133          0
   135          0
   137          0
   141          0
   142          5
   143          0