##TITLE=Library Entry 24327
##JCAMP-DX=Revision 4.10 
##DATA TYPE=MASS SPECTRUM
##SAMPLE DESCRIPTION=D.HENNEBERG, MAX-PLANCK INSTITUTE, MULHEIM, WEST GERMAN
Y
##NAMES=HP
##CAS NAME=Heptane, 3-ethyl-5-methyl-
##MOLFORM=C10H22
##CAS REGISTRY NO=52896-90-9
##MP= -300
##BP= -300
##MW= 142
##$RETENTION INDEX=926
##$CONDENSED SPECTRUM=NO
##NPOINTS= 52
##XYDATA=(XY..XY) 1 
    24          0
    25          2
    27        120
    28          7
    29        264
    30          7
    31          0
    32          1
    38          2
    39         74
    41        540
    42         62
    43        890
    44         22
    45          2
    50          0
    51          5
    52          1
    53         19
    54          6
    55        142
    56        102
    57        999
    58         44
    59          1
    63          1
    65          2
    66          1
    67          5
    68          1
    69         28
    70        150
    71        787
    72         42
    73          0
    77          1
    79          1
    81          1
    82          2
    83         26
    84         31
    85         42
    86          1
    97          0
    98          0
    99          1
   111          0
   112         72
   113        121
   114          9
   115          0
   142          3