##TITLE=Library Entry 24352
##JCAMP-DX=Revision 4.10 
##DATA TYPE=MASS SPECTRUM
##SAMPLE DESCRIPTION=D.HENNEBERG, MAX-PLANCK INSTITUTE, MULHEIM, WEST GERMAN
Y
##NAMES=HP
##CAS NAME=Heptane, 2,3,4-trimethyl-
##MOLFORM=C10H22
##CAS REGISTRY NO=52896-95-4
##MP= -300
##BP= -300
##MW= 142
##$RETENTION INDEX=933
##$CONDENSED SPECTRUM=NO
##NPOINTS= 51
##XYDATA=(XY..XY) 1 
    21          0
    24          0
    25          1
    26          9
    27         99
    29        134
    30          3
    31          0
    33          5
    35          1
    36          0
    37          2
    38          1
    39         59
    40          8
    41        229
    42         70
    43        972
    44         21
    45          0
    49          0
    50          2
    51          3
    52          1
    53         14
    54          5
    55        157
    56         52
    57        999
    58         38
    59          0
    63          0
    65          1
    66          0
    67          4
    68          2
    69         45
    70        339
    71        407
    72         19
    77          1
    79          0
    81          0
    83          9
    84          1
    85         12
    86          0
    97          1
    98         80
    99         91
   100          5