##TITLE=Library Entry 98843
##JCAMP-DX=Revision 4.10 
##DATA TYPE=MASS SPECTRUM
##SAMPLE DESCRIPTION=Zaikin V.G., TIPS RAS, Moscow, Russia
##NAMES=HP
##CAS NAME=5-Chlorovaleric acid, nonyl ester
##MOLFORM=C14H27ClO2
##CAS REGISTRY NO=52893-18-2
##MP= -300
##BP= -300
##MW= 262
##$RETENTION INDEX=1848
##$CONDENSED SPECTRUM=NO
##NPOINTS= 59
##XYDATA=(XY..XY) 1 
    26         11
    27         55
    28         23
    29         58
    36         15
    38          5
    39         33
    40          5
    41         58
    42         51
    43         32
    44         11
    45          5
    49         11
    51         10
    53         16
    54         15
    55        389
    56         62
    57         23
    58          4
    59          3
    60          6
    62          9
    63         21
    64          3
    65          6
    67          4
    68          9
    69         29
    70         38
    71         17
    73         20
    75          3
    82         12
    83         49
    84         33
    85         11
    87          4
    91        232
    92         10
    93         71
    94          3
    96          3
    97         31
    98         27
    99          3
   100         15
   101         30
   118         14
   119        999
   120         47
   121        286
   122         14
   126         21
   136          6
   137         67
   138          6
   139         22