##TITLE=Library Entry 21529
##JCAMP-DX=Revision 4.10 
##DATA TYPE=MASS SPECTRUM
##SAMPLE DESCRIPTION=Zaikin V.G., TIPS RAS, Moscow, Russia
##NAMES=HP
##CAS NAME=5-Chlorovaleric acid, decyl ester
##MOLFORM=C15H29ClO2
##CAS REGISTRY NO=52893-19-3
##MP= -300
##BP= -300
##MW= 276
##$RETENTION INDEX=1982
##$CONDENSED SPECTRUM=NO
##NPOINTS= 107
##XYDATA=(XY..XY) 1 
    26         14
    27         99
    28          1
    29        193
    30          5
    31          6
    36         17
    38          9
    39         85
    40         19
    41        408
    42        180
    43        492
    44         25
    45         12
    49          9
    50          3
    51          8
    52          3
    53         47
    54         82
    55        999
    56        486
    57        413
    58         29
    59         26
    60         10
    61          6
    62          7
    63         28
    64          3
    65         13
    66          5
    67         71
    68        130
    69        385
    70        505
    71        184
    72         10
    73         64
    74          6
    75          5
    77          5
    79          6
    81         31
    82        158
    83        520
    84        321
    85        151
    86          9
    87         21
    89          5
    90          4
    91        297
    92         14
    93         99
    94          4
    95         14
    96         61
    97        337
    98        211
    99         35
   100         72
   101        312
   102         19
   103          3
   109          5
   110         24
   111        213
   112        246
   113         25
   115          4
   116         14
   117          3
   118         15
   119        570
   120         36
   121        189
   122          8
   125          5
   129          4
   134          8
   135          5
   136         81
   137        942
   138         84
   139        305
   140        253
   141         31
   147          6
   149          3
   155          8
   157         21
   163          9
   174          6
   176          3
   177         13
   179          4
   185         35
   186          3
   187          2
   192         34
   193          3
   194         10
   241         27
   242          3
   277          3