##TITLE=Library Entry 7768
##JCAMP-DX=Revision 4.10 
##DATA TYPE=MASS SPECTRUM
##SAMPLE DESCRIPTION=Exported from NIST MS Search
##NAMES=HP
##CAS NAME=Hexane, 4-ethyl-2,2-dimethyl-
##MOLFORM=C10H22
##CAS REGISTRY NO=52896-99-8
##MP= -300
##BP= -300
##MW= 142
##$RETENTION INDEX=881
##$CONDENSED SPECTRUM=NO
##NPOINTS= 58
##XYDATA=(XY..XY) 1 
    24          3
    25         12
    26         49
    27        155
    28         26
    29        191
    30          4
    31          4
    36          7
    37         16
    38         20
    39         80
    40         14
    41        209
    42         69
    43        999
    44         25
    45          2
    50          1
    51          4
    52          3
    53         16
    54          4
    55         49
    56        347
    57        994
    58        234
    59          7
    65          1
    66          1
    67          4
    68          1
    69         19
    70         10
    71        151
    72          9
    77          1
    78          1
    79          1
    81          1
    82          1
    83          3
    84         45
    85         68
    86          4
    91          1
    97          3
    98          1
   105          1
   111          1
   112          1
   113          2
   115          1
   119          1
   120          1
   127         16
   128          2
   142          1