##TITLE=Library Entry 9441
##JCAMP-DX=Revision 4.10 
##DATA TYPE=MASS SPECTRUM
##SAMPLE DESCRIPTION=H. RIMPLER,INST. PHARM. PHYTOCHEM., FREIE UNIV. BERLIN,
W. GER.
##NAMES=HP
##CAS NAME=Methyl 1-(tetraacetoxy-.beta.-d-glucopyranosyloxy)-1,4a,5,6,7,7a-
hexahydro-4a,7-dihydroxy-6-[[3-(4-methoxyphenyl)-1-oxo-2-propenyl]oxy]-7-met
hylcyclopenta[c]pyran-4-carboxylate
##MOLFORM=C35H42O18
##CAS REGISTRY NO=52897-57-1
##MP= -300
##BP= -300
##MW= 750
##$RETENTION INDEX=0
##$CONDENSED SPECTRUM=NO
##NPOINTS= 37
##XYDATA=(XY..XY) 1 
    43        999
    77        100
    79        690
    81         71
    85         43
    89         71
    91         71
    97        100
    98         85
   103         86
   109        430
   115        120
   118         40
   121         37
   127        150
   133        100
   139         60
   145         54
   147         34
   155         36
   157         40
   161        310
   169        620
   177         56
   178        230
   207        130
   211         47
   224         46
   225         36
   229         24
   242          5
   271         64
   289          4
   331        110
   367          1
   385          2
   402          3