##TITLE=Library Entry 61648
##JCAMP-DX=Revision 4.10 
##DATA TYPE=MASS SPECTRUM
##SAMPLE DESCRIPTION=Japan AIST/NIMC Database- Spectrum MS-NW-1492
##NAMES=HP
##CAS NAME=Benzaldehyde, 2-methyl-
##MOLFORM=C8H8O
##CAS REGISTRY NO=529-20-4
##MP= -300
##BP= -300
##MW= 120
##$RETENTION INDEX=1064
##$CONDENSED SPECTRUM=NO
##NPOINTS= 66
##XYDATA=(XY..XY) 1 
    15          2
    17          2
    18          8
    25          1
    26          6
    27         26
    28          3
    29         21
    31          1
    32          1
    36          1
    37         18
    38         37
    39        198
    40         17
    41         40
    42          1
    43         11
    44          4
    45         10
    46          1
    49          8
    50         68
    51         98
    52         19
    53          9
    55          1
    56          1
    57          2
    59         13
    60          2
    61         23
    62         55
    63        131
    64         33
    65        265
    66         17
    71          1
    73          5
    74         19
    75         12
    76          8
    77         13
    78          3
    79          2
    84          2
    85          9
    86         13
    87          9
    88          3
    89         78
    90         42
    91        999
    92        102
    93          4
    98          1
   103          1
   105          5
   106          1
   107          6
   108          4
   118          8
   119        945
   120        789
   121         70
   122          4