##TITLE=Library Entry 82921
##JCAMP-DX=Revision 4.10 
##DATA TYPE=MASS SPECTRUM
##SAMPLE DESCRIPTION=Japan AIST/NIMC Database- Spectrum MS-NW-3130
##NAMES=HP
##CAS NAME=Pyridine, 3-ethyl-4-methyl-
##MOLFORM=C8H11N
##CAS REGISTRY NO=529-21-5
##MP= -300
##BP= -300
##MW= 121
##$RETENTION INDEX=1011
##$CONDENSED SPECTRUM=NO
##NPOINTS= 66
##XYDATA=(XY..XY) 1 
    15          5
    26          9
    27         52
    28          9
    29          6
    37          7
    38         18
    39        102
    40         14
    41         29
    42          7
    43          2
    44          1
    45          1
    46          1
    49          2
    50         30
    51         67
    52         39
    53         60
    54         13
    55          3
    58          5
    59          3
    60          1
    61          5
    62          9
    63         30
    64         12
    65         52
    66         26
    67          9
    68          3
    73          1
    74          5
    75          5
    76          5
    77        147
    78         47
    79        173
    80         24
    81          3
    86          1
    87          1
    89          6
    90          4
    91         31
    92         27
    93         70
    94         15
    95          1
   102          1
   103          2
   104         16
   105          9
   106        999
   107         83
   108          3
   116          1
   117          9
   118         18
   119          7
   120        255
   121        718
   122         67
   123          2