##TITLE=Library Entry 28813
##JCAMP-DX=Revision 4.10 
##DATA TYPE=MASS SPECTRUM
##SAMPLE DESCRIPTION=Exported from NIST MS Search
##NAMES=HP
##CAS NAME=1,5-Methano-8H-pyrido[1,2-a][1,5]diazocin-8-one, 3-(3-butenyl)-1,
2,3,4,5,6-hexahydro-, (1R)-
##MOLFORM=C15H20N2O
##CAS REGISTRY NO=529-78-2
##MP= -300
##BP= -300
##MW= 244
##$RETENTION INDEX=2155
##$CONDENSED SPECTRUM=NO
##NPOINTS= 67
##XYDATA=(XY..XY) 1 
    50         15
    51         39
    52         29
    53         64
    54         34
    55        143
    56         24
    57         35
    58        999
    59         40
    63         14
    64         12
    65         52
    66         29
    67         39
    68         44
    69         15
    70         30
    77         50
    78         37
    79         34
    80         36
    81         20
    82         45
    83         10
    84         14
    90         10
    91         29
    92         16
    93         29
    94         31
    95         10
    96         33
    97         20
    98        320
    99         13
   103         11
   104         35
   105         20
   106         18
   108         10
   109         25
   115         10
   118         44
   122         20
   123         40
   130         25
   131         18
   132         31
   133         23
   134         33
   136         10
   142         10
   145         14
   146        142
   147         72
   148         30
   159         11
   160        128
   161         25
   162         11
   190         48
   203        112
   204         25
   205         12
   244         88
   245         15