##TITLE=Library Entry 51846
##JCAMP-DX=Revision 4.10 
##DATA TYPE=MASS SPECTRUM
##SAMPLE DESCRIPTION=Drug Lab
##NAMES=HP
##CAS NAME=8-Azabicyclo[3.2.1]octane-2-carboxylic acid, 3-(benzoyloxy)-8-met
hyl-, ethyl ester, [1R-(exo,exo)]-
##MOLFORM=C18H23NO4
##CAS REGISTRY NO=529-38-4
##MP= -300
##BP= -300
##MW= 317
##$RETENTION INDEX=2255
##$CONDENSED SPECTRUM=NO
##NPOINTS= 109
##XYDATA=(XY..XY) 1 
    40          3
    41         42
    42        155
    43         16
    44         27
    45          8
    50         22
    51         66
    52         11
    53         30
    54         20
    55         73
    56         26
    57         42
    58          9
    59          2
    60          2
    65         19
    66         13
    67         55
    68         40
    69         14
    70         16
    71          3
    73          7
    75          4
    76          3
    77        262
    78         31
    79         27
    80         43
    81        136
    82        999
    83        349
    84         45
    85          6
    86          3
    91         30
    92         10
    93         37
    94        342
    95         49
    96        210
    97        110
    98          8
    99          2
   101          2
   105        316
   106         34
   107         20
   108         37
   109          9
   110         20
   111          9
   114         13
   115          2
   117          3
   118          2
   119         24
   120         35
   121          6
   122         95
   123         10
   124         15
   126          4
   128          3
   132          2
   133          3
   135          4
   136          2
   137          3
   138         29
   139          6
   140         20
   147          3
   148          5
   149          2
   150         26
   151          2
   152          6
   154          3
   156          2
   163          2
   164          2
   166         73
   167         11
   168         20
   169         16
   176          2
   179          2
   180          3
   193          2
   194         12
   195         35
   196        469
   197         65
   198          8
   200          2
   207          5
   212         52
   213          7
   244          5
   253          3
   267          2
   272         72
   273         16
   282          3
   317         88
   318         23