##TITLE=Library Entry 83079
##JCAMP-DX=Revision 4.10 
##DATA TYPE=MASS SPECTRUM
##SAMPLE DESCRIPTION=Japan AIST/NIMC Database- Spectrum MS-NW-7253
##NAMES=HP
##CAS NAME=Acetamide, N-ethyl-N-phenyl-
##MOLFORM=C10H13NO
##CAS REGISTRY NO=529-65-7
##MP= -300
##BP= -300
##MW= 163
##$RETENTION INDEX=0
##$CONDENSED SPECTRUM=NO
##NPOINTS= 70
##XYDATA=(XY..XY) 1 
    14          1
    15         10
    26          3
    27         20
    28         10
    29         14
    30          3
    37          3
    38          9
    39         29
    40          5
    41          7
    42         26
    43        198
    44         12
    50         16
    51         69
    52         12
    53          4
    54          2
    61          2
    62          4
    63         15
    64         15
    65         34
    66         12
    67          2
    70         51
    71          3
    72          3
    74          5
    75          5
    76          7
    77        166
    78         28
    79         26
    80          3
    85          7
    86          1
    89          2
    90          3
    91         20
    92         18
    93         45
    94          6
   102          1
   103          7
   104         40
   105         30
   106        999
   107         81
   108          3
   112          1
   116          1
   117          4
   118         17
   119          8
   120         73
   121        150
   122         13
   132          1
   134          2
   135         60
   136          7
   148         12
   149          1
   162          6
   163        224
   164         30
   165          2