##TITLE=Library Entry 51029
##JCAMP-DX=Revision 4.10 
##DATA TYPE=MASS SPECTRUM
##SAMPLE DESCRIPTION=Exported from NIST MS Search
##NAMES=HP
##CAS NAME=2-Cyclohexen-1-one, 3-methyl-6-(1-methylethenyl)-
##MOLFORM=C10H14O
##CAS REGISTRY NO=529-01-1
##MP= -300
##BP= -300
##MW= 150
##$RETENTION INDEX=1272
##$CONDENSED SPECTRUM=NO
##NPOINTS= 10
##XYDATA=(XY..XY) 1 
    27        134
    39        313
    41        159
    53        120
    54        190
    82        999
    91         93
   107        162
   135        173
   150        294