##TITLE=Library Entry 114965
##JCAMP-DX=Revision 4.10 
##DATA TYPE=MASS SPECTRUM
##SAMPLE DESCRIPTION=NIST Mass Spectrometry Data Center, 1990.
##NAMES=HP
##CAS NAME=1-Naphthalenol, 1,2,3,4-tetrahydro-
##MOLFORM=C10H12O
##CAS REGISTRY NO=529-33-9
##MP= -300
##BP= -300
##MW= 148
##$RETENTION INDEX=0
##$CONDENSED SPECTRUM=NO
##NPOINTS= 88
##XYDATA=(XY..XY) 1 
    15         17
    17          9
    18          8
    26         19
    27         84
    28         26
    29         37
    30          3
    31         11
    37         11
    38         32
    39        204
    40         18
    41         76
    42         12
    43         36
    44          7
    45          8
    46          5
    50         98
    51        212
    52         51
    53         34
    54          6
    55         31
    57         23
    58         19
    59          7
    60         24
    61         14
    62         53
    63        160
    64         96
    65        203
    66         35
    69          5
    71          3
    72         14
    73         15
    74         42
    75         47
    76         42
    77        198
    78        164
    79         51
    80          5
    85          4
    86         11
    87         14
    88          3
    89        130
    90        118
    91        759
    92        155
    93         14
    98          4
    99          4
   101         17
   102         59
   103         73
   104        122
   105        355
   106         31
   107         10
   113          6
   115        311
   116         63
   117         62
   118        102
   119        669
   120        887
   121         80
   122          6
   126         25
   127         99
   128        211
   129        445
   130        999
   131        184
   132         31
   133         12
   144          5
   145         11
   146         52
   147        339
   148        281
   149         28
   150          4