##TITLE=Library Entry 97951
##JCAMP-DX=Revision 4.10 
##DATA TYPE=MASS SPECTRUM
##SAMPLE DESCRIPTION=Chemical Concepts
##NAMES=HP
##CAS NAME=1(2H)-Naphthalenone, 3,4-dihydro-
##MOLFORM=C10H10O
##CAS REGISTRY NO=529-34-0
##MP= -300
##BP= -300
##MW= 146
##$RETENTION INDEX=1458
##$CONDENSED SPECTRUM=NO
##NPOINTS= 70
##XYDATA=(XY..XY) 1 
    26          5
    27         26
    28          9
    29          2
    37          5
    38         16
    39         93
    40         10
    41         10
    42          3
    43          3
    44          2
    45          6
    49          3
    50         45
    51         70
    52         12
    53          5
    55         15
    56          2
    57          9
    58         29
    59          9
    61          9
    62         36
    63        109
    64         33
    65         43
    66          2
    71          3
    72          9
    73          3
    74         24
    75         21
    76         19
    77         39
    78         14
    79          2
    85          4
    86         10
    87         13
    88          9
    89        188
    90        634
    91        112
    92          6
    98          2
   101          3
   102         13
   103         24
   104         29
   105          5
   113          3
   114          4
   115        112
   116         35
   117         67
   118        999
   119         69
   120          4
   127          5
   128         19
   129         11
   131        105
   132          9
   144          2
   145         46
   146        620
   147         55
   148          3