##TITLE=Library Entry 67169
##JCAMP-DX=Revision 4.10 
##DATA TYPE=MASS SPECTRUM
##SAMPLE DESCRIPTION=NIST Mass Spectrometry Data Center
##NAMES=HP
##CAS NAME=Bicyclo[2.2.1]hept-2-ene, 2,3-dimethyl-
##MOLFORM=C9H14
##CAS REGISTRY NO=529-16-8
##MP= -300
##BP= -300
##MW= 122
##$RETENTION INDEX=887
##$CONDENSED SPECTRUM=NO
##NPOINTS= 53
##XYDATA=(XY..XY) 1 
    26          3
    27         29
    28          7
    29         10
    37          2
    38          6
    39        100
    40         15
    41         56
    42          4
    43          4
    50         18
    51         53
    52         23
    53         55
    54          7
    55         13
    58          4
    59          3
    61          3
    62          8
    63         23
    64          5
    65         61
    66         25
    67         29
    68          4
    74          5
    75          2
    76          2
    77        177
    78         42
    79        910
    80         63
    81          5
    89          4
    91        157
    92         24
    93        111
    94        999
    95         77
    96          3
   102          2
   103         11
   104          4
   105         34
   106          5
   107         75
   108          7
   121          4
   122        339
   123         33
   124          2