##TITLE=Library Entry 11125
##JCAMP-DX=Revision 4.10 
##DATA TYPE=MASS SPECTRUM
##SAMPLE DESCRIPTION=Exported from NIST MS Search
##NAMES=HP
##CAS NAME=4,7-Ethanoisobenzofuran-1,3-dione, 5-(acetyloxy)-3a,4,7,7a-tetrah
ydro-8-methyl-
##MOLFORM=C13H14O5
##CAS REGISTRY NO=52918-80-6
##MP= -300
##BP= -300
##MW= 250
##$RETENTION INDEX=0
##$CONDENSED SPECTRUM=NO
##NPOINTS= 54
##XYDATA=(XY..XY) 1 
    27         11
    28         86
    29         14
    38          6
    39         43
    40          8
    41         17
    42         11
    43        999
    44         29
    50         12
    51         21
    52         13
    53         30
    54         11
    55         30
    65         24
    66         14
    67         10
    77         30
    78         25
    79         17
    80          9
    81         52
    82         32
    91         28
    92         13
    93         13
    94         43
    95         67
    96          6
   105          9
   107         29
   108        104
   109         42
   110        417
   111         32
   135         24
   136         13
   151         21
   152        123
   153         15
   162         26
   163          8
   166        112
   167         14
   180        167
   181         20
   190         13
   208        154
   209         20
   222          5
   250         58
   251          8