##TITLE=Library Entry 75846
##JCAMP-DX=Revision 4.10 
##DATA TYPE=MASS SPECTRUM
##SAMPLE DESCRIPTION=Japan AIST/NIMC Database- Spectrum MS-NW-5249
##NAMES=HP
##CAS NAME=Propanedioic acid, (phenylmethylene)-, diethyl ester
##MOLFORM=C14H16O4
##CAS REGISTRY NO=5292-53-5
##MP= -300
##BP= -300
##MW= 248
##$RETENTION INDEX=0
##$CONDENSED SPECTRUM=NO
##NPOINTS= 190
##XYDATA=(XY..XY) 1 
    12          1
    14          5
    15         28
    16          1
    25          2
    26         26
    27        236
    28         51
    29        813
    30         19
    31         27
    32          1
    37          3
    38          8
    39         48
    40          5
    41         16
    42         13
    43         44
    44         17
    45         30
    46          3
    47          1
    49          3
    50         74
    51        158
    52         55
    53         74
    54          7
    55          7
    56          4
    57          4
    59          1
    60          7
    61          5
    62         21
    63         61
    64         13
    65         24
    66          3
    67          1
    68          1
    69         93
    70          5
    71          3
    73          5
    74         47
    75         77
    76        110
    77        332
    78         47
    79         72
    80          5
    81          2
    82          1
    83          3
    84         32
    85          4
    86          4
    87         10
    88         11
    89         41
    90         55
    91        153
    92         14
    93          1
    94          3
    95          1
    96          1
    97          4
    98          6
    99          5
   100          4
   101         47
   102        999
   103        424
   104         56
   105         86
   106         20
   107        313
   108         25
   109          2
   111          1
   112          4
   113          2
   114          2
   115         58
   116         37
   117         12
   118         50
   119         11
   120          7
   121          3
   122          9
   123          1
   124          1
   125          2
   126          2
   127          5
   128         13
   129        154
   130        544
   131        410
   132         63
   133         24
   134          3
   135        330
   136         34
   137          3
   138          1
   141          2
   142          1
   143          5
   144          3
   145         10
   146         67
   147        112
   148         55
   149          8
   150          1
   151          1
   152          2
   153          1
   154          1
   155          2
   156          5
   157         74
   158        600
   159        106
   160         12
   161          5
   162          4
   163          2
   164          8
   165          4
   166          1
   167          2
   168          4
   169          2
   170          2
   171          9
   172          2
   173        112
   174        268
   175        218
   176         56
   177          9
   178          5
   179          7
   180          7
   181          2
   183          1
   184        100
   185         20
   186          3
   187          2
   188          8
   189          6
   190          2
   191         13
   192          5
   193          2
   194          1
   198          1
   199          1
   201          5
   202         29
   203        701
   204        251
   205         33
   206          4
   207          1
   210          1
   212          2
   213          4
   214          9
   215          3
   216          2
   218          2
   219         53
   220         13
   221          3
   230          2
   231          1
   246         11
   247         18
   248        382
   249         60
   250          9
   251          1