##TITLE=Library Entry 31001
##JCAMP-DX=Revision 4.10 
##DATA TYPE=MASS SPECTRUM
##SAMPLE DESCRIPTION=Japan AIST/NIMC Database- Spectrum MS-NW-4270
##NAMES=HP
##CAS NAME=Cyclohexaneacetic acid
##MOLFORM=C8H14O2
##CAS REGISTRY NO=5292-21-7
##MP= -300
##BP= -300
##MW= 142
##$RETENTION INDEX=0
##$CONDENSED SPECTRUM=NO
##NPOINTS= 87
##XYDATA=(XY..XY) 1 
    14          2
    15          9
    16          1
    17          4
    18         17
    19          1
    26          9
    27        124
    28         27
    29         96
    30          3
    31          9
    32          6
    36          2
    37          2
    38          8
    39        152
    40         27
    41        351
    42         40
    43         58
    44          6
    45         40
    46          2
    47          3
    49          1
    50          7
    51         15
    52          8
    53         65
    54        183
    55        571
    56         41
    57         22
    58          7
    59          6
    60        999
    61        540
    62         19
    63          7
    64          1
    65         11
    66          9
    67        387
    68         44
    69         18
    70          9
    71         14
    72          3
    73         20
    74          5
    75          1
    77         11
    78          3
    79         29
    80         26
    81        115
    82        621
    83        696
    84         43
    85         10
    86          9
    87          5
    88          1
    89          1
    91          7
    92          1
    93          3
    94          1
    95         16
    96          7
    97         10
    98          1
    99         49
   100          6
   101          1
   105          1
   109          1
   112          1
   113          3
   123          5
   124         12
   125          7
   127          1
   141          1
   142         32
   143          4