##TITLE=Library Entry 49203
##JCAMP-DX=Revision 4.10 
##DATA TYPE=MASS SPECTRUM
##SAMPLE DESCRIPTION=Chemical Concepts
##NAMES=HP
##CAS NAME=5-Cyclononyn-1-one
##MOLFORM=C9H12O
##CAS REGISTRY NO=52920-58-8
##MP= -300
##BP= -300
##MW= 136
##$RETENTION INDEX=0
##$CONDENSED SPECTRUM=NO
##NPOINTS= 83
##XYDATA=(XY..XY) 1 
    26         39
    27        198
    28         62
    29         34
    31          7
    37         14
    38         39
    39        244
    40         85
    41         99
    42         31
    43         44
    45          7
    49          8
    50         79
    51        161
    52        309
    53        106
    54         27
    55        225
    56         16
    57         10
    58         21
    59          7
    60          7
    61         11
    62         25
    63         56
    64         18
    65        119
    66         65
    67         33
    68         13
    69          9
    70          5
    71          4
    73          4
    74         14
    75         16
    76          9
    77        196
    78        123
    79        999
    80        324
    81         44
    82          8
    83         10
    84          5
    85          5
    86          6
    87          5
    89          8
    90          8
    91         92
    92         43
    93        134
    94         40
    95         15
    96          6
    97         22
   102          6
   103         14
   104          7
   105         16
   106          9
   107        127
   108        608
   109         69
   110          6
   114         10
   115         12
   116         50
   118        233
   119         30
   120          4
   121        137
   122         14
   132          5
   133         10
   134         20
   135        305
   136        212
   137         33