##TITLE=Library Entry 25014
##JCAMP-DX=Revision 4.10 
##DATA TYPE=MASS SPECTRUM
##SAMPLE DESCRIPTION=Japan AIST/NIMC Database- Spectrum MS-IW-2358
##NAMES=HP
##CAS NAME=Acetic acid, bromo-, 1,1-dimethylethyl ester
##MOLFORM=C6H11BrO2
##CAS REGISTRY NO=5292-43-3
##MP= -300
##BP= -300
##MW= 194
##$RETENTION INDEX=949
##$CONDENSED SPECTRUM=NO
##NPOINTS= 64
##XYDATA=(XY..XY) 1 
    13          1
    14         10
    15         24
    26          5
    27         49
    28         21
    29        212
    30          5
    31         19
    37          2
    38          6
    39         81
    40         15
    41        392
    42         71
    43        103
    44          5
    45          3
    49          2
    50          4
    51          5
    52          1
    53          8
    54          3
    55         37
    56        204
    57        999
    58         66
    59        869
    60         32
    61          2
    71          1
    72          1
    73          6
    77          2
    79          7
    80          9
    81          7
    82          9
    91          2
    92          4
    93         79
    94          9
    95         74
    96          4
    97          1
   113          1
   120          6
   121        231
   122         10
   123        225
   124          5
   135          3
   137          1
   138          1
   139          1
   140          1
   141          1
   169          1
   179        160
   180          9
   181        157
   182          9
   183          1