##TITLE=Library Entry 62595
##JCAMP-DX=Revision 4.10 
##DATA TYPE=MASS SPECTRUM
##SAMPLE DESCRIPTION=Exported from NIST MS Search
##NAMES=HP
##CAS NAME=3H-1,2,3-Oxathiazole, 4,5-dimethyl-3-[(4-methylphenyl)sulfonyl]-,
 2-oxide
##MOLFORM=C11H13NO4S2
##CAS REGISTRY NO=52938-18-8
##MP= -300
##BP= -300
##MW= 287
##$RETENTION INDEX=0
##$CONDENSED SPECTRUM=NO
##NPOINTS= 55
##XYDATA=(XY..XY) 1 
    41        100
    42        107
    43        662
    44         20
    45         17
    48        105
    50         30
    51         60
    52         17
    53          7
    61          7
    62         20
    63         87
    64         62
    65        300
    66         25
    67         10
    72         17
    73          7
    74         50
    77         30
    78         12
    79         17
    80         20
    89        107
    90        110
    91        999
    92        175
   115         12
   116         75
   117         12
   119         17
   132        697
   133         72
   134         55
   139        125
   140         45
   141         10
   155        869
   156         80
   157         42
   171        102
   172         15
   196         52
   197         12
   198         20
   199         10
   239          7
   245         22
   246         42
   247         15
   256          5
   287         97
   288         12
   289          7