##TITLE=Library Entry 43838
##JCAMP-DX=Revision 4.10 
##DATA TYPE=MASS SPECTRUM
##SAMPLE DESCRIPTION=Exported from NIST MS Search
##NAMES=HP
##CAS NAME=Talbutal, 2TMS derivative
##MOLFORM=C17H32N2O3Si2
##CAS REGISTRY NO=52937-69-6
##MP= -300
##BP= -300
##MW= 368
##$RETENTION INDEX=0
##$CONDENSED SPECTRUM=NO
##NPOINTS= 199
##XYDATA=(XY..XY) 1 
    41        274
    42         27
    43         86
    44         31
    45        141
    46          7
    47         27
    50          7
    51         11
    52         23
    53         90
    54         15
    55         70
    56         19
    57         78
    58         19
    59         54
    60          7
    61         43
    63          3
    64          3
    65         23
    66         23
    67         54
    68         11
    69         27
    70         54
    71         19
    72         94
    73        999
    74        105
    75        466
    76         31
    77         51
    78         19
    79         70
    80         23
    81        109
    82         19
    83         27
    84         31
    85         23
    86         51
    87          7
    89         23
    91         15
    93         23
    94         23
    95         35
    96         19
    97         31
    98          7
    99         27
   100        400
   101         43
   102         27
   103          7
   105          7
   106         23
   107         11
   108         19
   109        337
   110         54
   111         35
   112         15
   113         15
   114          7
   115         15
   116         15
   117         11
   119          3
   120          3
   121          3
   122          3
   123         31
   124         27
   125         23
   126         11
   127         11
   130         23
   131         31
   132         11
   133         35
   134         15
   135          3
   136          3
   137         15
   138         62
   139         27
   140          7
   141          7
   143          3
   144          3
   147        215
   148         35
   149         23
   150          3
   151          3
   152         31
   153         15
   154         15
   155          3
   156          3
   157         23
   158         27
   159         15
   160         11
   164          7
   166         15
   167         11
   168         31
   169         19
   170          7
   171         11
   172          7
   173          3
   174         11
   175         51
   176          7
   177          3
   179          3
   180         23
   181         15
   182         98
   183         23
   184         15
   188         15
   189          7
   193          3
   194         15
   195          3
   196         31
   197         23
   198          7
   202          3
   207         19
   208         15
   209          7
   210         15
   211         15
   212          7
   213          7
   215         23
   223         23
   224         54
   225         94
   226         19
   227          7
   231         19
   238         19
   239         39
   240         62
   241         19
   250         23
   253         27
   254         11
   255         23
   257         11
   267         51
   268         19
   269         31
   270         19
   271         31
   272         11
   281        102
   282         39
   283        102
   284         62
   285         51
   286         19
   295         54
   297        996
   298        239
   299        117
   300         31
   301         11
   311        333
   312        698
   313        247
   314         90
   315         23
   323         11
   325         11
   327        105
   328         31
   329         15
   339        517
   340        164
   341         86
   342         23
   353        729
   354        215
   355         86
   356         19
   367        133
   368         70
   369         31
   370          7
   371         15