##TITLE=Library Entry 21340
##JCAMP-DX=Revision 4.10 
##DATA TYPE=MASS SPECTRUM
##SAMPLE DESCRIPTION=Japan AIST/NIMC Database- Spectrum MS-IW-2796
##NAMES=HP
##CAS NAME=Ethyl 2-(2-oxocyclopentyl)propionate
##MOLFORM=C10H16O3
##CAS REGISTRY NO=52936-42-2
##MP= -300
##BP= -300
##MW= 184
##$RETENTION INDEX=0
##$CONDENSED SPECTRUM=NO
##NPOINTS= 132
##XYDATA=(XY..XY) 1 
    14          2
    15         10
    17          4
    18         23
    19          1
    26         20
    27        200
    28         97
    29        441
    30         14
    31         28
    36          1
    37          2
    38          8
    39        167
    40         33
    41        324
    42         81
    43        127
    44         13
    45         68
    46          6
    47          5
    48          2
    49          2
    50          8
    51         18
    52         11
    53         86
    54         75
    55        999
    56        169
    57         89
    58         12
    59         14
    60         26
    61         19
    62          3
    63          5
    64          1
    65         14
    66         11
    67        124
    68        142
    69        268
    70         46
    71         35
    72         13
    73         99
    74        278
    75         23
    76          2
    77         15
    78          3
    79         26
    80          5
    81         91
    82        139
    83        753
    84        636
    85         77
    86         29
    87        181
    88         76
    89          7
    91          9
    92          4
    93         36
    94         10
    95         89
    96         13
    97         91
    98         14
    99         84
   100         37
   101         99
   102        312
   103         18
   105          1
   107          2
   108          4
   109         44
   110        365
   111        853
   112         88
   113        184
   114         25
   115         94
   116         20
   117          3
   118          2
   119          1
   120          2
   121          1
   122          2
   123         27
   124          5
   125         16
   126         12
   127         77
   128        149
   129         25
   130          3
   131          1
   136          3
   137         13
   138        295
   139        498
   140         52
   141        130
   142         52
   143         66
   144          8
   145          4
   152          1
   153          8
   154          3
   155         35
   156        195
   157         35
   158          3
   166          1
   167          1
   168          3
   169          9
   170          2
   171          1
   182          1
   183          1
   184        338
   185         38
   186          4