##TITLE=Library Entry 22635
##JCAMP-DX=Revision 4.10 
##DATA TYPE=MASS SPECTRUM
##SAMPLE DESCRIPTION=Japan AIST/NIMC Database- Spectrum MS-IW-2845
##NAMES=HP
##CAS NAME=Ethyl trans-3-isopropyl-2-oxiranecarboxylate
##MOLFORM=C8H14O3
##CAS REGISTRY NO=52945-84-3
##MP= -300
##BP= -300
##MW= 158
##$RETENTION INDEX=0
##$CONDENSED SPECTRUM=NO
##NPOINTS= 81
##XYDATA=(XY..XY) 1 
    14          3
    15         12
    18          1
    19          3
    26         13
    27        146
    28         65
    29        401
    30         14
    31         59
    37          2
    38          8
    39        130
    40         23
    41        515
    42         44
    43        253
    44         13
    45         72
    46          4
    47          9
    50          5
    51          8
    52          3
    53         30
    54          9
    55        343
    56        999
    57        184
    58         15
    59         25
    60         14
    61          8
    65          2
    66          1
    67         25
    68          7
    69         65
    70         12
    71         75
    72          7
    73        293
    74         14
    75         91
    76         21
    77          4
    81          2
    82          1
    83         37
    84         13
    85        711
    86         42
    87        160
    88         12
    89          3
    94          1
    95          5
    96          2
    97         16
    98          1
    99          7
   101        153
   102         10
   103         24
   104          5
   105          6
   111          7
   112         14
   113         30
   114          4
   115        136
   116          8
   117          3
   122          2
   129          3
   130         33
   131          3
   141          1
   142          1
   143          2
   158          1