##TITLE=Library Entry 83562
##JCAMP-DX=Revision 4.10 
##DATA TYPE=MASS SPECTRUM
##SAMPLE DESCRIPTION=James Little,Eastman Chem.Co.,Kingsport,TN
##NAMES=HP
##CAS NAME=N-(2-Pyridinyl)glycine
##MOLFORM=C7H8N2O2
##CAS REGISTRY NO=52946-88-0
##MP= -300
##BP= -300
##MW= 152
##$RETENTION INDEX=0
##$CONDENSED SPECTRUM=NO
##NPOINTS= 33
##XYDATA=(XY..XY) 1 
    27         85
    28        148
    30         56
    38         64
    39        116
    40         43
    45         96
    50        107
    51        300
    52        269
    53        106
    54         20
    64         25
    65         30
    66         30
    67         48
    75         17
    76         30
    78        800
    79        603
    80        283
    81         19
    92         14
    94         16
   105         25
   106         60
   107        999
   108        767
   109         62
   134         27
   152        251
   153         36
   154          4