##TITLE=Library Entry 20014
##JCAMP-DX=Revision 4.10 
##DATA TYPE=MASS SPECTRUM
##SAMPLE DESCRIPTION=Chemical Concepts
##NAMES=HP
##CAS NAME=6-Dodecenol
##MOLFORM=C12H24O
##CAS REGISTRY NO=52957-14-9
##MP= -300
##BP= -300
##MW= 184
##$RETENTION INDEX=0
##$CONDENSED SPECTRUM=NO
##NPOINTS= 56
##XYDATA=(XY..XY) 1 
    39        252
    40          7
    41        951
    42        213
    43        320
    44          9
    52         13
    53        135
    54        708
    55        999
    56        232
    57        252
    58          9
    65          9
    66         97
    67        967
    68        669
    69        514
    70         97
    71        106
    72          5
    80         55
    81        553
    82        679
    83        223
    84         58
    85          3
    94         53
    95        533
    96        359
    97        155
    98          9
   108         18
   109        184
   110        165
   111         14
   122          5
   123         58
   124         48
   125         19
   126          2
   136          2
   137         29
   138         48
   139         19
   140         19
   141          2
   154          0
   155          9
   156          1
   166         87
   167         19
   168          2
   183          1
   184         19
   185          2