##TITLE=Library Entry 19202
##JCAMP-DX=Revision 4.10 
##DATA TYPE=MASS SPECTRUM
##SAMPLE DESCRIPTION=Vladimir Zaikin, TIPS RAS, Moscow, Russia
##NAMES=HP
##CAS NAME=9-Tetradecen-1-ol, (E)-
##MOLFORM=C14H28O
##CAS REGISTRY NO=52957-16-1
##MP= -300
##BP= -300
##MW= 212
##$RETENTION INDEX=1668
##$CONDENSED SPECTRUM=NO
##NPOINTS= 70
##XYDATA=(XY..XY) 1 
    30         45
    31        280
    32         20
    36         10
    37         30
    38         50
    39        465
    40        125
    41        915
    42        290
    43        358
    44         72
    45         21
    50         35
    51         45
    52         35
    53        135
    54        450
    55        999
    56        255
    57        170
    58         18
    63         10
    65         40
    66         85
    67        640
    68        420
    69        378
    70        120
    71         60
    72          8
    73          6
    77         38
    78         17
    79         80
    80         50
    81        488
    82        530
    83        185
    84         45
    85         32
    91         12
    93         20
    94         20
    95        292
    96        320
    97         90
    98         23
    99          7
   107          7
   108          9
   109        122
   110        120
   111         25
   112          7
   121          5
   122          5
   123         52
   124         48
   125         10
   129          3
   137         28
   138         25
   139          5
   151          8
   152          8
   166         10
   167          3
   194         38
   195          5