##TITLE=Library Entry 9807
##JCAMP-DX=Revision 4.10 
##DATA TYPE=MASS SPECTRUM
##SAMPLE DESCRIPTION=D.HENNEBERG, MAX-PLANCK INSTITUTE, MULHEIM, WEST GERMAN
Y
##NAMES=HP
##CAS NAME=Butanoic acid, 2-ethyl-2-methyl-, methyl ester
##MOLFORM=C8H16O2
##CAS REGISTRY NO=5296-70-8
##MP= -300
##BP= -300
##MW= 144
##$RETENTION INDEX=869
##$CONDENSED SPECTRUM=NO
##NPOINTS= 41
##XYDATA=(XY..XY) 1 
    26         20
    27        252
    28         57
    29        245
    30         10
    31         10
    39        136
    40        236
    41        285
    42         28
    43        999
    44         34
    45         18
    50         10
    51         28
    52          7
    53         63
    54         17
    55        198
    56         45
    57        147
    58          4
    59        268
    60          9
    67          7
    69        151
    70         10
    73         31
    74         11
    83         26
    84        157
    85        859
    86         55
    87         12
    97          6
   101         70
   103          5
   113         17
   115         39
   116        233
   117         12