##TITLE=Library Entry 11897
##JCAMP-DX=Revision 4.10 
##DATA TYPE=MASS SPECTRUM
##SAMPLE DESCRIPTION=Div. of Experiment Therapeutics WRAIR, WRAMC, Washingto
n DC 20307
##NAMES=HP
##CAS NAME=2-Acetamido-4-hydroxy-6-[2-naphthylsulfonyl]quinazoline
##MOLFORM=C20H15N3O4S
##CAS REGISTRY NO=52979-13-2
##MP= -300
##BP= -300
##MW= 393
##$RETENTION INDEX=0
##$CONDENSED SPECTRUM=NO
##NPOINTS= 89
##XYDATA=(XY..XY) 1 
    43        999
    44          9
    45         18
    47          9
    49         46
    50          7
    51         64
    52          7
    53          6
    55          6
    57          3
    62         26
    63         50
    65         22
    69         62
    73          3
    74          6
    75         38
    77         77
    78          9
    80          7
    84         25
    86         20
    87          2
    88         16
    89         34
    90         35
    91          2
    95          2
    98          2
    99         11
   100          3
   101         30
   102          5
   103          7
   104          3
   105         36
   106         28
   107          2
   109          4
   115         98
   116         13
   117          4
   118          3
   119          9
   123          3
   125          3
   126         42
   127        264
   131         34
   132          4
   134         82
   135          3
   138          3
   139          3
   143          7
   144         29
   147         34
   150          3
   160         36
   161          2
   166         44
   175         43
   176        154
   187         11
   189         21
   190          2
   192          2
   202          4
   208         75
   209          2
   210          3
   214         14
   216         13
   217         11
   219         14
   245          9
   270          6
   286         11
   287         56
   288          6
   351        102
   352         17
   353          3
   378         23
   379          2
   393        159
   394         36
   395         10