##TITLE=Library Entry 85321
##JCAMP-DX=Revision 4.10 
##DATA TYPE=MASS SPECTRUM
##SAMPLE DESCRIPTION=A.A.Kutin, Moscow, Russia
##NAMES=HP
##CAS NAME=4,4'-[1,3-Propanediyl]bis[oxy]-bis-benzeneamine
##MOLFORM=C15H18N2O2
##CAS REGISTRY NO=52980-20-8
##MP= -300
##BP= -300
##MW= 258
##$RETENTION INDEX=0
##$CONDENSED SPECTRUM=NO
##NPOINTS= 86
##XYDATA=(XY..XY) 1 
    36          1
    37          5
    38         27
    39        194
    40         29
    41        118
    42         47
    43          4
    44          3
    45          1
    47          3
    49          1
    50         20
    51         52
    52        195
    53        377
    54        111
    55         21
    56          4
    57          3
    61          6
    62         16
    63         55
    64         51
    65        459
    66         74
    67         24
    68          8
    69          2
    70          2
    74          3
    75          4
    76          8
    77        107
    78         31
    80        729
    81         99
    82         14
    83          2
    89          2
    90          9
    91         41
    92        402
    93        113
    94        414
    95         29
    96          2
   103          6
   104          5
   105         19
   106         33
   108        999
   109        700
   110         55
   111          3
   115          4
   116          1
   117          6
   118          3
   120         47
   121        163
   122        825
   123         67
   124          4
   129         16
   130          5
   131          3
   132          5
   133          8
   134         17
   135         10
   136          1
   146          1
   149        414
   150        874
   151         89
   152          6
   165          1
   171          1
   198          1
   211          1
   212          1
   258        715
   259        126
   260         13
   261          1