##TITLE=Library Entry 67502
##JCAMP-DX=Revision 4.10 
##DATA TYPE=MASS SPECTRUM
##SAMPLE DESCRIPTION=A.A.Kutin, Moscow, Russia
##NAMES=HP
##CAS NAME=Butanoic acid, 4-(1-adamantylamino)-4-oxo-
##MOLFORM=C14H21NO3
##CAS REGISTRY NO=52986-22-8
##MP= -300
##BP= -300
##MW= 251
##$RETENTION INDEX=0
##$CONDENSED SPECTRUM=NO
##NPOINTS= 126
##XYDATA=(XY..XY) 1 
    33         37
    34          0
    36          2
    37          3
    39        127
    41        300
    42         97
    43         64
    45        221
    46          6
    47          4
    50          4
    51         20
    53         86
    55        321
    56         72
    57        128
    58        155
    60          2
    62          0
    63          4
    65         49
    67        142
    68         24
    69         27
    70         15
    72         54
    73         95
    74         35
    75         11
    77        142
    79        180
    80         40
    81         52
    82         28
    83         12
    84          3
    85          0
    87          0
    89          4
    91        146
    92        124
    94        999
    96         58
    97         13
    98          3
   100         46
   101         91
   103          5
   105         39
   106         24
   107         49
   108         64
   109         21
   110         13
   112          4
   113          0
   115          3
   117          6
   118         15
   119         18
   120         30
   121          5
   122          4
   123          2
   126          0
   127          0
   128          1
   129          2
   131          3
   132          4
   135        401
   136         43
   138          0
   140          1
   144          3
   145          1
   147         21
   148         28
   149         12
   150         57
   151         63
   152          6
   153          0
   156          0
   157         22
   158         57
   159          7
   160          0
   162          0
   163          1
   164          1
   169          0
   171          1
   172          5
   173          8
   176        417
   177         40
   178          9
   179          0
   180          0
   181          4
   182         21
   183          2
   190          3
   191          8
   192         20
   194        358
   195         44
   196          7
   197          0
   204          0
   206         13
   207         10
   208         23
   209          5
   210          7
   232          5
   233          2
   234          2
   236          3
   248          9
   249         11
   251        379
   252         51
   253          5