##TITLE=Library Entry 30002
##JCAMP-DX=Revision 4.10 
##DATA TYPE=MASS SPECTRUM
##SAMPLE DESCRIPTION=Chemical Concepts
##NAMES=HP
##CAS NAME=Ethane, 1-(2-chloroethoxy)-2-(2-methoxyethoxy)-
##MOLFORM=C7H15ClO3
##CAS REGISTRY NO=52995-76-3
##MP= -300
##BP= -300
##MW= 182
##$RETENTION INDEX=0
##$CONDENSED SPECTRUM=NO
##NPOINTS= 92
##XYDATA=(XY..XY) 1 
    26         14
    27        208
    28         82
    29         83
    30          9
    31        273
    32          3
    33          6
    35          0
    36          0
    38          0
    39          1
    40          4
    41         13
    42          7
    43        129
    44         33
    45        491
    46         11
    47          1
    48          0
    49          7
    50          1
    51          2
    52          0
    55          0
    56          0
    57         11
    58        497
    59        999
    60         33
    61          2
    62         11
    63        472
    64         12
    65        132
    66          2
    69          0
    70          5
    71          3
    72         13
    73         24
    74          1
    75          5
    76          0
    77          0
    78          0
    79          0
    81          0
    85          0
    86          1
    87         46
    88         10
    89        208
    90         11
    91          1
    93         19
    94          0
    95          5
    96          0
    99          0
   100          0
   101          9
   102         22
   103         31
   104          1
   105          0
   106         84
   107        145
   108         34
   109         54
   110          2
   114          1
   115          4
   116          0
   122          0
   123          0
   125          0
   131          0
   133          9
   134          0
   135          0
   137         39
   138          2
   139         14
   140          0
   150          2
   151          0
   152          0
   153          0
   183          0
   185          0