##TITLE=Library Entry 21570
##JCAMP-DX=Revision 4.10 
##DATA TYPE=MASS SPECTRUM
##SAMPLE DESCRIPTION=Japan AIST/NIMC Database- Spectrum MS-IW-2625
##NAMES=HP
##CAS NAME=Vinyl 10-undecenoate
##MOLFORM=C13H22O2
##CAS REGISTRY NO=5299-57-0
##MP= -300
##BP= -300
##MW= 210
##$RETENTION INDEX=0
##$CONDENSED SPECTRUM=NO
##NPOINTS= 107
##XYDATA=(XY..XY) 1 
    14          1
    15          9
    26          6
    27        104
    28         23
    29        118
    30          3
    31          3
    36          1
    38          2
    39        112
    40         20
    41        523
    42        122
    43        311
    44         22
    45          9
    48          1
    50          1
    51          6
    52          4
    53         54
    54         77
    55        999
    56         85
    57        136
    58         23
    59          7
    60          2
    62          1
    63          1
    65          9
    66          6
    67        517
    68         66
    69        561
    70         41
    71         78
    72          4
    73          4
    77          8
    78          2
    79         65
    80         14
    81        376
    82         44
    83        536
    84         58
    85        145
    86         62
    87          6
    91          7
    92          2
    93        120
    94         15
    95         93
    96         18
    97        208
    98         63
    99         59
   100          5
   105          5
   106          1
   107        134
   108         15
   109         35
   110          8
   111         41
   112         13
   113          4
   114          4
   119          3
   120          1
   121         40
   122          7
   123         22
   124          7
   125         46
   126          7
   127          3
   133          5
   135          4
   136          2
   137          6
   138          2
   139          9
   140          3
   141          1
   147          6
   148          3
   149        622
   150         79
   151          6
   153          3
   154          5
   155          1
   163          1
   164          2
   165          3
   166         15
   167        279
   168         35
   169          3
   181          2
   182          4
   192          1
   210          2