##TITLE=Library Entry 15031
##JCAMP-DX=Revision 4.10 
##DATA TYPE=MASS SPECTRUM
##SAMPLE DESCRIPTION=Exported from NIST MS Search
##NAMES=HP
##CAS NAME=Cholestan-7-one, 3-(acetyloxy)-, (3.beta.)-
##MOLFORM=C29H48O3
##CAS REGISTRY NO=52993-63-2
##MP= -300
##BP= -300
##MW= 444
##$RETENTION INDEX=0
##$CONDENSED SPECTRUM=NO
##NPOINTS= 176
##XYDATA=(XY..XY) 1 
    41        282
    42         47
    43        999
    44         35
    45          5
    54         38
    55          8
    56        273
    57         29
    58        164
    59         11
    60         11
    61         20
    65          8
    66          8
    67        132
    68         41
    69        141
    70          8
    71         58
    77         52
    78          2
    79        141
    80         29
    81        182
    82         44
    83         58
    84          8
    85          8
    91         88
    92         17
    93        250
    94         76
    95        176
    96         29
    97         29
   105         82
   106         29
   107        147
   108         64
   109        120
   110         20
   111         20
   115          8
   117         20
   118          8
   119         58
   120         20
   121         97
   122         50
   123         50
   124          8
   125          8
   129          8
   131         32
   132         11
   133         61
   134         29
   135         79
   136         52
   137         47
   138         20
   139         11
   143          8
   144          5
   145         52
   146         23
   147         58
   148         17
   149         52
   150        150
   151         41
   152          8
   153         14
   157          8
   158          8
   159         50
   160         11
   161         50
   162         20
   163         50
   164         35
   165         11
   169          8
   171          8
   173         17
   174          5
   175         17
   176         38
   177         41
   178          8
   183          8
   185          8
   187         23
   188         14
   189         29
   190         14
   191         14
   193         14
   197         20
   199         11
   201         29
   202          8
   203          8
   205          8
   206          8
   207          8
   211         23
   212          8
   213          8
   215         52
   216         20
   217         20
   227         20
   228          8
   229         29
   230         44
   231         23
   236        511
   237         82
   238          5
   239          5
   243          8
   244          8
   245          8
   247          8
   248          5
   249        123
   250         29
   252         70
   253         17
   254         14
   256          8
   258         11
   261         11
   271          8
   274         11
   275         32
   276         35
   277         44
   278          5
   289          8
   290        244
   291        135
   299         47
   300         23
   301         11
   303         44
   304         64
   305         20
   313         85
   314         20
   315         11
   317          5
   318         20
   319          8
   330          8
   331         44
   332          8
   341          8
   351          8
   355          5
   359         20
   366          2
   368          5
   369          5
   370          5
   384         58
   385         17
   426         94
   427         23
   429         26
   430         17
   444        841
   445        255
   446         35