##TITLE=Library Entry 12151
##JCAMP-DX=Revision 4.10 
##DATA TYPE=MASS SPECTRUM
##SAMPLE DESCRIPTION=F.DARLING INST. PAPER CHEM., APPLETON, WIS., USA
##NAMES=HP
##CAS NAME=p-Acetylphenyl-.beta.-D-glucoside
##MOLFORM=C14H18O7
##CAS REGISTRY NO=530-14-3
##MP= -300
##BP= -300
##MW= 298
##$RETENTION INDEX=0
##$CONDENSED SPECTRUM=NO
##NPOINTS= 27
##XYDATA=(XY..XY) 1 
    43        999
    45        413
    55        220
    57        600
    60        612
    61        413
    63        133
    65        433
    69        334
    71        227
    73        660
    77        180
    85        534
    87        334
    91        200
    93        466
    97        160
    98        120
    99         87
   121        835
   122        220
   127        133
   136        999
   137        386
   145        120
   163         94
   298          3