##TITLE=Library Entry 114900
##JCAMP-DX=Revision 4.10 
##DATA TYPE=MASS SPECTRUM
##SAMPLE DESCRIPTION=Chemical Concepts
##NAMES=HP
##CAS NAME=1,2,3,4-Tetrahydro-2-naphthol
##MOLFORM=C10H12O
##CAS REGISTRY NO=530-91-6
##MP= -300
##BP= -300
##MW= 148
##$RETENTION INDEX=0
##$CONDENSED SPECTRUM=NO
##NPOINTS= 72
##XYDATA=(XY..XY) 1 
    27         33
    28         14
    29         27
    31          8
    38          2
    39         59
    40          6
    41         26
    42          3
    43         30
    44         24
    45          4
    50          7
    51         61
    52         14
    53          9
    54          0
    55         42
    56         12
    57         35
    58          6
    62         10
    63         56
    64         34
    65         39
    66          7
    67          6
    69          5
    70          2
    71          2
    73         31
    74          9
    75         13
    76          1
    77         82
    78         98
    79         22
    81          2
    82          1
    83          3
    85          4
    86          1
    89         36
    90         17
    91        142
    92         49
    93          3
    95          4
    98          5
   102         24
   103        100
   104        614
   105        129
   106         36
   112          3
   115        219
   116         33
   117         42
   118         31
   119         40
   123          2
   126          4
   127         30
   128         86
   129        226
   130        999
   131        117
   132          0
   133         32
   147         17
   148        134
   149         13