##TITLE=Library Entry 77634
##JCAMP-DX=Revision 4.10 
##DATA TYPE=MASS SPECTRUM
##SAMPLE DESCRIPTION=Japan AIST/NIMC Database- Spectrum MS-NW-6395
##NAMES=HP
##CAS NAME=2(1H)-Naphthalenone, 3,4-dihydro-
##MOLFORM=C10H10O
##CAS REGISTRY NO=530-93-8
##MP= -300
##BP= -300
##MW= 146
##$RETENTION INDEX=1503
##$CONDENSED SPECTRUM=NO
##NPOINTS= 79
##XYDATA=(XY..XY) 1 
    14          1
    15          1
    26          4
    27         23
    28         16
    29          2
    36          1
    37          5
    38         13
    39         70
    40          7
    41          8
    42          5
    43          3
    44          8
    45          1
    49          3
    50         27
    51         54
    52         17
    53          7
    54          1
    55          5
    56          1
    57         24
    58         39
    59          6
    60          1
    61          8
    62         20
    63         51
    64         12
    65         39
    66          4
    71          1
    72          3
    73          3
    74         10
    75         10
    76          9
    77         55
    78        112
    79          9
    85          2
    86          5
    87          6
    88          3
    89         37
    90         11
    91         83
    92          9
    93          1
    98          1
    99          1
   101          2
   102         19
   103        118
   104        999
   105         93
   106          4
   113          3
   114          3
   115        112
   116         36
   117        247
   118         67
   119          7
   126          1
   127          3
   128          5
   129          4
   130          7
   131         46
   132          5
   144         10
   145          8
   146        553
   147         63
   148          5