##TITLE=Library Entry 82618
##JCAMP-DX=Revision 4.10 
##DATA TYPE=MASS SPECTRUM
##SAMPLE DESCRIPTION=Japan AIST/NIMC Database- Spectrum MS-NW-4019
##NAMES=HP
##CAS NAME=N,N-Diethylisonicotinamide
##MOLFORM=C10H14N2O
##CAS REGISTRY NO=530-40-5
##MP= -300
##BP= -300
##MW= 178
##$RETENTION INDEX=0
##$CONDENSED SPECTRUM=NO
##NPOINTS= 75
##XYDATA=(XY..XY) 1 
    15          9
    17          1
    18          3
    26          8
    27         37
    28         25
    29         64
    30          9
    37          1
    38          3
    39          6
    40          3
    41          6
    42         30
    43          3
    44         20
    45          2
    49          3
    50         33
    51        157
    52         19
    53          5
    54          3
    55          1
    56         20
    57          3
    58          4
    63          1
    64          1
    65          2
    66          1
    67          1
    70          5
    71          2
    72         25
    73          1
    75          2
    76          4
    77          8
    78        337
    79         31
    80          3
    81          2
    91          1
    92          4
    93          9
    94          3
   100          6
   104          1
   105          6
   106        999
   107         76
   108          7
   109          1
   120          1
   121          2
   122          5
   123          1
   131          1
   132          1
   133          1
   134          2
   135         34
   136          4
   149         57
   150         12
   151          2
   161          1
   163         54
   164          6
   176          5
   177        256
   178        222
   179         26
   180          2