##TITLE=Library Entry 41092
##JCAMP-DX=Revision 4.10 
##DATA TYPE=MASS SPECTRUM
##SAMPLE DESCRIPTION=Chemical Concepts
##NAMES=HP
##CAS NAME=d-Gulopyranose
##MOLFORM=C6H12O6
##CAS REGISTRY NO=530-27-8
##MP= -300
##BP= -300
##MW= 180
##$RETENTION INDEX=0
##$CONDENSED SPECTRUM=NO
##NPOINTS= 116
##XYDATA=(XY..XY) 1 
    26         27
    27        117
    28         69
    29        282
    30         52
    31        435
    32         56
    33         22
    34          0
    35          5
    36         43
    37          1
    38         14
    39         35
    40          9
    41         51
    42        136
    43        330
    44        176
    45        161
    46          6
    47         43
    48          0
    49          3
    50          1
    51          2
    52          1
    53          6
    54         16
    55         76
    56        139
    57        159
    58         18
    59         16
    60        474
    61        381
    62         20
    63          4
    64          0
    65          2
    66          4
    67          1
    68          6
    69         39
    70         22
    71        280
    72         70
    73        999
    74         98
    75         12
    76          1
    77          5
    78          1
    79          5
    80         12
    81          4
    82         13
    83          8
    84          6
    85         56
    86         23
    87         25
    88          3
    89         21
    90          7
    91         63
    92          2
    93          0
    95          1
    96          2
    97         17
    98         13
    99          4
   100          2
   101         54
   102         66
   103         61
   104          6
   105          2
   107          0
   109          0
   111          0
   113          3
   114          1
   115          7
   116          9
   117          1
   118          0
   119         28
   120          3
   121          1
   122          0
   126          1
   127          2
   128          0
   129          0
   130          0
   131         53
   132          4
   133         28
   134          2
   135          0
   141          1
   142          0
   143          0
   144          5
   145          3
   146          1
   147          1
   149         12
   150          0
   151          0
   152          0
   157          0
   160          0
   163          1