##TITLE=Library Entry 22980
##JCAMP-DX=Revision 4.10 
##DATA TYPE=MASS SPECTRUM
##SAMPLE DESCRIPTION=Institute of Organic Chemistry, Novosibirsk, USSR 1988
##NAMES=HP
##CAS NAME=3,4,4,6-Tetramethyl-2-m-tolyliminotetrahydro-1,3-oxazine
##MOLFORM=C15H22N2O
##CAS REGISTRY NO=53004-28-7
##MP= -300
##BP= -300
##MW= 246
##$RETENTION INDEX=0
##$CONDENSED SPECTRUM=NO
##NPOINTS= 72
##XYDATA=(XY..XY) 1 
    38         35
    39        205
    40         74
    41        446
    42        199
    43        130
    44         63
    50         28
    51         63
    52         45
    53         53
    54         38
    55        260
    56        999
    57         89
    58         43
    63         32
    64         20
    65        101
    66         20
    67         61
    68         35
    69        527
    70         34
    71        180
    72         79
    77        109
    78         85
    79         63
    80         15
    81         13
    82         38
    83         80
    84        296
    85         87
    89         51
    90         37
    91        212
    92         27
    93         20
    97         17
    98        117
   102         32
   103         22
   104        107
   105         99
   106        122
   107        257
   108         51
   112         25
   117         22
   118         46
   119        103
   120        699
   121         99
   132        116
   133        431
   134        341
   135         42
   146        138
   147         87
   148         30
   160         32
   162        112
   163        428
   164         39
   203        127
   204         19
   231         17
   245        419
   246        719
   247        119