##TITLE=Library Entry 84168
##JCAMP-DX=Revision 4.10 
##DATA TYPE=MASS SPECTRUM
##SAMPLE DESCRIPTION=Institute of Organic Chemistry, Novosibirsk, USSR 1988
##NAMES=HP
##CAS NAME=4,4,6-Trimethyl-2-(N-methylphenylamino)-5,6-dihydro-4H-1,3-oxazin
e
##MOLFORM=C14H20N2O
##CAS REGISTRY NO=53004-36-7
##MP= -300
##BP= -300
##MW= 232
##$RETENTION INDEX=0
##$CONDENSED SPECTRUM=NO
##NPOINTS= 65
##XYDATA=(XY..XY) 1 
    39        255
    41        369
    42        249
    43        152
    50         61
    51        215
    52         54
    53         58
    54         44
    56        254
    57         46
    58         37
    60         44
    63         44
    64         48
    65        118
    66         43
    67         74
    68         29
    69         87
    70         36
    74         19
    75         21
    76         44
    77        519
    78        106
    79        106
    80         21
    81         24
    82         31
    83         63
    84        429
    85         32
    90         19
    91        113
    92         43
    93         63
   103         17
   104         93
   105        179
   106        714
   107        999
   108        109
   112         36
   117         24
   118         63
   119         86
   120         21
   131         26
   132         69
   133        112
   134        999
   135        119
   136         19
   146         16
   148         24
   149        107
   175         30
   189         81
   217        547
   218         79
   219         19
   231        639
   232        259
   233         39