##TITLE=Library Entry 54725
##JCAMP-DX=Revision 4.10 
##DATA TYPE=MASS SPECTRUM
##SAMPLE DESCRIPTION=JOCEAH, 42(7)1256(1977); R. VERHE ET AL
##NAMES=HP
##CAS NAME=2,4-Pentanedione, 1,1-dichloro-
##MOLFORM=C5H6Cl2O2
##CAS REGISTRY NO=53009-77-1
##MP= -300
##BP= -300
##MW= 168
##$RETENTION INDEX=0
##$CONDENSED SPECTRUM=NO
##NPOINTS= 9
##XYDATA=(XY..XY) 1 
    41        120
    43        820
    83        200
    84         20
    85        999
    86         70
   153         90
   155         60
   157         30