##TITLE=Library Entry 3836
##JCAMP-DX=Revision 4.10 
##DATA TYPE=MASS SPECTRUM
##SAMPLE DESCRIPTION=Institute of Organic Chemistry, Novosibirsk, USSR 1988
##NAMES=HP
##CAS NAME=4,4,6-Trimethyl-2-(N-methyl)-(3-tolylamino)-5,6-dihydro-4H-1,3-th
iazine
##MOLFORM=C15H22N2S
##CAS REGISTRY NO=53004-53-8
##MP= -300
##BP= -300
##MW= 262
##$RETENTION INDEX=0
##$CONDENSED SPECTRUM=NO
##NPOINTS= 126
##XYDATA=(XY..XY) 1 
    39        554
    41        999
    42        343
    43        162
    50         61
    51        138
    52         72
    53        131
    54         52
    55        309
    56        152
    57         69
    58         58
    59        239
    60        259
    61        152
    62         35
    63        100
    64         86
    65        343
    66         55
    67        197
    68         69
    69         93
    70         22
    71         21
    72         93
    73         32
    74         45
    75         20
    76         28
    77        204
    78        120
    79        138
    80         29
    81         51
    82         58
    83         93
    84         45
    85         14
    86         38
    87          7
    88         11
    89         61
    90         51
    91        464
    92         94
    93         30
    94         12
    95         34
    97        844
    98         58
    99         17
   100        343
   101        131
   102         35
   103         24
   104         69
   105        138
   106         72
   107         16
   108         13
   109         50
   110         31
   111         10
   112          6
   113          5
   114         10
   115         25
   116         31
   117         18
   118         55
   119         79
   120        444
   121        504
   122         75
   123         51
   124         11
   125          7
   126          6
   127          4
   128         34
   129          6
   130         12
   131         55
   132         83
   133         21
   134          8
   135          6
   136          8
   137          5
   143          5
   144         25
   145         31
   146        284
   147        226
   148         58
   149         41
   150         16
   151          6
   162         58
   163         27
   164        114
   165         24
   166          7
   171          6
   173         10
   174          4
   177          6
   178         15
   179         73
   180         15
   181          5
   187         65
   188         19
   189          8
   205         51
   206         16
   219        145
   220        121
   221         37
   247        321
   248         51
   261        343
   262        243
   263         43