##TITLE=Library Entry 70316
##JCAMP-DX=Revision 4.10 
##DATA TYPE=MASS SPECTRUM
##SAMPLE DESCRIPTION=Institute of Organic Chemistry, Novosibirsk, USSR 1988
##NAMES=HP
##CAS NAME=4,4,6-Trimethyl-2-(N-methyl-p-bromophenylamino)-5,6-dihydro-4H-1,
3-thiazine
##MOLFORM=C14H19BrN2S
##CAS REGISTRY NO=53004-55-0
##MP= -300
##BP= -300
##MW= 326
##$RETENTION INDEX=0
##$CONDENSED SPECTRUM=NO
##NPOINTS= 155
##XYDATA=(XY..XY) 1 
    39        213
    41        511
    42        183
    43        136
    50         76
    51         70
    52         28
    53         63
    54         28
    55        209
    56        119
    57         64
    58         51
    59        157
    60        219
    61        153
    62         34
    63         84
    64         50
    65         55
    66         23
    67        111
    68         47
    69         92
    70         20
    71         18
    72         66
    73         29
    74         56
    75         84
    76         93
    77        110
    78         39
    79         31
    80         11
    81         35
    82         40
    83        110
    84         50
    85         16
    86         34
    87          6
    88         11
    89         12
    90         68
    91         35
    92         16
    93         16
    94         16
    95         55
    96          8
    97        999
    98         70
    99         27
   100        559
   101        149
   102         50
   103         26
   104         64
   105         75
   106         31
   107         28
   108         24
   109         16
   110          5
   111         12
   112         11
   113          9
   114         12
   115         32
   116         62
   117         26
   118         11
   119         14
   120          7
   121         11
   122         43
   123         14
   125          6
   126         10
   127         13
   128         56
   129         11
   130         11
   131         39
   132         47
   133         16
   134         20
   135         11
   136          7
   140          9
   141         15
   142          6
   143         64
   144         23
   145         18
   148         10
   149         35
   150         11
   151         14
   155         59
   157         59
   158          9
   163          6
   164         29
   165         29
   166          8
   169         23
   170          9
   171         29
   172          9
   182         23
   183         23
   184        123
   185        196
   186        110
   187        170
   195         38
   196         36
   197         43
   198         42
   199          9
   205         28
   210        123
   211         84
   212        127
   213        106
   215         34
   226         22
   228         62
   230         46
   232         12
   233         15
   239          6
   243         27
   245         27
   247         35
   251         29
   253         31
   267         14
   269         23
   271         19
   283         33
   284         76
   285         34
   286         76
   311        217
   312         29
   313        225
   314         29
   325        264
   326        257
   327        264
   328        239
   329         44