##TITLE=Library Entry 54398
##JCAMP-DX=Revision 4.10 
##DATA TYPE=MASS SPECTRUM
##SAMPLE DESCRIPTION=Institute of Organic Chemistry, Novosibirsk, USSR 1988
##NAMES=HP
##CAS NAME=4,4,6-Trimethyl-2-(N-methyl-p-bromophenylamino)-5,6-dihydro-4H-1,
3-oxazine
##MOLFORM=C14H19BrN2O
##CAS REGISTRY NO=53004-37-8
##MP= -300
##BP= -300
##MW= 310
##$RETENTION INDEX=0
##$CONDENSED SPECTRUM=NO
##NPOINTS= 126
##XYDATA=(XY..XY) 1 
    39        267
    41        479
    42        307
    43        205
    45         25
    50        106
    51         92
    52         39
    53         55
    54         42
    55        160
    56        393
    57         61
    58         38
    60         19
    61         10
    62         39
    63        126
    64         65
    65         64
    66         24
    67         70
    68         33
    69        121
    70         40
    71         13
    73         11
    74         30
    75         14
    76        139
    77        158
    78         70
    79         52
    80         21
    81         22
    82         39
    83         89
    84        999
    85         60
    88          8
    89         13
    90        121
    91         47
    92         33
    93         24
    96         14
    97          9
    98          7
   102         12
   103         23
   104        125
   105        193
   106         79
   107         49
   110         14
   112         59
   113         11
   116         16
   117         23
   118         14
   119         30
   120          7
   127         42
   128         12
   129          9
   130         11
   131         20
   132         29
   133         76
   134         30
   143         20
   145         22
   146         13
   147         11
   148         41
   149         30
   155        111
   156         24
   157         96
   158         16
   169         25
   170         16
   171         43
   172         13
   173         22
   182         51
   183         77
   184        328
   185        575
   186        343
   187        514
   188         49
   189         34
   195         14
   196         22
   197         71
   198         34
   199         66
   200         19
   201          7
   202         13
   210         38
   212        419
   213         69
   214        393
   215         38
   216         24
   217         14
   227         33
   228         14
   229         33
   230         15
   231         37
   267         34
   268         47
   269         43
   270         47
   295        284
   296         59
   297        284
   298         49
   309        283
   310        159
   311        282
   312        142
   313         29