##TITLE=Library Entry 22767
##JCAMP-DX=Revision 4.10 
##DATA TYPE=MASS SPECTRUM
##SAMPLE DESCRIPTION=Institute of Organic Chemistry, Novosibirsk, USSR 1988
##NAMES=HP
##CAS NAME=3,4,4,6-Tetramethyl-2-p-tolyliminotetrahydro-1,3-oxazine
##MOLFORM=C15H22N2O
##CAS REGISTRY NO=53004-27-6
##MP= -300
##BP= -300
##MW= 246
##$RETENTION INDEX=0
##$CONDENSED SPECTRUM=NO
##NPOINTS= 86
##XYDATA=(XY..XY) 1 
    37         12
    38         22
    39        178
    40        111
    41        464
    42        195
    43        156
    44         69
    50         24
    51         60
    52         42
    53         49
    54         32
    55        246
    56        999
    57         89
    58         42
    63         27
    64         14
    65         80
    66         15
    67         46
    68         27
    69        454
    70         80
    71        150
    72         89
    73          8
    75          8
    76         17
    77        119
    78         74
    79         57
    80         11
    81         13
    82         31
    83         65
    84        237
    85         20
    89         32
    90         24
    91        144
    92         18
    93         24
    97         13
    98         92
    99          8
   102         13
   103         15
   104         86
   105         94
   106        170
   107        182
   108         33
   109         15
   112         16
   117         14
   118         48
   119        100
   120        700
   121         83
   123         11
   130          8
   131         30
   132        132
   133        424
   134        192
   135         22
   141          6
   142          7
   145         56
   146        106
   147         50
   148         18
   149          6
   157          8
   160         24
   161         19
   162         64
   163        343
   164         51
   203         83
   231          8
   245        171
   246        444
   247         69