##TITLE=Library Entry 114740
##JCAMP-DX=Revision 4.10 
##DATA TYPE=MASS SPECTRUM
##SAMPLE DESCRIPTION=ORMSBG,9(1)111(1974); HARVEY
##NAMES=HP
##CAS NAME=Phosphonic acid, [1-[(trimethylsilyl)amino]propyl]-, bis(trimethy
lsilyl) ester
##MOLFORM=C12H34NO3PSi3
##CAS REGISTRY NO=53044-38-5
##MP= -300
##BP= -300
##MW= 355
##$RETENTION INDEX=0
##$CONDENSED SPECTRUM=NO
##NPOINTS= 58
##XYDATA=(XY..XY) 1 
    41         35
    43         15
    44         15
    45         60
    56         10
    58         20
    59         55
    61         10
    72         10
    73        440
    74         40
    75         40
    77         10
   100         35
   101          5
   114         20
   115          5
   121         15
   128         10
   129         10
   130        999
   131        130
   132         40
   133         30
   135         30
   147         60
   148         10
   149         10
   195         30
   207         30
   209         15
   210          5
   211         25
   212          5
   221          5
   225          5
   226          5
   227         20
   283         30
   284         10
   285          5
   298        240
   299         55
   300         30
   313          5
   324          2
   325          1
   326          4
   327          2
   328          1
   338          1
   340         22
   341          6
   342          3
   354          2
   355         13
   356          4
   357          2