##TITLE=Library Entry 56856
##JCAMP-DX=Revision 4.10 
##DATA TYPE=MASS SPECTRUM
##SAMPLE DESCRIPTION=M.G.HORNING,INST.FOR LIPID RES,BAYLOR COLL.OF MED,HOUST
ON,TEX
##NAMES=HP
##CAS NAME=Phosphonic acid, (1-aminopentyl)-, bis(trimethylsilyl) ester
##MOLFORM=C11H30NO3PSi2
##CAS REGISTRY NO=53044-32-9
##MP= -300
##BP= -300
##MW= 311
##$RETENTION INDEX=0
##$CONDENSED SPECTRUM=NO
##NPOINTS= 70
##XYDATA=(XY..XY) 1 
    41         80
    42         30
    43        120
    44         65
    45         90
    46         10
    47         30
    55         10
    56         80
    57         20
    58         10
    59         30
    61         30
    62         30
    67         10
    69         30
    70         10
    72         20
    73        255
    74         35
    75        120
    76         10
    77         35
    78         20
    84         20
    85         30
    86        999
    87         60
   103         10
   105         10
   107         10
   115         15
   117         10
   119         15
   121         40
   131         15
   133         80
   134         15
   135        110
   136         20
   137         15
   147         85
   148         15
   149         25
   151         15
   158         10
   181         10
   195         90
   196         15
   197         10
   207         10
   209         15
   210         15
   211        280
   212         45
   213         25
   225         30
   226         80
   227         40
   228         10
   240          7
   241          6
   252          7
   253          6
   254         26
   255         12
   268         29
   269          8
   296         10
   311         16