##TITLE=Library Entry 76241
##JCAMP-DX=Revision 4.10 
##DATA TYPE=MASS SPECTRUM
##SAMPLE DESCRIPTION=NIST Mass Spectrometry Data Center, 2009
##NAMES=HP
##CAS NAME=Phosphonic acid, [[(trimethylsilyl)amino]methyl]-, bis(trimethyls
ilyl) ester
##MOLFORM=C10H30NO3PSi3
##CAS REGISTRY NO=53044-36-3
##MP= -300
##BP= -300
##MW= 327
##$RETENTION INDEX=1465
##$CONDENSED SPECTRUM=NO
##NPOINTS= 86
##XYDATA=(XY..XY) 1 
    27          1
    29          3
    30          4
    42          2
    43         15
    44         13
    45         58
    47          7
    55          2
    57          5
    58         12
    59         45
    60          5
    61         15
    70          4
    71          3
    72         23
    73        516
    74         47
    75         41
    77         23
    87          6
    89          2
    91          3
   100         15
   102        999
   103        102
   104         37
   105          7
   107          4
   113          1
   115          9
   117          8
   119         11
   120          3
   121         30
   122          2
   131         19
   132          6
   133         71
   134         11
   135         81
   136          9
   137          7
   147        137
   148         21
   149         24
   150          3
   151          8
   160          4
   165          5
   174          1
   175          1
   177          6
   179          5
   181          5
   193          7
   195        129
   196         18
   197         13
   207        136
   208         30
   209         33
   210         10
   211        106
   212         18
   213         10
   221          7
   225         23
   226         23
   240          4
   283        130
   284         31
   285         15
   298        943
   299        236
   300        127
   301         21
   302          6
   312        247
   313         60
   314         35
   315          6
   327         30
   328          8
   329          4