##TITLE=Library Entry 43624
##JCAMP-DX=Revision 4.10 
##DATA TYPE=MASS SPECTRUM
##SAMPLE DESCRIPTION=M.G.HORNING,INST.FOR LIPID RES,BAYLOR COLL.OF MED,HOUST
ON,TEX
##NAMES=HP
##CAS NAME=Phosphonic acid, [1-[(trimethylsilyl)amino]-2-[4-[(trimethylsilyl
)oxy]phenyl]ethyl]-, bis(trimethylsilyl) ester
##MOLFORM=C20H44NO4PSi4
##CAS REGISTRY NO=53044-43-2
##MP= -300
##BP= -300
##MW= 505
##$RETENTION INDEX=0
##$CONDENSED SPECTRUM=NO
##NPOINTS= 112
##XYDATA=(XY..XY) 1 
    41         30
    42         11
    43         36
    44         27
    45        127
    46         11
    47         19
    55          8
    57         11
    58         11
    59         36
    61         22
    65          8
    66          8
    72         22
    73        999
    74         94
    75        150
    76         13
    77         33
    78          8
    79          8
    84         11
    89         13
    90         16
    91         41
    93         22
    95         11
    98         11
   100         66
   101         11
   102         30
   103         11
   105         11
   107          8
   115         11
   116          8
   117         25
   118         22
   119         27
   121         33
   131         19
   132         11
   133         61
   134         16
   135         66
   136         11
   137         11
   147        172
   148         33
   149         66
   150         11
   151         25
   163         16
   164         13
   165         50
   166         11
   172         11
   174         11
   175         13
   176         16
   177         16
   178          8
   179         94
   180         83
   181         16
   190         19
   191         11
   192         55
   193         16
   195         66
   196         16
   197         11
   205         11
   206         16
   207        155
   208        211
   209        127
   210         33
   211        277
   212         50
   213         25
   223          8
   225         16
   226         27
   227        366
   228         66
   229         33
   238         22
   239         11
   254        555
   255         97
   256         47
   264         13
   279         27
   280        233
   281         66
   282         25
   283         22
   298         55
   299         25
   300         11
   326        411
   327        102
   328         55
   329         11
   416         14
   417          6
   418         20
   419          6
   490         17
   491          7