##TITLE=Library Entry 44281
##JCAMP-DX=Revision 4.10 
##DATA TYPE=MASS SPECTRUM
##SAMPLE DESCRIPTION=O9-49-2B
##NAMES=HP
##CAS NAME=Prosta-8(12),13-dien-1-oic acid, 9-(methoxyimino)-15-[(trimethyls
ilyl)oxy]-, methyl ester, (13E,15S)-
##MOLFORM=C25H45NO4Si
##CAS REGISTRY NO=53044-56-7
##MP= -300
##BP= -300
##MW= 451
##$RETENTION INDEX=0
##$CONDENSED SPECTRUM=NO
##NPOINTS= 30
##XYDATA=(XY..XY) 1 
    73        999
    74         90
    75        150
    77         60
    89         50
    91         80
    99         60
   105         60
   120         50
   130         60
   132        140
   144         50
   146         60
   188         60
   202         70
   220         60
   248        110
   249         50
   278         90
   308        210
   309         50
   330        110
   362         70
   380        549
   381        150
   419        180
   420        839
   421        280
   422         80
   451        100