##TITLE=Library Entry 44238
##JCAMP-DX=Revision 4.10 
##DATA TYPE=MASS SPECTRUM
##SAMPLE DESCRIPTION=M.G.HORNING,INST.FOR LIPID RES,BAYLOR COLL.OF MED,HOUST
ON,TEX
##NAMES=HP
##CAS NAME=Phosphonic acid, [2-[bis(trimethylsilyl)amino]ethyl]-, bis(trimet
hylsilyl) ester
##MOLFORM=C14H40NO3PSi4
##CAS REGISTRY NO=53044-44-3
##MP= -300
##BP= -300
##MW= 413
##$RETENTION INDEX=1623
##$CONDENSED SPECTRUM=NO
##NPOINTS= 100
##XYDATA=(XY..XY) 1 
    41         11
    42          7
    43         26
    44         29
    45        149
    46         11
    47         14
    55          7
    57          7
    58         11
    59        119
    60         11
    61         11
    71          7
    72         26
    73        999
    74         82
    75         78
    77         11
    85          7
    86         85
    87         11
    93          7
   100         55
   101          7
   102          7
   103          7
   113          7
   114         78
   115         29
   116         14
   117         14
   119         11
   121         14
   129          7
   130         89
   131         33
   132         18
   133         55
   134         11
   135         55
   136          7
   137          7
   146         22
   147         78
   148         14
   149         11
   151          7
   158          7
   160          7
   165          7
   172        141
   173         26
   174        268
   175         48
   176         22
   177          7
   179          7
   181         11
   187         11
   188         11
   189          7
   191         14
   192          7
   193         14
   194          7
   195         22
   207         33
   208         14
   209         44
   210         11
   211         18
   224          7
   225         37
   226         14
   227          7
   236          7
   237         11
   282         14
   283         11
   297         22
   298         89
   299         29
   300         11
   310         63
   311         22
   312         48
   313         22
   314          7
   325          7
   326          7
   340         59
   341         18
   342          7
   382          7
   398        745
   399        261
   400        149
   401         41
   402         11