##TITLE=Library Entry 78236
##JCAMP-DX=Revision 4.10 
##DATA TYPE=MASS SPECTRUM
##SAMPLE DESCRIPTION=Japan AIST/NIMC Database- Spectrum MS-NW-3031
##NAMES=HP
##CAS NAME=4-Pyridineethanesulfonic acid
##MOLFORM=C7H9NO3S
##CAS REGISTRY NO=53054-76-5
##MP= -300
##BP= -300
##MW= 187
##$RETENTION INDEX=0
##$CONDENSED SPECTRUM=NO
##NPOINTS= 116
##XYDATA=(XY..XY) 1 
    14          1
    15          1
    16          5
    17         10
    18         46
    24          2
    25          2
    26         32
    27         39
    28         46
    29          1
    31          1
    32         17
    33          2
    34          6
    36          3
    37         13
    38         24
    39         96
    40          9
    41         12
    42          3
    43          3
    44         10
    45          1
    48        156
    49         14
    50        115
    51        213
    52        222
    53         25
    54         14
    55          2
    56          1
    57          1
    60          2
    61          8
    62         12
    63         39
    64        372
    65         91
    66         18
    67          3
    69          1
    73          3
    74         18
    75         18
    76         33
    77        142
    78        337
    79        107
    80         10
    81          1
    82          2
    83          1
    87          1
    88          1
    89          3
    90          4
    91          9
    92         29
    93         22
    94          2
    95          1
    97          1
    99          2
   100          1
   101          1
   102          6
   103          9
   104        332
   105        999
   106        123
   107         14
   108          1
   113          1
   115          1
   116          2
   117         14
   118         14
   119          8
   120          4
   121          1
   122          2
   127          6
   128         14
   129          1
   130          5
   131          1
   132          8
   133          1
   135          1
   136          1
   137          1
   139          1
   140          1
   142          1
   143          1
   144          1
   152          1
   154          1
   155          1
   166          1
   167          2
   168          2
   169          2
   170          2
   180          2
   181          3
   182          2
   183          4
   184          1
   185          1
   187         15
   188          1
   189          1