##TITLE=Library Entry 20598
##JCAMP-DX=Revision 4.10 
##DATA TYPE=MASS SPECTRUM
##SAMPLE DESCRIPTION=Chemical Concepts
##NAMES=HP
##CAS NAME=1,21-Docosadiene
##MOLFORM=C22H42
##CAS REGISTRY NO=53057-53-7
##MP= -300
##BP= -300
##MW= 306
##$RETENTION INDEX=0
##$CONDENSED SPECTRUM=NO
##NPOINTS= 159
##XYDATA=(XY..XY) 1 
    26          3
    27         44
    29        194
    30          6
    31          0
    34          0
    37          1
    38          1
    39         72
    40         17
    41        673
    42        124
    43        461
    44         13
    45          1
    46          0
    47          0
    50          1
    51          1
    52          1
    53         30
    54        183
    55        999
    56        216
    57        322
    58         13
    59          0
    60          1
    61          0
    62          0
    65          5
    66         34
    67        319
    68        366
    69        493
    70        126
    71        124
    72          8
    73          2
    75          0
    77          4
    78          2
    79         10
    80         38
    81        376
    82        838
    83        540
    84         79
    85         53
    86          1
    89          0
    91          4
    92          0
    93         10
    94         30
    95        319
    96        714
    97        403
    98         37
    99         12
   100          0
   106          0
   107          2
   108         15
   109        184
   110        226
   111        144
   112         21
   113          5
   114          1
   115          0
   119          1
   120          0
   121          7
   122          9
   123        111
   124        126
   125         42
   126          9
   127          2
   128          0
   134          0
   135          1
   136          7
   137         70
   138         81
   139         16
   140          9
   141          3
   147          1
   149          1
   150          1
   151         25
   152         28
   153         11
   154          8
   155          1
   156          0
   158          1
   164          1
   165         18
   166         18
   167          5
   168          2
   169          1
   170          1
   171          0
   178          1
   179          8
   180         17
   181          6
   182          3
   186          0
   187          0
   193          8
   194         12
   195          3
   196          1
   198          0
   199          0
   207          4
   208         20
   209          2
   210          1
   213          1
   215          0
   217          0
   220          1
   221          7
   222         15
   223          4
   224          1
   234          0
   235          3
   236         19
   237          3
   238          0
   249          6
   250         18
   251          7
   253          0
   259          0
   262          0
   263          8
   264         24
   265          2
   266          1
   277          4
   278         40
   279          9
   280          0
   291          1
   293          0
   294          0
   300          0
   304          0
   306        118
   307         27
   308          2