##TITLE=Library Entry 16443
##JCAMP-DX=Revision 4.10 
##DATA TYPE=MASS SPECTRUM
##SAMPLE DESCRIPTION=V.A. KOPTYUG, VOL5, ATLAS OF MS OF ORGANIC COMPOUNDS
##NAMES=HP
##CAS NAME=2-Chloro-5-dimethylaminomethyleneaminopyrimidine
##MOLFORM=C7H9ClN4
##CAS REGISTRY NO=5305-58-8
##MP= -300
##BP= -300
##MW= 184
##$RETENTION INDEX=0
##$CONDENSED SPECTRUM=NO
##NPOINTS= 133
##XYDATA=(XY..XY) 1 
    36         46
    37          3
    38         14
    39         12
    40         23
    41         42
    42        344
    43         56
    44        999
    45         79
    46         20
    47          6
    50          6
    51         50
    52        118
    53         18
    54         34
    55         13
    56         13
    57        215
    58         20
    61          3
    62         22
    63          2
    64          7
    65          5
    66          6
    67         10
    68         18
    69         14
    70          5
    71          6
    73          5
    74          5
    75         14
    76          5
    77         21
    78          7
    79         32
    80         23
    81         40
    82          6
    83          9
    84          2
    86         83
    87          4
    88         28
    89          2
    90          2
    91          5
    92         10
    93          5
    94          3
    95         18
    96          9
    97          3
    98          5
   100          8
   101          7
   102          4
   103          2
   104          6
   105          4
   106         18
   107         10
   108         81
   109          6
   111          6
   112          3
   113        113
   114         15
   115         40
   116          7
   117          4
   118          4
   119          2
   120         10
   121          6
   122         40
   123          6
   125          2
   126          3
   127         14
   128         26
   129          8
   130          8
   131          4
   132         11
   133         13
   134          5
   137          6
   138          5
   139          4
   140        183
   141         30
   142        354
   143         33
   144        100
   145          8
   147          9
   148          5
   149        160
   150         13
   153          3
   154         52
   155         15
   156        148
   157         21
   158         46
   159          6
   160         10
   161          1
   164          2
   165          6
   166          4
   167         42
   168         85
   169        356
   170         55
   171        108
   172          8
   173          3
   174         13
   175         16
   176          2
   178          2
   181          5
   182          4
   183        560
   184        771
   185        250
   186        260
   187         23