##TITLE=Library Entry 83527
##JCAMP-DX=Revision 4.10 
##DATA TYPE=MASS SPECTRUM
##SAMPLE DESCRIPTION=NIST Mass Spectrometry Data Center, 1994
##NAMES=HP
##CAS NAME=Phenol, 5-chloro-2-methyl-
##MOLFORM=C7H7ClO
##CAS REGISTRY NO=5306-98-9
##MP= -300
##BP= -300
##MW= 142
##$RETENTION INDEX=0
##$CONDENSED SPECTRUM=NO
##NPOINTS= 90
##XYDATA=(XY..XY) 1 
    14          5
    15         13
    18          2
    19          4
    25          4
    26         28
    27         78
    28         13
    29         31
    31          2
    32          0
    35          8
    36          9
    37         53
    38         95
    39        141
    40          9
    41          4
    42          5
    43         21
    44         13
    47          5
    48          5
    49         29
    50        141
    51        241
    52         78
    53        105
    54          7
    55         15
    56          3
    57          3
    58          1
    60         16
    61         32
    62         47
    63         88
    64         10
    65         10
    66         12
    67          9
    68          1
    71         23
    72         13
    73         47
    74         50
    75         54
    76          1
    77        532
    78        112
    79        207
    80         14
    81          5
    84          5
    85         12
    86         12
    87         23
    88          5
    89        130
    90         11
    91          3
    96          1
    97          7
    98          2
    99          7
   100          4
   101          2
   102          4
   103          1
   105         19
   107        999
   108         75
   109          5
   110          1
   111          6
   112         12
   113         29
   114          7
   115         14
   116          1
   124         43
   125         19
   126         16
   127          3
   139          3
   141        169
   142        481
   143         94
   144        161
   145         10