##TITLE=Library Entry 28328
##JCAMP-DX=Revision 4.10 
##DATA TYPE=MASS SPECTRUM
##SAMPLE DESCRIPTION=Japan AIST/NIMC Database- Spectrum MS-NW-9915
##NAMES=HP
##CAS NAME=D-Glucitol, 1,4:3,6-dianhydro-2,5-di-O-methyl-
##MOLFORM=C8H14O4
##CAS REGISTRY NO=5306-85-4
##MP= -300
##BP= -300
##MW= 174
##$RETENTION INDEX=0
##$CONDENSED SPECTRUM=NO
##NPOINTS= 92
##XYDATA=(XY..XY) 1 
    14          2
    15         47
    16          1
    18          1
    26          5
    27         43
    28         61
    29         79
    30          9
    31         49
    32          4
    33         40
    37          1
    38          3
    39         48
    40         23
    41        121
    42         44
    43        130
    44         11
    45        126
    46          3
    47          2
    50          1
    51          3
    52          1
    53         13
    54          6
    55         33
    56         12
    57         47
    58        999
    59        366
    60         14
    61         14
    65          1
    67          1
    68         24
    69        829
    70         50
    71        156
    72         82
    73         35
    74         85
    75         93
    76          3
    77          1
    79          1
    81         11
    82         10
    83         16
    84         33
    85         89
    86          8
    87         18
    88         32
    89          6
    90          1
    91          2
    95          1
    96          2
    97          3
    98          6
    99        158
   100        169
   101        234
   102         16
   103          2
   105          2
   110          2
   111         11
   112         18
   113         15
   114          9
   115         11
   116         38
   117          3
   119          1
   125          1
   127          2
   129          1
   130          1
   131          1
   142         23
   143         20
   144          3
   145          4
   146          1
   156          1
   174        194
   175         22
   176          3