##TITLE=Library Entry 47184
##JCAMP-DX=Revision 4.10 
##DATA TYPE=MASS SPECTRUM
##SAMPLE DESCRIPTION=NIST Mass Spectrometry Data Center
##NAMES=HP
##CAS NAME=7,7-Dichlorobicyclo(3,2,0)hept-2-en-6-one
##MOLFORM=C7H6Cl2O
##CAS REGISTRY NO=5307-99-3
##MP= -300
##BP= -300
##MW= 176
##$RETENTION INDEX=0
##$CONDENSED SPECTRUM=NO
##NPOINTS= 91
##XYDATA=(XY..XY) 1 
    12          6
    13          5
    14          3
    19          1
    24          4
    25         23
    26        100
    27        185
    33          1
    35         37
    36         34
    37        126
    38        184
    39        340
    40        111
    41          6
    44          1
    47         64
    48         18
    49         88
    50        259
    51        366
    52         83
    53         44
    54         10
    55         46
    56         22
    60         37
    61         52
    62         59
    63         74
    65        124
    66        565
    67         38
    68          2
    71          4
    72         19
    73         78
    74         32
    75         69
    77        999
    78        115
    79         14
    80          4
    82         34
    83          9
    84         40
    85         52
    86         23
    87         33
    88          6
    89         10
    94          2
    95          2
    96          4
    97          8
    98          4
    99         20
   100         13
   101          5
   102          4
   105         22
   106          5
   107          8
   108          2
   109          8
   110         12
   111         47
   113        595
   114         67
   115        181
   116         15
   120          3
   122         12
   123          3
   124          6
   133          5
   134          3
   135          4
   140         13
   141         24
   142          4
   143          5
   147          8
   148         13
   149          5
   150          8
   151          1
   176          7
   177          2
   178          4