##TITLE=Library Entry 89408
##JCAMP-DX=Revision 4.10 
##DATA TYPE=MASS SPECTRUM
##SAMPLE DESCRIPTION=Japan AIST/NIMC Database- Spectrum MS-IW-2366
##NAMES=HP
##CAS NAME=Ethyl 1-piperidineglyoxylate
##MOLFORM=C9H15NO3
##CAS REGISTRY NO=53074-96-7
##MP= -300
##BP= -300
##MW= 185
##$RETENTION INDEX=0
##$CONDENSED SPECTRUM=NO
##NPOINTS= 53
##XYDATA=(XY..XY) 1 
    14          1
    15          8
    26          6
    27         52
    28         52
    29        118
    30         19
    31          3
    38          1
    39         24
    40          6
    41        274
    42         72
    43         34
    44          9
    45          3
    50          1
    51          2
    52          2
    53          9
    54         12
    55         53
    56         89
    57          9
    58          2
    59          1
    65          1
    67         15
    68          6
    69        632
    70         63
    71          3
    72          2
    80          1
    82          8
    83         69
    84         66
    85         12
    96          1
    98          4
   110          4
   111         10
   112        999
   113         87
   114          6
   128         11
   129          1
   139          2
   156         40
   157          3
   185        209
   186         21
   187          2