##TITLE=Library Entry 72954
##JCAMP-DX=Revision 4.10 
##DATA TYPE=MASS SPECTRUM
##SAMPLE DESCRIPTION=NIST Mass Spectrometry Data Center
##NAMES=HP
##CAS NAME=2-Butenoic acid, 2-methyl-, propyl ester, (Z)-
##MOLFORM=C8H14O2
##CAS REGISTRY NO=53082-57-8
##MP= -300
##BP= -300
##MW= 142
##$RETENTION INDEX=987
##$CONDENSED SPECTRUM=NO
##NPOINTS= 49
##XYDATA=(XY..XY) 1 
    26         10
    27        140
    28         34
    29        134
    30          5
    31         10
    37          3
    38         11
    39        194
    40         24
    41        169
    42         25
    43        244
    44         10
    45         21
    46          1
    49          2
    50         17
    51         30
    52         17
    53        114
    54        158
    55        941
    56        104
    57         24
    58          9
    59         12
    60          4
    72         12
    73          6
    74          2
    82        350
    83        821
    84         46
    85        226
    86         10
    87          4
    97          2
    98          3
    99         38
   100        999
   101         75
   102          7
   112          1
   113          5
   127          4
   142        188
   143         16
   144          1