##TITLE=Library Entry 60220
##JCAMP-DX=Revision 4.10 
##DATA TYPE=MASS SPECTRUM
##SAMPLE DESCRIPTION=A.Pleshkova, Nesmeyanov Inst.Org.Elem.Cpds, Moscow
##NAMES=HP
##CAS NAME=N-Benzyloxy-2-carbomethoxyazetidine
##MOLFORM=C12H15NO3
##CAS REGISTRY NO=53084-25-6
##MP= -300
##BP= -300
##MW= 221
##$RETENTION INDEX=0
##$CONDENSED SPECTRUM=NO
##NPOINTS= 18
##XYDATA=(XY..XY) 1 
    51         94
    52         25
    55         65
    56         29
    65        133
    66          5
    76         14
    77        141
    78         32
    90         21
    91        999
    92         78
    93          5
   162         94
   163          5
   221        141
   222         21
   223          2