##TITLE=Library Entry 60575
##JCAMP-DX=Revision 4.10 
##DATA TYPE=MASS SPECTRUM
##SAMPLE DESCRIPTION=A.Pleshkova, Nesmeyanov Inst.Org.Elem.Cpds, Moscow
##NAMES=HP
##CAS NAME=N-Benzyloxy-2-carbomethoxyaziridine
##MOLFORM=C11H13NO3
##CAS REGISTRY NO=53084-33-6
##MP= -300
##BP= -300
##MW= 207
##$RETENTION INDEX=0
##$CONDENSED SPECTRUM=NO
##NPOINTS= 23
##XYDATA=(XY..XY) 1 
    27         42
    28         42
    29         21
    30         10
    39         32
    40         10
    41         53
    42         21
    51         64
    52         16
    65         74
    66          9
    77        106
    78         21
    91        999
    92        128
    93         11
   105         32
   106         21
   107         21
   108         10
   207         10
   208          1