##TITLE=Library Entry 17080
##JCAMP-DX=Revision 4.10 
##DATA TYPE=MASS SPECTRUM
##SAMPLE DESCRIPTION=A.Pleshkova, Nesmeyanov Inst.Org.Elem.Cpds, Moscow
##NAMES=HP
##CAS NAME=N-Methoxy-2-carbomethoxyaziridine
##MOLFORM=C5H9NO3
##CAS REGISTRY NO=53084-30-3
##MP= -300
##BP= -300
##MW= 131
##$RETENTION INDEX=0
##$CONDENSED SPECTRUM=NO
##NPOINTS= 38
##XYDATA=(XY..XY) 1 
    27        272
    28        440
    29        208
    30        720
    31        128
    32         32
    40        176
    41        512
    42        296
    43        112
    44         64
    45        999
    46         48
    55        544
    56         72
    57         11
    58        160
    59        744
    60         32
    68        160
    69         80
    70         25
    72        272
    73         16
    74        248
    75         32
    76          9
    89        224
    90         24
    91          9
    99        656
   100        448
   101         64
   102         19
   116         24
   131         96
   132          6
   133          1