##TITLE=Library Entry 77772
##JCAMP-DX=Revision 4.10 
##DATA TYPE=MASS SPECTRUM
##SAMPLE DESCRIPTION=Chemical Concepts
##NAMES=HP
##CAS NAME=2-(4-Bromophenyl)propionic acid
##MOLFORM=C9H9BrO2
##CAS REGISTRY NO=53086-53-6
##MP= -300
##BP= -300
##MW= 228
##$RETENTION INDEX=1574
##$CONDENSED SPECTRUM=NO
##NPOINTS= 117
##XYDATA=(XY..XY) 1 
    26          7
    27         49
    28          9
    29          6
    31          0
    36          0
    37          5
    38         16
    39         48
    40          5
    41          6
    42          0
    43         25
    44          7
    45         21
    46          0
    49          4
    50         74
    51        165
    52         28
    53         13
    54          0
    55          4
    56          0
    57          0
    60          3
    61          4
    62         23
    63         48
    64          8
    65         14
    66          1
    67          0
    68          0
    69          2
    71          0
    73          6
    74         36
    75         65
    76         57
    77        241
    78        164
    79         18
    80          0
    81          0
    82          0
    83          0
    85          1
    86          4
    87          6
    88          5
    89         22
    90          8
    91         11
    92          1
    93          4
    94          0
    95          0
    97          0
    98          3
    99          1
   100          0
   101         15
   102         73
   103        249
   104        999
   105        146
   106         11
   107          0
   115          0
   117          2
   119          2
   120          2
   121          1
   122          0
   129          0
   130          0
   131          1
   134         26
   135          2
   143          1
   144          1
   145          0
   147          0
   148          1
   149          1
   150          0
   155         10
   156          3
   157         12
   158          3
   159          2
   169         11
   170          0
   171         11
   172          1
   174          0
   181          3
   182          9
   183        998
   184         88
   185        963
   186         83
   187          5
   200         17
   201          0
   202         16
   203          0
   210          0
   212          0
   213          0
   215          0
   228        347
   229         34
   230        341
   231         31
   232          2