##TITLE=Library Entry 9324
##JCAMP-DX=Revision 4.10 
##DATA TYPE=MASS SPECTRUM
##SAMPLE DESCRIPTION=Institute of Organic Chemistry, Novosibirsk, USSR 1988
##NAMES=HP
##CAS NAME=Methyl 2,4,6-tri-O-acetyl-3-O-methyl-.alpha.-D-mannopyranoside
##MOLFORM=C14H22O9
##CAS REGISTRY NO=53098-97-8
##MP= -300
##BP= -300
##MW= 334
##$RETENTION INDEX=0
##$CONDENSED SPECTRUM=NO
##NPOINTS= 80
##XYDATA=(XY..XY) 1 
    41         65
    42         24
    43        999
    44         36
    45         89
    53         11
    54          5
    55         28
    57         28
    58         21
    59         30
    61         27
    69        139
    70         25
    71         77
    73         77
    74        959
    75        999
    76         40
    80         10
    81         65
    82         16
    83         14
    84         77
    85         89
    86         14
    87         99
    88         30
    89          8
    97         32
    98         63
    99         99
   100         27
   101        149
   102         19
   103        109
   109         44
   111         44
   112        119
   113         52
   115        109
   116        529
   117        179
   118         11
   127         73
   128         11
   129         57
   130         16
   140         32
   141         85
   142         12
   143         40
   145         36
   149         36
   155          9
   157         12
   158         15
   159         52
   160          6
   169         52
   170          7
   171          6
   172         17
   173          6
   177         17
   182         15
   183         19
   184          4
   187         12
   200          8
   201         42
   214         12
   215          4
   232         14
   233          6
   242          5
   243          6
   261         17
   303         31
   304          4