##TITLE=Library Entry 72641
##JCAMP-DX=Revision 4.10 
##DATA TYPE=MASS SPECTRUM
##SAMPLE DESCRIPTION=Exported from NIST MS Search
##NAMES=HP
##CAS NAME=Benzene, [(3-methyl-1,3-butadienyl)thio]-
##MOLFORM=C11H12S
##CAS REGISTRY NO=53097-26-0
##MP= -300
##BP= -300
##MW= 176
##$RETENTION INDEX=0
##$CONDENSED SPECTRUM=NO
##NPOINTS= 14
##XYDATA=(XY..XY) 1 
    39         86
    41         86
    51         57
    65        114
    97         71
    98        100
    99        999
   100         57
   110         57
   129         86
   143        229
   161         86
   176        286
   177         29