##TITLE=Library Entry 32791
##JCAMP-DX=Revision 4.10 
##DATA TYPE=MASS SPECTRUM
##SAMPLE DESCRIPTION=S.A. Rang et al., IR & MS of Unsatd. Hydrocarbons, 1977
##NAMES=HP
##CAS NAME=Cyclopentene,1-(2-methylpropyl)-
##MOLFORM=C9H16
##CAS REGISTRY NO=53098-47-8
##MP= -300
##BP= -300
##MW= 124
##$RETENTION INDEX=889
##$CONDENSED SPECTRUM=NO
##NPOINTS= 83
##XYDATA=(XY..XY) 1 
    15          4
    26          5
    27        128
    28         12
    29         51
    30          1
    31          1
    37          1
    38          5
    39        140
    40         28
    41        282
    42         20
    43        197
    44          4
    45          3
    46          1
    50          7
    51         30
    52         24
    53        116
    54         39
    55         80
    56         28
    57         80
    58          4
    59          0
    60          2
    61          0
    62          1
    63          7
    64          2
    65         43
    66        100
    67        999
    68        144
    69         25
    70          5
    71          0
    73          3
    74          0
    75          2
    76          1
    77         64
    78         16
    79        189
    80         84
    81        478
    82        271
    83         29
    84          2
    85          0
    86          0
    87          0
    88          0
    89          0
    90          0
    91         20
    92          3
    93         12
    94          3
    95         56
    96         11
    97          1
    98          0
    99          0
   101          0
   102          0
   103          1
   104          0
   105          2
   106          0
   107          5
   108          1
   109        149
   110         14
   111          0
   121          0
   122          1
   123          7
   124        249
   125         24
   126          1