##TITLE=Library Entry 33116
##JCAMP-DX=Revision 4.10 
##DATA TYPE=MASS SPECTRUM
##SAMPLE DESCRIPTION=TNO Volatile Compounds in Food - Chemical Concepts
##NAMES=HP
##CAS NAME=2-Butynamide, N,N-dimethyl-
##MOLFORM=C6H9NO
##CAS REGISTRY NO=53099-32-4
##MP= -300
##BP= -300
##MW= 111
##$RETENTION INDEX=0
##$CONDENSED SPECTRUM=NO
##NPOINTS= 52
##XYDATA=(XY..XY) 1 
    21          4
    22          2
    24          3
    25          7
    27         50
    29         24
    30         33
    31          9
    33         13
    36         12
    37         72
    38        109
    39        287
    40         10
    41         71
    42        314
    43        105
    44        228
    45         89
    46         18
    49          2
    50          2
    51          5
    52          6
    53         29
    54         16
    55         16
    56         46
    57         13
    58         16
    59         19
    64          1
    65          1
    66         70
    67        999
    68         63
    69          4
    70          7
    72         24
    73          6
    79          2
    80          6
    81          5
    82         79
    83         14
    84         29
    87          6
    94          2
   110        258
   111        326
   112         21
   114          0