##TITLE=Library Entry 79753
##JCAMP-DX=Revision 4.10 
##DATA TYPE=MASS SPECTRUM
##SAMPLE DESCRIPTION=NIST Mass Spectrometry Data Center
##NAMES=HP
##CAS NAME=2-Methoxyphenyl benzoate
##MOLFORM=C14H12O3
##CAS REGISTRY NO=531-37-3
##MP= -300
##BP= -300
##MW= 228
##$RETENTION INDEX=1893
##$CONDENSED SPECTRUM=NO
##NPOINTS= 48
##XYDATA=(XY..XY) 1 
    26          1
    27          2
    37          1
    38          4
    39         10
    41         11
    49          1
    50         28
    51         89
    52         47
    53          7
    54          2
    55          2
    62          3
    63         12
    64          6
    65         26
    66          2
    67          4
    74          7
    75          6
    76         16
    77        381
    78         26
    79          3
    80         13
    81          5
    92          4
    93          2
    94          1
    95         16
    96          1
   105        999
   106         90
   107          5
   109          4
   115          1
   121          3
   122          1
   123          3
   124          1
   127          1
   128          4
   139          1
   184          1
   228        178
   229         26
   230          2