##TITLE=Library Entry 54050
##JCAMP-DX=Revision 4.10 
##DATA TYPE=MASS SPECTRUM
##SAMPLE DESCRIPTION=G. LUNN,ENVIRON. CONTROL,NATL. CANCER INST.,FREDERICK,M
D.,USA
##NAMES=HP
##CAS NAME=2,2'-Dipiperidine
##MOLFORM=C10H20N2
##CAS REGISTRY NO=531-67-9
##MP= -300
##BP= -300
##MW= 168
##$RETENTION INDEX=0
##$CONDENSED SPECTRUM=NO
##NPOINTS= 75
##XYDATA=(XY..XY) 1 
    44          1
    51          2
    52          4
    53          2
    54         12
    55         12
    56         44
    63          1
    64          1
    65          5
    66          3
    67         17
    68         25
    69          7
    70          2
    76          1
    77          6
    78          6
    79         14
    80         12
    81          4
    82         28
    83         57
    84        999
    85         97
    86         10
    89          0
    90          0
    91          2
    92          7
    93          8
    94          9
    95          2
    96         11
    97          3
    98          2
   102          0
   103          1
   104          4
   105          3
   106         57
   107          8
   108          5
   109          1
   110         13
   111          4
   112          1
   115          0
   116          0
   117          4
   118          4
   119         10
   120          2
   121          0
   122          2
   123          4
   124          1
   125          1
   129          0
   130          2
   131          1
   132          5
   133          2
   134          1
   135          1
   137          1
   141          0
   144          2
   145          3
   146          3
   147          1
   148          1
   167          0
   168          1
   169          1