##TITLE=Library Entry 18529
##JCAMP-DX=Revision 4.10 
##DATA TYPE=MASS SPECTRUM
##SAMPLE DESCRIPTION=D.HENNEBERG, MAX-PLANCK INSTITUTE, MULHEIM, WEST GERMAN
Y
##NAMES=HP
##CAS NAME=2-Cyclopenten-1-one, 3-chloro-
##MOLFORM=C5H5ClO
##CAS REGISTRY NO=53102-14-0
##MP= -300
##BP= -300
##MW= 116
##$RETENTION INDEX=0
##$CONDENSED SPECTRUM=NO
##NPOINTS= 95
##XYDATA=(XY..XY) 1 
    24          2
    25         17
    26        137
    27        244
    28        162
    29         11
    30          1
    31          8
    32          4
    33          0
    35          7
    36         62
    37         36
    38         48
    39         72
    40         28
    41         13
    42         30
    43         36
    44         19
    45          6
    46          0
    47          6
    48          7
    49         38
    50        106
    51        192
    52         84
    53        999
    54         43
    55         23
    56         14
    57          6
    58          1
    59          4
    60        124
    61         39
    62         62
    63         18
    64          8
    65          6
    66          3
    67          4
    68          3
    69         12
    70         10
    71          2
    72          3
    73         33
    74          7
    75         10
    76          2
    77          2
    78          0
    79          5
    80          6
    81        841
    82         49
    83          9
    84          5
    85          3
    86          2
    87         80
    88        138
    89         40
    90         46
    91          5
    92          1
    93          0
    95          0
    96          1
    97          4
    98          3
    99          5
   100          3
   101          1
   102          1
   103          0
   104          0
   105          0
   109          0
   110          0
   111          2
   112          1
   113          0
   114          1
   115         93
   116        890
   117         80
   118        282
   119         16
   120          1
   121          0
   125          1
   126          1