##TITLE=Library Entry 66575
##JCAMP-DX=Revision 4.10 
##DATA TYPE=MASS SPECTRUM
##SAMPLE DESCRIPTION=NIST Mass Spectrometry Data Center
##NAMES=HP
##CAS NAME=5-Hydroxy-6-methoxy-8-[(4-amino-1-methylbutyl)amino]quinoline tri
hydrobromide
##MOLFORM=C15H24
##CAS REGISTRY NO=53111-25-4
##MP= -300
##BP= -300
##MW= 204
##$RETENTION INDEX=1482
##$CONDENSED SPECTRUM=NO
##NPOINTS= 137
##XYDATA=(XY..XY) 1 
    26          2
    27         78
    28         14
    29        102
    30          2
    37          1
    38          5
    39        221
    40         38
    41        520
    42         23
    43        113
    44          4
    50         12
    51         76
    52         33
    53        223
    54         23
    55        355
    56         41
    57         45
    58          9
    59          6
    60          1
    61          1
    62          4
    63         28
    64         16
    65        163
    66         41
    67        248
    68         30
    69        132
    70         12
    71         13
    72          3
    73          1
    74          3
    75          5
    76          7
    77        419
    78         90
    79        467
    80        230
    81        328
    82         55
    83         24
    84          3
    85          2
    86          1
    87          1
    88          1
    89         11
    90          4
    91        679
    92        304
    93        999
    94        351
    95        426
    96         46
    97         14
    98          2
    99          1
   101          2
   102          9
   103         51
   104         20
   105        763
   106        520
   107        483
   108        155
   109        253
   110         37
   111          9
   112          2
   113          1
   114          1
   115         93
   116         38
   117        103
   118         25
   119        453
   120        170
   121        413
   122        124
   123        100
   124         13
   125          1
   126          1
   127         13
   128         41
   129         39
   130         16
   131         66
   132         15
   133        899
   134        259
   135        197
   136        133
   137         19
   138          1
   139          2
   141         11
   142          6
   143          8
   144          5
   145         26
   146          9
   147        210
   148        222
   149         88
   150         13
   151          1
   152          2
   153          2
   154          1
   155          1
   156          1
   157          2
   158          1
   160          8
   161        267
   162         52
   163          8
   164          1
   165          1
   173          1
   174          1
   175         47
   176         37
   177          5
   189        227
   190         35
   191          3
   204        509
   205         83
   206          6