##TITLE=Library Entry 88511
##JCAMP-DX=Revision 4.10 
##DATA TYPE=MASS SPECTRUM
##SAMPLE DESCRIPTION=TNO Volatile Compounds in Food - Chemical Concepts
##NAMES=HP
##CAS NAME=1-Pentanone, 1-(2-thienyl)-
##MOLFORM=C9H12OS
##CAS REGISTRY NO=53119-25-8
##MP= -300
##BP= -300
##MW= 168
##$RETENTION INDEX=0
##$CONDENSED SPECTRUM=NO
##NPOINTS= 61
##XYDATA=(XY..XY) 1 
    26          3
    27         32
    28         13
    29         25
    34          2
    37          2
    38          9
    39        147
    40          6
    41         27
    42          3
    43          3
    45         23
    50          4
    51          4
    53          9
    54          2
    55         18
    56          5
    57         15
    58          9
    59          1
    60          1
    61          4
    62          2
    63          3
    64          1
    65          5
    66          2
    69          4
    71          1
    73          1
    77          1
    81          4
    82          8
    83         45
    84         20
    85          4
    87          1
    89          2
    91          2
    93          2
    95          2
    97         13
   107          2
   109          2
   110          2
   111        999
   112         41
   113         27
   120          2
   126        784
   127         25
   128         15
   139         26
   151          1
   153          2
   154          5
   168         38
   169          3
   170          1