##TITLE=Library Entry 41570
##JCAMP-DX=Revision 4.10 
##DATA TYPE=MASS SPECTRUM
##SAMPLE DESCRIPTION=O9-47-5A
##NAMES=HP
##CAS NAME=Prosta-5,10,13-trien-1-oic acid, 15-[[(1,1-dimethylethyl)dimethyl
silyl]oxy]-9-oxo-, methyl ester, (5Z,13E,15S)-
##MOLFORM=C27H46O4Si
##CAS REGISTRY NO=53122-04-6
##MP= -300
##BP= -300
##MW= 462
##$RETENTION INDEX=0
##$CONDENSED SPECTRUM=NO
##NPOINTS= 217
##XYDATA=(XY..XY) 1 
    71         86
    72         14
    73        999
    74        114
    75        918
    76         76
    77        107
    78         38
    79        145
    80         43
    81        227
    82         38
    83         67
    84         14
    85         47
    86          7
    87         14
    89        157
    90         16
    91        179
    92         31
    93        100
    94         28
    95         90
    96         23
    97         55
    98         12
    99        153
   100         12
   101         23
   102          4
   103         33
   104         21
   105        114
   106         19
   107        107
   108         26
   109         90
   110         14
   111         38
   112          9
   113         43
   114          9
   115         86
   116         33
   117        114
   118         35
   119        138
   120         40
   121         62
   122         14
   123         43
   124          9
   125         14
   127         31
   128         31
   129         86
   130         21
   131         86
   132         28
   133        141
   134         38
   135         62
   136         14
   137         19
   139         12
   140          4
   141         43
   142         14
   143         40
   144         14
   145        112
   146         21
   147         88
   148         19
   149         67
   150         12
   151         43
   152          7
   153         16
   154          7
   155         38
   156         14
   157         47
   158         16
   159         67
   160         16
   161         50
   162          7
   163         23
   164          7
   165         23
   166          7
   167         43
   168          7
   169         33
   170          7
   171         67
   172         19
   173         95
   174         19
   175         35
   176          4
   177         21
   178          4
   179         14
   180          4
   181         55
   182         14
   183         64
   184         16
   185         81
   186         19
   187         52
   188         14
   189         78
   190        157
   191         64
   192         12
   193         57
   194         14
   195         26
   196          4
   197         38
   198          7
   199         50
   200          9
   201         43
   202         14
   203         62
   204         14
   205         19
   206         12
   207         86
   208         28
   209         33
   210          4
   211         28
   213         14
   215        239
   216         43
   217         26
   219         19
   221         43
   222         19
   223         16
   225         16
   227         33
   228          4
   229         19
   231          9
   233         26
   234          4
   235          9
   237          9
   239         19
   241         50
   242          9
   243          9
   245          9
   247         38
   248          9
   249         16
   250          4
   251         14
   253         23
   255         12
   257         12
   259         14
   262          4
   263         28
   264         19
   266         19
   269          7
   271         19
   273         19
   275         14
   277         14
   279         19
   281         62
   282         16
   283          4
   288          4
   289         16
   291          4
   299        150
   300         35
   303          7
   305         38
   306          9
   308          7
   310         14
   316         12
   319         12
   321         33
   330         28
   331         28
   344         26
   355         14
   359         55
   360         16
   363         21
   368          4
   373        155
   374         50
   391        205
   392         62
   393         19
   405        540
   406        253
   407         81
   427         12
   431         45
   432         16
   447         14
   462         35
   463         14