##TITLE=Library Entry 5583
##JCAMP-DX=Revision 4.10 
##DATA TYPE=MASS SPECTRUM
##SAMPLE DESCRIPTION=MYCOTOXINS MASS SPECTRAL DATA BANK, L.R. DUSOLD ET AL,
 FDA, USA
##NAMES=HP
##CAS NAME=Satratoxin h
##MOLFORM=C29H36O9
##CAS REGISTRY NO=53126-64-0
##MP= -300
##BP= -300
##MW= 528
##$RETENTION INDEX=0
##$CONDENSED SPECTRUM=NO
##NPOINTS= 82
##XYDATA=(XY..XY) 1 
    29        155
    31         35
    32         10
    36        101
    38         41
    39         77
    41         83
    42         83
    43        999
    48         41
    50         35
    51         59
    52         35
    53         65
    54         41
    55         77
    56         59
    57         59
    58         41
    60         59
    64         77
    65         41
    66         41
    67         77
    68         47
    69         53
    70         41
    73         41
    74         35
    75         41
    76         35
    77         95
    78         59
    79        101
    80         53
    81         59
    82         41
    83         59
    89         29
    91        143
    92         53
    93         59
    94         35
    95         53
    96         59
    97         35
   103         35
   104         41
   105         83
   106         47
   107         59
   108         59
   109         41
   110         47
   113         41
   115         41
   116         35
   117         59
   118         35
   119         35
   191         47
   192         35
   207        143
   208         71
   209         47
   210         53
   238         35
   355         35
   405         53
   415         65
   416         53
   417         65
   429         77
   430         47
   431         47
   467         71
   468         53
   484         53
   485         53
   486         47
   510         71
   528         53