##TITLE=Library Entry 47227
##JCAMP-DX=Revision 4.10 
##DATA TYPE=MASS SPECTRUM
##SAMPLE DESCRIPTION=D.A.JAEGER DEPT. CHEM., UNIV. WYOMING, LARAMIE, WYOMING
, USA
##NAMES=HP
##CAS NAME=Benzene, 1,1'-[1,2-ethanediylbis(oxy-2,1-ethanediyloxy)]bis-
##MOLFORM=C18H22O4
##CAS REGISTRY NO=53129-28-5
##MP= -300
##BP= -300
##MW= 302
##$RETENTION INDEX=0
##$CONDENSED SPECTRUM=NO
##NPOINTS= 88
##XYDATA=(XY..XY) 1 
    41         80
    42         40
    43        220
    44        110
    45        310
    46         20
    47         80
    49         60
    50        370
    51        530
    52        220
    53         30
    54         10
    55         90
    56         30
    57         20
    58         20
    59         50
    60         20
    61         30
    62         50
    63        150
    64         30
    65        370
    66        220
    67         20
    68         20
    69         10
    70         20
    71         20
    72         10
    73        100
    74         50
    75         30
    76         50
    77        999
    78        530
    79        100
    80         20
    81         10
    86         20
    87         10
    88         20
    89         50
    90         30
    91        330
    92         70
    93        480
    94        300
    95         40
   101         10
   102         10
   103         80
   104         20
   105         60
   106         60
   107         60
   108         20
   109         10
   114         10
   115         30
   116         10
   117         10
   118         50
   119         60
   120        190
   121        610
   122         70
   127         10
   128         10
   133         20
   135         20
   136         10
   137         10
   138         20
   147         20
   149         10
   151         10
   164         30
   165         40
   166         10
   182         80
   183         20
   208         20
   209         60
   210         10
   302        100
   303         20