##TITLE=Library Entry 19728
##JCAMP-DX=Revision 4.10 
##DATA TYPE=MASS SPECTRUM
##SAMPLE DESCRIPTION=LAC, NIDDK, NIH, Bethesda, MD 20892
##NAMES=HP
##CAS NAME=Stigmasteryl tosylate
##MOLFORM=C36H54O3S
##CAS REGISTRY NO=53139-42-7
##MP= -300
##BP= -300
##MW= 566
##$RETENTION INDEX=0
##$CONDENSED SPECTRUM=NO
##NPOINTS= 173
##XYDATA=(XY..XY) 1 
    41        409
    43        762
    44          4
    45         19
    47          5
    48          6
    49         16
    50          5
    51         24
    53         71
    55        999
    57        129
    58          2
    59          2
    61          2
    62          2
    63         27
    65        145
    67        238
    69        398
    71         64
    72          1
    74          1
    76          1
    77         92
    79        163
    81        347
    83        327
    84         42
    85         27
    86          3
    89         18
    91        497
    93        239
    95        203
    97        135
    98          2
   103         14
   105        206
   107        181
   108         20
   109         76
   110          3
   111         18
   113          1
   115         23
   116          4
   117         82
   119         87
   120         29
   121         57
   122          8
   123         39
   124          3
   125          4
   127          8
   128         20
   129         34
   130         13
   131         68
   133        145
   134         14
   135         49
   136          2
   137         22
   139         25
   141         15
   142          4
   143         74
   144          8
   145        162
   146         62
   147        106
   148          4
   149         23
   151          6
   152          1
   153          5
   155         88
   156          4
   157         70
   158         36
   159         82
   160         11
   161         44
   162          9
   163         10
   165         13
   166          3
   167          7
   168          1
   169         13
   170          1
   171         24
   173         97
   174         14
   175         24
   176          6
   177          6
   178          4
   179          2
   181          4
   182          1
   183         14
   184          3
   185         24
   186          7
   187         18
   188          3
   189         17
   191          3
   195          5
   197         20
   198          4
   199         25
   200          4
   201         13
   202          3
   203          5
   205          2
   207          1
   209          1
   211         18
   212         11
   213         34
   214         11
   215         11
   216          1
   217          6
   223          1
   225         10
   226          6
   227         11
   228         29
   229          9
   231          3
   237          1
   239         14
   240          5
   241          6
   243          6
   245          3
   246          1
   251          1
   253         55
   254         36
   255        114
   256         25
   257          7
   267         17
   268          7
   269          4
   271          3
   273          5
   281         10
   282         27
   283         13
   284          4
   286          4
   295          7
   296          9
   297          1
   309          4
   310          2
   351         22
   352          7
   365          1
   379         20
   380          5
   393          4
   394        273
   395         86
   396         17