##TITLE=Library Entry 5234
##JCAMP-DX=Revision 4.10 
##DATA TYPE=MASS SPECTRUM
##SAMPLE DESCRIPTION=Div. of Experiment Therapeutics WRAIR, WRAMC, Washingto
n DC 20307
##NAMES=HP
##CAS NAME=Ethyl 4-hydroxy-2-methyl-5-pyrimidine carboxylate
##MOLFORM=C8H10N2O3
##CAS REGISTRY NO=53135-24-3
##MP= -300
##BP= -300
##MW= 182
##$RETENTION INDEX=0
##$CONDENSED SPECTRUM=NO
##NPOINTS= 54
##XYDATA=(XY..XY) 1 
    42        999
    43         40
    45        130
    46          2
    47          2
    49         16
    51         28
    53        205
    54         40
    55         11
    56          5
    57          0
    58          1
    63          4
    64          3
    65          6
    68        195
    69        111
    70         20
    71          3
    72          3
    78          3
    81         88
    82         22
    85        127
    86         32
    87          2
    92         20
    95         56
    96          7
    97         22
    98          1
   108        123
   110        164
   111          3
   112         14
   113         17
   120          3
   123          3
   126          1
   136         26
   137        580
   138         60
   139         13
   141          4
   154        212
   155         11
   156          0
   163          0
   164          3
   181         32
   182        238
   183         22
   184          2