##TITLE=Library Entry 67838
##JCAMP-DX=Revision 4.10 
##DATA TYPE=MASS SPECTRUM
##SAMPLE DESCRIPTION=Div. of Experiment Therapeutics WRAIR, WRAMC, Washingto
n DC 20307
##NAMES=HP
##CAS NAME=4,6-Diamino-5-furoylaminopyrimidine
##MOLFORM=C9H9N5O2
##CAS REGISTRY NO=53130-90-8
##MP= -300
##BP= -300
##MW= 219
##$RETENTION INDEX=0
##$CONDENSED SPECTRUM=NO
##NPOINTS= 95
##XYDATA=(XY..XY) 1 
    42         98
    43        583
    44         35
    45          6
    47          4
    48          0
    49         19
    50          7
    51         31
    53        183
    54        163
    55        114
    56         10
    57          2
    59          0
    61          1
    63          1
    64          4
    65          9
    66         27
    67         69
    68         31
    70        173
    71         16
    72          1
    75          1
    76          2
    77          3
    78          3
    79          1
    80         14
    81         19
    82         12
    83          6
    84          6
    86          5
    88          1
    91          1
    92          2
    93          1
    95        999
    97        241
    98         12
   101          1
   103          0
   105          0
   106          1
   107         27
   108          9
   109          4
   110         12
   111          1
   112          0
   118          0
   119          1
   120          3
   121          2
   122          3
   124        206
   125         30
   126          4
   131          0
   134          1
   135          8
   136          8
   137          3
   145          3
   146          1
   147          5
   148          3
   149          2
   151          8
   152         11
   153          1
   161          1
   162         40
   163          9
   165         65
   166          5
   173          1
   174          4
   175          2
   176          1
   185          1
   188          1
   190         20
   191         88
   192          8
   201         30
   202         39
   203          4
   205          2
   219        304
   220         37
   221          2