##TITLE=Library Entry 57570
##JCAMP-DX=Revision 4.10 
##DATA TYPE=MASS SPECTRUM
##SAMPLE DESCRIPTION=Chemical Concepts
##NAMES=HP
##CAS NAME=Pregn-9(11)-ene-3,20-dione, 19-(acetyloxy)-, cyclic 3,20-bis(1,2-
ethanediyl acetal), (5.alpha.,14.beta.,17.alpha.)-
##MOLFORM=C27H40O6
##CAS REGISTRY NO=53139-18-7
##MP= -300
##BP= -300
##MW= 460
##$RETENTION INDEX=0
##$CONDENSED SPECTRUM=NO
##NPOINTS= 267
##XYDATA=(XY..XY) 1 
    26         11
    27         28
    28         72
    29         44
    30          3
    31         13
    33          2
    36          4
    37          2
    38          3
    39         23
    40          5
    41         85
    42         26
    43        356
    44         27
    45         65
    50          3
    51          5
    52          3
    53         23
    54          7
    55        106
    56         38
    57         76
    58          8
    59         75
    60         10
    61          4
    62          2
    63          2
    64          3
    65          7
    66          3
    67         38
    68         11
    69         38
    70         15
    71        100
    72         10
    73         46
    74          6
    75          2
    76          5
    77         23
    78         12
    79         37
    80         11
    81         98
    82         20
    83         25
    84         19
    85        153
    86         63
    87        999
    88         65
    89         16
    90          2
    91         72
    92          6
    93         42
    94          7
    95         22
    96         10
    97         16
    98          6
    99        728
   100         55
   101         24
   102         40
   103          9
   104         11
   105         66
   106         12
   107         22
   108          6
   109         29
   110          8
   111          8
   112         25
   113         22
   114          6
   115        141
   116         20
   117         47
   118         19
   119         31
   120          9
   121         24
   122          6
   123         14
   124          7
   125        106
   126         11
   127         29
   128        160
   129         83
   130         23
   131         55
   132         16
   133         18
   134          8
   135         10
   136          5
   137          9
   138          5
   139         13
   140          6
   141         37
   142         21
   143         48
   144         22
   145         40
   146         15
   147         18
   148          9
   149         69
   150         15
   151         12
   152          9
   153         37
   154         33
   155         45
   156         29
   157         71
   158         16
   159         23
   160          8
   161         16
   162          6
   163          9
   164          6
   165         13
   166          7
   167         42
   168         33
   169         45
   170         15
   171         37
   172         18
   173         17
   174          6
   175         10
   176          6
   177          5
   178          5
   179          7
   180          9
   181         25
   182         16
   183         40
   184         23
   185         29
   186          9
   187         17
   188          7
   189         12
   190          6
   191         12
   192          4
   193         24
   194         11
   195         35
   196         16
   197         41
   198         13
   199         32
   200          8
   201          5
   202          8
   203          7
   204          4
   205         14
   206          4
   207         61
   208         17
   209         90
   210         52
   211         31
   212         12
   213         18
   214          8
   215         18
   216          4
   217          6
   218          5
   219          9
   220          6
   221         19
   222         11
   223         44
   224         25
   225         38
   226         15
   227         23
   228          9
   229         19
   230          6
   231          7
   232          8
   233         10
   234          5
   235          9
   236         26
   237         30
   238          6
   239         63
   240         22
   241         25
   242         17
   243         13
   244          5
   245          9
   246          4
   247          6
   248          4
   249          5
   250          8
   251         14
   252         16
   253         18
   254         11
   255         16
   256         15
   257         45
   258         10
   259         24
   260          5
   261         12
   262          6
   263         95
   264         24
   265         20
   266          5
   267          9
   268          7
   269        128
   270         35
   271        141
   272         73
   273         23
   274          8
   279          1
   281         62
   286          3
   293         32
   294         92
   295          6
   298          0
   299          5
   311         15
   323         16
   325        961
   326        230
   327         37
   338        237
   339         54
   343        102
   344         15
   355        104
   356         54
   385         33
   387        168
   388         26
   400        382
   401         90
   460          3