##TITLE=Library Entry 44667
##JCAMP-DX=Revision 4.10 
##DATA TYPE=MASS SPECTRUM
##SAMPLE DESCRIPTION=V.G.Zaikin, TIPS, Russian Acad. Sci.
##NAMES=HP
##CAS NAME=4(equaorialt)-Ethenyl-1,2(equatorial)-dimethyl-trans-decahydroqui
nol-4-ol,N-oxide
##MOLFORM=C13H23NO2
##CAS REGISTRY NO=53133-52-1
##MP= -300
##BP= -300
##MW= 225
##$RETENTION INDEX=0
##$CONDENSED SPECTRUM=NO
##NPOINTS= 87
##XYDATA=(XY..XY) 1 
    53         91
    54         44
    55        337
    56        227
    57        108
    58        512
    59         22
    66         24
    67        202
    68         33
    69        869
    70        105
    71         88
    72         69
    73         66
    74        999
    75         41
    77         63
    78         13
    79         99
    81        376
    82         80
    83         60
    84         69
    85         83
    86         96
    91        124
    92         16
    93         83
    94         24
    95         63
    96         60
    97        216
    98         33
    99         16
   105         63
   106         13
   107         63
   108         19
   109        121
   110         52
   111         33
   112        119
   113         13
   114         33
   115         44
   119        102
   124         16
   126         94
   133         80
   134         99
   136         24
   137         72
   138         55
   150         19
   151         30
   152         41
   161        393
   162        105
   163         52
   164         36
   166        224
   167         24
   168         60
   179        171
   180         74
   181         24
   182         96
   184         96
   190         91
   191         22
   192         94
   193         24
   194        235
   195         36
   196         74
   198         33
   205         16
   207        761
   208        232
   209        144
   210        277
   211         55
   224         22
   225        146
   226         21
   227          1