##TITLE=Library Entry 44907
##JCAMP-DX=Revision 4.10 
##DATA TYPE=MASS SPECTRUM
##SAMPLE DESCRIPTION=V.G.Zaikin, TIPS, Russian Acad. Sci.
##NAMES=HP
##CAS NAME=4(equat)-Ethyl-1,2(equatorial)-dimethyl-trans-decahydroquinol-4-o
l,N-oxide
##MOLFORM=C13H25NO2
##CAS REGISTRY NO=53133-49-6
##MP= -300
##BP= -300
##MW= 227
##$RETENTION INDEX=0
##$CONDENSED SPECTRUM=NO
##NPOINTS= 52
##XYDATA=(XY..XY) 1 
    56         34
    57         86
    58        185
    69         38
    70         25
    71         62
    72         52
    74        999
    75         27
    81         31
    93         10
    95         38
    96          8
    97         61
    98         10
    99         38
   107         32
   110          9
   111         50
   112         11
   113         16
   121         16
   123         11
   126         10
   128         48
   134          7
   136         31
   138          6
   139         10
   145          9
   152         13
   162          6
   163        199
   165         27
   166          4
   168         17
   181         39
   182        144
   183         68
   192         29
   193          8
   194         45
   195          7
   196         54
   197          9
   198         45
   209        548
   210         90
   211         27
   212         81
   227         28
   228          4