##TITLE=Library Entry 27929
##JCAMP-DX=Revision 4.10 
##DATA TYPE=MASS SPECTRUM
##SAMPLE DESCRIPTION=A.A.Kutin, Moscow, Russia
##NAMES=HP
##CAS NAME=Morpholin-3-one, 2-hydroxy-2,5,5-trimethyl-
##MOLFORM=C7H13NO3
##CAS REGISTRY NO=53153-49-4
##MP= -300
##BP= -300
##MW= 159
##$RETENTION INDEX=0
##$CONDENSED SPECTRUM=NO
##NPOINTS= 66
##XYDATA=(XY..XY) 1 
    33          0
    37          2
    38          9
    39        111
    40         46
    41        251
    42        403
    43        476
    44         55
    45         29
    46          3
    50          4
    51          5
    52          6
    53         13
    54         19
    55         79
    56        382
    57         57
    58        999
    59         36
    61         67
    62          1
    63          1
    65          0
    67          0
    68          2
    69          3
    70         30
    71         13
    72         43
    73         22
    74         88
    75          3
    77          0
    81          0
    82          1
    83          2
    84         12
    85          1
    86         27
    87          1
    88          2
    96          0
    97          0
    98          3
    99          0
   100          2
   101          0
   102          0
   111          0
   114         19
   115          1
   116         21
   117          0
   126          1
   127          2
   128          2
   129          0
   131          6
   132          0
   140          0
   141          0
   142         19
   143          1
   144          3