##TITLE=Library Entry 31074
##JCAMP-DX=Revision 4.10 
##DATA TYPE=MASS SPECTRUM
##SAMPLE DESCRIPTION=Chemical Concepts
##NAMES=HP
##CAS NAME=Hydrazinecarboxamide, 2-[(4-nitrophenyl)methylene]-
##MOLFORM=C8H8N4O3
##CAS REGISTRY NO=5315-87-7
##MP= -300
##BP= -300
##MW= 208
##$RETENTION INDEX=0
##$CONDENSED SPECTRUM=NO
##NPOINTS= 146
##XYDATA=(XY..XY) 1 
    26          6
    27         19
    28         67
    29         27
    30         23
    31          7
    37         11
    38         29
    39        143
    40         13
    41         35
    42         38
    43        190
    44        212
    45          8
    46          6
    49          6
    50        128
    51         96
    52         51
    53         26
    54         15
    55         16
    56         11
    57         25
    58          3
    59          3
    60        999
    61         40
    62         80
    63        225
    64         81
    65        472
    66         58
    67         17
    68         10
    69         16
    70          6
    71         16
    72          2
    73          9
    74         49
    75        101
    76        164
    77        118
    78         37
    79         24
    80         85
    81         17
    82          5
    83         10
    84          4
    85         12
    86         19
    87         22
    88         22
    89        260
    90        114
    91        147
    92        334
    93         76
    94         10
    95          8
    96          4
    97          9
    98          3
    99          5
   100          3
   101          5
   102         65
   103         65
   104         25
   105         32
   106         21
   107         29
   108         11
   109          7
   110          4
   111          9
   112          4
   113          3
   115          4
   116          5
   117         53
   118        470
   119        149
   120         25
   121         17
   122          8
   123          5
   124          6
   125          4
   127          3
   128          3
   129          4
   130          2
   131          4
   132         36
   133         12
   134         27
   135        301
   136         29
   137          6
   138         13
   139          4
   140          2
   141          5
   142          2
   144          3
   145          3
   146          3
   147         13
   148        116
   149         34
   161          6
   162         53
   163         49
   164        387
   165        837
   166         80
   167         11
   168          3
   169          3
   170          2
   175          2
   176          5
   177          2
   178         14
   179          4
   180          5
   181          4
   183          2
   185          2
   186          2
   190          3
   191         14
   192         15
   193          4
   194          3
   195          3
   196          2
   204          2
   207          4
   208        122
   209         28
   210          5