##TITLE=Library Entry 50722
##JCAMP-DX=Revision 4.10 
##DATA TYPE=MASS SPECTRUM
##SAMPLE DESCRIPTION=Chemical Concepts
##NAMES=HP
##CAS NAME=1-Cyclohexene-1-acetaldehyde, .alpha.,2-dimethyl-
##MOLFORM=C10H16O
##CAS REGISTRY NO=53155-80-9
##MP= -300
##BP= -300
##MW= 152
##$RETENTION INDEX=0
##$CONDENSED SPECTRUM=NO
##NPOINTS= 85
##XYDATA=(XY..XY) 1 
    26         10
    27        205
    28         33
    29        187
    30          6
    31          7
    36          3
    38         16
    39        308
    40         41
    41        540
    42         40
    43        209
    44         26
    45          9
    50         23
    51         87
    52         41
    53        184
    54         27
    55        467
    56         32
    57        133
    58          6
    59          4
    61          3
    62          4
    63         18
    64          8
    65         81
    66         28
    67        516
    68         50
    69        159
    70         18
    71         23
    75          4
    77        137
    78         28
    79        205
    80         31
    81        999
    82         79
    83         30
    84         11
    85         11
    89          4
    91         90
    92         17
    93         93
    94         67
    95        205
    96         34
    97         21
    98          5
    99          3
   103          6
   104          5
   105         22
   106          5
   107         29
   108         29
   109         60
   110         20
   111         11
   112          5
   113          5
   115          4
   117          6
   119         16
   120          6
   121         22
   122         16
   123        932
   124         87
   125          8
   133          4
   134          9
   135         10
   137         54
   138          8
   151          5
   152        169
   153         19
   154          2