##TITLE=Library Entry 50016
##JCAMP-DX=Revision 4.10 
##DATA TYPE=MASS SPECTRUM
##SAMPLE DESCRIPTION=Chemical Concepts
##NAMES=HP
##CAS NAME=Propanal, 3-cyclohexylidene-2-methyl-
##MOLFORM=C10H16O
##CAS REGISTRY NO=53155-83-2
##MP= -300
##BP= -300
##MW= 152
##$RETENTION INDEX=0
##$CONDENSED SPECTRUM=NO
##NPOINTS= 83
##XYDATA=(XY..XY) 1 
    26         10
    27        172
    28         37
    29        168
    30          5
    31          7
    38         10
    39        275
    40         37
    41        468
    42         37
    43        124
    44         11
    45          6
    50         18
    51         73
    52         30
    53        166
    54         48
    55        934
    56         68
    57        155
    58         10
    59          5
    62          4
    63         19
    64          5
    65         68
    66         38
    67        773
    68         80
    69        178
    70         32
    71         76
    72          7
    73          6
    75          5
    76          5
    77        131
    78         35
    79        249
    80         51
    81        999
    82        127
    83         65
    84         24
    85         32
    86          7
    87          4
    91         81
    92         18
    93         66
    94        106
    95        146
    96         28
    97         51
    98         12
    99          9
   103         10
   104          5
   105         43
   106         15
   107         28
   108         24
   109         77
   110        188
   111         36
   112         10
   122         10
   123        721
   124         81
   125         16
   126          4
   133        134
   134         57
   135         17
   136          8
   137         28
   138          6
   151         13
   152        178
   153         19
   155          3