##TITLE=Library Entry 61621
##JCAMP-DX=Revision 4.10 
##DATA TYPE=MASS SPECTRUM
##SAMPLE DESCRIPTION=ORMSBG, 18(1) 22(1983); L.K.LIU ET AL.
##NAMES=HP
##CAS NAME=(Z)-1-Methylsulfinyl-2-phenylethene
##MOLFORM=C9H10OS
##CAS REGISTRY NO=53165-40-5
##MP= -300
##BP= -300
##MW= 166
##$RETENTION INDEX=0
##$CONDENSED SPECTRUM=NO
##NPOINTS= 15
##XYDATA=(XY..XY) 1 
    91        999
   103        400
   104         40
   107        180
   118        270
   119        430
   120         30
   134        250
   135        160
   136         20
   149        120
   150        110
   151        120
   152         10
   166        270