##TITLE=Library Entry 97712
##JCAMP-DX=Revision 4.10 
##DATA TYPE=MASS SPECTRUM
##SAMPLE DESCRIPTION=Chemical Concepts
##NAMES=HP
##CAS NAME=Benzeneacetic acid, 4-ethenyl-, ethyl ester
##MOLFORM=C12H14O2
##CAS REGISTRY NO=53162-12-2
##MP= -300
##BP= -300
##MW= 190
##$RETENTION INDEX=0
##$CONDENSED SPECTRUM=NO
##NPOINTS= 70
##XYDATA=(XY..XY) 1 
    26          3
    27         25
    29         96
    30          2
    31          2
    38          5
    39         37
    40          2
    41          5
    42          0
    43          2
    44          1
    45          1
    50         10
    51         17
    52          6
    53          1
    55          0
    57         19
    58         10
    59         25
    61          0
    62         10
    63         23
    64          5
    65         26
    66          1
    67          0
    72          3
    73          1
    74          1
    75          3
    76          3
    77          9
    78          6
    79          1
    86          2
    87          1
    88          1
    89         18
    90          4
    91         75
    92          4
   101          0
   102         11
   103          3
   104          7
   105          3
   113          0
   114          2
   115        138
   116         41
   117        999
   118        116
   119          7
   120          0
   130          0
   131          4
   133          0
   144          5
   145          6
   146          0
   148          2
   161          0
   162          1
   175          0
   189          0
   190        404
   191         55
   192          3