##TITLE=Library Entry 35274
##JCAMP-DX=Revision 4.10 
##DATA TYPE=MASS SPECTRUM
##SAMPLE DESCRIPTION=Exported from NIST MS Search
##NAMES=HP
##CAS NAME=Crotonaldehyde, semicarbazone
##MOLFORM=C5H9N3O
##CAS REGISTRY NO=5316-14-3
##MP= -300
##BP= -300
##MW= 127
##$RETENTION INDEX=0
##$CONDENSED SPECTRUM=NO
##NPOINTS= 22
##XYDATA=(XY..XY) 1 
    39        509
    40        140
    41        370
    42        400
    43        400
    44        490
    50         60
    51         70
    52         50
    53        240
    54        110
    55        110
    56        460
    57         50
    60        539
    61        380
    67        140
    68        689
    69        999
    83        270
    84        170
   127        569