##TITLE=Library Entry 38199
##JCAMP-DX=Revision 4.10 
##DATA TYPE=MASS SPECTRUM
##SAMPLE DESCRIPTION=Chemical Concepts
##NAMES=HP
##CAS NAME=4-Chloro-3-methylbut-2-en-1-ol
##MOLFORM=C5H9ClO
##CAS REGISTRY NO=53170-97-1
##MP= -300
##BP= -300
##MW= 120
##$RETENTION INDEX=0
##$CONDENSED SPECTRUM=NO
##NPOINTS= 71
##XYDATA=(XY..XY) 1 
    25          2
    26         30
    27        219
    28         50
    29        296
    30         11
    31        126
    35          5
    36         21
    37         25
    38         55
    39        439
    40         86
    41        807
    42         49
    43        285
    44        132
    45         26
    48          3
    49         37
    50         53
    51         88
    52         30
    53        291
    54         39
    55        331
    56        491
    57        166
    58         16
    59          3
    60          2
    61         11
    62         14
    63         24
    64          5
    65         72
    66         21
    67        168
    68         62
    69        496
    70         54
    71        999
    72         49
    73          9
    74          4
    75         49
    76         19
    77         26
    78          7
    79          6
    80          1
    81          8
    82          8
    83         94
    84        440
    85        104
    86          7
    87         13
    88          3
    89         29
    90         33
    91         14
    92         12
   102         41
   103         39
   104         17
   105         33
   106          2
   119         10
   120          7
   121          6