##TITLE=Library Entry 64357
##JCAMP-DX=Revision 4.10 
##DATA TYPE=MASS SPECTRUM
##SAMPLE DESCRIPTION=Japan AIST/NIMC Database- Spectrum MS-IW-3999
##NAMES=HP
##CAS NAME=4'-Acetyl-p-toluenesulfonanilide
##MOLFORM=C15H15NO3S
##CAS REGISTRY NO=5317-94-2
##MP= -300
##BP= -300
##MW= 289
##$RETENTION INDEX=0
##$CONDENSED SPECTRUM=NO
##NPOINTS= 125
##XYDATA=(XY..XY) 1 
    15          2
    27          4
    28         12
    29          1
    31          2
    32          1
    37          1
    38          6
    39         40
    40          4
    41         18
    42          1
    43         64
    44          4
    45          4
    46          1
    48          1
    50          6
    51         18
    52          9
    53          6
    54          1
    55          2
    57          3
    61          1
    62          6
    63         44
    64         46
    65        160
    66         10
    67          5
    69          1
    70          1
    71          2
    74          1
    75          2
    76          3
    77         46
    78         14
    79         53
    80          5
    81          1
    83          1
    85          1
    86          1
    87          1
    88          1
    89         30
    90         29
    91        999
    92        120
    93          7
    95          2
    97          1
   103          1
   104          2
   105          2
   106         87
   107         11
   108          4
   109          1
   111          3
   115          2
   116          1
   117          3
   118          5
   119         83
   120         48
   121         11
   122          2
   123          4
   124          4
   127          2
   128          2
   129          1
   132          1
   134         27
   135         16
   136          1
   138          1
   139         57
   140          9
   141          4
   142          1
   149          1
   151          1
   152          3
   153          3
   154          2
   155        443
   156         39
   157         22
   158          1
   165          2
   166          5
   167         22
   168          9
   169          2
   178          2
   179          2
   180         10
   181          9
   182         45
   183         10
   184          2
   198          1
   208          2
   209          1
   210         23
   211          4
   223          1
   224         15
   225         13
   226          2
   247          1
   260          2
   274        819
   275        137
   276         52
   277          7
   278          1
   289        684
   290        123
   291         44
   292          6