##TITLE=Library Entry 64455
##JCAMP-DX=Revision 4.10 
##DATA TYPE=MASS SPECTRUM
##SAMPLE DESCRIPTION=Japan AIST/NIMC Database- Spectrum MS-IW-3962
##NAMES=HP
##CAS NAME=3'-Acetyl-p-toluenesulfonanilide
##MOLFORM=C15H15NO3S
##CAS REGISTRY NO=5317-87-3
##MP= -300
##BP= -300
##MW= 289
##$RETENTION INDEX=0
##$CONDENSED SPECTRUM=NO
##NPOINTS= 143
##XYDATA=(XY..XY) 1 
    15          2
    17          6
    27          4
    28          9
    29          1
    32          1
    37          1
    38          8
    39         49
    40          5
    41         19
    42          2
    43        162
    44          8
    45          5
    46          1
    48          2
    50          9
    51         24
    52         14
    53          6
    54          1
    55          2
    57          2
    61          2
    62          9
    63         58
    64         51
    65        192
    66         12
    67          4
    69          2
    71          1
    74          2
    75          3
    76          5
    77         30
    78         20
    79         11
    80          2
    81          1
    83          1
    85          1
    86          1
    87          2
    88          1
    89         37
    90         37
    91        999
    92        194
    93         12
    94          1
    95          2
    97          1
   102          1
   103          1
   104          5
   105          8
   106         25
   107          9
   108          4
   109          1
   111          3
   115          3
   116          3
   117          2
   118          3
   119         50
   120         29
   121          4
   122          2
   123          4
   124          6
   125          1
   127          2
   128          2
   129          2
   130          1
   133          1
   134        150
   135         29
   136          2
   138          1
   139         68
   140         13
   141          5
   142          1
   149          2
   150          1
   151          1
   152          4
   153          4
   154          4
   155        677
   156         60
   157         35
   158          3
   165          2
   166          6
   167         28
   168         19
   169          3
   172          2
   178          1
   179          2
   180         13
   181         12
   182         78
   183         24
   184          3
   185          2
   192          1
   194          1
   195          1
   196          2
   197          1
   198          6
   199          1
   206          1
   207          4
   208          5
   209          3
   210         30
   211          5
   222          1
   223          1
   224         22
   225         44
   226          7
   246          2
   247          1
   260          1
   261          8
   262          1
   274        214
   275         35
   276         12
   277          2
   289        763
   290        135
   291         50
   292          7
   293          1