##TITLE=Library Entry 90117
##JCAMP-DX=Revision 4.10 
##DATA TYPE=MASS SPECTRUM
##SAMPLE DESCRIPTION=Japan AIST/NIMC Database- Spectrum MS-IW- 870
##NAMES=HP
##CAS NAME=4-Methyl-1-piperazinepropanol
##MOLFORM=C8H18N2O
##CAS REGISTRY NO=5317-33-9
##MP= -300
##BP= -300
##MW= 158
##$RETENTION INDEX=0
##$CONDENSED SPECTRUM=NO
##NPOINTS= 93
##XYDATA=(XY..XY) 1 
    15         13
    17          2
    18          1
    26          3
    27         17
    28         50
    29         19
    30         30
    31         31
    39          6
    40          3
    41         32
    42        178
    43        492
    44        167
    45          7
    49          1
    52          1
    53          2
    54         13
    55         22
    56        127
    57        113
    58        171
    59         30
    60          2
    67          2
    68          8
    69          7
    70        587
    71        163
    72         46
    73          3
    75          2
    77          2
    79          2
    80          3
    81          3
    82         12
    83          9
    84         36
    85         74
    86         14
    87         39
    88         41
    89          2
    91          3
    93          3
    94          1
    95          3
    96          6
    97         13
    98         79
    99         41
   100         70
   101          9
   102         28
   103          5
   105          1
   107          4
   108          1
   109          1
   110          2
   111         15
   112          9
   113        999
   114         99
   115          7
   116          4
   121          2
   122          4
   123          1
   124          1
   125          1
   126          3
   127         15
   128          4
   129          3
   133          1
   135          1
   136          3
   138          1
   139          1
   140          2
   141          1
   142          2
   143          4
   155          1
   156          5
   157         10
   158        462
   159         51
   160          3