##TITLE=Library Entry 25659
##JCAMP-DX=Revision 4.10 
##DATA TYPE=MASS SPECTRUM
##SAMPLE DESCRIPTION=Insect Chem. Ecol. Lab., USDA, Beltsville, MD 20705
##NAMES=HP
##CAS NAME=Propanoic acid, nonyl ester
##MOLFORM=C12H24O2
##CAS REGISTRY NO=53184-67-1
##MP= -300
##BP= -300
##MW= 200
##$RETENTION INDEX=1401
##$CONDENSED SPECTRUM=NO
##NPOINTS= 107
##XYDATA=(XY..XY) 1 
    41        435
    42        187
    43        565
    44         23
    45         10
    47          8
    48          2
    53         31
    54         51
    55        416
    56        476
    57        999
    58         34
    59          9
    60          3
    61          9
    63          0
    65          6
    66          4
    67         50
    68         96
    69        342
    70        389
    71        304
    72         33
    73          6
    74         36
    75        572
    77         36
    79          8
    81         23
    82        105
    83        267
    84        267
    85        166
    86         16
    87         40
    88          5
    89          4
    91          3
    93          4
    94          0
    95         12
    96         46
    97        248
    98        206
    99         19
   101         14
   102          2
   103          3
   104          6
   105         41
   106          3
   107          1
   109          3
   110          1
   111         15
   112         26
   113         18
   115         20
   116          4
   117          1
   119          2
   120          0
   121          3
   122          2
   123          4
   124          8
   125         11
   126        234
   127        100
   128          9
   130         36
   131          0
   132          6
   133          1
   135          1
   136          0
   137          1
   139          2
   140          2
   141         14
   142          2
   143         31
   144          3
   145          1
   146          1
   156          0
   157          7
   158          2
   167         20
   168          3
   170          0
   171         19
   172          2
   174          1
   175          1
   177          0
   183          1
   185          5
   186          0
   187          1
   198          0
   199          1
   200         29
   201          3
   202          1