##TITLE=Library Entry 2685
##JCAMP-DX=Revision 4.10 
##DATA TYPE=MASS SPECTRUM
##SAMPLE DESCRIPTION=MUS274 A. Mujsce, AT&T Bell Labs., Murray Hill, N.J., U
SA
##NAMES=HP
##CAS NAME=Heptadecyl mercaptan
##MOLFORM=C17H36S
##CAS REGISTRY NO=53193-22-9
##MP= -300
##BP= -300
##MW= 272
##$RETENTION INDEX=0
##$CONDENSED SPECTRUM=NO
##NPOINTS= 129
##XYDATA=(XY..XY) 1 
    26         13
    27        112
    28         43
    29        327
    32         12
    33         18
    34         15
    35         13
    39        157
    40         32
    41        999
    42        282
    43        899
    44         34
    45         66
    46         46
    47        421
    48         21
    49         22
    53        111
    54         86
    55        900
    56        277
    57        640
    58         42
    59         46
    60         39
    61        145
    62         13
    63         14
    64          7
    65         23
    66         15
    67        169
    68        149
    69        549
    70        195
    71        174
    72         16
    73         25
    74         13
    75         19
    77         13
    78          5
    79         37
    81         90
    82        231
    83        457
    84        144
    85         98
    86          9
    87         45
    88         36
    89        139
    90         16
    91         10
    95         41
    96        159
    97        560
    98        109
    99         51
   101         23
   103         21
   104          5
   109         14
   110         98
   111        341
   112        107
   113         29
   115          9
   117          7
   122          7
   123         10
   124         62
   125        221
   126         89
   127         14
   128          3
   129          4
   137         12
   138         63
   139        112
   140         62
   141         12
   145          4
   152         42
   153         74
   154         49
   165          6
   166         22
   167         38
   168         46
   170          3
   173          3
   176          6
   179          3
   180         19
   181         33
   182         31
   191          4
   192          7
   194         14
   195         23
   196         13
   200          4
   201          7
   207         14
   208         24
   210        109
   211         18
   213          4
   215          3
   216          3
   219          2
   221          2
   224          2
   227          5
   229          4
   234          4
   238        555
   239         87
   241          2
   242          4
   246          2
   257          4
   272        661
   273        143
   274         40
   275          7