##TITLE=Library Entry 13639
##JCAMP-DX=Revision 4.10 
##DATA TYPE=MASS SPECTRUM
##SAMPLE DESCRIPTION=Div. of Experiment Therapeutics WRAIR, WRAMC, Washingto
n DC 20307
##NAMES=HP
##CAS NAME=6-Hydroxy-7-n-pentadecylmercapto-5,8-quinolinedione
##MOLFORM=C24H35NO3S
##CAS REGISTRY NO=53193-61-6
##MP= -300
##BP= -300
##MW= 417
##$RETENTION INDEX=0
##$CONDENSED SPECTRUM=NO
##NPOINTS= 231
##XYDATA=(XY..XY) 1 
    41        616
    43        999
    45         66
    47         14
    49         13
    50         23
    51         51
    52         25
    53         42
    55        522
    57        191
    58         10
    59          5
    60         10
    61          7
    63         38
    65         14
    67         47
    69        180
    71         78
    73         14
    74          2
    75          1
    76         10
    77         48
    78        145
    79        141
    81         40
    83         51
    85         25
    86          6
    87         13
    89          7
    90         30
    91         15
    92          2
    93          6
    95         28
    97         32
    98          2
    99          2
   100          4
   101          5
   102          8
   103         11
   105         30
   106         57
   107         17
   108          6
   109          5
   110          7
   111          4
   114          1
   115          1
   116          2
   117          7
   118         21
   119         24
   120          2
   121          2
   122         50
   123         55
   124         13
   125          4
   126          1
   129          1
   130          8
   131          3
   132          3
   133          3
   134         41
   135         59
   136          1
   138          4
   143          5
   144          4
   146          5
   147          7
   148         39
   149          1
   150          7
   151         92
   152         18
   158          3
   159          6
   160         54
   162         37
   164         13
   166         10
   168          1
   170          1
   172          4
   173          1
   174         62
   175          2
   176         71
   177         72
   178        101
   179        161
   180        103
   181         13
   182          3
   184          2
   186         10
   188         71
   189        107
   190        109
   191         66
   192         13
   193         53
   194          7
   195          3
   197          1
   198          2
   200          8
   201          3
   202        127
   203         10
   204         45
   205          1
   206         19
   207        230
   208        771
   209        624
   210        106
   211         41
   212          9
   214         51
   215         62
   216         56
   217          5
   218         31
   220         49
   221         21
   222         25
   223         13
   224          3
   225          0
   226          0
   228         31
   229          5
   230         43
   231          9
   232          6
   234         86
   235         27
   236          4
   237          1
   238          1
   241          1
   242         20
   243          8
   244         10
   246          4
   248         25
   249         12
   250          4
   251          0
   256         13
   257          4
   258          7
   260          4
   262         31
   263          4
   264          4
   270         10
   272          6
   276         17
   277          2
   278          5
   284          6
   286          4
   288          1
   290         16
   291          2
   292          4
   298          4
   300          3
   302          3
   304         17
   305          2
   306          2
   312          3
   314          4
   316          3
   318          8
   320          0
   328          3
   330          3
   331          0
   332         11
   333          0
   340          4
   342          6
   344         13
   345          2
   346         12
   347          2
   348          0
   354          4
   356         14
   357          7
   358          4
   360         13
   361          1
   366         12
   367          3
   368          4
   370         21
   371          5
   372          3
   374         10
   375          1
   382          5
   383         68
   384        370
   385        108
   386         29
   387          3
   388         12
   389          1
   400         12
   401          3
   402          8
   403          4
   415          8
   416         18
   417        250
   418         82
   419         20
   420          4