##TITLE=Library Entry 13647
##JCAMP-DX=Revision 4.10 
##DATA TYPE=MASS SPECTRUM
##SAMPLE DESCRIPTION=Div. of Experiment Therapeutics WRAIR, WRAMC, Washingto
n DC 20307
##NAMES=HP
##CAS NAME=6-Hydroxy-7-N-docosylmercapto-5,8-quinolinedinone
##MOLFORM=C31H49NO3S
##CAS REGISTRY NO=53193-64-9
##MP= -300
##BP= -300
##MW= 515
##$RETENTION INDEX=0
##$CONDENSED SPECTRUM=NO
##NPOINTS= 155
##XYDATA=(XY..XY) 1 
    41        404
    43        999
    44         10
    45         23
    47         10
    49          5
    50          6
    51         37
    52         11
    53         26
    55        466
    57        367
    58         14
    60         21
    61         10
    63         23
    64          3
    65         14
    67         65
    69        243
    71        154
    72          3
    73         10
    75          7
    77         23
    78        102
    79         78
    81         43
    83         98
    85         61
    87         29
    89          9
    90         21
    91         13
    93          7
    95         28
    97         71
    98          3
    99          9
   101         11
   102          3
   103         15
   105         15
   106         52
   107          9
   108          3
   109         55
   110          5
   111         20
   113          5
   115          5
   117          7
   119         29
   121          2
   122         23
   123         44
   124          8
   125         12
   129          2
   130          2
   132          2
   134         36
   135         26
   137          6
   145          2
   147         16
   148         33
   149          6
   151         74
   152          9
   153          2
   158          2
   159          4
   160         41
   161          4
   162         19
   164          7
   166          9
   174         46
   176         79
   177         69
   178         75
   179        109
   180         72
   181          7
   186          9
   188         40
   189         87
   190         74
   191         78
   193         55
   194          5
   195          4
   200          5
   201          2
   202        158
   204         40
   205          5
   206         79
   207         36
   208        556
   209        572
   210         66
   211         66
   214         29
   215         41
   216         31
   217          3
   218         16
   219         19
   220         12
   221         22
   222         16
   223         11
   228         22
   230         39
   232         11
   234         46
   236         21
   242         11
   244          9
   248         14
   249         11
   250          2
   256         11
   258          5
   262         17
   264          2
   270          2
   276         12
   290         11
   304          9
   312          2
   332          5
   346          5
   360          4
   374          4
   402          2
   416          2
   426         15
   427          2
   430          7
   442          7
   444          7
   457          2
   458         10
   459          7
   460          2
   486          4
   487         31
   488         13
   514         14
   515        180
   516         53
   517          7