##TITLE=Library Entry 6009
##JCAMP-DX=Revision 4.10 
##DATA TYPE=MASS SPECTRUM
##SAMPLE DESCRIPTION=Div. of Experiment Therapeutics WRAIR, WRAMC, Washingto
n DC 20307
##NAMES=HP
##CAS NAME=5,8-Quinolinedione, 7-(heptadecylthio)-6-hydroxy-
##MOLFORM=C26H39NO3S
##CAS REGISTRY NO=53193-62-7
##MP= -300
##BP= -300
##MW= 445
##$RETENTION INDEX=0
##$CONDENSED SPECTRUM=NO
##NPOINTS= 122
##XYDATA=(XY..XY) 1 
    41        488
    43        999
    45         45
    47          8
    50         16
    51         43
    53         50
    55        448
    57        218
    58          2
    60         16
    61          3
    63         25
    64          2
    65         12
    67         44
    69        153
    71         76
    73          6
    76          2
    77         87
    78         19
    79        123
    81         32
    83         48
    85         22
    87         13
    90         26
    91         10
    93          5
    95         25
    97         30
   102          5
   103          5
   104          8
   105         11
   106         49
   107          6
   108          3
   109          7
   116          6
   117          5
   118          2
   119         22
   122         15
   123         59
   124          4
   130          2
   132          2
   134         33
   135         35
   136          4
   147          5
   148         25
   149          9
   151         65
   152          3
   160         35
   162         21
   164          8
   166          4
   174         32
   175         16
   176         36
   177         47
   178         61
   179         67
   180         64
   186          6
   188         26
   189         63
   190         72
   191         38
   193         35
   194          4
   200          2
   202         77
   204         26
   205          4
   206         66
   207         24
   208        345
   209        327
   210         41
   211         13
   214         24
   215         30
   216         24
   218         24
   220         28
   221          3
   222         10
   223          4
   228         15
   230         24
   232          8
   234         38
   235          2
   236          9
   242         10
   248          6
   249         10
   256          4
   262         15
   270          5
   276          6
   290          8
   304          5
   346          2
   360          2
   372          2
   374          2
   411         41
   412        125
   413         38
   414          9
   443          8
   444          3
   445        107
   446         35
   447         11
   448          2