##TITLE=Library Entry 79097
##JCAMP-DX=Revision 4.10 
##DATA TYPE=MASS SPECTRUM
##SAMPLE DESCRIPTION=Japan AIST/NIMC Database- Spectrum MS-NW-4805
##NAMES=HP
##CAS NAME=Benzeneacetonitrile, .alpha.-hydroxy-
##MOLFORM=C8H7NO
##CAS REGISTRY NO=532-28-5
##MP= -300
##BP= -300
##MW= 133
##$RETENTION INDEX=0
##$CONDENSED SPECTRUM=NO
##NPOINTS= 69
##XYDATA=(XY..XY) 1 
    12          5
    13          2
    14          2
    18          1
    25          3
    26         54
    27        382
    28         12
    29         30
    30          1
    31          1
    36          5
    37         32
    38         38
    39         75
    40          4
    41          1
    43          6
    44          2
    48          3
    49         20
    50        172
    51        380
    52        107
    53         11
    54         13
    55          1
    56          2
    60          4
    61         12
    62         18
    63         33
    64          7
    65          4
    66          2
    72          1
    73         15
    74         57
    75         30
    76         44
    77        940
    78        201
    79         93
    80          6
    84          1
    85          4
    86          4
    87          4
    88          6
    89         26
    90          7
    91          2
    92          2
   102          1
   103          2
   104         36
   105        999
   106        886
   107         84
   108          6
   114          5
   115         88
   116         69
   117          7
   131          2
   132        111
   133        172
   134         15
   135          1