##TITLE=Library Entry 79666
##JCAMP-DX=Revision 4.10 
##DATA TYPE=MASS SPECTRUM
##SAMPLE DESCRIPTION=Chemical Concepts
##NAMES=HP
##CAS NAME=Benzoic acid, 2-phenylhydrazide
##MOLFORM=C13H12N2O
##CAS REGISTRY NO=532-96-7
##MP= -300
##BP= -300
##MW= 212
##$RETENTION INDEX=0
##$CONDENSED SPECTRUM=NO
##NPOINTS= 103
##XYDATA=(XY..XY) 1 
    26          2
    27         13
    28          4
    29         12
    30          0
    31          0
    37          2
    38          9
    39         38
    40          4
    41         11
    42          2
    43          9
    44          2
    45          1
    47          0
    49          2
    50         37
    51        136
    52         21
    53          7
    54          2
    55          7
    56          4
    57         10
    58          0
    59          0
    60          1
    61          2
    62          4
    63         13
    64         12
    65         40
    66          7
    67          3
    68          1
    69          6
    70          2
    71          5
    72          0
    73          2
    74          8
    75          8
    76         18
    77        493
    78         46
    79          5
    80         10
    81          3
    82          1
    83          4
    84          1
    85          3
    88          0
    90          2
    91         10
    92         11
    93         10
    94          1
    95          2
    96          1
    97          3
    98          1
    99          1
   103          5
   104          6
   105        999
   106         75
   107        106
   108          7
   109          1
   110          1
   111          2
   112          0
   113          1
   115          1
   119          0
   121          2
   122          0
   123          1
   125          1
   127          0
   137          0
   139          0
   141          1
   152          1
   153          0
   155          0
   165          0
   166          0
   168          0
   169          0
   180          1
   181          1
   182          1
   183          0
   190          1
   194          1
   210          1
   211          1
   212        329
   213         46
   214          3