##TITLE=Library Entry 98159
##JCAMP-DX=Revision 4.10 
##DATA TYPE=MASS SPECTRUM
##SAMPLE DESCRIPTION=AAFS Toxicology Section MS DB Committee, U. Alberta, Ca
nada
##NAMES=HP
##CAS NAME=Methocarbamol
##MOLFORM=C11H15NO5
##CAS REGISTRY NO=532-03-6
##MP= -300
##BP= -300
##MW= 241
##$RETENTION INDEX=0
##$CONDENSED SPECTRUM=NO
##NPOINTS= 82
##XYDATA=(XY..XY) 1 
    42         14
    43         63
    44        115
    45         88
    46          6
    50         14
    51         30
    52         46
    53         21
    54          7
    55         39
    56         10
    57        163
    58         14
    59          6
    60         28
    61         84
    62        143
    63         29
    64         23
    65         41
    66          9
    67         17
    68          8
    69         24
    70         10
    71         16
    73         26
    74         36
    75        103
    76         12
    77        118
    78         18
    79         19
    80         21
    81         83
    82         12
    83         13
    84          8
    85          7
    86          6
    91         11
    92         46
    93         17
    94         10
    95         53
    96         10
    97          9
    98          7
   100          9
   101          5
   103          4
   104         20
   105          7
   107          9
   108         14
   109        349
   110         35
   111          8
   115          4
   116          4
   118        999
   119         52
   120          9
   121         27
   122         65
   123         39
   124        303
   125         28
   126          8
   129          5
   131          4
   137         18
   138         10
   149         23
   166          4
   167         35
   168          4
   230          8
   231          6
   241         61
   242          9