##TITLE=Library Entry 35134
##JCAMP-DX=Revision 4.10 
##DATA TYPE=MASS SPECTRUM
##SAMPLE DESCRIPTION=NIST Mass Spectrometry Data Center, 1998.
##NAMES=HP
##CAS NAME=Butopyronoxyl
##MOLFORM=C12H18O4
##CAS REGISTRY NO=532-34-3
##MP= -300
##BP= -300
##MW= 226
##$RETENTION INDEX=1590
##$CONDENSED SPECTRUM=NO
##NPOINTS= 96
##XYDATA=(XY..XY) 1 
    14          1
    15          4
    26          5
    27         71
    28         31
    29        171
    30          5
    31          5
    37          1
    38          5
    39        103
    40         23
    41        384
    42         36
    43         56
    44          5
    45          5
    50          4
    51          7
    52          4
    53         43
    54         11
    55        100
    56        507
    57        693
    58         32
    59          9
    63          1
    65          2
    66          2
    67         16
    68          1
    69        999
    70         44
    71         13
    72          1
    73         11
    74          1
    75          1
    77          3
    78          1
    79          8
    80          4
    81          6
    82          7
    83         35
    84          5
    85          2
    86          1
    87         23
    88          1
    95          8
    96         75
    97         34
    98          6
    99          2
   100          1
   101          2
   107          3
   108          1
   109          2
   110          1
   111          9
   112          2
   113          1
   114          1
   115        561
   116         26
   117          5
   123         10
   125        689
   126         56
   127          6
   128          2
   139          1
   141          2
   142          2
   143          1
   152          8
   153         16
   154          2
   155          5
   169         11
   170          4
   171        108
   172         10
   173          1
   180          1
   181          1
   198          2
   208          1
   211         29
   212          4
   226        122
   227         22
   228          3