##TITLE=Library Entry 98577
##JCAMP-DX=Revision 4.10 
##DATA TYPE=MASS SPECTRUM
##SAMPLE DESCRIPTION=Philip Morris R&D
##NAMES=HP
##CAS NAME=Pyridine, 3-(3,4-dihydro-2H-pyrrol-5-yl)-
##MOLFORM=C9H10N2
##CAS REGISTRY NO=532-12-7
##MP= -300
##BP= -300
##MW= 146
##$RETENTION INDEX=1427
##$CONDENSED SPECTRUM=NO
##NPOINTS= 48
##XYDATA=(XY..XY) 1 
    37          3
    38         33
    39        136
    40         51
    41        164
    42        190
    43         16
    45         13
    46         12
    50         57
    51        171
    52         28
    53          5
    54         11
    59         14
    61          7
    62         23
    63         44
    64         52
    65         73
    66          2
    68         24
    72          6
    73          9
    74          2
    75         11
    76         32
    77         55
    78        178
    79         12
    89         13
    90         20
    91         71
    92         14
   103          4
   104         63
   105        188
   106         12
   116          8
   117         31
   118        999
   119         84
   120          4
   131         11
   145        468
   146        749
   147         89
   148          3