##TITLE=Library Entry 53123
##JCAMP-DX=Revision 4.10 
##DATA TYPE=MASS SPECTRUM
##SAMPLE DESCRIPTION=NIST Mass Spectrometry Data Center
##NAMES=HP
##CAS NAME=aR-Turmerone
##MOLFORM=C15H20O
##CAS REGISTRY NO=532-65-0
##MP= -300
##BP= -300
##MW= 216
##$RETENTION INDEX=1664
##$CONDENSED SPECTRUM=NO
##NPOINTS= 93
##XYDATA=(XY..XY) 1 
    27         14
    29         33
    39         56
    40          6
    41         39
    42          4
    43         13
    50          6
    51         20
    52          6
    53         37
    54          7
    55        187
    56         10
    57          3
    62          3
    63         15
    64          6
    65         46
    66          4
    67          6
    74          2
    75          4
    76          4
    77         62
    78         17
    79         20
    81          5
    82         10
    83        999
    84         55
    87          2
    89         12
    90          3
    91        127
    92         15
    93         24
    97          2
    98         44
   101          2
   102         10
   103         32
   104         21
   105         89
   106          7
   108          2
   109         11
   115         90
   116         22
   117        142
   118         71
   119        814
   120         74
   124          1
   125          2
   127          4
   128         12
   129         10
   130          4
   131         17
   132        197
   133         62
   134          5
   141          6
   142          5
   143          7
   145         23
   148          5
   153          2
   155          4
   157          3
   158          4
   159         17
   160          5
   165          2
   166          1
   167          1
   168          5
   169          2
   171          2
   173         15
   174          3
   183          6
   184          1
   187          1
   197          1
   199          2
   201        126
   202         22
   214          1
   215          2
   216        226
   217         38