##TITLE=Library Entry 51059
##JCAMP-DX=Revision 4.10 
##DATA TYPE=MASS SPECTRUM
##SAMPLE DESCRIPTION=NIST Mass Spectrometry Data Center, 1994
##NAMES=HP
##CAS NAME=Tropinone
##MOLFORM=C8H13NO
##CAS REGISTRY NO=532-24-1
##MP= -300
##BP= -300
##MW= 139
##$RETENTION INDEX=1198
##$CONDENSED SPECTRUM=NO
##NPOINTS= 64
##XYDATA=(XY..XY) 1 
     4          1
    14         11
    15         85
    16          0
    18          4
    26         36
    27        148
    28        138
    29         53
    30         25
    31          2
    32          1
    37          6
    38         22
    39        161
    40         37
    41        158
    42        604
    43         43
    44         18
    48          1
    49          1
    50         14
    51         22
    52         17
    53         43
    54         87
    55        195
    56         68
    57         52
    58          5
    62          2
    63          4
    64          2
    65         15
    66         13
    67         68
    68         84
    69         21
    70         44
    71          5
    77          7
    78          5
    79         14
    80          2
    81        557
    82        999
    83        191
    84         13
    91          1
    92          2
    94         37
    96        335
    97         73
    98          9
   107          1
   108          2
   110         72
   111         29
   112          2
   122          1
   124          7
   139        148
   140         16