##TITLE=Library Entry 89684
##JCAMP-DX=Revision 4.10 
##DATA TYPE=MASS SPECTRUM
##SAMPLE DESCRIPTION=Drug Lab
##NAMES=HP
##CAS NAME=Hexylcaine
##MOLFORM=C16H23NO2
##CAS REGISTRY NO=532-77-4
##MP= -300
##BP= -300
##MW= 261
##$RETENTION INDEX=1965
##$CONDENSED SPECTRUM=NO
##NPOINTS= 64
##XYDATA=(XY..XY) 1 
    40          4
    41         98
    42         24
    43         18
    44          8
    45          1
    50         10
    51         46
    52          5
    53         14
    54         26
    55        136
    56        116
    57         25
    58         73
    59          3
    65          4
    66          1
    67         17
    68         44
    69         18
    70         25
    71          1
    74          2
    75          2
    76          9
    77        195
    78         17
    79         21
    80          6
    81         19
    82         31
    83         83
    84         11
    85          1
    91          2
    93          1
    94          7
    96        138
    97         12
    98         14
    99          1
   105        235
   106         20
   107          1
   108          2
   109          3
   110         34
   112        999
   113         79
   114          2
   122          6
   123          2
   124         15
   125          1
   137          5
   138          9
   139        330
   140         36
   141          1
   163         21
   164          2
   218         30
   219          4