##TITLE=Library Entry 27692
##JCAMP-DX=Revision 4.10 
##DATA TYPE=MASS SPECTRUM
##SAMPLE DESCRIPTION=Chemical Concepts
##NAMES=HP
##CAS NAME=Benzenemethanol, .alpha.-[1-(methylamino)ethyl]-
##MOLFORM=C10H15NO
##CAS REGISTRY NO=53214-57-6
##MP= -300
##BP= -300
##MW= 165
##$RETENTION INDEX=0
##$CONDENSED SPECTRUM=NO
##NPOINTS= 49
##XYDATA=(XY..XY) 1 
    25          2
    27         13
    28         20
    29         23
    30         63
    31          2
    39         12
    40          2
    41          9
    42         35
    43         23
    44         38
    50          8
    51         26
    52          9
    53          6
    54          3
    55          4
    56         34
    57         18
    58        999
    59         45
    63          6
    65          5
    75          3
    76          3
    77         62
    78         19
    79         32
    80          2
    89          4
    90          2
    91         12
    92          2
   103          2
   104          1
   105         21
   106          6
   107          9
   115          3
   116          1
   117          6
   118          2
   130          1
   131          3
   132          6
   133          2
   146          9
   147          2