##TITLE=Library Entry 62094
##JCAMP-DX=Revision 4.10 
##DATA TYPE=MASS SPECTRUM
##SAMPLE DESCRIPTION=Darrick Lee, Cayman Chemical, Ann Arbor, MI
##NAMES=HP
##CAS NAME=Piperazine, 1-(phenylmethyl)-, dihydrochloride
##MOLFORM=C11H16N2
##CAS REGISTRY NO=5321-63-1
##MP= -300
##BP= -300
##MW= 176
##$RETENTION INDEX=0
##$CONDENSED SPECTRUM=NO
##NPOINTS= 85
##XYDATA=(XY..XY) 1 
    40          5
    41         26
    42         62
    43         19
    44         18
    45          3
    50          7
    51         20
    52          7
    53          2
    54         15
    55         15
    56        187
    57         32
    58         35
    59          1
    62          5
    63         22
    65        105
    66          7
    67          1
    68          3
    69          1
    70          7
    71         16
    72          2
    74          2
    75          2
    76          4
    77         15
    78          6
    79          2
    80          4
    81          4
    82          2
    83         15
    84          6
    85         98
    86          5
    87          2
    89         29
    91        999
    92         83
    93          5
    97          1
    98          1
    99         13
   100          1
   102          1
   103          5
   104         28
   105         14
   106          6
   107          1
   115          2
   116          2
   117         13
   118         60
   119         30
   120         73
   121         11
   122          1
   130          5
   131         15
   132         26
   134        724
   135         71
   136          3
   144          3
   145          5
   146         53
   147         26
   148          3
   149          1
   158          2
   159          5
   160          2
   161          6
   162          1
   173          1
   174          2
   175         27
   176        182
   177         22
   178          1