##TITLE=Library Entry 2454
##JCAMP-DX=Revision 4.10 
##DATA TYPE=MASS SPECTRUM
##SAMPLE DESCRIPTION=Exported from NIST MS Search
##NAMES=HP
##CAS NAME=Oxirane, (3-methylbutyl)-
##MOLFORM=C7H14O
##CAS REGISTRY NO=53229-41-7
##MP= -300
##BP= -300
##MW= 114
##$RETENTION INDEX=0
##$CONDENSED SPECTRUM=NO
##NPOINTS= 28
##XYDATA=(XY..XY) 1 
    41        999
    42        232
    43        837
    44        116
    45         88
    50          4
    51         23
    53         58
    54         41
    55        320
    56        511
    57        167
    58        413
    59         46
    67         69
    68         27
    69        158
    70         18
    71        488
    72         27
    73          9
    79         11
    81         46
    82         18
    83          7
    85         32
    96          9
    99          7