##TITLE=Library Entry 41914
##JCAMP-DX=Revision 4.10 
##DATA TYPE=MASS SPECTRUM
##SAMPLE DESCRIPTION=Chemical Concepts
##NAMES=HP
##CAS NAME=1,4-Dioxane-2,3-diol, (Z)-, 2TMS derivative
##MOLFORM=C10H24O4Si2
##CAS REGISTRY NO=53226-10-1
##MP= -300
##BP= -300
##MW= 264
##$RETENTION INDEX=0
##$CONDENSED SPECTRUM=NO
##NPOINTS= 138
##XYDATA=(XY..XY) 1 
    25          0
    26          3
    27         17
    28         25
    29         34
    30          7
    31         11
    32          3
    33          0
    34          0
    36          1
    37          1
    38          0
    39          1
    40          0
    41          2
    42          8
    43         87
    44         41
    45        251
    46         14
    47         68
    48          3
    49          2
    50          0
    51          2
    52          5
    53          3
    54          2
    55         13
    56          3
    57         17
    58         41
    59         75
    60         17
    61         28
    62          3
    63          1
    64          0
    65          0
    66         62
    67          7
    68          0
    69          1
    70          3
    71          7
    72         34
    73        999
    74         85
    75        321
    76         22
    77         21
    78          0
    79          0
    81          1
    83          0
    84          0
    85          3
    86         11
    87          6
    88         42
    89         18
    90          2
    91          4
    92          0
    93          0
    94          1
    95          0
    96          0
    97          2
    98          1
    99          2
   100          1
   101         38
   102         13
   103        831
   104         72
   105         39
   106          2
   107          1
   108          0
   110          0
   112          0
   113          2
   114          1
   115          8
   116          8
   117         34
   118          5
   119        419
   120         41
   121         18
   122          0
   123          0
   125          0
   126          0
   129          1
   130          0
   131         65
   132          8
   133         54
   134          7
   135          4
   136          0
   137          0
   139          0
   142          0
   144          0
   145          1
   146        258
   147        408
   148         70
   149         36
   150          4
   151          0
   159          0
   161          0
   163          0
   174          1
   175          2
   176          0
   177          6
   178          1
   189          0
   190          0
   191        108
   192         19
   193          8
   194          1
   204          9
   205          6
   206          1
   207          0
   221          0
   249         27
   250          5
   251          2
   264          0