##TITLE=Library Entry 38434
##JCAMP-DX=Revision 4.10 
##DATA TYPE=MASS SPECTRUM
##SAMPLE DESCRIPTION=Chemical Concepts
##NAMES=HP
##CAS NAME=2,2,3-Triethyloxirane
##MOLFORM=C8H16O
##CAS REGISTRY NO=53229-40-6
##MP= -300
##BP= -300
##MW= 128
##$RETENTION INDEX=0
##$CONDENSED SPECTRUM=NO
##NPOINTS= 41
##XYDATA=(XY..XY) 1 
    26          8
    27        103
    28         27
    29        258
    30          5
    38          2
    39         50
    40          7
    41        101
    42         37
    43        667
    44         21
    45          4
    51          6
    53         12
    54          4
    55         95
    56         53
    57        646
    58         18
    59          8
    65          2
    67          5
    68          2
    69          8
    70         55
    71        999
    72         39
    77          3
    79          3
    81          7
    83          4
    85         21
    86          4
    91          3
    99        163
   100        103
   101          5
   113          4
   128        166
   129         14