##TITLE=Library Entry 41702
##JCAMP-DX=Revision 4.10 
##DATA TYPE=MASS SPECTRUM
##SAMPLE DESCRIPTION=Chemical Concepts
##NAMES=HP
##CAS NAME=Dimethyl tartarate (R*,R*)-, 2TMS derivative
##MOLFORM=C12H26O6Si2
##CAS REGISTRY NO=53225-49-3
##MP= -300
##BP= -300
##MW= 322
##$RETENTION INDEX=0
##$CONDENSED SPECTRUM=NO
##NPOINTS= 195
##XYDATA=(XY..XY) 1 
    25          0
    26          3
    27         11
    29         46
    30          5
    31         22
    33          0
    35          3
    36          1
    38          0
    39          3
    40          0
    41          5
    42          9
    43         70
    44        154
    45        289
    46         17
    47         71
    48          4
    49         21
    50         17
    51          4
    52         10
    53          7
    54          2
    55         15
    56          3
    57         12
    58         31
    59        327
    60         26
    61         35
    62          5
    63          5
    64          0
    66          8
    67          1
    68          2
    69          9
    70          4
    71          9
    72         17
    73        999
    74         86
    75        165
    76         13
    77        104
    78          6
    79          4
    80          0
    81          0
    83          0
    84          0
    85         12
    86          4
    87          7
    88          4
    89        453
    90         38
    91         24
    92          1
    94          2
    95          0
    96          0
    97          0
    98          0
    99          7
   100          1
   101         36
   102         61
   103        122
   104         16
   105         39
   106          5
   107          8
   108          1
   109          0
   113          1
   114          0
   115          8
   116         19
   117         22
   118          1
   119         58
   120          5
   121         11
   122          0
   123          0
   124          0
   127          2
   128          0
   129          5
   130         41
   131         66
   132         13
   133         68
   134          9
   135          6
   136          0
   137          0
   139          0
   140          0
   143         31
   144          4
   145          2
   146         15
   147        343
   148         39
   149         23
   150          2
   151          1
   152          0
   154          0
   155          0
   156          0
   157          1
   159         16
   160          1
   161        106
   162          9
   163         28
   164          4
   165          1
   171          0
   173          1
   175         44
   176          5
   177          6
   178          1
   180          0
   185          0
   186          0
   187          0
   189         11
   190          1
   191          1
   192          0
   193          0
   194          0
   195          0
   201          7
   202          1
   203          4
   204          5
   205          1
   213          0
   214          0
   215          0
   217         34
   218          4
   219          9
   220          2
   222          0
   228          0
   229          0
   231          0
   232          0
   233          0
   234        123
   235         39
   236         14
   237          2
   243          0
   245          0
   247         82
   248         16
   249          7
   250          0
   251          0
   253          0
   254          0
   258          0
   260          0
   261          0
   262          0
   263         11
   264          2
   265          0
   266          0
   267          0
   271          0
   275          0
   284          0
   299          0
   301          0
   307         53
   308          9
   309          6
   310          0
   318          0
   321          0
   325          0
   327          0
   328          0