##TITLE=Library Entry 55295
##JCAMP-DX=Revision 4.10 
##DATA TYPE=MASS SPECTRUM
##SAMPLE DESCRIPTION=Chemical Concepts
##NAMES=HP
##CAS NAME=.beta.-l-Arabinopyranoside, methyl 2-O-methyl-3,4-O-(1-methylethy
lidene)-
##MOLFORM=C10H18O5
##CAS REGISTRY NO=53226-15-6
##MP= -300
##BP= -300
##MW= 218
##$RETENTION INDEX=0
##$CONDENSED SPECTRUM=NO
##NPOINTS= 153
##XYDATA=(XY..XY) 1 
    25          3
    26         21
    27         78
    29        124
    30         15
    31         93
    33         40
    35         10
    36          4
    37          7
    38         10
    39        102
    40         34
    41        229
    42         91
    43        861
    44         55
    45        208
    46          7
    47         40
    48         12
    49         21
    50          9
    51          8
    52          5
    53         26
    54         13
    55        100
    56         27
    57        132
    58         92
    59        267
    60         47
    61         57
    62          3
    63          2
    64          2
    65          4
    66          2
    67         11
    68         35
    69        378
    70         75
    71        339
    72         99
    73        163
    74        212
    75        211
    76         12
    77          6
    78          4
    79          4
    80          2
    81         23
    82          8
    83        139
    84         98
    85        999
    86         82
    87         75
    88        309
    89         39
    90          2
    91          6
    92          3
    93          3
    94          2
    95          9
    96          3
    97         37
    98         15
    99         57
   100        881
   101        303
   102         24
   103         28
   104          9
   105          4
   106          1
   107          1
   108          1
   109          2
   110          1
   111         51
   112          7
   113         13
   114        134
   115        114
   116         10
   117         16
   118          3
   119          4
   120          4
   121          2
   122          1
   123          1
   124          0
   125          2
   126          1
   127          9
   128         97
   129        205
   130         92
   131         13
   132          2
   133          1
   134          0
   135          1
   136          0
   137          1
   138          1
   139          2
   140          0
   141          9
   142          2
   143         62
   144          8
   145          7
   146          1
   147          1
   149          9
   150          1
   155          4
   156          2
   157          7
   158          2
   159          9
   160         33
   161          4
   162          0
   165          0
   166          0
   167          0
   168          0
   169          1
   170          1
   171         37
   172          4
   173          5
   174          0
   175          1
   181          0
   185          0
   186          8
   187        124
   188         11
   189          2
   203        265
   204         29
   205          4
   217          2
   218          1
   219          1