##TITLE=Library Entry 28366
##JCAMP-DX=Revision 4.10 
##DATA TYPE=MASS SPECTRUM
##SAMPLE DESCRIPTION=Div. of Experiment Therapeutics WRAIR, WRAMC, Washingto
n DC 20307
##NAMES=HP
##CAS NAME=4-Dimethylamino-1-[4-chloro-1-naphthyl]-1-[4-pyridyl]-1-butanol
##MOLFORM=C21H23ClN2O
##CAS REGISTRY NO=53220-54-5
##MP= -300
##BP= -300
##MW= 354
##$RETENTION INDEX=0
##$CONDENSED SPECTRUM=NO
##NPOINTS= 139
##XYDATA=(XY..XY) 1 
    41          0
    42        292
    43         76
    44        222
    45         54
    46         12
    50         18
    51         71
    52          9
    53          3
    54          2
    55          6
    56         20
    58        999
    59          5
    60          3
    61          3
    62          1
    63          3
    65          1
    68          2
    69          0
    70          0
    71        396
    72          9
    73          2
    74          2
    75          3
    76          2
    78         60
    79         13
    80          4
    82          1
    84         21
    85          5
    87         76
    88          0
    91          0
    92          1
    93          1
    94          0
    96          0
    97          0
    98          1
    99          2
   100          0
   101          1
   102          0
   103          0
   104          0
   106         52
   107          0
   108          0
   109          0
   111          0
   113          0
   115          3
   116          1
   117          1
   118          0
   120          0
   121          0
   122          3
   124          4
   125          0
   126         19
   127          6
   128          1
   130          1
   132          0
   134          1
   135          0
   139          2
   140          0
   141          1
   148          4
   149          1
   150          1
   151          2
   152          2
   153          1
   154          0
   155          0
   161         15
   162          3
   163          4
   164          1
   165          1
   166          0
   168          1
   175          7
   176          0
   177         10
   178          1
   179          0
   187          0
   188          0
   189         12
   190          4
   191          2
   192         19
   193          4
   199          0
   201          0
   202          0
   203          0
   204          0
   205          0
   206          0
   214          0
   216          0
   217          0
   218          0
   228          0
   229          0
   231          6
   232          2
   233          2
   234          0
   239          0
   240          0
   241          0
   242          0
   243          0
   244          0
   249          0
   250          0
   251          0
   266          2
   267          2
   268          3
   269          2
   270          0
   274          0
   276          2
   277          0
   278          0
   279          0
   354          0