##TITLE=Library Entry 53917
##JCAMP-DX=Revision 4.10 
##DATA TYPE=MASS SPECTRUM
##SAMPLE DESCRIPTION=NIST Mass Spectrometry Data Center
##NAMES=HP
##CAS NAME=3-Ethoxy-2-cyclohexen-1-one
##MOLFORM=C8H12O2
##CAS REGISTRY NO=5323-87-5
##MP= -300
##BP= -300
##MW= 140
##$RETENTION INDEX=0
##$CONDENSED SPECTRUM=NO
##NPOINTS= 63
##XYDATA=(XY..XY) 1 
    13          5
    14         24
    15         58
    16          4
    26        116
    27        556
    28        121
    29        349
    30         13
    31         11
    32          1
    36          2
    37         22
    38         71
    39        386
    40        218
    41        260
    42        257
    43        439
    44         16
    45         25
    46          1
    49          5
    50         25
    51         34
    52         15
    53         43
    55        230
    56         88
    57          7
    58          1
    61          3
    62          9
    63         14
    64          5
    65         29
    66         32
    68        589
    69        757
    70         41
    71         20
    77          1
    79          1
    81          8
    82         14
    84        999
    85         61
    86          5
    93          1
    94          3
    95         20
    97         26
    98          1
   109          1
   112        425
   113         29
   114          2
   123          1
   125          1
   138          1
   140        451
   141         38
   142          3