##TITLE=Library Entry 94868
##JCAMP-DX=Revision 4.10 
##DATA TYPE=MASS SPECTRUM
##SAMPLE DESCRIPTION=NIST Mass Spectrometry Data Center, 1994
##NAMES=HP
##CAS NAME=2-Naphthylthioacetonitrile
##MOLFORM=C12H9NS
##CAS REGISTRY NO=5324-69-6
##MP= -300
##BP= -300
##MW= 199
##$RETENTION INDEX=0
##$CONDENSED SPECTRUM=NO
##NPOINTS= 87
##XYDATA=(XY..XY) 1 
    12          4
    13         15
    18          1
    37          6
    38         32
    39         82
    40        102
    46          9
    47          3
    50         56
    51         71
    52         10
    53          4
    57          8
    58          8
    61         15
    62         54
    63        107
    64         16
    65         43
    66         13
    69         54
    70          9
    71          8
    72          3
    75         65
    76         33
    77         43
    78          3
    79         89
    81         10
    82         18
    83          3
    84          3
    85         11
    86         29
    87         33
    88         30
    89        101
    90          8
    91          2
    92          2
    93         30
    94          4
    95          4
    97          2
    98         18
   100         30
   101         18
   102          7
   105          4
   106          8
   107          2
   108          5
   109          2
   111          2
   113         46
   114         96
   115        999
   116        100
   117         10
   119          4
   120          2
   121          2
   122          2
   125          6
   126         47
   127         47
   128         27
   129          6
   132          5
   139          3
   153          7
   154          6
   156          2
   159        794
   160        101
   161         45
   162          4
   166          3
   171         16
   172          3
   196          2
   199        401
   200         56
   201         22
   202          2