##TITLE=Library Entry 34248
##JCAMP-DX=Revision 4.10 
##DATA TYPE=MASS SPECTRUM
##SAMPLE DESCRIPTION=A. SELVA, C.N.R., IST. CHIM. POLITEC., MILAN, IT
##NAMES=HP
##CAS NAME=2-Propanone, 3-chloro-1-(1,1-dimethylethyl)-1-phenylthio-
##MOLFORM=C13H17ClOS
##CAS REGISTRY NO=53258-87-0
##MP= -300
##BP= -300
##MW= 256
##$RETENTION INDEX=0
##$CONDENSED SPECTRUM=NO
##NPOINTS= 81
##XYDATA=(XY..XY) 1 
    39        160
    40         10
    41        520
    42         20
    43         50
    44         10
    45        130
    47         10
    49         80
    50         20
    51        120
    52         10
    53         80
    54         10
    55        200
    56         10
    57        420
    58         20
    59         60
    61         10
    62         10
    63         20
    65        210
    66         50
    67         50
    69        999
    70         70
    71         30
    74         10
    75         10
    76         10
    77        230
    78         70
    79         50
    81         10
    82         20
    83         50
    84         20
    85         10
    87         10
    89         10
    91        170
    92         10
   101         20
   103         60
   105         20
   108         10
   109        240
   110        100
   111         20
   121         50
   122         10
   123        400
   124         30
   125         20
   131         10
   132         10
   134         10
   135         40
   136         10
   137         50
   147         10
   149         10
   150         10
   163         10
   164         10
   165        100
   166         10
   167          5
   177         10
   179        340
   180         40
   181         10
   200        180
   201         20
   202         60
   203         10
   256         30
   257          5
   258         15
   259          5