##TITLE=Library Entry 19720
##JCAMP-DX=Revision 4.10 
##DATA TYPE=MASS SPECTRUM
##SAMPLE DESCRIPTION=D.HENNEBERG, MAX-PLANCK INSTITUTE, MULHEIM, WEST GERMAN
Y
##NAMES=HP
##CAS NAME=4-Hexen-2-one, 3,4-dimethyl-
##MOLFORM=C8H14O
##CAS REGISTRY NO=53252-21-4
##MP= -300
##BP= -300
##MW= 126
##$RETENTION INDEX=0
##$CONDENSED SPECTRUM=NO
##NPOINTS= 87
##XYDATA=(XY..XY) 1 
    22          0
    23          0
    24          0
    25          2
    26          8
    27        132
    28         34
    29         87
    30          2
    31          1
    33          0
    34          0
    35          1
    36          1
    37          5
    38          9
    39        127
    40         19
    41        433
    42         31
    43        850
    44         23
    45          5
    47          1
    48          0
    49          2
    50         13
    51         25
    52         10
    53         55
    54         17
    55        999
    56         52
    57         10
    58          1
    60          1
    61          0
    62          2
    63          5
    64          1
    65         17
    66          5
    67         76
    68          7
    69         33
    70          3
    71          3
    72          5
    73          0
    74          1
    75          1
    76          0
    77         10
    78          2
    79         14
    80          2
    81         18
    82         31
    83        593
    84         47
    85          0
    91          5
    92          0
    93          5
    94          0
    95          3
    96          0
    97          4
    98          2
    99          1
   103          0
   104          0
   105          0
   106          1
   107          1
   108         48
   109         18
   110          2
   111        186
   112         12
   113          0
   122          0
   123          8
   124         10
   125          2
   126         62
   127          4