##TITLE=Library Entry 27827
##JCAMP-DX=Revision 4.10 
##DATA TYPE=MASS SPECTRUM
##SAMPLE DESCRIPTION=G.S. KING, CHEM. PATHOL. DEP., QUEEN CHARLOTTE'S HOSP,
 LONDON, U
##NAMES=HP
##CAS NAME=2-Dimethylamino-4'-methoxyacetophenone
##MOLFORM=C11H15NO2
##CAS REGISTRY NO=53250-07-0
##MP= -300
##BP= -300
##MW= 193
##$RETENTION INDEX=0
##$CONDENSED SPECTRUM=NO
##NPOINTS= 18
##XYDATA=(XY..XY) 1 
    42        104
    43         24
    44         12
    50         12
    51         12
    57         24
    58        999
    59         72
    63         24
    64         32
    77         64
    78         12
    92         44
   107         24
   121         44
   135         72
   150         72
   193         32