##TITLE=Library Entry 40799
##JCAMP-DX=Revision 4.10 
##DATA TYPE=MASS SPECTRUM
##SAMPLE DESCRIPTION=Chemical Concepts
##NAMES=HP
##CAS NAME=Silane, trimethyl-3-penten-2-yl-, trans
##MOLFORM=C8H18Si
##CAS REGISTRY NO=53264-56-5
##MP= -300
##BP= -300
##MW= 142
##$RETENTION INDEX=0
##$CONDENSED SPECTRUM=NO
##NPOINTS= 63
##XYDATA=(XY..XY) 1 
    26         10
    27         16
    28         34
    29         18
    30          1
    31         18
    32          7
    37          0
    38          0
    39         21
    40          3
    41         34
    42          5
    43         57
    44         19
    45         95
    46          5
    47          3
    50          0
    51          1
    52          0
    53          6
    54          1
    55         10
    56          2
    57          9
    58         13
    59         63
    60          5
    61          2
    65          0
    66          1
    67          6
    68          6
    69          6
    70          3
    71          5
    72          9
    73        999
    74         74
    75         31
    77          0
    81          1
    83          5
    85         15
    86          1
    87          2
    95          2
    97          1
    98          0
    99         33
   100          4
   101          1
   109          1
   111          3
   125          0
   126          0
   127         21
   128          1
   129          0
   142         60
   143          6
   144          2