##TITLE=Library Entry 90669
##JCAMP-DX=Revision 4.10 
##DATA TYPE=MASS SPECTRUM
##SAMPLE DESCRIPTION=Japan AIST/NIMC Database- Spectrum MS-IW- 778
##NAMES=HP
##CAS NAME=Ethyl 2-amino-4-thiazoleacetate
##MOLFORM=C7H10N2O2S
##CAS REGISTRY NO=53266-94-7
##MP= -300
##BP= -300
##MW= 186
##$RETENTION INDEX=0
##$CONDENSED SPECTRUM=NO
##NPOINTS= 125
##XYDATA=(XY..XY) 1 
    14          3
    15          5
    16          1
    17          9
    18          5
    26          7
    27         49
    28         26
    29        197
    30          7
    31         33
    32          3
    33          1
    34          2
    36          1
    37          1
    38          4
    39         15
    40         14
    41         17
    42         36
    43        140
    44         26
    45        143
    46         10
    47          8
    50          1
    51          2
    52          3
    53          9
    54          7
    55         19
    56         32
    57          6
    58          7
    59          6
    60         20
    61          9
    62          2
    63          1
    64          1
    65          3
    66          3
    67         16
    68          6
    69         89
    70         24
    71        220
    72         81
    73         17
    74          7
    75          2
    76          1
    77          3
    78          1
    79          7
    80          2
    81         13
    82          4
    83          5
    84          7
    85         12
    86        106
    87         18
    88          7
    89          2
    90          6
    91          5
    92          4
    93          6
    94          1
    95          5
    96          1
    97          3
    98          3
    99          3
   100          5
   101          2
   102          1
   105          1
   106          3
   107          2
   108          1
   109          2
   110          2
   111          6
   112         14
   113        999
   114        569
   115         82
   116         28
   117          2
   118          1
   119          5
   121          3
   123          1
   125          1
   126          1
   127         11
   128          2
   129          4
   134          4
   135          9
   136          2
   137          2
   139          4
   140         46
   141         58
   142          8
   143          4
   144          1
   151          1
   155          1
   157          3
   158          3
   161          1
   162          1
   165          3
   167          1
   168          1
   186        668
   187         78
   188         36
   189          5
   190          1