##TITLE=Library Entry 58797
##JCAMP-DX=Revision 4.10 
##DATA TYPE=MASS SPECTRUM
##SAMPLE DESCRIPTION=NIST Mass Spectrometry Data Center, 1994
##NAMES=HP
##CAS NAME=4-Bromo-3-nitrotoluene
##MOLFORM=C7H6BrNO2
##CAS REGISTRY NO=5326-34-1
##MP= -300
##BP= -300
##MW= 215
##$RETENTION INDEX=0
##$CONDENSED SPECTRUM=NO
##NPOINTS= 75
##XYDATA=(XY..XY) 1 
    15          6
    26         14
    27         41
    28         31
    29          6
    30        190
    32          0
    37         44
    38         78
    39        262
    40         31
    41         12
    43         21
    44         11
    46         46
    49         24
    50        153
    51        154
    52         45
    53         36
    61         66
    62        179
    63        505
    64        129
    65         57
    66          5
    73         15
    74         63
    75         51
    76         23
    77        218
    78        503
    79         49
    80          8
    81         14
    82          5
    84          6
    85         25
    86         45
    87         43
    88          5
    89        809
    90        999
    91         77
    92         11
    93          5
   104          4
   105         29
   106        105
   107         13
   108         12
   116          5
   117         27
   118          5
   119         22
   136         25
   141          6
   143         23
   145         16
   157        124
   159        127
   160          8
   169        168
   170         22
   171        150
   172         11
   185         65
   187         60
   188          5
   199          6
   201          5
   215        441
   216         47
   217        434
   218         34