##TITLE=Library Entry 8664
##JCAMP-DX=Revision 4.10 
##DATA TYPE=MASS SPECTRUM
##SAMPLE DESCRIPTION=V.G.Zaikin,TIPS,Russian Acad.Sci.Moscow
##NAMES=HP
##CAS NAME=Chloroacetic acid 3-methylbutyl ester
##MOLFORM=C7H13ClO2
##CAS REGISTRY NO=5326-92-1
##MP= -300
##BP= -300
##MW= 164
##$RETENTION INDEX=1061
##$CONDENSED SPECTRUM=NO
##NPOINTS= 61
##XYDATA=(XY..XY) 1 
    25          2
    26         51
    27        345
    28        150
    29        452
    30         25
    31         46
    35         14
    36         35
    37          8
    38         21
    39        236
    40         39
    41        549
    42        447
    43        999
    44         93
    45         61
    47         15
    48         25
    49        296
    50        135
    51        125
    52         57
    53         39
    54         25
    55        821
    56         87
    57        188
    58         15
    59         13
    60         13
    63          2
    65          2
    67          2
    68          1
    69         81
    70        833
    71        253
    72         21
    73         17
    76         14
    77        319
    78         17
    79        131
    80          3
    83          6
    85          5
    87          3
    94         35
    95         75
    96         14
    97         24
   107         17
   108         41
   109         12
   110         12
   121         43
   122         17
   123         15
   124          2