##TITLE=Library Entry 7533
##JCAMP-DX=Revision 4.10 
##DATA TYPE=MASS SPECTRUM
##SAMPLE DESCRIPTION=J.KELM GOVERNMENT EST. FOR TESTING MATERIALS, BERLIN, F
.R.G
##NAMES=HP
##CAS NAME=Propanenitrile, 3-(hexyloxy)-
##MOLFORM=C9H17NO
##CAS REGISTRY NO=5327-02-6
##MP= -300
##BP= -300
##MW= 155
##$RETENTION INDEX=0
##$CONDENSED SPECTRUM=NO
##NPOINTS= 37
##XYDATA=(XY..XY) 1 
    26         60
    27        280
    28        100
    29        200
    31        320
    39        120
    40         40
    41        440
    42        400
    43        999
    44         80
    45         60
    53         60
    54        520
    55        480
    56        920
    57        200
    58         60
    69        220
    70         60
    71         40
    72        120
    73         40
    83         40
    84        280
    85        160
    97         10
    98         20
   112         12
   113          8
   126         12
   127          8
   138          4
   140          4
   154          2
   155          2
   156          1