##TITLE=Library Entry 79375
##JCAMP-DX=Revision 4.10 
##DATA TYPE=MASS SPECTRUM
##SAMPLE DESCRIPTION=Div. of Experiment Therapeutics WRAIR, WRAMC, Washingto
n DC 20307
##NAMES=HP
##CAS NAME=Piperonal benzoylhydrazone
##MOLFORM=C15H12N2O3
##CAS REGISTRY NO=5327-23-1
##MP= -300
##BP= -300
##MW= 268
##$RETENTION INDEX=0
##$CONDENSED SPECTRUM=NO
##NPOINTS= 74
##XYDATA=(XY..XY) 1 
    41          4
    42          3
    43          2
    44          6
    49          3
    50        117
    51        211
    52         23
    53         21
    54          6
    55          7
    56          0
    61          4
    62         20
    63         38
    64          9
    65         22
    66          5
    67          1
    68          1
    73          1
    74         16
    75         19
    76        126
    77        622
    78         76
    79         15
    80          9
    81          2
    88          2
    89          4
    90          8
    91          8
    92          3
    93          2
    94          1
   102          0
   103          1
   104          7
   105        999
   106         76
   107          5
   109          1
   117          0
   118          5
   119          2
   120          2
   121         13
   122        130
   123          9
   133         24
   134         19
   135          3
   136          5
   146         61
   147        535
   148         61
   149          9
   150          1
   151          1
   152          3
   153          2
   161          1
   162          2
   163          9
   164          1
   181          2
   191          0
   209          2
   211          3
   224          0
   268        128
   269         27
   270          3