##TITLE=Library Entry 25980
##JCAMP-DX=Revision 4.10 
##DATA TYPE=MASS SPECTRUM
##SAMPLE DESCRIPTION=Zaikin V.G., TIPS RAS, Moscow, Russia
##NAMES=HP
##CAS NAME=n-Butyro-morpholine
##MOLFORM=C8H15NO2
##CAS REGISTRY NO=5327-51-5
##MP= -300
##BP= -300
##MW= 157
##$RETENTION INDEX=1315
##$CONDENSED SPECTRUM=NO
##NPOINTS= 59
##XYDATA=(XY..XY) 1 
    26         26
    27        190
    28         42
    29        105
    30         82
    31         15
    36         11
    38          6
    39         73
    40         18
    41        235
    42        262
    43        723
    44        100
    45         31
    52          3
    53          4
    54         36
    55        135
    56        531
    57        999
    58         89
    59         23
    60          6
    67          3
    68         12
    69         55
    70        252
    71        416
    72        116
    73          8
    83          4
    84         19
    85         46
    86        851
    87        418
    88        126
    89          5
    98         49
    99         89
   100         41
   101         18
   110          3
   112         89
   113          9
   114        189
   115         19
   126         19
   127         10
   128         36
   129        653
   130         45
   131          3
   142        183
   143         14
   156         16
   157        657
   158         64
   159          4