##TITLE=Library Entry 50457
##JCAMP-DX=Revision 4.10 
##DATA TYPE=MASS SPECTRUM
##SAMPLE DESCRIPTION=CARL DJERASSI DEPT OF CHEM STANFORD UNIV STANFORD CALIF
 94305
##NAMES=HP
##CAS NAME=Cholest-2-ene-2-methanol, (5.alpha.)-
##MOLFORM=C28H48O
##CAS REGISTRY NO=53287-18-6
##MP= -300
##BP= -300
##MW= 400
##$RETENTION INDEX=0
##$CONDENSED SPECTRUM=NO
##NPOINTS= 246
##XYDATA=(XY..XY) 1 
    60         14
    61         14
    62         14
    63         29
    64         14
    65         89
    66         59
    67        805
    68        208
    69        895
    70        179
    71        537
    72         29
    73         14
    75         14
    77        268
    78         59
    79        731
    80        134
    81        999
    82        164
    84         74
    85         89
    86         29
    87         14
    89         14
    90         14
    91        597
    92        164
    93        641
    94        253
    95        955
    96        119
    97        253
    98         29
    99         29
   100         29
   110         24
   111        233
   112         29
   113         19
   114          9
   115         34
   116         24
   117        134
   118        119
   119        427
   120        233
   121        432
   122        179
   123        263
   124         69
   125         54
   126          9
   127         19
   128         24
   129         39
   130         29
   131        159
   132         69
   133        238
   134        154
   135        238
   136        134
   137        119
   138         49
   139         24
   140          4
   141         14
   142          9
   143         44
   144         24
   145        144
   146         59
   147        233
   148         89
   149        139
   150         39
   151         49
   152         24
   153          9
   154          4
   155          9
   156         14
   157         49
   158         24
   159        139
   160         64
   161        308
   162        129
   163         99
   164         24
   165         34
   166         14
   167          9
   168          4
   169         14
   170          9
   171         44
   172         24
   173        104
   174         64
   175        164
   176        159
   177        174
   178         34
   179         24
   180          4
   181          4
   183          4
   184          9
   185         24
   186         14
   187         54
   188         34
   189         64
   190         44
   191         34
   192         24
   193         34
   194          9
   195          9
   197          9
   198          9
   199         24
   200         14
   201         44
   202         24
   203        194
   204         49
   205         24
   206         24
   207         19
   208         14
   209          9
   210          9
   211         14
   212          9
   213         44
   214         19
   215        119
   218         24
   219         19
   220         14
   221          9
   225          9
   226          9
   227        109
   228         44
   229        129
   230         34
   231         59
   232         24
   233         34
   234         19
   235          9
   239          9
   241         19
   242         34
   243         29
   244         24
   245        288
   246        218
   247         79
   248         29
   249          9
   253          9
   254          9
   255         14
   256          9
   257         14
   258          9
   259         19
   260        124
   261         44
   262         34
   263         19
   264          9
   268          9
   269         59
   270         19
   271         14
   272          9
   273         19
   274         24
   275         44
   276         14
   277          9
   283          9
   284          9
   285         14
   286         19
   287         80
   288         25
   289         14
   290          9
   297         14
   299          9
   300          9
   301         59
   302         19
   303          9
   311          9
   313         24
   314         39
   315         89
   316        333
   317         89
   318         14
   326         14
   327         19
   328         29
   329         79
   330         59
   331         24
   332         14
   333         14
   338         14
   339         19
   340         14
   341         19
   342         19
   343         14
   355         14
   357         24
   358         14
   359         14
   367         54
   368         24
   369         39
   370         24
   371         19
   372         14
   373         14
   381         14
   382         49
   383         29
   384         19
   385        119
   386         39
   387         14
   388         14
   398         14
   399        199
   400        507
   401         54