##TITLE=Library Entry 65972
##JCAMP-DX=Revision 4.10 
##DATA TYPE=MASS SPECTRUM
##SAMPLE DESCRIPTION=THE OHIO STATE UNIVERSITY, DEPT OF CHEM., COLUMBUS, OHI
O, USA
##NAMES=HP
##CAS NAME=Bicyclo[4.1.0]heptane, 7-(1-methylethylidene)-
##MOLFORM=C10H16
##CAS REGISTRY NO=53282-47-6
##MP= -300
##BP= -300
##MW= 136
##$RETENTION INDEX=0
##$CONDENSED SPECTRUM=NO
##NPOINTS= 45
##XYDATA=(XY..XY) 1 
    38         50
    39        550
    40        127
    41        666
    42        133
    43        233
    50         66
    51        200
    52        105
    53        316
    54        127
    55        383
    56         50
    57         44
    59         44
    62         38
    63         77
    65        166
    66        133
    67        833
    68        266
    69        116
    70        100
    77        400
    78        100
    79        666
    80        216
    81        233
    82        216
    83         33
    91        383
    92        100
    93        999
    94        283
    95        283
    96         33
   105        150
   106         66
   107        400
   108        300
   109         44
   121        666
   122        100
   136        283
   137         44