##TITLE=Library Entry 44053
##JCAMP-DX=Revision 4.10 
##DATA TYPE=MASS SPECTRUM
##SAMPLE DESCRIPTION=NIST Mass Spectrometry Data Center
##NAMES=HP
##CAS NAME=9H-Purin-2-amine, N-(trimethylsilyl)-6-[(trimethylsilyl)oxy]-9-[2
,3,5-tris-O-(trimethylsilyl)-.beta.-D-ribofuranosyl]-
##MOLFORM=C25H53N5O5Si5
##CAS REGISTRY NO=53294-38-5
##MP= -300
##BP= -300
##MW= 643
##$RETENTION INDEX=2566
##$CONDENSED SPECTRUM=NO
##NPOINTS= 315
##XYDATA=(XY..XY) 1 
    43          4
    45         32
    46          2
    53          2
    54          1
    55          7
    56          1
    57          2
    58          4
    59         17
    61          4
    66          1
    67          1
    68          1
    69          9
    70          3
    71          3
    73        999
    74         94
    75         77
    76          4
    77          2
    80          1
    81          3
    82          1
    83          1
    84          6
    86          3
    87          4
    88          1
    89         12
    90          1
    91          1
    94          1
    95          1
    96          1
    97          4
    98          3
    99         18
   100         10
   101         18
   103        180
   104         18
   105          8
   106          1
   107          1
   109          1
   111          6
   112          2
   113          9
   114          2
   115         54
   116         14
   117         40
   118          5
   119          6
   120          1
   121          1
   122          1
   123          1
   124          2
   125          3
   126          4
   127          5
   128          3
   129         50
   130         11
   131         33
   132          9
   133         38
   134          9
   135          4
   136          2
   137          1
   138          4
   139          2
   140          3
   141         11
   142          6
   143         23
   144          6
   145         10
   146         18
   147        214
   148         35
   149         24
   150          4
   151          2
   152          2
   153          4
   155          5
   156          3
   157         21
   158         14
   159          5
   160          2
   161          1
   162          2
   163          2
   164          2
   165          5
   166         19
   167          5
   168          4
   169         47
   170          8
   171         28
   172          7
   173          7
   174          2
   175          3
   176          2
   177          2
   180          5
   182          4
   183          2
   184          2
   185          1
   186          1
   187          4
   188          2
   189         24
   190         12
   191         16
   192          5
   193          4
   194          3
   195          2
   197          2
   198          3
   199          1
   200          1
   201          1
   202          1
   203          3
   204          5
   205          6
   206          7
   210          4
   211          1
   212          1
   213          1
   214          1
   215          5
   218         29
   219         16
   227          1
   229          8
   234          4
   235          1
   237          3
   238          9
   239          4
   240          2
   241          1
   243        102
   244         28
   245        300
   246         65
   247         28
   248          6
   249          2
   250          3
   251          9
   256          1
   257          7
   259         63
   260         15
   261          6
   262          4
   264         49
   265         12
   266          7
   267          3
   268          1
   269          1
   276          1
   277          2
   278         16
   279         14
   280        254
   281         61
   282         26
   283          4
   284          1
   290          1
   291          2
   292          6
   293          5
   294         55
   295         73
   296         97
   297         25
   298          8
   299          1
   304          2
   305          1
   306          6
   307          2
   308         14
   309          4
   310          2
   311          1
   314          1
   317          1
   318          2
   319          4
   320          9
   321          5
   324        510
   325        131
   326         52
   327          9
   328          2
   331          2
   332          1
   333          4
   334          3
   335          3
   336          5
   346          1
   347          1
   348         15
   349          5
   352         43
   353         14
   354          9
   355          2
   356          1
   364          1
   365          1
   366         15
   367         18
   368        151
   369         50
   370         24
   371          5
   372          1
   374          1
   376          1
   379          1
   380          4
   381          2
   382          3
   383          1
   384          1
   392          2
   394         62
   395         21
   396         13
   397          4
   398          2
   406          1
   407          1
   408          5
   409         10
   410        103
   411         37
   412         17
   413          4
   414          1
   420          1
   422         18
   423          7
   424          4
   425         20
   426          8
   427          4
   428          1
   434          1
   435          1
   436          1
   437          1
   438          1
   439          1
   440          1
   442          1
   448          2
   449          1
   450          2
   451          1
   452          1
   463          1
   464          3
   465          1
   480          1
   482          8
   483          4
   484          2
   485          1
   510          1
   512          1
   524          1
   525          1
   538          3
   539          2
   540          5
   541          2
   542          1
   552          1
   553          2
   554          2
   555          1
   628         78
   629         43
   630         25
   631          9
   632          3
   633          1
   643        100
   644         56
   645         32
   646         11
   647          4
   648          1