##TITLE=Library Entry 43526
##JCAMP-DX=Revision 4.10 
##DATA TYPE=MASS SPECTRUM
##SAMPLE DESCRIPTION=Mass Spectrometry Facility, University of the Pacific
##NAMES=HP
##CAS NAME=Adenosine, 4TMS derivative
##MOLFORM=C22H45N5O4Si4
##CAS REGISTRY NO=53294-33-0
##MP= -300
##BP= -300
##MW= 555
##$RETENTION INDEX=2647
##$CONDENSED SPECTRUM=NO
##NPOINTS= 261
##XYDATA=(XY..XY) 1 
    27          1
    29          1
    39          1
    41          2
    42          1
    43          8
    44          3
    45         49
    46          3
    47          4
    53          3
    54          3
    55         11
    56          2
    57          3
    58          8
    59         26
    60          3
    61          4
    66          1
    67          2
    68          2
    69         10
    70          3
    71          3
    72         16
    73        999
    74         91
    75         73
    76          4
    77          2
    81          4
    83          2
    84         14
    85         11
    86          4
    87          4
    88          2
    89         10
    90          1
    95          1
    96          1
    97          5
    98          3
    99         14
   100          6
   101         23
   102          4
   103        176
   104         17
   105          8
   106          1
   108          2
   109          4
   110          2
   111         16
   112          2
   113         11
   114          2
   115         46
   116         21
   117         36
   118          4
   119          8
   120          1
   121          1
   122          1
   123          3
   124          2
   125          3
   126          3
   127          7
   128          2
   129         58
   130          9
   131         25
   132          6
   133         51
   134          7
   135          9
   136          4
   137          4
   138          7
   139          2
   140          2
   141          8
   142          7
   143         25
   144          8
   145         12
   146          2
   147        205
   148         33
   149         26
   150          6
   151          4
   152          2
   153          5
   154          1
   155          3
   156          3
   157         16
   158          4
   159          3
   160          1
   161          2
   162          6
   163          3
   164         12
   165         35
   166          7
   167          3
   168          2
   169         50
   170          8
   171          6
   172          1
   173          3
   174          1
   175          3
   176          8
   177          4
   178          3
   179          3
   180          6
   181          3
   182          1
   183          1
   185          1
   187          1
   188          1
   189         28
   190          8
   191         20
   192        184
   193         28
   194          8
   195          1
   201          1
   203          3
   204          9
   205          7
   206         48
   207         38
   208        106
   209         17
   210          5
   215          7
   216          4
   217        252
   218         54
   219         29
   220         11
   221          4
   222          2
   223          1
   229          7
   230        497
   231        113
   232         49
   233          8
   234          6
   235          4
   236        533
   237         92
   238         25
   239          3
   243        108
   244         25
   245        237
   246         52
   247         23
   248          6
   249          2
   250          2
   251          1
   257          9
   258         26
   259         65
   260         17
   261          6
   262          4
   263          1
   264         32
   265          9
   266          7
   267          1
   276          1
   277          1
   278         15
   279         28
   280         65
   281         16
   282          6
   283          1
   286          1
   290          1
   291          3
   292          3
   293          2
   294          2
   304          1
   305          1
   306         36
   307          9
   308          8
   309          3
   310          1
   318          1
   319          2
   320         12
   321          5
   322         59
   323         15
   324          5
   325          1
   331          1
   332          1
   333          2
   334         26
   335          7
   336          3
   337         17
   338          7
   339          2
   346          2
   347          1
   348         31
   349         10
   350          6
   351          1
   360          1
   362          5
   363          1
   375          3
   376          6
   377          2
   378          2
   392          1
   394          7
   395          2
   396          1
   408          2
   409          1
   424          1
   436          1
   450          4
   451          1
   452          7
   453          2
   454          1
   465          6
   466          3
   467          1
   540         49
   541         22
   542         11
   543          3
   544          1
   555          3
   556          1