##TITLE=Library Entry 37006
##JCAMP-DX=Revision 4.10 
##DATA TYPE=MASS SPECTRUM
##SAMPLE DESCRIPTION=R.T.HOLMAN,UNIVERSITY OF MINNESOTA
##NAMES=HP
##CAS NAME=5-Hexynoic acid
##MOLFORM=C6H8O2
##CAS REGISTRY NO=53293-00-8
##MP= -300
##BP= -300
##MW= 112
##$RETENTION INDEX=0
##$CONDENSED SPECTRUM=NO
##NPOINTS= 53
##XYDATA=(XY..XY) 1 
    25         10
    26         50
    27        300
    28         90
    29        100
    31         40
    33         10
    37         50
    38        110
    39        540
    40        150
    41        330
    42        190
    43        150
    44         20
    45        220
    49         10
    50         60
    51         80
    52         80
    53        310
    54         20
    55        210
    56         60
    57         40
    58         10
    60        480
    61         30
    62         30
    63         50
    64         10
    65        120
    66        210
    67        450
    68         50
    69         80
    70        999
    71         60
    73         50
    81         10
    82         20
    83         80
    84        180
    85         20
    93         10
    94        140
    95         50
    96         10
    97         80
    98         10
   105         10
   111         50
   112         10