##TITLE=Library Entry 6915
##JCAMP-DX=Revision 4.10 
##DATA TYPE=MASS SPECTRUM
##SAMPLE DESCRIPTION=Exported from NIST MS Search
##NAMES=HP
##CAS NAME=D-Arabinose, diethyl mercaptal, tetraacetate
##MOLFORM=C17H28O8S2
##CAS REGISTRY NO=5329-45-3
##MP= -300
##BP= -300
##MW= 424
##$RETENTION INDEX=0
##$CONDENSED SPECTRUM=NO
##NPOINTS= 148
##XYDATA=(XY..XY) 1 
    41        100
    42        145
    43        999
    44        184
    45        899
    46         56
    47        162
    48         18
    49          8
    50          3
    51          6
    52          3
    53         18
    54          6
    55         55
    56          8
    57         30
    58         36
    59        124
    60         48
    61        157
    62         20
    63         56
    64          6
    65          8
    66          3
    67          8
    68         15
    69         48
    70          7
    71         31
    72          7
    73         87
    74         22
    75        198
    76         44
    77         33
    78         29
    79         36
    80          6
    81         21
    82          6
    83          9
    84          8
    85         50
    86         17
    87         66
    88          8
    89         42
    90          3
    91         18
    92          3
    93          7
    94          3
    95          4
    97        115
    98         12
    99         16
   100          6
   101         30
   102         17
   103         68
   104        134
   105         80
   106         14
   107         83
   108          5
   109          7
   111          2
   112          3
   113         34
   114          7
   115         76
   116          9
   117        110
   118          9
   119         14
   120          4
   121          3
   123          2
   127          8
   128          3
   129         21
   130          7
   131         23
   132          3
   133         27
   134          3
   135        383
   136         30
   137         37
   138          3
   139        186
   140         18
   141         86
   142         12
   143         12
   144          2
   145         68
   146         12
   147         25
   148          6
   149          9
   155          8
   157         22
   158          6
   159        248
   160         24
   161         22
   162          1
   163          1
   164          2
   165          2
   171          6
   172          2
   173         46
   174          6
   175         10
   176          1
   177         48
   178          6
   179          6
   187          8
   189          7
   191          3
   199          1
   200          2
   201         44
   202          7
   203          7
   215         59
   216          8
   217          8
   219         34
   220          4
   221          3
   233          6
   259         12
   260          2
   261         18
   262          2
   275         15
   303         37
   304          6
   305          3
   363         10
   364          9
   424         10