##TITLE=Library Entry 98443
##JCAMP-DX=Revision 4.10 
##DATA TYPE=MASS SPECTRUM
##SAMPLE DESCRIPTION=Japan AIST/NIMC Database- Spectrum MS-NW-8384
##NAMES=HP
##CAS NAME=5H-1-Pyrindine, 6,7-dihydro-
##MOLFORM=C8H9N
##CAS REGISTRY NO=533-37-9
##MP= -300
##BP= -300
##MW= 119
##$RETENTION INDEX=0
##$CONDENSED SPECTRUM=NO
##NPOINTS= 59
##XYDATA=(XY..XY) 1 
    15          2
    26          9
    27         28
    28         17
    29          1
    37         10
    38         30
    39        119
    40         18
    41         19
    42          3
    43          3
    44          1
    45          3
    46          4
    49          2
    50         26
    51         56
    52         33
    53         13
    54          9
    57          2
    58         50
    59         10
    61          9
    62         23
    63         77
    64         51
    65         67
    66         23
    67          5
    73          1
    74          5
    75          6
    76          7
    77         27
    78         20
    79         12
    80          3
    85          1
    86          2
    87          3
    88          3
    89         35
    90         36
    91        161
    92         38
    93         24
    94          1
   102          1
   103          1
   104         19
   105          4
   116         10
   117        153
   118        999
   119        712
   120         66
   121          3