##TITLE=Library Entry 21521
##JCAMP-DX=Revision 4.10 
##DATA TYPE=MASS SPECTRUM
##SAMPLE DESCRIPTION=Japan AIST/NIMC Database- Spectrum MS-NW-4359
##NAMES=HP
##CAS NAME=Butane, 1,2-dibromo-
##MOLFORM=C4H8Br2
##CAS REGISTRY NO=533-98-2
##MP= -300
##BP= -300
##MW= 214
##$RETENTION INDEX=952
##$CONDENSED SPECTRUM=NO
##NPOINTS= 68
##XYDATA=(XY..XY) 1 
    14          2
    15          8
    25          4
    26         40
    27        212
    28         29
    29        260
    30          6
    36          2
    37         10
    38         21
    39        180
    40         14
    41        143
    42          6
    49          7
    50         21
    51         26
    52          9
    53         77
    54         15
    55        999
    56         69
    57          2
    79         11
    80         10
    81         11
    82         11
    83          1
    91          1
    92          1
    93         20
    94          1
    95         18
   104          2
   105         15
   106         16
   107         57
   108         17
   109         40
   110          1
   117          4
   119         15
   120          1
   121         13
   122          1
   123          1
   127          1
   128          2
   133          6
   134          3
   135        671
   136         33
   137        651
   138         32
   139          1
   160          1
   173          1
   185          3
   186          1
   187          5
   189          3
   213          2
   214          3
   215          5
   216          6
   217          3
   218          3