##TITLE=Library Entry 15560
##JCAMP-DX=Revision 4.10 
##DATA TYPE=MASS SPECTRUM
##SAMPLE DESCRIPTION=Japan AIST/NIMC Database- Spectrum MS-NW-3745
##NAMES=HP
##CAS NAME=D-erythro-Pentose, 2-deoxy-
##MOLFORM=C5H10O4
##CAS REGISTRY NO=533-67-5
##MP= -300
##BP= -300
##MW= 134
##$RETENTION INDEX=0
##$CONDENSED SPECTRUM=NO
##NPOINTS= 82
##XYDATA=(XY..XY) 1 
    12          2
    13          7
    14         37
    15        203
    16          8
    17         12
    18         63
    19         44
    24          1
    25          5
    26         41
    27        231
    28        231
    29        419
    30         47
    31        431
    32         26
    33         10
    36          1
    37          8
    38         13
    39         81
    40         47
    41        103
    42        183
    43        586
    44        999
    45        596
    46         29
    47        100
    48          1
    49          4
    50          5
    51          6
    52          3
    53         16
    54          5
    55        179
    56        277
    57        771
    58         88
    59         16
    60        511
    61        110
    62         22
    63          2
    65          4
    67          1
    68         13
    69         49
    70        320
    71         44
    72         11
    73        389
    74        332
    75         89
    76          4
    77          2
    81          6
    82          2
    84          3
    85        174
    86        136
    87         19
    88         24
    89          3
    90          7
    91          3
    97          9
    98         14
    99         23
   100          1
   102          2
   103        208
   104          9
   105          2
   115          1
   116         65
   117         17
   118          1
   133          1
   134          3