##TITLE=Library Entry 37429
##JCAMP-DX=Revision 4.10 
##DATA TYPE=MASS SPECTRUM
##SAMPLE DESCRIPTION=Exported from NIST MS Search
##NAMES=HP
##CAS NAME=Cyclohexanone, 2-hydroxy-
##MOLFORM=C6H10O2
##CAS REGISTRY NO=533-60-8
##MP= -300
##BP= -300
##MW= 114
##$RETENTION INDEX=963
##$CONDENSED SPECTRUM=NO
##NPOINTS= 65
##XYDATA=(XY..XY) 1 
    14          5
    15         15
    16          8
    26         19
    27        112
    28         63
    29        145
    30         39
    31         46
    32          2
    37          5
    38         12
    39        102
    40         33
    41        138
    42        124
    43        116
    44        277
    45         32
    46          2
    49          2
    50          9
    51         11
    52          4
    53         24
    54          8
    55        124
    56         24
    57        827
    58        110
    59          6
    60          8
    61          2
    62          2
    63          2
    65          5
    66          3
    67         68
    68         62
    69         28
    70        999
    71         70
    72          6
    73          5
    77          2
    79          3
    80          2
    81          5
    82          1
    83         11
    84          4
    85         26
    86          7
    87          2
    95          3
    96          9
    97          4
    98          4
    99          2
   100          2
   112         14
   113          3
   114        189
   115         17
   116          3