##TITLE=Library Entry 4977
##JCAMP-DX=Revision 4.10 
##DATA TYPE=MASS SPECTRUM
##SAMPLE DESCRIPTION=NIST Mass Spectrometry Data Center, 1998.
##NAMES=HP
##CAS NAME=2H-1,3,5-Thiadiazine-2-thione, tetrahydro-3,5-dimethyl-
##MOLFORM=C5H10N2S2
##CAS REGISTRY NO=533-74-4
##MP= -300
##BP= -300
##MW= 162
##$RETENTION INDEX=1707
##$CONDENSED SPECTRUM=NO
##NPOINTS= 70
##XYDATA=(XY..XY) 1 
    12          2
    13          2
    14         10
    15         77
    16          2
    26          7
    27         24
    28         61
    29          8
    30         18
    31          2
    32         30
    33          2
    34          3
    35          3
    38         14
    39         17
    40         63
    41        112
    42        999
    43        682
    44        672
    45        157
    46         75
    47         16
    48          3
    52          3
    54          8
    55          8
    57        245
    58         25
    59          7
    60          4
    61          2
    64         37
    65          3
    66          4
    69          1
    70         16
    71          9
    72        133
    73        111
    74         37
    75          7
    76        120
    77         24
    78         15
    79          2
    81          3
    83          3
    86          3
    87          4
    89        728
    90         35
    91         33
    92          2
   104          2
   105          7
   115          3
   119         28
   120          2
   121          4
   129         27
   130          3
   131          1
   162        567
   163         46
   164         52
   165          2
   166          1