##TITLE=Library Entry 85081
##JCAMP-DX=Revision 4.10 
##DATA TYPE=MASS SPECTRUM
##SAMPLE DESCRIPTION=T.A.BLAZER DU PONT, GIBBSTOWN, N.J., USA
##NAMES=HP
##CAS NAME=Acetic acid, 2-methylphenyl ester
##MOLFORM=C9H10O2
##CAS REGISTRY NO=533-18-6
##MP= -300
##BP= -300
##MW= 150
##$RETENTION INDEX=1109
##$CONDENSED SPECTRUM=NO
##NPOINTS= 61
##XYDATA=(XY..XY) 1 
    12          2
    13          5
    14         21
    15         88
    16          1
    26          7
    27         40
    28          9
    29          4
    37          3
    38         13
    39         63
    40          6
    41          6
    42          9
    43        224
    44          5
    45          1
    49          1
    50         27
    51         56
    52         32
    53         33
    54          2
    55          4
    61          2
    62          7
    63         19
    64          6
    65         20
    66          7
    67          1
    68          1
    74          5
    75          5
    76          4
    77        101
    78         38
    79         66
    80         42
    81          4
    85          1
    86          1
    87          1
    88          2
    89         20
    90         90
    91         40
    92          4
    93          2
    94         37
    95          2
   105          4
   106         20
   107        296
   108        999
   109         79
   110          5
   119          2
   135          5
   150        125