##TITLE=Library Entry 28723
##JCAMP-DX=Revision 4.10 
##DATA TYPE=MASS SPECTRUM
##SAMPLE DESCRIPTION=Tamer Awad, Tarek Belal et. al. Forensic Science Intern
ational 185 (2009) 67-77
##NAMES=HP
##CAS NAME=Phenethylamine, .alpha.-ethyl-
##MOLFORM=C10H15N
##CAS REGISTRY NO=53309-89-0
##MP= -300
##BP= -300
##MW= 149
##$RETENTION INDEX=0
##$CONDENSED SPECTRUM=NO
##NPOINTS= 36
##XYDATA=(XY..XY) 1 
    41        134
    42         36
    43         26
    44         15
    50         20
    51         46
    52         16
    54         18
    56         43
    57         11
    58        999
    59         43
    60         30
    63         26
    64          8
    65         75
    67         10
    70         43
    77         68
    78         20
    79         10
    89         23
    90         13
    91        180
    92         36
    93         10
   103         33
   104         13
   105         33
   106         30
   115         18
   117         30
   118         20
   120        110
   121         11
   132          8