##TITLE=Library Entry 23555
##JCAMP-DX=Revision 4.10 
##DATA TYPE=MASS SPECTRUM
##SAMPLE DESCRIPTION=Insect Chem. Ecol. Lab., USDA, Beltsville, MD 20705
##NAMES=HP
##CAS NAME=Acetic acid, chloro-, 2-butoxyethyl ester
##MOLFORM=C8H15ClO3
##CAS REGISTRY NO=5330-17-6
##MP= -300
##BP= -300
##MW= 194
##$RETENTION INDEX=0
##$CONDENSED SPECTRUM=NO
##NPOINTS= 106
##XYDATA=(XY..XY) 1 
    41        627
    42        270
    43        252
    44        183
    45        301
    46          6
    47         39
    48         47
    49        445
    50         44
    51        138
    52         11
    53         13
    54          7
    55         80
    56        581
    57        999
    58         59
    59         15
    60          3
    61          5
    62          1
    63          5
    64          0
    65          3
    67          2
    68          0
    69          6
    70          6
    71         86
    72         23
    73         24
    74          2
    75          8
    76         24
    77        358
    78         15
    79        112
    80          2
    81          0
    82          2
    83         18
    84         41
    85        175
    86        101
    87        116
    88         10
    89         11
    90          0
    91          3
    92          2
    93          0
    94         10
    95         18
    96          3
    97          6
    99          2
   100         96
   101         22
   102          2
   103          3
   104          1
   105          2
   107         11
   108         16
   109          4
   110          5
   111          1
   113          0
   114          1
   115          3
   116          0
   117          3
   118          0
   119          0
   120         21
   121        166
   122         25
   123         54
   124          6
   125          0
   129          0
   130          0
   131          3
   135          9
   136          0
   137          4
   138          0
   139          2
   141          0
   145          1
   147          0
   149          0
   151          1
   152          1
   156          0
   157          4
   159          0
   164          1
   168          0
   178          0
   179          2
   180          0
   181          0
   194          3
   195          1