##TITLE=Library Entry 31535
##JCAMP-DX=Revision 4.10 
##DATA TYPE=MASS SPECTRUM
##SAMPLE DESCRIPTION=Dennis Rohrbaugh, CBDCOM/ERDEC, Edgewood, MD
##NAMES=HP
##CAS NAME=2-Chloroethyl methyl sulfoxide
##MOLFORM=C3H7ClOS
##CAS REGISTRY NO=5331-57-7
##MP= -300
##BP= -300
##MW= 126
##$RETENTION INDEX=0
##$CONDENSED SPECTRUM=NO
##NPOINTS= 23
##XYDATA=(XY..XY) 1 
    41         51
    45        536
    47        652
    48        239
    49        135
    51         37
    58         79
    59         99
    61        251
    63        999
    64        463
    65        176
    66         24
    74          9
    75         20
    83         63
    85         24
   110         29
   112         10
   126        143
   127         55
   128         51
   129         19