##TITLE=Library Entry 59771
##JCAMP-DX=Revision 4.10 
##DATA TYPE=MASS SPECTRUM
##SAMPLE DESCRIPTION=LAC, NIDDK, NIH, Bethesda, MD 20892
##NAMES=HP
##CAS NAME=Hydrazinecarboxylic acid, phenylmethyl ester
##MOLFORM=C8H10N2O2
##CAS REGISTRY NO=5331-43-1
##MP= -300
##BP= -300
##MW= 166
##$RETENTION INDEX=0
##$CONDENSED SPECTRUM=NO
##NPOINTS= 66
##XYDATA=(XY..XY) 1 
    41         28
    42         11
    43         20
    44         25
    45          8
    46          0
    49          3
    50         20
    51         49
    52         13
    53          5
    54          4
    55         34
    56         37
    57         16
    58          4
    59          3
    60          2
    61          2
    62          8
    63         29
    64         10
    65        118
    66          7
    67          2
    68          3
    69          5
    70          5
    71          5
    72          4
    73          2
    74          4
    75          3
    76          4
    77         44
    78         12
    79         15
    80          3
    81          2
    82          6
    83          7
    84         28
    85          8
    86          2
    87          1
    89         26
    90         18
    91        999
    92         97
    93         13
    94          2
    95          1
    96          3
    97          3
    98          3
    99          5
   100          8
   101          0
   102          0
   106          4
   107          6
   108          2
   109          0
   165          0
   166          3
   167          1