##TITLE=Library Entry 9787
##JCAMP-DX=Revision 4.10 
##DATA TYPE=MASS SPECTRUM
##SAMPLE DESCRIPTION=NIST Mass Spectrometry Data Center, 1994
##NAMES=HP
##CAS NAME=Ethyl 3-ethoxy-cis-crotonate
##MOLFORM=C8H14O3
##CAS REGISTRY NO=5331-73-7
##MP= -300
##BP= -300
##MW= 158
##$RETENTION INDEX=0
##$CONDENSED SPECTRUM=NO
##NPOINTS= 74
##XYDATA=(XY..XY) 1 
    12          2
    13          3
    14         24
    15        127
    16          5
    17          0
    18          4
    19         13
    25          6
    26         83
    27        558
    28         93
    29        748
    30         28
    31         45
    32          0
    37          9
    38         35
    39        209
    40         78
    41        125
    42        147
    43        999
    44         32
    45        133
    46          4
    47          6
    51          1
    53         11
    54          3
    55         50
    56         59
    57         14
    58        176
    60         11
    61         13
    66          5
    67         22
    68         82
    69        429
    70         46
    71         42
    72          4
    73         26
    82          1
    84        448
    85        956
    86        135
    87        278
    88         64
    89          6
    95          3
    97         34
    99         61
   100          4
   101         11
   102        102
   103         11
   112        115
   113        521
   114         49
   115        162
   116         10
   117          2
   129         22
   130         54
   131          6
   141          5
   143         80
   144          7
   145          1
   158        100
   159          8
   160          0