##TITLE=Library Entry 19629
##JCAMP-DX=Revision 4.10 
##DATA TYPE=MASS SPECTRUM
##SAMPLE DESCRIPTION=V.Zaikin,Topchiev Inst.Petrochem.Synth.,Moscow
##NAMES=HP
##CAS NAME=3-Chloropropionic acid, hexadecyl ester
##MOLFORM=C19H37ClO2
##CAS REGISTRY NO=53312-70-2
##MP= -300
##BP= -300
##MW= 332
##$RETENTION INDEX=2306
##$CONDENSED SPECTRUM=NO
##NPOINTS= 110
##XYDATA=(XY..XY) 1 
    27        215
    28         32
    29        401
    30         12
    31         13
    35          3
    36         17
    37          6
    38         15
    39        160
    40         38
    41        899
    42        242
    43        996
    44         39
    45         17
    49          4
    50          5
    51         15
    52          9
    53         59
    54        124
    55        999
    56        350
    57        550
    58         24
    60          4
    61          4
    62          4
    63        201
    64          7
    65         83
    66          8
    67        113
    68        130
    69        341
    70        194
    71        150
    72          7
    73         97
    74          8
    76          3
    77          8
    78          4
    79          8
    80          8
    81         56
    82        105
    83        288
    84        105
    85         83
    86          8
    90          3
    91        234
    92          9
    93         90
    94          5
    95         25
    96         46
    97        193
    98         63
    99         25
   101          2
   105          2
   108          5
   109        175
   110         34
   111        151
   112         50
   113         25
   114          8
   115          4
   119          2
   121          6
   123          7
   124         11
   125         37
   126         26
   127         21
   128          7
   129          3
   135          3
   138         10
   139         18
   140         18
   141         13
   146          3
   152          5
   153          6
   154         11
   155          5
   156          2
   166          3
   167          8
   168         12
   169          3
   170          3
   181          3
   182         10
   187          2
   195          4
   196         34
   197          7
   206          2
   224         27
   225          9
   269          5
   296          3
   297         18
   298          4