##TITLE=Library Entry 953
##JCAMP-DX=Revision 4.10 
##DATA TYPE=MASS SPECTRUM
##SAMPLE DESCRIPTION=L.N.Kulikova, V.G. Zaikin, Peoples' Friendship Universi
ty of Russia, Moscow
##NAMES=HP
##CAS NAME=N-(n-Propyl)acetamide
##MOLFORM=C5H11NO
##CAS REGISTRY NO=5331-48-6
##MP= -300
##BP= -300
##MW= 101
##$RETENTION INDEX=975
##$CONDENSED SPECTRUM=NO
##NPOINTS= 42
##XYDATA=(XY..XY) 1 
    13          1
    14         11
    15         70
    16          1
    25          1
    26         24
    27        134
    28         43
    29        108
    30        999
    31         24
    37          1
    38          7
    39         40
    40         13
    41         74
    42         87
    43        407
    44        118
    45          8
    50          1
    51          3
    52          8
    53          2
    54          7
    55          3
    56         14
    57          5
    58         27
    59          4
    60         23
    67          1
    71          1
    72         83
    73         22
    74          1
    84          1
    86         66
    87          2
   100          1
   101        120
   102          8