##TITLE=Library Entry 87293
##JCAMP-DX=Revision 4.10 
##DATA TYPE=MASS SPECTRUM
##SAMPLE DESCRIPTION=CARL DJERASSI DEPT OF CHEM STANFORD UNIV STANFORD CALIF
 94305
##NAMES=HP
##CAS NAME=2-Pentenoic acid, 5-[(1,5-dimethyl-4-hexenyl)oxy]-3-methyl-, ethy
l ester, (E)-
##MOLFORM=C16H28O3
##CAS REGISTRY NO=53311-39-0
##MP= -300
##BP= -300
##MW= 268
##$RETENTION INDEX=0
##$CONDENSED SPECTRUM=NO
##NPOINTS= 38
##XYDATA=(XY..XY) 1 
    41        277
    42         19
    43        128
    44          9
    45         19
    53         39
    54          9
    55         19
    56         39
    57         19
    59         19
    67        108
    68        118
    69        673
    70         39
    71         59
    81         69
    82         29
    83         29
    85         69
    95        683
    96         49
    97          9
    98        138
   100         39
   109         19
   110        999
   111        178
   112         39
   113        227
   114         19
   123         19
   128         69
   129         19
   140         19
   141        158
   142         19
   223          9