##TITLE=Library Entry 26458
##JCAMP-DX=Revision 4.10 
##DATA TYPE=MASS SPECTRUM
##SAMPLE DESCRIPTION=ASES Database, Dalian Institute, P.R. China
##NAMES=HP
##CAS NAME=Propane-1,1-diol dipropanoate
##MOLFORM=C9H16O4
##CAS REGISTRY NO=5331-24-8
##MP= -300
##BP= -300
##MW= 188
##$RETENTION INDEX=0
##$CONDENSED SPECTRUM=NO
##NPOINTS= 11
##XYDATA=(XY..XY) 1 
    39          9
    41         10
    43          9
    44          9
    55          9
    56          9
    57        999
    58         39
    93         10
   115        118
   131         10