##TITLE=Library Entry 241
##JCAMP-DX=Revision 4.10 
##DATA TYPE=MASS SPECTRUM
##SAMPLE DESCRIPTION=D.HENNEBERG, MAX-PLANCK INSTITUTE, MULHEIM, WEST GERMAN
Y
##NAMES=HP
##CAS NAME=Iron, tetracarbonyl(pyridine)-, (tb-5-12)-
##MOLFORM=C9H5FeNO4
##CAS REGISTRY NO=53317-88-7
##MP= -300
##BP= -300
##MW= 247
##$RETENTION INDEX=0
##$CONDENSED SPECTRUM=NO
##NPOINTS= 51
##XYDATA=(XY..XY) 1 
    26         37
    28        999
    29         11
    30          1
    31          1
    32          9
    37          1
    38          2
    39         21
    40          2
    41          5
    42          6
    43         10
    44          6
    49          2
    50         41
    51         76
    52        203
    53         21
    54          2
    55          1
    56         51
    57          2
    67          1
    70          1
    75          1
    76          3
    77          1
    78         27
    79        239
    80         13
    81          3
    82          2
    83          1
    84          4
    91          1
   100          1
   107          1
   108          1
   112          1
   133          4
   134          1
   135         53
   136          4
   161          1
   163         16
   164          2
   191          6
   219         11
   220          1
   247          4