##TITLE=Library Entry 36826
##JCAMP-DX=Revision 4.10 
##DATA TYPE=MASS SPECTRUM
##SAMPLE DESCRIPTION=J.M. MILLER,BROCK UNIVERSITY,ONTARIO,CANADA
##NAMES=HP
##CAS NAME=Phosphonothioic difluoride, (pentafluorophenyl)-
##MOLFORM=C6F7PS
##CAS REGISTRY NO=53327-21-2
##MP= -300
##BP= -300
##MW= 268
##$RETENTION INDEX=0
##$CONDENSED SPECTRUM=NO
##NPOINTS= 41
##XYDATA=(XY..XY) 1 
    63         18
    69        999
    76         18
    77          9
    78         14
    79          9
    81         27
    82          9
    87         37
    88          9
    98         31
   101         73
   102          5
   103          5
   111         32
   112          5
   117         59
   129          4
   130         10
   136          9
   148        101
   149         50
   150         55
   155        110
   156         14
   161         18
   167         23
   168          9
   180         91
   181         14
   182          9
   199        206
   200         27
   201         23
   236         50
   237          5
   249         27
   250          9
   268        767
   269         73
   270         64