##TITLE=Library Entry 20197
##JCAMP-DX=Revision 4.10 
##DATA TYPE=MASS SPECTRUM
##SAMPLE DESCRIPTION=Japan AIST/NIMC Database- Spectrum MS-IW-7202
##NAMES=HP
##CAS NAME=1-Undecanethiol
##MOLFORM=C11H24S
##CAS REGISTRY NO=5332-52-5
##MP= -300
##BP= -300
##MW= 188
##$RETENTION INDEX=1435
##$CONDENSED SPECTRUM=NO
##NPOINTS= 115
##XYDATA=(XY..XY) 1 
    14          1
    15          3
    26          8
    27        179
    28         45
    29        354
    30          8
    31          3
    32          8
    33          6
    34         16
    35         25
    36          1
    37          2
    38          3
    39        141
    40         26
    41        800
    42        330
    43        901
    44         37
    45         48
    46         19
    47        239
    48          9
    49         10
    50          3
    51          7
    52          4
    53         57
    54        106
    55        999
    56        944
    57        768
    58         33
    59         21
    60         54
    61        178
    62         12
    63          9
    64          1
    65          9
    66         13
    67        154
    68        388
    69        997
    70        976
    71        299
    72         14
    73         13
    74          8
    75         11
    76          5
    77          6
    78          1
    79         11
    80          3
    81         49
    82        377
    83        944
    84        761
    85        170
    86          9
    87         27
    88         36
    89        256
    90         14
    91         13
    92          2
    93          2
    94          1
    95         11
    96        186
    97        754
    98        367
    99         37
   100          2
   101          9
   102          2
   103         30
   104          2
   105          2
   109          3
   110         44
   111        303
   112        165
   113         16
   114          1
   115          3
   117          4
   123          1
   124         26
   125        173
   126        255
   127         25
   128          1
   129          1
   131          1
   135          1
   137          1
   139          3
   143          1
   145          1
   146          1
   152          1
   154        397
   155         48
   156          3
   159          1
   186          2
   187         40
   188        484
   189         70
   190         25
   191          3