##TITLE=Library Entry 42588
##JCAMP-DX=Revision 4.10 
##DATA TYPE=MASS SPECTRUM
##SAMPLE DESCRIPTION=Chemical Concepts
##NAMES=HP
##CAS NAME=2-Butene-1,4-diol, (E)-, 2TMS derivative
##MOLFORM=C10H24O2Si2
##CAS REGISTRY NO=53326-59-3
##MP= -300
##BP= -300
##MW= 232
##$RETENTION INDEX=0
##$CONDENSED SPECTRUM=NO
##NPOINTS= 131
##XYDATA=(XY..XY) 1 
    26          2
    27         25
    28         13
    29         21
    30          2
    31         14
    32          2
    33          0
    36          0
    37          0
    38          1
    39         40
    40          3
    41         21
    42         10
    43         74
    44         31
    45        204
    46         15
    47         72
    48          3
    49          2
    50          1
    51          4
    52          5
    53         25
    54         35
    55         14
    56          3
    57         14
    58         24
    59        139
    60         17
    61         44
    62          2
    63          2
    64          1
    65          2
    66         32
    67          6
    68          3
    69         15
    70          4
    71         10
    72         21
    73        999
    74         93
    75        311
    76         22
    77         14
    78          1
    79          0
    80          0
    81          3
    82          0
    83          7
    84          1
    85         13
    86          5
    87          8
    88          3
    89          3
    90          0
    91          0
    93          1
    94          0
    95          1
    96          0
    97          6
    98          3
    99         29
   100          3
   101         84
   102         10
   103        114
   104         11
   105          8
   106          0
   107          0
   109          2
   110          0
   111         12
   112          2
   113         20
   114          3
   115         10
   116         29
   117         10
   118          2
   119          5
   120          0
   121          0
   125          2
   126          0
   127         25
   128          3
   129        661
   130         79
   131         52
   132          6
   133         47
   134          6
   135          4
   141          0
   142        156
   143         25
   144          7
   145          1
   146          1
   147        757
   148        116
   149         63
   150          7
   151          1
   157          0
   159          0
   191         24
   192          4
   193          2
   201          1
   202          2
   203          1
   204          0
   217          8
   218          1
   219          0
   230          0
   231          1
   232          5
   233          1
   234          0