##TITLE=Library Entry 38472
##JCAMP-DX=Revision 4.10 
##DATA TYPE=MASS SPECTRUM
##SAMPLE DESCRIPTION=Japan AIST/NIMC Database- Spectrum MS-IW-3505
##NAMES=HP
##CAS NAME=1,3-Dimethylbutyl butyrate
##MOLFORM=C10H20O2
##CAS REGISTRY NO=5332-88-7
##MP= -300
##BP= -300
##MW= 172
##$RETENTION INDEX=0
##$CONDENSED SPECTRUM=NO
##NPOINTS= 57
##XYDATA=(XY..XY) 1 
    15          5
    18          1
    26          3
    27         86
    28         10
    29         41
    30          1
    31          3
    38          2
    39         52
    40         10
    41        200
    42         63
    43        696
    44         25
    45         34
    51          1
    53          8
    54          2
    55         43
    56         47
    57         73
    58          7
    59          9
    60         18
    61          1
    65          1
    67          6
    68          3
    69        364
    70         25
    71        999
    72         58
    73         12
    82          1
    83         16
    84        361
    85        256
    86         25
    87          4
    88         28
    89        100
    90          4
   100          2
   101         21
   102          2
   113          3
   114          1
   115        172
   116         11
   117          1
   128         22
   129          7
   130          5
   157         11
   158          1
   172          1