##TITLE=Library Entry 2627
##JCAMP-DX=Revision 4.10 
##DATA TYPE=MASS SPECTRUM
##SAMPLE DESCRIPTION=Japan AIST/NIMC Database- Spectrum MS-NW-2862
##NAMES=HP
##CAS NAME=Butanenitrile, 4-bromo-
##MOLFORM=C4H6BrN
##CAS REGISTRY NO=5332-06-9
##MP= -300
##BP= -300
##MW= 147
##$RETENTION INDEX=0
##$CONDENSED SPECTRUM=NO
##NPOINTS= 64
##XYDATA=(XY..XY) 1 
    12          1
    13          2
    14          5
    15         15
    24          1
    25          5
    26         49
    27        264
    28         53
    29          2
    32          3
    36          3
    37         27
    38         42
    39        163
    40         78
    41        999
    42         64
    43          3
    44          1
    45          4
    49          2
    50          3
    51         10
    52         38
    53          3
    54        714
    55         25
    56          1
    59          1
    62          1
    63          7
    64         21
    65          6
    66         65
    67         63
    68        314
    69         14
    74          1
    79         11
    80          9
    81         11
    82          9
    91          2
    92          2
    93         35
    94          3
    95         31
    96          1
   105          4
   106          4
   107         73
   108          5
   109         69
   110          1
   119          3
   120          1
   121          8
   122          1
   123          6
   147         46
   148          3
   149         44
   150          2