##TITLE=Library Entry 12181
##JCAMP-DX=Revision 4.10 
##DATA TYPE=MASS SPECTRUM
##SAMPLE DESCRIPTION=NIST Mass Spectrometry Data Center, 1994
##NAMES=HP
##CAS NAME=4-Nitrophenylacetone
##MOLFORM=C9H9NO3
##CAS REGISTRY NO=5332-96-7
##MP= -300
##BP= -300
##MW= 179
##$RETENTION INDEX=0
##$CONDENSED SPECTRUM=NO
##NPOINTS= 68
##XYDATA=(XY..XY) 1 
    13          2
    14         14
    15         82
    16          1
    17          1
    18          1
    26          6
    27         13
    28          4
    29          1
    30         84
    37          6
    38         24
    39         69
    40         13
    41          4
    42          4
    43        999
    44         22
    45          1
    46          8
    49          3
    50         40
    51         58
    52         24
    53          5
    55          2
    61          9
    62         41
    63        116
    64         39
    65         17
    66          2
    73          2
    74         10
    75         11
    76          9
    77         33
    78         51
    79         11
    80          1
    85          3
    86          9
    87          8
    88          1
    89        153
    90        154
    91         29
    92          2
   102          3
   103          6
   104          2
   105          4
   106         17
   107        135
   108         11
   115          3
   118          2
   120         36
   121         20
   122          1
   131          2
   132          0
   133          1
   137        374
   138         28
   139          2
   179          2