##TITLE=Library Entry 31583
##JCAMP-DX=Revision 4.10 
##DATA TYPE=MASS SPECTRUM
##SAMPLE DESCRIPTION=J.M. MILLER,BROCK UNIVERSITY,ONTARIO,CANADA
##NAMES=HP
##CAS NAME=Phosphinothioic bromide, bis(pentafluorophenyl)-
##MOLFORM=C12BrF10PS
##CAS REGISTRY NO=53327-34-7
##MP= -300
##BP= -300
##MW= 476
##$RETENTION INDEX=0
##$CONDENSED SPECTRUM=NO
##NPOINTS= 143
##XYDATA=(XY..XY) 1 
    63        999
    64         12
    65         24
    66          1
    69        924
    74          6
    76          5
    79         36
    80          3
    81          6
    82          7
    86          7
    87         12
    88          4
    91          8
    92          2
    93         52
    94          3
    98         36
    99          3
   105          9
   106          2
   107          5
   110        103
   111         23
   112          2
   117         79
   118          7
   122          4
   123          3
   124          7
   125          3
   127          2
   128          4
   129        145
   130         18
   131         32
   141         10
   142          7
   143          2
   148         31
   149          8
   155         24
   156          2
   160          5
   161         17
   162          3
   165          6
   166          1
   167         11
   168          3
   177          4
   179         26
   180         99
   181          8
   182          6
   183          2
   186          3
   189         40
   190          4
   191         39
   192          4
   196          2
   198         34
   199         43
   200          6
   201          4
   203          4
   208          3
   209          1
   210          2
   211          5
   212          2
   217        112
   218          8
   227         28
   228          4
   230         57
   231          5
   232          4
   240          4
   241          6
   242          5
   246         11
   249         52
   250          5
   251          4
   258         13
   259         14
   260          3
   265         27
   266          4
   277        140
   278         19
   279        146
   280         13
   284          4
   285          1
   290          6
   291          2
   296         48
   297         10
   298          2
   309         27
   310          4
   311         29
   312          3
   315          5
   316          1
   328         93
   329         17
   330          7
   334          3
   346          4
   347         11
   348          2
   349          1
   359          4
   360          2
   365         74
   366         13
   367          1
   378         11
   379          4
   380          1
   383          4
   388          4
   390          6
   391          1
   392          4
   397        464
   398         62
   399         28
   400          2
   444         15
   445          3
   446         15
   447          2
   476        102
   477         19
   478        102
   479         18
   480          7