##TITLE=Library Entry 1153
##JCAMP-DX=Revision 4.10 
##DATA TYPE=MASS SPECTRUM
##SAMPLE DESCRIPTION=NIST Mass Spectrometry Data Center, 1998.
##NAMES=HP
##CAS NAME=1-Propanamine, 3-methoxy-
##MOLFORM=C4H11NO
##CAS REGISTRY NO=5332-73-0
##MP= -300
##BP= -300
##MW= 89
##$RETENTION INDEX=0
##$CONDENSED SPECTRUM=NO
##NPOINTS= 47
##XYDATA=(XY..XY) 1 
    14          2
    15         23
    16          1
    17          2
    18         20
    25          1
    26         11
    27         40
    28        138
    29        118
    30        999
    31         63
    32          3
    33         27
    37          2
    38          5
    39         31
    40         11
    41         70
    42         88
    43         66
    44         73
    45        310
    46          9
    47          1
    51          1
    52          6
    53          2
    54         15
    55          5
    56        311
    57        171
    58         27
    59         61
    60         14
    61          2
    68          1
    70          3
    71         42
    72        381
    73         21
    74        153
    75          6
    86          2
    88          2
    89          9
    90          4