##TITLE=Library Entry 24347
##JCAMP-DX=Revision 4.10 
##DATA TYPE=MASS SPECTRUM
##SAMPLE DESCRIPTION=James Little, Eastman Chemical Co.
##NAMES=HP
##CAS NAME=1-Dodecanol, 2-octyl-
##MOLFORM=C20H42O
##CAS REGISTRY NO=5333-42-6
##MP= -300
##BP= -300
##MW= 298
##$RETENTION INDEX=0
##$CONDENSED SPECTRUM=NO
##NPOINTS= 123
##XYDATA=(XY..XY) 1 
    26          2
    27         46
    28         10
    29        150
    30          4
    31         31
    37          1
    38          1
    39         42
    40         11
    41        433
    42         79
    43        671
    44         26
    45          6
    50          1
    51          2
    52          1
    53         27
    54         59
    55        574
    56        285
    57        999
    58         44
    59          4
    65          7
    66         10
    67        106
    68         77
    69        444
    70        238
    71        623
    72         34
    73          2
    77          5
    78          1
    79         17
    80          6
    81         78
    82        123
    83        430
    84        150
    85        416
    86         28
    87          1
    91          3
    93          4
    94          3
    95         43
    96         90
    97        421
    98        115
    99        114
   100          9
   107          1
   108          1
   109         18
   110         47
   111        260
   112         81
   113         64
   114          5
   122          1
   123         10
   124         28
   125        119
   126         72
   127         40
   128          4
   136          1
   137          6
   138         29
   139         78
   140         51
   141         26
   142          2
   151          2
   152         12
   153         25
   154         51
   155         22
   156          4
   165          1
   166         17
   167         30
   168         26
   169         11
   170          1
   179          1
   180          7
   181         10
   182         22
   183         11
   184          2
   185          1
   194          5
   195          6
   196          7
   197          5
   198          1
   208          4
   209          4
   210          5
   211          4
   222          2
   223          2
   224          4
   225          2
   236          1
   237          2
   238          4
   239          1
   250          1
   251          1
   252         17
   253          3
   266          6
   267          5
   268          1
   280         25
   281          6
   282          1
   297          1