##TITLE=Library Entry 535
##JCAMP-DX=Revision 4.10 
##DATA TYPE=MASS SPECTRUM
##SAMPLE DESCRIPTION=NIST Mass Spectrometry Data Center, 1994
##NAMES=HP
##CAS NAME=Ethyl .alpha.-bromoheptanoate
##MOLFORM=C9H17BrO2
##CAS REGISTRY NO=5333-88-0
##MP= -300
##BP= -300
##MW= 236
##$RETENTION INDEX=1332
##$CONDENSED SPECTRUM=NO
##NPOINTS= 96
##XYDATA=(XY..XY) 1 
    14          8
    15         44
    19          3
    26         69
    27        534
    28        138
    29        999
    30         30
    31         18
    37          3
    39        254
    40         62
    41        538
    42         85
    43        326
    44         16
    45         60
    50         10
    51         19
    52         12
    53         71
    54          3
    55        780
    56        110
    57         98
    58          7
    59          7
    60         10
    61          4
    63          2
    65          6
    66          5
    67         28
    68         44
    69         75
    70         16
    71         29
    72          2
    73        256
    74         11
    77          4
    79         15
    80          7
    81         38
    82          4
    83        273
    84         34
    85         19
    86         12
    87         26
    88         12
    93          5
    94          2
    95          9
    97          4
    99         33
   101         82
   102          9
   106         29
   107         18
   108         30
   109         19
   110          2
   111         41
   112          5
   113          6
   114          4
   115         50
   116          5
   119          6
   120         13
   121         28
   122         13
   123         24
   127          7
   129        193
   130         15
   133          5
   135         10
   138        121
   140        113
   141          4
   151          8
   153          6
   157        208
   158         23
   159          2
   166        249
   168        248
   169         11
   179          8
   181          7
   191         11
   193         10
   221          2
   236          2