##TITLE=Library Entry 6331
##JCAMP-DX=Revision 4.10 
##DATA TYPE=MASS SPECTRUM
##SAMPLE DESCRIPTION=NIST Mass Spectrometry Data Center, 1994
##NAMES=HP
##CAS NAME=3-Isopropyl-4-methyl-1-pentyn-3-ol
##MOLFORM=C9H16O
##CAS REGISTRY NO=5333-87-9
##MP= -300
##BP= -300
##MW= 140
##$RETENTION INDEX=0
##$CONDENSED SPECTRUM=NO
##NPOINTS= 85
##XYDATA=(XY..XY) 1 
    12          1
    14          2
    15         33
    17          0
    18          2
    19          1
    24          0
    25          3
    26         19
    27        220
    28         26
    29         43
    30          2
    36          0
    37          5
    38         18
    39        182
    40         27
    41        401
    42          0
    43        999
    44         33
    45          5
    46          0
    47          0
    50         15
    51         41
    52         15
    53        119
    54         23
    55        114
    56         12
    57         14
    58          1
    61          1
    62          8
    63         16
    64          6
    65         18
    66          6
    67         27
    68          5
    69         76
    70         12
    71         24
    72          3
    75          1
    77         42
    78          7
    79         51
    80          8
    81         43
    82         11
    83         38
    84          3
    85          2
    86          1
    87          0
    89          0
    91         14
    92          2
    93          3
    94          1
    95          8
    96         45
    97        351
    98         25
    99          1
   100          0
   103          0
   105          3
   107         10
   108          1
   109          1
   110          0
   111          2
   112          0
   114          0
   118          0
   121          0
   122          0
   123          0
   125          8
   126          0
   140          0