##TITLE=Library Entry 90088
##JCAMP-DX=Revision 4.10 
##DATA TYPE=MASS SPECTRUM
##SAMPLE DESCRIPTION=Div. of Experiment Therapeutics WRAIR, WRAMC, Washingto
n DC 20307
##NAMES=HP
##CAS NAME=1H-Pyrazole-3-carboxylic acid, 4-nitro-
##MOLFORM=C4H3N3O4
##CAS REGISTRY NO=5334-40-7
##MP= -300
##BP= -300
##MW= 157
##$RETENTION INDEX=0
##$CONDENSED SPECTRUM=NO
##NPOINTS= 63
##XYDATA=(XY..XY) 1 
    41         36
    42         12
    43         18
    44        111
    45        223
    46         66
    48         14
    50         11
    51         21
    52         54
    53        387
    54         68
    55         67
    56         20
    57          3
    60          1
    63          1
    64         21
    65        221
    66        604
    67         59
    69        918
    70         99
    72        164
    73          4
    77          4
    78         12
    79          5
    80          3
    81          4
    82          6
    83         31
    84          3
    86         80
    87          3
    91          1
    93         24
    94          6
    95         49
    96        171
    97         20
    98         11
   100          7
   105          7
   106          1
   109          3
   113        999
   114         23
   115          3
   123        123
   124          9
   125          4
   127         25
   129          1
   139          7
   140         79
   141         45
   142          2
   155          2
   156         27
   157        673
   158         79
   159          3