##TITLE=Library Entry 5723
##JCAMP-DX=Revision 4.10 
##DATA TYPE=MASS SPECTRUM
##SAMPLE DESCRIPTION=NIST Mass Spectrometry Data Center, 1994
##NAMES=HP
##CAS NAME=2-Hexane isothiocyanate
##MOLFORM=C7H13NS
##CAS REGISTRY NO=5334-87-2
##MP= -300
##BP= -300
##MW= 143
##$RETENTION INDEX=0
##$CONDENSED SPECTRUM=NO
##NPOINTS= 68
##XYDATA=(XY..XY) 1 
     4          3
    14          3
    15         22
    26         25
    27        236
    28         72
    29        184
    30          4
    32         12
    33          2
    34          2
    37          4
    39        168
    40         35
    41        369
    42        111
    43        999
    44         51
    45         14
    46          3
    47          1
    50          8
    51         14
    52          7
    53         26
    54         22
    55        126
    56         77
    57        151
    58         36
    59         57
    60         71
    61          4
    62          4
    63          1
    65          2
    66          1
    67          5
    68          7
    69         60
    70         12
    71          8
    72         45
    73          2
    74          3
    77          1
    82          2
    83          7
    84         58
    85        109
    86        235
    87         17
    88         16
    96          2
    98          2
   100         13
   101          3
   110         81
   111          7
   114          8
   115         47
   116          3
   117          2
   128         24
   129          2
   143        109
   144         10
   145          5