##TITLE=Library Entry 54140
##JCAMP-DX=Revision 4.10 
##DATA TYPE=MASS SPECTRUM
##SAMPLE DESCRIPTION=ASES Database, Dalian Institute, P.R. China
##NAMES=HP
##CAS NAME=4-(2-Piperidin-1-yl-ethyl)-pyridine
##MOLFORM=C11H17N3
##CAS REGISTRY NO=53345-16-7
##MP= -300
##BP= -300
##MW= 191
##$RETENTION INDEX=0
##$CONDENSED SPECTRUM=NO
##NPOINTS= 31
##XYDATA=(XY..XY) 1 
    41        178
    42        315
    43        579
    44        100
    50        130
    51        218
    52        169
    53         69
    54         70
    55        168
    56        119
    57         80
    58        327
    63         60
    65        138
    69         68
    70         70
    76         60
    77        148
    78        268
    79        100
    80         69
    84        999
    85        149
    86         59
    98        935
    99         80
   104        296
   105        735
   106        149
   119         70