##TITLE=Library Entry 32504
##JCAMP-DX=Revision 4.10 
##DATA TYPE=MASS SPECTRUM
##SAMPLE DESCRIPTION=D.HENNEBERG, MAX-PLANCK INSTITUTE, MULHEIM, WEST GERMAN
Y
##NAMES=HP
##CAS NAME=Cyclopentane, (2-methylpropylidene)-
##MOLFORM=C9H16
##CAS REGISTRY NO=53366-58-8
##MP= -300
##BP= -300
##MW= 124
##$RETENTION INDEX=919
##$CONDENSED SPECTRUM=NO
##NPOINTS= 51
##XYDATA=(XY..XY) 1 
    26         10
    27        230
    29        110
    37         10
    38         20
    39        286
    40         60
    41        486
    42         30
    43        140
    44         10
    50         20
    51         80
    52         30
    53        140
    54         40
    55        310
    56         90
    57        115
    58         10
    62         10
    63         25
    64          5
    65         60
    66         84
    67        999
    68        245
    69         60
    70         10
    77         90
    78         20
    79        115
    80         60
    81        370
    82        155
    83         20
    91         33
    92         10
    93         30
    94         10
    95        190
    96         27
   105         10
   107         14
   108          5
   109        416
   110         32
   111          5
   123          3
   124        179
   125         20