##TITLE=Library Entry 32903
##JCAMP-DX=Revision 4.10 
##DATA TYPE=MASS SPECTRUM
##SAMPLE DESCRIPTION=D.HENNEBERG, MAX-PLANCK INSTITUTE, MULHEIM, WEST GERMAN
Y
##NAMES=HP
##CAS NAME=Cyclopentene, 1-(2-methylbutyl)-
##MOLFORM=C10H18
##CAS REGISTRY NO=53366-53-3
##MP= -300
##BP= -300
##MW= 138
##$RETENTION INDEX=995
##$CONDENSED SPECTRUM=NO
##NPOINTS= 30
##XYDATA=(XY..XY) 1 
    27        120
    28         90
    29        280
    39        140
    40         21
    41        390
    42         30
    43         50
    51         20
    52         10
    53         90
    54         40
    55        110
    56        120
    57        310
    65         30
    66         50
    67        999
    68         80
    69         10
    70         30
    71         30
    77         50
    79        110
    80         70
    81        290
    82        520
    83        230
   109        110
   138        150