##TITLE=Library Entry 35192
##JCAMP-DX=Revision 4.10 
##DATA TYPE=MASS SPECTRUM
##SAMPLE DESCRIPTION=Chuck Anderson, Aldrich Chemical Co.
##NAMES=HP
##CAS NAME=Bicyclo[3.1.1]heptane-2-methanol, 6,6-dimethyl-, [1S-(1.alpha.,2.
alpha.,5.alpha.)]-
##MOLFORM=C10H18O
##CAS REGISTRY NO=53369-17-8
##MP= -300
##BP= -300
##MW= 154
##$RETENTION INDEX=1259
##$CONDENSED SPECTRUM=NO
##NPOINTS= 94
##XYDATA=(XY..XY) 1 
    15          6
    18          1
    19          0
    26          9
    27        219
    28         35
    29        204
    30          8
    31        127
    32          2
    36          4
    37          2
    38         11
    39        273
    40         44
    41        798
    42         52
    43        276
    44         12
    45          6
    50         11
    51         41
    52         20
    53        147
    54         87
    55        382
    56         53
    57        137
    58          9
    59         28
    60          0
    62          2
    63         11
    64          2
    65         73
    66         41
    67        885
    68        109
    69        999
    70        101
    71         26
    72         12
    73          1
    74          0
    75          0
    76          0
    77        159
    78         37
    79        327
    80        214
    81        657
    82        374
    83         96
    84         18
    85         14
    86          4
    87          0
    89          1
    91        137
    92         57
    93        563
    94        112
    95        181
    96         58
    97         40
    98         33
    99         16
   100         11
   103          5
   104          0
   105         24
   106          5
   107         88
   108         62
   109         14
   110         14
   111         47
   112         12
   113          0
   115          0
   117          0
   119          3
   120          0
   121        211
   122         28
   123        724
   124         69
   125          4
   126          9
   135          1
   136         40
   137          5
   139         23
   140          1