##TITLE=Library Entry 67942
##JCAMP-DX=Revision 4.10 
##DATA TYPE=MASS SPECTRUM
##SAMPLE DESCRIPTION=D.HENNEBERG, MAX-PLANCK INSTITUTE, MULHEIM, WEST GERMAN
Y
##NAMES=HP
##CAS NAME=Cyclopentane, pentylidene-
##MOLFORM=C10H18
##CAS REGISTRY NO=53366-55-5
##MP= -300
##BP= -300
##MW= 138
##$RETENTION INDEX=1047
##$CONDENSED SPECTRUM=NO
##NPOINTS= 39
##XYDATA=(XY..XY) 1 
    27        160
    29         90
    39        160
    40         30
    41        420
    42         34
    43         50
    44         10
    50         10
    51         30
    52         20
    53        110
    54         80
    55        220
    56         20
    57         10
    65         40
    66         80
    67        982
    68        210
    69         70
    70         30
    77         60
    78         10
    79        100
    80         31
    81        220
    82        370
    83         80
    91         30
    93         50
    94         40
    95        999
    96        150
    97         30
   109         50
   110         20
   138        200
   139         21