##TITLE=Library Entry 11600
##JCAMP-DX=Revision 4.10 
##DATA TYPE=MASS SPECTRUM
##SAMPLE DESCRIPTION=A.A.Kutin, Moscow, Russia
##NAMES=HP
##CAS NAME=4'-Acetamido-4-dimethylaminochalcone
##MOLFORM=C19H20N2O2
##CAS REGISTRY NO=5336-80-1
##MP= -300
##BP= -300
##MW= 308
##$RETENTION INDEX=0
##$CONDENSED SPECTRUM=NO
##NPOINTS= 205
##XYDATA=(XY..XY) 1 
    34          1
    36          0
    37          7
    38         16
    39         81
    40         22
    41         55
    43        999
    44         31
    45         11
    47          1
    48          0
    49          2
    50         17
    51         65
    52         25
    53         14
    54          8
    55         20
    56          8
    57         18
    58          4
    59          2
    60          3
    62         17
    63         77
    64         39
    65         80
    66         14
    67          6
    68          4
    69          8
    70          5
    71          8
    72          3
    73          6
    74         12
    75         23
    76         31
    77         54
    78         17
    79         11
    81         14
    82          6
    83          4
    84          4
    85          3
    86          3
    87          5
    89         30
    90         27
    91         65
    92         62
    93         10
    94          3
    95          4
    96          2
    97          5
    98          2
    99          1
   100          2
   101         10
   102         35
   103         29
   104         21
   105         17
   106          5
   107          4
   108          2
   109          2
   111         11
   112          1
   113          2
   114          3
   115         12
   116         11
   117         11
   118         20
   119         51
   120         82
   121         84
   122          7
   123          1
   124          0
   125          1
   126          2
   127          3
   128         11
   129         14
   130         35
   131         26
   132          8
   134          6
   135          3
   136          0
   137          1
   139          5
   140          3
   141          2
   142          3
   143          5
   144         43
   145         18
   146         46
   148          6
   149         11
   150          1
   151          2
   152          5
   153          2
   154          1
   155          1
   156          1
   157          1
   158          4
   159          1
   160          2
   162          6
   163          3
   165         16
   166          9
   167          3
   168          0
   169          1
   170          1
   171          2
   172          3
   173          9
   174         42
   175          7
   176          3
   178          8
   179          2
   180          3
   181          1
   182          1
   183          1
   185          1
   188          0
   189          0
   190          1
   191          2
   192          3
   193          7
   194          9
   195          5
   196          1
   200          0
   201          0
   203          0
   204          0
   205          2
   206          2
   207          2
   208          3
   209          1
   210          3
   211          1
   218          0
   219          1
   220          2
   221          6
   222          8
   223          4
   224          0
   232          0
   233          1
   234          2
   235          2
   236          3
   237         17
   238          7
   239          1
   247          0
   248          2
   249          5
   250          6
   251          3
   252          0
   261          0
   262          0
   263          3
   264          3
   265          9
   266          1
   267          0
   277          1
   279          2
   280          4
   281          0
   283          0
   290          0
   291          2
   292          1
   293          3
   294          0
   300          0
   302          0
   303          2
   305          6
   306         10
   307         31
   308         40
   309          9
   310          0