##TITLE=Library Entry 41125
##JCAMP-DX=Revision 4.10 
##DATA TYPE=MASS SPECTRUM
##SAMPLE DESCRIPTION=Japan AIST/NIMC Database- Spectrum MS-NW-6900
##NAMES=HP
##CAS NAME=D-(+)-Ribonic acid .gamma.-lactone
##MOLFORM=C5H8O5
##CAS REGISTRY NO=5336-08-3
##MP= -300
##BP= -300
##MW= 148
##$RETENTION INDEX=0
##$CONDENSED SPECTRUM=NO
##NPOINTS= 97
##XYDATA=(XY..XY) 1 
    12          2
    13          5
    14         32
    15        171
    16          3
    17         10
    18         46
    19         25
    25          5
    26         38
    27        156
    28         82
    29        372
    30        131
    31        403
    32         24
    33          5
    36          1
    37          6
    38          9
    39         58
    40         67
    41         37
    42        258
    43        548
    44        151
    45        152
    46          6
    47         39
    48          1
    49          5
    50          3
    51          3
    52          1
    53         10
    54         23
    55        268
    56        130
    57        491
    58        373
    59         34
    60        625
    61        611
    62         21
    63          4
    65          1
    66          1
    67          2
    68         62
    69         18
    70          4
    71        127
    72         67
    73        999
    74         78
    75          9
    76        112
    77          8
    78          1
    79          1
    81          1
    82          1
    83          3
    84         14
    85         24
    86        109
    87         14
    88         14
    89         83
    90          6
    91        129
    92          5
    93          1
    94          1
    95          2
    96          4
    97          2
    99          1
   100         10
   101          5
   102         12
   103          4
   105          7
   110          1
   111          1
   112          4
   113          2
   117          8
   118          5
   119          6
   120          1
   128          1
   129          2
   130         11
   131          1
   148          4
   149          4