##TITLE=Library Entry 93427
##JCAMP-DX=Revision 4.10 
##DATA TYPE=MASS SPECTRUM
##SAMPLE DESCRIPTION=V.Zaikin,Topchiev Inst.Petrochem.Synth.,Moscow
##NAMES=HP
##CAS NAME=Allyloxy-butyldimethylsilane
##MOLFORM=C9H20OSi
##CAS REGISTRY NO=53379-15-0
##MP= -300
##BP= -300
##MW= 172
##$RETENTION INDEX=0
##$CONDENSED SPECTRUM=NO
##NPOINTS= 75
##XYDATA=(XY..XY) 1 
    26          4
    27         12
    28          5
    29         10
    31          6
    38          2
    39         26
    40          5
    41         50
    42          3
    43         28
    44          6
    45         32
    46          2
    47         18
    50          3
    51          3
    52          5
    53          3
    54          2
    55          8
    56          3
    57         10
    58         19
    59        231
    60         22
    61         59
    62          4
    63          2
    65          1
    66          2
    67          1
    69          2
    70          2
    71         21
    72          6
    73         27
    74          6
    75         75
    76          5
    77          4
    78          2
    79          9
    83          4
    84          1
    85        172
    86         18
    87         37
    88          4
    89         11
    92          2
    93         10
    96          1
    97          5
    99        129
   100         15
   101        326
   102         29
   103         12
   105          1
   111          1
   113          6
   114          2
   115        999
   116        107
   117         66
   118          5
   119          2
   127          1
   133          2
   143         62
   144          7
   145          2
   157         26
   158          4