##TITLE=Library Entry 14721
##JCAMP-DX=Revision 4.10 
##DATA TYPE=MASS SPECTRUM
##SAMPLE DESCRIPTION=H. Fales, LC, NHLBI, NIH, Bethesda, MD 20892
##NAMES=HP
##CAS NAME=Galanthamine, 3-O-acetyl-1,2-dihydro-
##MOLFORM=C19H25NO4
##CAS REGISTRY NO=53375-68-1
##MP= -300
##BP= -300
##MW= 331
##$RETENTION INDEX=0
##$CONDENSED SPECTRUM=NO
##NPOINTS= 194
##XYDATA=(XY..XY) 1 
    42        380
    43        999
    44        353
    45         29
    47          2
    49         19
    50          9
    51         36
    52         17
    53         34
    54         20
    55         98
    56         23
    57         54
    58         39
    59          5
    61         46
    63         22
    64         13
    65         43
    66         16
    67         40
    68          3
    69          9
    70         23
    71         14
    74          3
    75          6
    76         14
    77         88
    78         47
    79         39
    80          3
    81         15
    82          8
    83         17
    84         23
    86         14
    88          3
    89         24
    90         11
    91         83
    92         19
    93         20
    94         20
    95          6
    96         13
    97          3
    99          4
   100          7
   101         12
   102         27
   103         57
   104         17
   105         34
   106         23
   107         33
   108         15
   109          7
   113          6
   115        191
   116         40
   117         30
   118         19
   119         16
   120         12
   121         22
   122         10
   124          9
   127         49
   128         82
   129         59
   130         23
   131         53
   132         22
   133         16
   134         30
   135         30
   136         10
   137         28
   139         15
   141         52
   142         22
   143         31
   144         44
   145         37
   146         28
   147         25
   148         17
   149         18
   150         39
   151         15
   152         46
   153         45
   154         19
   155         27
   156         17
   157         41
   158         41
   159         74
   160         31
   161         49
   162         20
   163         10
   164         15
   165         51
   166         28
   167         47
   168         25
   169         31
   170         19
   171         29
   172         34
   173         39
   174         89
   175         47
   176         21
   177         18
   178         29
   179         19
   180          9
   181         58
   182         25
   183         24
   184         25
   185         53
   186         37
   187         78
   188         49
   189         50
   190         21
   191          3
   193         10
   194         19
   195         47
   196         26
   197         33
   198         29
   199         54
   200         37
   201         43
   202        150
   203         31
   204          3
   209         13
   210         17
   211         34
   212         28
   213        136
   214        191
   215         57
   216        121
   217         25
   218         10
   225         13
   226         26
   227         39
   228         94
   229         40
   230         21
   231          9
   240         16
   242         19
   243          5
   244         98
   245         32
   254         16
   256         24
   258          3
   260         10
   261          4
   268          9
   269          3
   270        218
   271         52
   272         57
   273         15
   274         17
   275         29
   286         23
   287         20
   288         45
   289         15
   300         17
   302         14
   303         29
   316         22
   318          3
   328         24
   329         40
   330        771
   331        630
   332        122
   333         19