##TITLE=Library Entry 38885
##JCAMP-DX=Revision 4.10 
##DATA TYPE=MASS SPECTRUM
##SAMPLE DESCRIPTION=Japan AIST/NIMC Database- Spectrum MS-NW-8950
##NAMES=HP
##CAS NAME=Cyclohexanol, 2,6-dimethyl-
##MOLFORM=C8H16O
##CAS REGISTRY NO=5337-72-4
##MP= -300
##BP= -300
##MW= 128
##$RETENTION INDEX=1112
##$CONDENSED SPECTRUM=NO
##NPOINTS= 67
##XYDATA=(XY..XY) 1 
    15          3
    18          3
    26          2
    27         64
    28         26
    29        107
    30         15
    31         35
    32          1
    38          1
    39         75
    40         16
    41        239
    42         56
    43        212
    44         20
    45         51
    46          1
    50          1
    51          5
    52          3
    53         41
    54         44
    55        323
    56        113
    57        282
    58        354
    59         21
    60          1
    65          9
    66          5
    67        107
    68        580
    69        106
    70         24
    71        999
    72        103
    73         12
    77          8
    78          1
    79         15
    80          7
    81        227
    82         38
    83         17
    84          8
    85         99
    86         84
    87          5
    91          4
    93          7
    94          2
    95        394
    96         35
    97         61
    98          9
    99         22
   100          3
   109         24
   110        218
   111         46
   112          3
   113          7
   127          4
   128        336
   129         29
   130          1