##TITLE=Library Entry 7210
##JCAMP-DX=Revision 4.10 
##DATA TYPE=MASS SPECTRUM
##SAMPLE DESCRIPTION=Chemical Concepts
##NAMES=HP
##CAS NAME=2-Octadecyl-propane-1,3-diol
##MOLFORM=C21H44O2
##CAS REGISTRY NO=5337-61-1
##MP= -300
##BP= -300
##MW= 328
##$RETENTION INDEX=0
##$CONDENSED SPECTRUM=NO
##NPOINTS= 165
##XYDATA=(XY..XY) 1 
    27          2
    28          7
    29         15
    31          4
    39          2
    41        105
    42         13
    43        999
    44         17
    45         21
    46          1
    47          3
    49          4
    50          1
    51          3
    53          8
    54         49
    55        589
    56        186
    57        503
    58         74
    59         13
    60          1
    61          1
    63          1
    65          2
    66         19
    67        167
    68        206
    69        323
    70        129
    71        337
    72         27
    73          5
    74          4
    75          1
    76          1
    77          3
    78          3
    79         10
    80         12
    81        232
    82        372
    83        429
    84        106
    85        155
    86         14
    87          8
    91          2
    93          6
    94          9
    95        171
    96        337
    97        391
    98         67
    99         40
   100          6
   101          1
   102          0
   103          2
   104          1
   105          2
   106          0
   107          1
   108          3
   109         80
   110         79
   111        164
   112         35
   113         19
   114          3
   115          1
   120          3
   121          2
   122          4
   123         38
   124         44
   125         71
   126         24
   127          9
   128          2
   129          0
   135          1
   136          2
   137         16
   138         25
   139         30
   140         15
   141          7
   142          0
   149          2
   150          0
   151          6
   152         16
   153         21
   154         10
   155          4
   156          1
   157          0
   158          1
   160          1
   165          3
   166         10
   167         15
   168         10
   169          3
   170          1
   178          0
   179          2
   180          9
   181         11
   182          8
   183          2
   184          0
   192          1
   193          1
   194          6
   195          8
   196          5
   197          1
   207          1
   208          6
   209          5
   210          6
   211          1
   221          0
   222          5
   223          4
   224          4
   225          1
   235          2
   236          7
   237          2
   238          3
   239          1
   249          2
   250          8
   251          3
   252         20
   253          5
   254          1
   255          2
   263          2
   264          8
   265          2
   266          1
   267          1
   268          1
   269          5
   270          1
   277          1
   278          1
   279          1
   280         86
   281         19
   282          2
   291          1
   292         39
   293          8
   294          2
   310         24
   311          5
   328          7
   329          3
   330          1