##TITLE=Library Entry 99223
##JCAMP-DX=Revision 4.10 
##DATA TYPE=MASS SPECTRUM
##SAMPLE DESCRIPTION=NIST Mass Spectrometry Data Center
##NAMES=HP
##CAS NAME=4'-Methylpropiophenone
##MOLFORM=C10H12O
##CAS REGISTRY NO=5337-93-9
##MP= -300
##BP= -300
##MW= 148
##$RETENTION INDEX=0
##$CONDENSED SPECTRUM=NO
##NPOINTS= 63
##XYDATA=(XY..XY) 1 
    13          2
    14          5
    15         11
    16          1
    26         34
    27        135
    28         26
    29         73
    30          3
    37         11
    38         36
    39        187
    40         17
    41         38
    42          4
    44          2
    50         57
    51         84
    52         20
    53         14
    55         16
    56          2
    57         14
    58          1
    59          1
    60          1
    61         15
    62         48
    63        129
    64         49
    65        318
    66         20
    67          1
    72          1
    74          6
    75         11
    76          9
    77         24
    78          6
    79          4
    85          4
    86          8
    87          8
    89         91
    91        582
    92         49
    93          3
   101          1
   102          3
   103          8
   104          3
   105          4
   115          7
   116          3
   119        999
   120         89
   121          6
   128          1
   131          3
   133          5
   148         90
   149         10
   150          1