##TITLE=Library Entry 54724
##JCAMP-DX=Revision 4.10 
##DATA TYPE=MASS SPECTRUM
##SAMPLE DESCRIPTION=RADIAN CORP
##NAMES=HP
##CAS NAME=Boric acid, trihexyl ester
##MOLFORM=C18H39BO3
##CAS REGISTRY NO=5337-36-0
##MP= -300
##BP= -300
##MW= 314
##$RETENTION INDEX=0
##$CONDENSED SPECTRUM=NO
##NPOINTS= 96
##XYDATA=(XY..XY) 1 
    26          2
    27         24
    29         87
    39         20
    40          4
    41        181
    42         61
    43        579
    44         27
    45         26
    52          1
    53         13
    54         13
    55        264
    56        202
    57        138
    58         12
    59         14
    63          1
    65          3
    67         30
    68          9
    69        107
    70          9
    71         17
    72          5
    73          4
    74          2
    75          6
    76          2
    77         12
    79          3
    81          9
    82         22
    83        340
    84        166
    85        999
    86         82
    87         75
    88          5
    89          9
    90          1
    91          2
    95          3
    97          9
    98          7
    99         12
   100          7
   101         23
   102          3
   103          6
   111         11
   112          3
   113          8
   114          3
   115         11
   116          2
   117          4
   127          3
   128         22
   129         79
   130          5
   131          4
   140          2
   141          2
   143          3
   144          8
   145         30
   146         29
   147        103
   148          7
   158          6
   159         25
   160          3
   161          5
   168          2
   169          6
   171          2
   173          2
   175          1
   185          6
   199          2
   212          7
   213         28
   214          4
   215          2
   228          5
   229         22
   230         13
   231         37
   232          5
   242          2
   243         11
   257          5
   285          4
   313          2