##TITLE=Library Entry 91016
##JCAMP-DX=Revision 4.10 
##DATA TYPE=MASS SPECTRUM
##SAMPLE DESCRIPTION=Japan AIST/NIMC Database- Spectrum MS-NW-2489
##NAMES=HP
##CAS NAME=N-Formyl-dl-leucine
##MOLFORM=C7H13NO3
##CAS REGISTRY NO=5338-45-4
##MP= -300
##BP= -300
##MW= 159
##$RETENTION INDEX=0
##$CONDENSED SPECTRUM=NO
##NPOINTS= 89
##XYDATA=(XY..XY) 1 
    14          3
    15         36
    16          2
    17         10
    18         45
    26         12
    27        185
    28        359
    29        188
    30        250
    31          7
    32          4
    36          2
    37          4
    38         10
    39        120
    40         20
    41        376
    42        141
    43        395
    44        563
    45         34
    46        573
    47         10
    48          1
    49          1
    50          6
    51          9
    52          5
    53         27
    54         19
    55         41
    56         33
    57        136
    58        206
    59         44
    60          5
    65          3
    66          2
    67         18
    68         26
    69        529
    70        116
    71         94
    72        525
    73         50
    74        128
    75         22
    76          1
    80          2
    81         19
    82          6
    83          3
    84         15
    85        600
    86        180
    87         13
    88         16
    89          1
    94          1
    95          9
    96         25
    97          7
    98        108
    99         48
   100          6
   101          2
   102         45
   103        469
   104         18
   105          4
   111          1
   112          8
   113         23
   114        999
   115        100
   116         45
   117          8
   123          1
   126          3
   128          5
   129          1
   130          2
   131          3
   141          4
   144          4
   158          1
   159          6
   160          1