##TITLE=Library Entry 24903
##JCAMP-DX=Revision 4.10 
##DATA TYPE=MASS SPECTRUM
##SAMPLE DESCRIPTION=J.M. MILLER,BROCK UNIVERSITY,ONTARIO,CANADA
##NAMES=HP
##CAS NAME=Phosphine oxide, (1,1-dimethylethyl)fluoro(pentafluorophenyl)-
##MOLFORM=C10H9F6OP
##CAS REGISTRY NO=53381-02-5
##MP= -300
##BP= -300
##MW= 290
##$RETENTION INDEX=0
##$CONDENSED SPECTRUM=NO
##NPOINTS= 59
##XYDATA=(XY..XY) 1 
    53         57
    55        570
    56        933
    57        999
    58        543
    69         65
    79         25
    80         13
    81         27
    93         78
    98         25
    99        117
   100          6
   117        367
   118         31
   119         12
   129         92
   130         12
   131         25
   136         57
   137         31
   138          8
   144         37
   145         12
   146         86
   147         46
   148         12
   163         21
   164        210
   165         19
   167        142
   168        134
   169         34
   181         13
   182         11
   187         52
   188         23
   189         23
   191         19
   192          4
   205         33
   206          4
   209         25
   210          6
   217        153
   218         13
   233         48
   234        155
   235        115
   236         12
   255         61
   275        413
   276         56
   277          6
   288         23
   289         38
   290        344
   291         92
   292          6