##TITLE=Library Entry 33909
##JCAMP-DX=Revision 4.10 
##DATA TYPE=MASS SPECTRUM
##SAMPLE DESCRIPTION=Div. of Experiment Therapeutics WRAIR, WRAMC, Washingto
n DC 20307
##NAMES=HP
##CAS NAME=6-Uracilsulfonamide
##MOLFORM=C4H5N3O4S
##CAS REGISTRY NO=5338-86-3
##MP= -300
##BP= -300
##MW= 191
##$RETENTION INDEX=0
##$CONDENSED SPECTRUM=NO
##NPOINTS= 28
##XYDATA=(XY..XY) 1 
    41         49
    42         25
    43         82
    44         62
    45         31
    46          6
    48        132
    50          5
    53         12
    55         30
    57         27
    64        159
    65         26
    67        125
    68        999
    69         33
    70         38
    77          6
    80         36
    84         52
   111         23
   115          5
   120          5
   127         11
   150          5
   175          7
   191        232
   193         15