##TITLE=Library Entry 38287
##JCAMP-DX=Revision 4.10 
##DATA TYPE=MASS SPECTRUM
##SAMPLE DESCRIPTION=Japan AIST/NIMC Database- Spectrum MS-NW-3969
##NAMES=HP
##CAS NAME=Butanoic acid, 2-hexenyl ester, (E)-
##MOLFORM=C10H18O2
##CAS REGISTRY NO=53398-83-7
##MP= -300
##BP= -300
##MW= 170
##$RETENTION INDEX=1195
##$CONDENSED SPECTRUM=NO
##NPOINTS= 72
##XYDATA=(XY..XY) 1 
    14          1
    15          7
    17          1
    18          5
    26          6
    27        111
    28         14
    29         54
    30          1
    31          4
    32          3
    37          2
    38          5
    39         85
    40         14
    41        253
    42         33
    43        512
    44         18
    45          4
    50          3
    51          6
    52          5
    53         33
    54         71
    55        223
    56         43
    57         60
    58          4
    60         13
    61          1
    63          1
    65          6
    66          4
    67        233
    68         14
    69          9
    70         12
    71        999
    72         47
    73          9
    77          2
    79          6
    80          2
    81         30
    82        157
    83        105
    84         16
    85          3
    86          4
    87          1
    88          3
    89         40
    90          2
    97          3
    98          3
    99         31
   100         35
   101          4
   105          1
   113          1
   114          2
   115          2
   126          1
   127          9
   128          9
   129          2
   141         11
   142          3
   155          2
   170         15
   171          2