##TITLE=Library Entry 25712
##JCAMP-DX=Revision 4.10 
##DATA TYPE=MASS SPECTRUM
##SAMPLE DESCRIPTION=TNO Volatile Compounds in Food - Chemical Concepts
##NAMES=HP
##CAS NAME=cis-3-Hexenyl-.alpha.-methylbutyrate
##MOLFORM=C11H20O2
##CAS REGISTRY NO=53398-85-9
##MP= -300
##BP= -300
##MW= 184
##$RETENTION INDEX=1234
##$CONDENSED SPECTRUM=NO
##NPOINTS= 66
##XYDATA=(XY..XY) 1 
    26         10
    27        181
    28         18
    29        346
    30          6
    31         11
    35          3
    36         12
    37          1
    39        155
    40         26
    41        464
    42         56
    43         32
    44          4
    45          8
    47         10
    48          7
    51          3
    53         55
    54         74
    55        215
    56         51
    57        999
    58         30
    62          9
    63          2
    64          5
    65          2
    66         12
    67        822
    68         42
    69         15
    70          3
    71         15
    72          4
    73         13
    74          9
    77          6
    78          5
    79          9
    80          4
    81         42
    82        940
    83         89
    84          7
    85        255
    86         10
    91          3
    94         10
   103         29
   106          5
   107          7
   108          3
   110          5
   117          4
   118          4
   131          4
   134          6
   138          5
   142          3
   151          2
   156          1
   164          4
   180          5
   184          3