##TITLE=Library Entry 23135
##JCAMP-DX=Revision 4.10 
##DATA TYPE=MASS SPECTRUM
##SAMPLE DESCRIPTION=Japan AIST/NIMC Database- Spectrum MS-NW-3777
##NAMES=HP
##CAS NAME=2-Hexen-1-ol, propanoate, (E)-
##MOLFORM=C9H16O2
##CAS REGISTRY NO=53398-80-4
##MP= -300
##BP= -300
##MW= 156
##$RETENTION INDEX=1111
##$CONDENSED SPECTRUM=NO
##NPOINTS= 66
##XYDATA=(XY..XY) 1 
    15          4
    18          3
    26          9
    27         87
    28         20
    29        263
    30          7
    31          6
    32          1
    37          1
    38          3
    39         64
    40          9
    41        158
    42         19
    43         24
    44          3
    45          3
    50          3
    51          5
    52          4
    53         26
    54         51
    55        165
    56         43
    57        999
    58         35
    59          4
    60          1
    63          1
    65          5
    66          3
    67        199
    68         11
    69          8
    70          2
    71         10
    72          8
    73          3
    74          5
    75         30
    76          1
    77          2
    79          4
    80          1
    81         27
    82        139
    83         67
    84          9
    85         11
    86          5
    87          3
    97          4
    98          3
    99         28
   100         42
   101          6
   112          2
   113          5
   114         14
   115          2
   127         16
   128          3
   129          1
   156         16
   157          2