##TITLE=Library Entry 71884
##JCAMP-DX=Revision 4.10 
##DATA TYPE=MASS SPECTRUM
##SAMPLE DESCRIPTION=Japan AIST/NIMC Database- Spectrum MS-NW-3472
##NAMES=HP
##CAS NAME=Hexanoic acid, 2-hexenyl ester, (E)-
##MOLFORM=C12H22O2
##CAS REGISTRY NO=53398-86-0
##MP= -300
##BP= -300
##MW= 198
##$RETENTION INDEX=1391
##$CONDENSED SPECTRUM=NO
##NPOINTS= 122
##XYDATA=(XY..XY) 1 
    14          2
    15          9
    17          2
    18         13
    25          1
    26         13
    27        154
    28         35
    29        159
    30          5
    31         11
    32          4
    36          1
    37          4
    38          9
    39        129
    40         24
    41        371
    42         82
    43        540
    44         22
    45         19
    46          1
    47          1
    49          1
    50          7
    51         13
    52          9
    53         49
    54         92
    55        377
    56         84
    57        103
    58          9
    59          7
    60        120
    61         20
    62          3
    63          3
    64          1
    65         11
    66          7
    67        259
    68         24
    69         71
    70         25
    71        444
    72         29
    73         69
    74         11
    75          5
    76          1
    77          6
    78          3
    79         12
    80          8
    81         46
    82        236
    83        184
    84         39
    85         19
    86          4
    87         26
    88          3
    89          9
    90          1
    91          3
    92          2
    94          1
    95          4
    96          7
    97         46
    98         29
    99        999
   100         93
   101         10
   102          2
   103          1
   105          1
   107          1
   109          3
   110          2
   111          2
   112          1
   113          4
   114         15
   115         10
   116          9
   117         58
   118          5
   119          1
   121          1
   123          2
   124          1
   125          1
   126          1
   127          9
   128          3
   129          2
   137          1
   138          2
   139          1
   141          3
   142          7
   143          2
   144          1
   150          2
   151          1
   154          1
   155         11
   156          6
   157          2
   159          1
   169         20
   170          4
   171          3
   172          1
   173          1
   183          2
   197          1
   198         16
   199          3