##TITLE=Library Entry 38175
##JCAMP-DX=Revision 4.10 
##DATA TYPE=MASS SPECTRUM
##SAMPLE DESCRIPTION=Chuck Anderson, Aldrich Chemical Co.
##NAMES=HP
##CAS NAME=Butane, 1-bromo-2-methyl-, (S)-
##MOLFORM=C5H11Br
##CAS REGISTRY NO=534-00-9
##MP= -300
##BP= -300
##MW= 150
##$RETENTION INDEX=0
##$CONDENSED SPECTRUM=NO
##NPOINTS= 80
##XYDATA=(XY..XY) 1 
    13          0
    14          0
    15          9
    16          0
    25          1
    26         25
    27        202
    28         35
    29        339
    30          7
    31          0
    32          0
    33          0
    36          0
    37          7
    38         22
    39        199
    40         28
    41        523
    42        149
    43        417
    44         14
    45          0
    49          1
    50         11
    51         15
    52          5
    53         33
    54          6
    55        246
    56         72
    57        296
    58         12
    59          0
    61          0
    62          1
    63          1
    64          0
    65          1
    66          0
    67          3
    68          0
    69         21
    70         32
    71        999
    72         51
    73          1
    79          3
    80          2
    81          3
    82          2
    83          0
    91          0
    92          0
    93         16
    94          1
    95         15
    96          0
   104          0
   105          2
   106          1
   107         10
   108          0
   109          8
   110          0
   117          0
   119          1
   120          2
   121         61
   122          4
   123         60
   124          1
   135          2
   136          0
   137          2
   149          0
   150         26
   151          1
   152         25
   153          1