##TITLE=Library Entry 76994
##JCAMP-DX=Revision 4.10 
##DATA TYPE=MASS SPECTRUM
##SAMPLE DESCRIPTION=Japan AIST/NIMC Database- Spectrum MS-NW-8969
##NAMES=HP
##CAS NAME=Butylmalonic acid
##MOLFORM=C7H12O4
##CAS REGISTRY NO=534-59-8
##MP= -300
##BP= -300
##MW= 160
##$RETENTION INDEX=0
##$CONDENSED SPECTRUM=NO
##NPOINTS= 84
##XYDATA=(XY..XY) 1 
    15          3
    17          1
    18          4
    26          4
    27         77
    28         22
    29         78
    30          3
    31          7
    38          2
    39         53
    40         10
    41        167
    42         64
    43         52
    44         42
    45         45
    46          2
    47          1
    51          2
    52          1
    53         12
    54          7
    55        151
    56         96
    57         61
    58          6
    59          9
    60         90
    61          9
    63          1
    65          2
    66          1
    67          7
    68         25
    69         65
    70         49
    71         10
    72         10
    73        268
    74         16
    75          2
    79          1
    80          1
    81          9
    82          2
    83          9
    84          1
    85         14
    86        444
    87        111
    88          7
    89          1
    95          6
    96         29
    97         20
    98          6
    99         64
   100         16
   101          2
   104        999
   105        200
   106         13
   107          2
   109          3
   113         43
   114         63
   115         15
   116          9
   117         39
   118          4
   123          7
   124         34
   125          3
   127          1
   131         19
   132          1
   141          1
   142          4
   143         16
   144          1
   160          2
   161         12
   162          1