##TITLE=Library Entry 51131
##JCAMP-DX=Revision 4.10 
##DATA TYPE=MASS SPECTRUM
##SAMPLE DESCRIPTION=Japan AIST/NIMC Database- Spectrum MS-NW- 692
##NAMES=HP
##CAS NAME=Furan, 2-methyl-
##MOLFORM=C5H6O
##CAS REGISTRY NO=534-22-5
##MP= -300
##BP= -300
##MW= 82
##$RETENTION INDEX=606
##$CONDENSED SPECTRUM=NO
##NPOINTS= 46
##XYDATA=(XY..XY) 1 
    12          2
    13          4
    14          9
    15         26
    17          1
    18          7
    25          8
    26         51
    27        231
    28         90
    29         29
    31          4
    32          4
    36          5
    37         31
    38         47
    39        379
    40         13
    41         18
    42          5
    43         40
    44          1
    48          3
    49         19
    50         92
    51        107
    52         60
    53        615
    54        135
    55         21
    60          1
    61          3
    62          2
    63          6
    64          2
    65          1
    66          1
    71          1
    72          1
    77          1
    79          2
    80          9
    81        582
    82        999
    83         56
    84          1