##TITLE=Library Entry 30828
##JCAMP-DX=Revision 4.10 
##DATA TYPE=MASS SPECTRUM
##SAMPLE DESCRIPTION=Japan AIST/NIMC Database- Spectrum MS-IW-4865
##NAMES=HP
##CAS NAME=2-Amino-1,3-propanediol
##MOLFORM=C3H9NO2
##CAS REGISTRY NO=534-03-2
##MP= -300
##BP= -300
##MW= 91
##$RETENTION INDEX=0
##$CONDENSED SPECTRUM=NO
##NPOINTS= 59
##XYDATA=(XY..XY) 1 
    15         85
    17         46
    18        225
    19          8
    22          1
    26          4
    27         21
    28         87
    29         41
    30        123
    31         68
    32          2
    33          1
    37          1
    38          2
    39          8
    40          8
    41         29
    42        535
    43         91
    44        110
    45         49
    46          3
    47          2
    51          1
    52          1
    53          1
    54          5
    55          9
    56         11
    57          6
    58          9
    59         26
    60        999
    61         44
    62          4
    63          1
    65          1
    69          3
    70          5
    71         15
    72         18
    73          4
    74          9
    75         19
    76          4
    77          3
    79          3
    81          5
    84          1
    85          1
    86          5
    87          1
    88          1
    89          7
    90          3
    91          3
    92          6
    93          2