##TITLE=Library Entry 46529
##JCAMP-DX=Revision 4.10 
##DATA TYPE=MASS SPECTRUM
##SAMPLE DESCRIPTION=Japan AIST/NIMC Database- Spectrum MS-NW-1433
##NAMES=HP
##CAS NAME=2-Propanone, 1,3-dichloro-
##MOLFORM=C3H4Cl2O
##CAS REGISTRY NO=534-07-6
##MP= -300
##BP= -300
##MW= 126
##$RETENTION INDEX=868
##$CONDENSED SPECTRUM=NO
##NPOINTS= 49
##XYDATA=(XY..XY) 1 
    12          2
    13          8
    14         29
    15          3
    18          2
    24          2
    25          8
    26         35
    27        112
    28          6
    29         13
    31          2
    35          9
    36          9
    37         10
    38         11
    39         12
    40          2
    41         10
    42        238
    43          9
    44          1
    47         13
    48         27
    49        483
    50         11
    51        152
    52          2
    53          2
    55          1
    60          4
    61         17
    62         10
    63          9
    64          3
    65          2
    73          1
    76         21
    77        999
    78         26
    79        319
    80          7
    81          1
    91          4
   126        113
   127          4
   128         70
   129          2
   130         11