##TITLE=Library Entry 76865
##JCAMP-DX=Revision 4.10 
##DATA TYPE=MASS SPECTRUM
##SAMPLE DESCRIPTION=NIST Mass Spectrometry Data Center, 2011
##NAMES=HP
##CAS NAME=Thiourea, N,N'-dimethyl-
##MOLFORM=C3H8N2S
##CAS REGISTRY NO=534-13-4
##MP= -300
##BP= -300
##MW= 104
##$RETENTION INDEX=945
##$CONDENSED SPECTRUM=NO
##NPOINTS= 48
##XYDATA=(XY..XY) 1 
    15         17
    27          8
    28         89
    29         15
    30        255
    31         17
    32         18
    33          5
    34          2
    38          5
    39          5
    40         15
    41         18
    42        128
    43          8
    44         52
    45         60
    46         20
    47         68
    48          4
    49          3
    51          7
    52          2
    53          8
    55         39
    56         11
    57        131
    58          8
    59         69
    60        153
    61         10
    62         34
    63          1
    64          1
    67          1
    70         19
    71        224
    72         62
    73         47
    74        403
    75         44
    76         22
    87          1
    89          2
   104        999
   105         48
   106         47
   107          1