##TITLE=Library Entry 10620
##JCAMP-DX=Revision 4.10 
##DATA TYPE=MASS SPECTRUM
##SAMPLE DESCRIPTION=Chemical Concepts
##NAMES=HP
##CAS NAME=Bicyclo(3.1.1)heptane-2,3-diol, 2,6,6-trimethyl-
##MOLFORM=C10H18O2
##CAS REGISTRY NO=53404-49-2
##MP= -300
##BP= -300
##MW= 170
##$RETENTION INDEX=1244
##$CONDENSED SPECTRUM=NO
##NPOINTS= 104
##XYDATA=(XY..XY) 1 
    26         11
    27        195
    28         20
    29        144
    30          5
    31         37
    38          8
    39        214
    40         38
    41        518
    42         57
    43        999
    44         42
    45         54
    47          4
    50         11
    51         40
    52         17
    53        156
    54         41
    55        430
    56        166
    57        108
    58         99
    59         32
    60          3
    61          4
    62          3
    63         11
    64          4
    65         54
    66         21
    67        236
    68        101
    69        340
    70        113
    71        712
    72        403
    73         32
    74        144
    75         10
    77         85
    78         15
    79        156
    80         28
    81        373
    82        101
    83        331
    84         83
    85         42
    86          5
    87         63
    88          4
    89          4
    91         86
    92         40
    93        276
    94         55
    95        113
    96         32
    97         65
    98         45
    99        955
   100         99
   101         20
   103          5
   105         18
   106          5
   107         31
   108        332
   109        158
   110         26
   111        389
   112         40
   113         10
   114          4
   115          6
   117          5
   119         31
   120          4
   121         14
   122          4
   123         10
   124          5
   125          9
   126        315
   127         42
   128          5
   133          1
   134         10
   135         15
   136          6
   137         36
   138          5
   141          8
   142          5
   143          1
   152         18
   153          6
   154          0
   155          8
   156          0
   169          0
   170          0