##TITLE=Library Entry 40921
##JCAMP-DX=Revision 4.10 
##DATA TYPE=MASS SPECTRUM
##SAMPLE DESCRIPTION=Exported from NIST MS Search
##NAMES=HP
##CAS NAME=3-Octanol, 3-methyl-
##MOLFORM=C9H20O
##CAS REGISTRY NO=5340-36-3
##MP= -300
##BP= -300
##MW= 144
##$RETENTION INDEX=0
##$CONDENSED SPECTRUM=NO
##NPOINTS= 98
##XYDATA=(XY..XY) 1 
    12          1
    13          1
    14          3
    15         35
    16          3
    18         12
    19          4
    24          1
    25          3
    26         24
    27        253
    28         46
    29        282
    30          7
    31         51
    32          2
    33          1
    36          1
    37          3
    38          6
    39        103
    40         18
    41        219
    42         47
    43        312
    44         12
    45        159
    46          4
    47          1
    48          1
    49          2
    50          4
    51          9
    52          4
    53         28
    54         11
    55        412
    56         39
    57        106
    58         54
    59         77
    60          3
    61          1
    62          1
    63          2
    64          1
    65          4
    66          2
    67         12
    68          5
    69         90
    70         96
    71         76
    72         26
    73        999
    74         45
    75          3
    77          3
    78          1
    79          2
    80          1
    81          4
    82          6
    83         29
    84          6
    85         13
    86          2
    87          3
    88          1
    89          1
    91          2
    92          1
    93          1
    95          2
    96          2
    97         58
    98          7
    99          2
   100          1
   101          2
   102          1
   109          1
   111          2
   112          1
   113          2
   115        287
   116         22
   117          1
   124          1
   126         21
   127          4
   128          1
   129         94
   130          8
   131          1
   140          1
   142          1
   143          1