##TITLE=Library Entry 23350
##JCAMP-DX=Revision 4.10 
##DATA TYPE=MASS SPECTRUM
##SAMPLE DESCRIPTION=CARL DJERASSI DEPT OF CHEM STANFORD UNIV STANFORD CALIF
 94305
##NAMES=HP
##CAS NAME=Pentane, 2,2,4-trimethyl-4-nitro-
##MOLFORM=C8H17NO2
##CAS REGISTRY NO=5342-78-9
##MP= -300
##BP= -300
##MW= 159
##$RETENTION INDEX=0
##$CONDENSED SPECTRUM=NO
##NPOINTS= 46
##XYDATA=(XY..XY) 1 
    15         30
    16         10
    17         50
    18         22
    26         10
    27        151
    28        343
    29        272
    30        464
    32        181
    38         10
    39        202
    40         40
    41        565
    42         40
    43         60
    44         14
    50         10
    51         20
    52         10
    53         60
    54         20
    55        383
    56        202
    57        999
    58         40
    59         10
    65         20
    66         10
    67         30
    68         10
    69        121
    70         20
    75         10
    77         20
    78         10
    79         10
    81         30
    82         10
    83         10
    95         10
    96         10
    97        272
    98         20
   112        131
   113         20