##TITLE=Library Entry 76069
##JCAMP-DX=Revision 4.10 
##DATA TYPE=MASS SPECTRUM
##SAMPLE DESCRIPTION=Chemical Concepts
##NAMES=HP
##CAS NAME=Sulfone, methyl styryl
##MOLFORM=C9H10O2S
##CAS REGISTRY NO=5342-84-7
##MP= -300
##BP= -300
##MW= 182
##$RETENTION INDEX=0
##$CONDENSED SPECTRUM=NO
##NPOINTS= 99
##XYDATA=(XY..XY) 1 
    26          5
    27         32
    28          6
    29          6
    31          3
    33          1
    34          1
    37          3
    38         10
    39         55
    40          3
    41          7
    42          0
    43          1
    44          1
    45         20
    46          2
    47          2
    48          5
    49          2
    50         80
    51        210
    52         39
    53         10
    54          0
    55          1
    56          0
    57          1
    58          2
    59          0
    60          0
    61          5
    62         18
    63         57
    64          9
    65         38
    66          2
    67          1
    69          3
    70          1
    71          0
    73          3
    74         35
    75         40
    76         60
    77        325
    78         25
    79          7
    80          1
    81          1
    82          1
    84          0
    85          0
    86          2
    87          4
    88          1
    89         18
    90         13
    91        320
    92         26
    93          1
    94          0
    97          1
    98          3
    99          1
   100          0
   101         14
   102        999
   103        470
   104         41
   105          4
   106          0
   107          4
   108          1
   115          9
   116          2
   117          3
   118          9
   119         88
   120          9
   121          2
   122          0
   123          3
   133          2
   134          7
   135          3
   136          0
   137          1
   138          0
   149          1
   150          2
   151          1
   167         26
   168          3
   169          1
   182        234
   183         28
   184         13
   185          1