##TITLE=Library Entry 90763
##JCAMP-DX=Revision 4.10 
##DATA TYPE=MASS SPECTRUM
##SAMPLE DESCRIPTION=V.G.Zaikin, TIPS, Russian Acad. Sci.
##NAMES=HP
##CAS NAME=2-Furanmethanamine, tetrahydro-N-[(tetrahydro-2-furanyl)methyl]-
##MOLFORM=C10H19NO2
##CAS REGISTRY NO=5343-16-8
##MP= -300
##BP= -300
##MW= 185
##$RETENTION INDEX=0
##$CONDENSED SPECTRUM=NO
##NPOINTS= 65
##XYDATA=(XY..XY) 1 
    36         17
    37          6
    38         17
    39        118
    40         33
    41        353
    42        247
    43        604
    44        177
    45        104
    46          8
    50          6
    51         12
    52          6
    53         31
    54         29
    55        155
    56         89
    57        113
    58         86
    59         15
    66         73
    67         53
    69         45
    70        465
    71        202
    72         34
    79         11
    80         11
    81         22
    82         22
    83         75
    84        135
    85        109
    86         27
    87         11
    88          6
    89         15
    94         11
    95         13
    96         36
    97         17
    98         63
    99         15
   100         14
   101         52
   102         11
   109         11
   110          6
   111         11
   112         26
   113         28
   114        999
   115        106
   116          8
   140          7
   141          2
   142         29
   143          2
   155         10
   156          9
   157          1
   184          5
   185         21
   186          3