##TITLE=Library Entry 10074
##JCAMP-DX=Revision 4.10 
##DATA TYPE=MASS SPECTRUM
##SAMPLE DESCRIPTION=NIST Mass Spectrometry Data Center
##NAMES=HP
##CAS NAME=2-Butanol, 3-methyl-, acetate
##MOLFORM=C7H14O2
##CAS REGISTRY NO=5343-96-4
##MP= -300
##BP= -300
##MW= 130
##$RETENTION INDEX=830
##$CONDENSED SPECTRUM=NO
##NPOINTS= 51
##XYDATA=(XY..XY) 1 
    14          8
    15         58
    16          2
    17          1
    19          1
    26          8
    27         83
    28         20
    29         52
    30          1
    31          4
    37          2
    38          5
    39         71
    40         10
    41        100
    42         57
    43        999
    44         31
    45         37
    46          1
    50          4
    51          5
    52          2
    53         14
    54          5
    55        101
    56          8
    57          3
    58          1
    59          1
    60          1
    61          7
    62          1
    63          1
    65          1
    67          2
    68          1
    69         11
    70        123
    71         54
    72          5
    73         17
    74          1
    86         60
    87        262
    88         12
    89          1
   115         22
   116          1
   130          1