##TITLE=Library Entry 18168
##JCAMP-DX=Revision 4.10 
##DATA TYPE=MASS SPECTRUM
##SAMPLE DESCRIPTION=A.A.Kutin, Moscow, Russia
##NAMES=HP
##CAS NAME=1,3,5-Triazin-2(1H)-one, 6-dimethylamino-4-(4-pyridyl)-
##MOLFORM=C10H11N5O
##CAS REGISTRY NO=53434-88-1
##MP= -300
##BP= -300
##MW= 217
##$RETENTION INDEX=0
##$CONDENSED SPECTRUM=NO
##NPOINTS= 118
##XYDATA=(XY..XY) 1 
    33         30
    34         32
    36         27
    37         74
    38         99
    39        172
    40        420
    41        148
    42        207
    43        280
    44        901
    45        170
    46         16
    48         20
    49        106
    50        590
    51        999
    52        409
    53        102
    54         25
    55        149
    56         62
    57         84
    58         51
    59         76
    60         48
    61          9
    62          7
    63         20
    64         43
    65         23
    66         34
    67         47
    68         44
    69        163
    70         53
    71         66
    72         32
    73         28
    74         19
    75         70
    76         85
    77        151
    78        983
    79        169
    80         25
    81         30
    82         14
    83         73
    84         31
    85         27
    87         16
    88         17
    91         22
    92         14
    93         25
    94         45
    95         29
    96         25
    97         33
    98         66
    99         11
   102         16
   103         30
   104        132
   105        539
   106        640
   107         58
   108         11
   110          6
   111         16
   112         25
   113         10
   116          9
   117          5
   118         41
   119         27
   120         30
   121        145
   122        773
   123        740
   124         70
   126         36
   127          5
   129         27
   130         37
   131         33
   132          8
   133          5
   134         13
   135         11
   136          5
   137          5
   139         31
   141          5
   143          5
   145          6
   146         13
   147         19
   148        130
   149         96
   150         21
   154          5
   159          9
   160         10
   164          8
   172          8
   173         16
   174         28
   175          8
   188         95
   189         17
   190          6
   202        119
   203         24
   216         32
   217        610
   218         66