##TITLE=Library Entry 3524
##JCAMP-DX=Revision 4.10 
##DATA TYPE=MASS SPECTRUM
##SAMPLE DESCRIPTION=TNO Volatile Compounds in Food - Chemical Concepts
##NAMES=HP
##CAS NAME=2-Undecenal, E-
##MOLFORM=C11H20O
##CAS REGISTRY NO=53448-07-0
##MP= -300
##BP= -300
##MW= 168
##$RETENTION INDEX=1365
##$CONDENSED SPECTRUM=NO
##NPOINTS= 87
##XYDATA=(XY..XY) 1 
    26         10
    27        338
    28        235
    29        499
    30          3
    31         11
    32          9
    33          2
    34          4
    36          8
    38         25
    39        312
    40         56
    41        999
    42        167
    43        685
    44          7
    45          7
    48          3
    50         16
    51         34
    52         18
    53         88
    54        116
    55        678
    56        210
    57        529
    58         33
    59         23
    64          8
    65         28
    66         30
    67        171
    68        117
    69        308
    70        755
    71         76
    72         13
    73         23
    74         11
    75         33
    77          3
    78          7
    79         79
    80         60
    81        134
    82        174
    83        375
    84        168
    85         21
    86         43
    87          1
    91         10
    92         17
    93         49
    94         27
    95         75
    96         41
    97        118
    98         96
    99         10
   100         18
   101          7
   107         31
   108         20
   109         21
   110          8
   111         42
   112         54
   113          7
   117          2
   121         51
   122         17
   123          8
   124         58
   125         21
   126          5
   128          4
   130          4
   133          1
   135          2
   136          1
   137          4
   143          9
   147          5
   150         10
   167          7