##TITLE=Library Entry 98994
##JCAMP-DX=Revision 4.10 
##DATA TYPE=MASS SPECTRUM
##SAMPLE DESCRIPTION=Japan AIST/NIMC Database- Spectrum MS-NW-6240
##NAMES=HP
##CAS NAME=Benzil monohydrazone
##MOLFORM=C14H12N2O
##CAS REGISTRY NO=5344-88-7
##MP= -300
##BP= -300
##MW= 224
##$RETENTION INDEX=0
##$CONDENSED SPECTRUM=NO
##NPOINTS= 109
##XYDATA=(XY..XY) 1 
    16          1
    17          7
    18         29
    26          2
    27          9
    28         18
    29          1
    32          1
    37          2
    38          5
    39         21
    40          2
    41          3
    43          2
    44          1
    49          2
    50         38
    51        139
    52         12
    53          2
    57          1
    61          2
    62          7
    63         20
    64          6
    65         11
    66          2
    69          2
    71          1
    73          1
    74         11
    75         14
    76         44
    77        658
    78         47
    79          2
    81          1
    82          3
    83          1
    85          1
    86          3
    87          4
    88          3
    89         11
    90          5
    91         14
    92         12
    93          4
    97          1
    98          1
    99          1
   100          1
   101          1
   102          4
   103         42
   104         20
   105        322
   106         28
   107          2
   110          1
   111          2
   112          2
   113          2
   114          1
   115          4
   117          1
   118          9
   119        999
   120         86
   121          6
   122          2
   126          2
   127          1
   128          1
   135          2
   137          1
   139          5
   140          1
   141          1
   145          3
   149          1
   150          2
   151          4
   152          8
   153          2
   163          4
   164          6
   165         34
   166         10
   167          6
   168          2
   176          4
   177          6
   178         15
   179          4
   180          6
   181          2
   193          2
   194          7
   195          5
   196         33
   197          6
   206          1
   207          1
   222          3
   223         59
   224        338
   225         56
   226          5