##TITLE=Library Entry 114617
##JCAMP-DX=Revision 4.10 
##DATA TYPE=MASS SPECTRUM
##SAMPLE DESCRIPTION=LAC, NIDDK, NIH, Bethesda, MD 20892
##NAMES=HP
##CAS NAME=1,2,3,4-Tetrahydro-2-naphthoic acid
##MOLFORM=C11H12O2
##CAS REGISTRY NO=53440-12-3
##MP= -300
##BP= -300
##MW= 176
##$RETENTION INDEX=0
##$CONDENSED SPECTRUM=NO
##NPOINTS= 72
##XYDATA=(XY..XY) 1 
    41         42
    42          7
    43         37
    45        555
    46         18
    47          7
    50         93
    51        242
    52         66
    53         85
    55         35
    57         12
    58          2
    59          1
    60          9
    61         16
    62         44
    63        166
    64         67
    65         93
    66          5
    69          4
    71          4
    73          7
    74         28
    75         34
    76         34
    77        179
    78        142
    79         34
    81          6
    86          8
    87         18
    88          2
    89         65
    91        379
    92         22
    98          6
    99          1
   101         15
   102         49
   103         97
   104        221
   105         31
   107          1
   113          4
   115        332
   116        117
   117         52
   118          3
   119          2
   126         20
   127         81
   128        148
   129        303
   130        999
   131        334
   132         31
   133         13
   143          3
   144          1
   147         14
   148          1
   157          8
   158         69
   159         23
   161         15
   162          4
   175         11
   176        302
   177         38
   178          3