##TITLE=Library Entry 19611
##JCAMP-DX=Revision 4.10 
##DATA TYPE=MASS SPECTRUM
##SAMPLE DESCRIPTION=Mark Whitten, Florida Museum of Natural History, U. of
 Florida
##NAMES=HP
##CAS NAME=Lilac aldehyde D
##MOLFORM=C10H16O2
##CAS REGISTRY NO=53447-47-5
##MP= -300
##BP= -300
##MW= 168
##$RETENTION INDEX=1169
##$CONDENSED SPECTRUM=NO
##NPOINTS= 65
##XYDATA=(XY..XY) 1 
    41        532
    42        100
    43        724
    44         23
    45         21
    50         20
    51         44
    52         24
    53        160
    55        999
    56         70
    57         94
    58         42
    59         13
    62          3
    63          7
    65         44
    67        261
    68        156
    69        206
    70         55
    71        330
    72         65
    73          8
    77         70
    78         10
    79        106
    80         70
    81        172
    82         79
    83        134
    84         26
    85         29
    86          7
    87          7
    91         87
    93        317
    94         57
    95         76
    96         26
    97         53
    98          9
    99          4
   100          6
   105          7
   107         68
   108         10
   109         17
   110         95
   111        174
   112         21
   113         10
   121         14
   122         28
   123          8
   124          4
   125         65
   126          8
   135          5
   139          5
   140          8
   141         10
   150          6
   153        151
   154         14