##TITLE=Library Entry 19613
##JCAMP-DX=Revision 4.10 
##DATA TYPE=MASS SPECTRUM
##SAMPLE DESCRIPTION=Mark Whitten, Florida Museum of Natural History, U. of
 Florida
##NAMES=HP
##CAS NAME=Lilac aldehyde C
##MOLFORM=C10H16O2
##CAS REGISTRY NO=53447-48-6
##MP= -300
##BP= -300
##MW= 168
##$RETENTION INDEX=0
##$CONDENSED SPECTRUM=NO
##NPOINTS= 69
##XYDATA=(XY..XY) 1 
    41        591
    42        114
    43        911
    44         27
    45         21
    50         19
    51         51
    52         25
    53        174
    55        999
    56         72
    57         97
    58         54
    59         17
    61          2
    62          3
    63          7
    65         50
    67        332
    68        176
    69        234
    70         51
    71        345
    72         74
    73          7
    77         75
    79        110
    80         69
    81        192
    82         97
    83        146
    84         31
    85         36
    86          4
    87          7
    91         92
    93        373
    94         59
    95         77
    96         26
    97         48
    98         10
    99          4
   100          8
   105          8
   107         63
   108         11
   109         20
   110        124
   111        221
   112         23
   113         16
   117          1
   121         17
   122         27
   123         11
   124          4
   125         54
   126          6
   132          1
   135          5
   137          2
   139          6
   140          7
   141         18
   150          5
   153        113
   154         11
   168          2