##TITLE=Library Entry 19608
##JCAMP-DX=Revision 4.10 
##DATA TYPE=MASS SPECTRUM
##SAMPLE DESCRIPTION=Mark Whitten, Florida Museum of Natural History, U. of
 Florida
##NAMES=HP
##CAS NAME=Lilac aldehyde A
##MOLFORM=C10H16O2
##CAS REGISTRY NO=53447-46-4
##MP= -300
##BP= -300
##MW= 168
##$RETENTION INDEX=1145
##$CONDENSED SPECTRUM=NO
##NPOINTS= 60
##XYDATA=(XY..XY) 1 
    41        607
    43        981
    44         31
    45         26
    50         24
    51         54
    52         28
    53        188
    55        999
    56         78
    57        108
    58         61
    59         15
    63          8
    65         59
    67        380
    68        189
    69        236
    70         47
    71        298
    72         65
    73          7
    77         81
    78         13
    79        111
    80         53
    81        209
    82        116
    83        158
    84         31
    85         39
    87          9
    91        104
    93        420
    94         60
    95         85
    96         21
    97         50
    98         10
    99          6
   100          9
   105          8
   107         57
   108         12
   109         23
   110        164
   111        273
   112         28
   113         16
   121         24
   122         21
   123         12
   125         54
   126          6
   135          5
   139          9
   140          8
   141         24
   153        110
   154         14