##TITLE=Library Entry 19606
##JCAMP-DX=Revision 4.10 
##DATA TYPE=MASS SPECTRUM
##SAMPLE DESCRIPTION=Mark Whitten, Florida Museum of Natural History, U. of
 Florida
##NAMES=HP
##CAS NAME=Lilac aldehyde B
##MOLFORM=C10H16O2
##CAS REGISTRY NO=53447-45-3
##MP= -300
##BP= -300
##MW= 168
##$RETENTION INDEX=1154
##$CONDENSED SPECTRUM=NO
##NPOINTS= 64
##XYDATA=(XY..XY) 1 
    41        575
    42        113
    43        952
    44         24
    45         25
    50         20
    51         49
    52         28
    53        184
    55        999
    56         73
    57         97
    58         63
    59         15
    63          8
    65         54
    67        406
    68        189
    69        243
    70         47
    71        290
    72         66
    73          7
    77         89
    78         12
    79        109
    80         52
    81        225
    82        119
    83        164
    84         28
    85         38
    86          5
    87         10
    91        101
    93        427
    94         57
    95         84
    96         22
    97         50
    98         10
    99          6
   100         10
   105          7
   107         59
   108         10
   109         23
   110        173
   111        296
   112         26
   113         17
   121         24
   122         23
   123         12
   124          4
   125         54
   126          8
   135          6
   139          9
   140         10
   141         25
   150          7
   153        120
   154         12