##TITLE=Library Entry 41208
##JCAMP-DX=Revision 4.10 
##DATA TYPE=MASS SPECTRUM
##SAMPLE DESCRIPTION=Japan AIST/NIMC Database- Spectrum MS-NW-1813
##NAMES=HP
##CAS NAME=Pentanedioic acid, 3-ethyl-3-methyl-
##MOLFORM=C8H14O4
##CAS REGISTRY NO=5345-01-7
##MP= -300
##BP= -300
##MW= 174
##$RETENTION INDEX=0
##$CONDENSED SPECTRUM=NO
##NPOINTS= 98
##XYDATA=(XY..XY) 1 
    14          9
    15         29
    16          2
    17          3
    18         10
    26         20
    27        367
    28         58
    29        344
    30          8
    31         67
    32          2
    36          3
    37          5
    38         19
    39        325
    40         52
    41        736
    42        121
    43        418
    44         14
    45        152
    46          4
    47          4
    49          2
    50         15
    51         32
    52         14
    53        155
    54         43
    55        527
    56         45
    57         70
    58         30
    59         83
    60        300
    61         26
    62          3
    63          5
    64          1
    65         13
    66          6
    67         81
    68        124
    69        911
    70        196
    71        354
    72         66
    73        999
    74         45
    75          3
    77          3
    79          9
    80          2
    81         99
    82         32
    83         25
    84         47
    85         50
    86         16
    87          9
    93          2
    94         25
    95         22
    96         75
    97        533
    98         68
    99        291
   100         29
   101          4
   103          9
   108          4
   109         33
   110         20
   111         12
   112          5
   113         60
   114        210
   115        777
   116         52
   117          5
   123          3
   126         22
   127        581
   128        211
   129         19
   130          3
   138         23
   139          2
   140          1
   141         26
   142          2
   145         11
   146          1
   155          1
   156         68
   157         26
   158          2