##TITLE=Library Entry 8586
##JCAMP-DX=Revision 4.10 
##DATA TYPE=MASS SPECTRUM
##SAMPLE DESCRIPTION=LAC, NIDDK, NIH, Bethesda, MD 20892
##NAMES=HP
##CAS NAME=2,4,6-Tribromophenyl-.alpha.,d-xyloside triacetate
##MOLFORM=C17H17Br3O8
##CAS REGISTRY NO=5345-86-8
##MP= -300
##BP= -300
##MW= 586
##$RETENTION INDEX=0
##$CONDENSED SPECTRUM=NO
##NPOINTS= 99
##XYDATA=(XY..XY) 1 
    41         21
    43        999
    45         19
    47          5
    48          2
    52          1
    53          3
    54          1
    55          7
    56          2
    57         12
    58          4
    59          4
    60         12
    61         17
    62          3
    63          2
    65          2
    66          1
    68         52
    69        104
    70          5
    71         11
    72          0
    73         13
    74         16
    75          1
    76          0
    77          5
    78          3
    79          1
    80          0
    81          3
    82          6
    83          3
    84          0
    85         30
    86         40
    87         19
    88          1
    90          0
    91          4
    92          1
    93          3
    96          1
    97         19
    98          3
    99         13
   100          9
   101          0
   102         27
   103         26
   104          0
   105         10
   106          1
   107          0
   110          1
   111          9
   112          1
   113          2
   114          1
   115         48
   116          4
   117          1
   122          0
   124          1
   126          0
   127         10
   128         99
   129         14
   130          1
   139         12
   140          1
   141          1
   142          2
   143          1
   144          3
   145          7
   147          0
   155          1
   156          0
   157         44
   158          2
   170         77
   171         17
   172          1
   187          0
   199          8
   200          0
   223          0
   230          0
   250          0
   252          0
   259          7
   260          0
   328          2
   330          8
   332          8
   334          3