##TITLE=Library Entry 12979
##JCAMP-DX=Revision 4.10 
##DATA TYPE=MASS SPECTRUM
##SAMPLE DESCRIPTION=Japan AIST/NIMC Database- Spectrum MS-NW-9210
##NAMES=HP
##CAS NAME=.alpha.-D-Cellobiose octaacetate
##MOLFORM=C28H38O19
##CAS REGISTRY NO=5346-90-7
##MP= -300
##BP= -300
##MW= 678
##$RETENTION INDEX=0
##$CONDENSED SPECTRUM=NO
##NPOINTS= 190
##XYDATA=(XY..XY) 1 
    14          3
    15         12
    16          1
    17          1
    18          3
    26          1
    27          3
    28         10
    29          5
    31          1
    39          3
    40          1
    41          7
    42         13
    43        999
    44         27
    45         19
    51          1
    52          2
    53          6
    54          4
    55          8
    56          2
    57          6
    58          1
    60         19
    61         11
    62          1
    65          1
    66          1
    67          1
    68          5
    69         52
    70         33
    71         11
    72          1
    73         24
    74          2
    79          1
    80         13
    81        190
    82         23
    83          9
    84          5
    85         39
    86         12
    87          4
    89          2
    94          2
    95          2
    96          5
    97         84
    98         97
    99         32
   100          3
   101          8
   102         29
   103         64
   104          3
   108          1
   109        323
   110         39
   111         15
   112         91
   113         17
   114          9
   115         87
   116         11
   117          2
   122          1
   123          3
   124          1
   125          9
   126         20
   127        120
   128         15
   129          6
   130          1
   131          4
   135          1
   138          1
   139         59
   140         70
   141         54
   142          9
   143         12
   144         24
   145         81
   146          6
   147          1
   151          3
   152         13
   153          9
   154          1
   155         12
   156          3
   157         71
   158         18
   159          3
   161          1
   167          3
   168         14
   169        655
   170         62
   171         14
   172          1
   173          2
   175          1
   181          1
   182         12
   183          4
   184          4
   185          5
   186          3
   187         16
   188          2
   193          1
   197          7
   198          1
   199         19
   200         49
   201          9
   202          1
   203          4
   210          3
   211         48
   212          7
   213          5
   214          1
   215          6
   216          1
   217          2
   221          1
   227          2
   228          6
   229         27
   230          3
   231          1
   241          1
   242         50
   243         43
   244          6
   245          9
   246          2
   247          1
   253          1
   257          2
   259          3
   270          2
   271         40
   272          6
   273          1
   287          6
   288          2
   289          5
   290          1
   294          1
   295          1
   302          2
   312          1
   317         34
   318          5
   319          1
   330          3
   331        274
   332         43
   333          8
   334          1
   343          1
   347          3
   354          4
   355          1
   359          1
   372          1
   383          2
   396          1
   397          3
   401          2
   414          3
   415          1
   443          3
   456          8
   457          5
   458          1
   610          2
   611          5
   612          1
   614          1
   615          9
   619          8