##TITLE=Library Entry 88099
##JCAMP-DX=Revision 4.10 
##DATA TYPE=MASS SPECTRUM
##SAMPLE DESCRIPTION=V.A.Korolev, Moscow, Russia
##NAMES=HP
##CAS NAME=3-[(Thiophen-2-yl)carbonyl]aniline
##MOLFORM=C11H9NOS
##CAS REGISTRY NO=53473-84-0
##MP= -300
##BP= -300
##MW= 203
##$RETENTION INDEX=0
##$CONDENSED SPECTRUM=NO
##NPOINTS= 107
##XYDATA=(XY..XY) 1 
    37         14
    38         61
    39        429
    40         45
    41         46
    42         16
    43          4
    44         20
    45         47
    46          1
    48          3
    49          2
    50         27
    51         31
    52         52
    53         22
    54         11
    55          3
    57         36
    58         14
    59          1
    60          2
    61         11
    62         36
    63        104
    64         72
    65        436
    66         64
    67          5
    69         20
    70          3
    71          2
    73          9
    74         18
    75         17
    76         11
    77         28
    78          5
    79          6
    80          3
    81         16
    82         21
    83        136
    84         13
    85          9
    86          4
    88         38
    89         15
    90         17
    91         38
    92        401
    93         35
    94          1
    95          1
    97          2
    98          2
   102         22
   103         11
   104          4
   109          1
   110          3
   111        999
   112         64
   113         52
   114          6
   115         24
   116          4
   117          9
   118          2
   119          3
   120        381
   121         34
   122          2
   128          1
   129          1
   130         56
   131          6
   134          2
   140          6
   141          4
   142          2
   143         16
   145          1
   147         15
   148          2
   149          2
   158          9
   159          6
   160          1
   170         24
   171          1
   172          1
   173         11
   174         27
   175        163
   176         19
   177          4
   178          1
   185          8
   186         55
   187         36
   188          4
   189          1
   202         61
   203        411
   204         60
   205         21