##TITLE=Library Entry 7577
##JCAMP-DX=Revision 4.10 
##DATA TYPE=MASS SPECTRUM
##SAMPLE DESCRIPTION=Div. of Experiment Therapeutics WRAIR, WRAMC, Washingto
n DC 20307
##NAMES=HP
##CAS NAME=Diethyl acetamido[3-[2-oxo-3-oxazolidinyl]propyl]malonate
##MOLFORM=C15H24N2O7
##CAS REGISTRY NO=53478-25-4
##MP= -300
##BP= -300
##MW= 344
##$RETENTION INDEX=0
##$CONDENSED SPECTRUM=NO
##NPOINTS= 127
##XYDATA=(XY..XY) 1 
    41        216
    43        999
    44        205
    45         59
    47         25
    49         37
    51         17
    54        149
    56        634
    57         37
    58          3
    59         10
    60          7
    63          5
    64          1
    65         14
    68        382
    70        233
    71         49
    72          1
    73          4
    74          9
    77          5
    78          1
    79          3
    80         10
    81          3
    82         32
    84        403
    85         21
    86         25
    88         87
    89          1
    91         25
    92         13
    94         22
    96         65
    97         22
    98         12
   100        200
   101         23
   102          6
   107          3
   109          2
   111        155
   112         46
   113        100
   114         52
   116        169
   117          2
   118          3
   122          6
   123          5
   125         40
   126         20
   128         84
   129         11
   130          6
   137         11
   138          9
   139        193
   140         31
   142        129
   143         38
   144          5
   146          2
   149          1
   150          1
   153         20
   155        173
   157         16
   158        174
   159          2
   165          6
   166         18
   169        164
   171        139
   172          5
   173         22
   174          9
   175         24
   181          7
   182          2
   183         10
   184         10
   185          3
   186         10
   188          7
   192          2
   193          7
   195          4
   196          4
   197         11
   198          5
   199          2
   200          5
   202         22
   209         50
   211         82
   212          2
   214         67
   215          4
   217         40
   225        111
   227        101
   229        404
   230         12
   231          2
   240          3
   241         11
   244         25
   253          9
   254          2
   255          1
   257          9
   271         74
   272          6
   282         17
   283          4
   298         16
   299         25
   300         28
   301         30
   303          1
   344         19
   345          3
   346          1