##TITLE=Library Entry 70847
##JCAMP-DX=Revision 4.10 
##DATA TYPE=MASS SPECTRUM
##SAMPLE DESCRIPTION=Exported from NIST MS Search
##NAMES=HP
##CAS NAME=Piperidine, 2,3-dimethyl-
##MOLFORM=C7H15N
##CAS REGISTRY NO=5347-68-2
##MP= -300
##BP= -300
##MW= 113
##$RETENTION INDEX=882
##$CONDENSED SPECTRUM=NO
##NPOINTS= 83
##XYDATA=(XY..XY) 1 
    24          1
    25          4
    26         67
    27        398
    28        544
    29        297
    30        298
    31         15
    33          1
    34          1
    36          2
    37         14
    38         40
    39        345
    40         76
    41        434
    42        688
    43        514
    44        365
    45        100
    46          8
    47          3
    48          2
    49          6
    50         29
    51         52
    52         29
    53         79
    54         62
    55        142
    56        594
    57        226
    58        241
    59         21
    60         13
    61          5
    62          9
    63         22
    64         11
    65         46
    66         42
    67         48
    68         67
    69        104
    70        363
    71        294
    72         43
    73          9
    74          5
    76          3
    77         27
    78         14
    79         55
    80         36
    81         24
    82         46
    83         21
    84         98
    85         29
    86         17
    87          7
    88          2
    89          1
    90          1
    91          6
    92         32
    93         10
    94         15
    95         15
    96         37
    97         19
    98        999
    99         80
   100          9
   106          9
   107         15
   108          1
   109          5
   110         15
   111          8
   112        234
   113        143
   114         24