##TITLE=Library Entry 9473
##JCAMP-DX=Revision 4.10 
##DATA TYPE=MASS SPECTRUM
##SAMPLE DESCRIPTION=A.A.Kutin, Moscow, Russia
##NAMES=HP
##CAS NAME=Furan-2-carbaldehyde, (N'-nitroamidino)hydrazone
##MOLFORM=C6H7N5O3
##CAS REGISTRY NO=5347-94-4
##MP= -300
##BP= -300
##MW= 197
##$RETENTION INDEX=0
##$CONDENSED SPECTRUM=NO
##NPOINTS= 112
##XYDATA=(XY..XY) 1 
    33          8
    34          4
    36         24
    37        120
    38        232
    39        523
    40         81
    41        117
    42        283
    43        999
    44        108
    46        228
    48          8
    50        299
    51        432
    52        862
    53        357
    54        203
    55         94
    56         18
    57         26
    58         55
    59          9
    60          6
    61          4
    62          8
    63         18
    64         52
    65         35
    66         64
    67         31
    68         35
    69         20
    70         11
    71          4
    72         13
    73          3
    74          1
    75          2
    76          4
    77          7
    78         18
    79         88
    80        247
    81        892
    82         79
    83         10
    84          8
    85          4
    86          0
    87          0
    88          2
    89          0
    90          1
    91          5
    93        102
    94        170
    95        151
    96         50
    97          4
    98          1
   102          1
   103          0
   104          4
   106         28
   107         15
   108         46
   109        242
   110         34
   111          3
   112          1
   113          0
   115          0
   116          0
   118          0
   119          4
   120          8
   121         22
   122         35
   123        153
   124         15
   125          1
   127          0
   128          0
   129          0
   133          4
   135         73
   136         12
   137          5
   138          0
   139          0
   143          0
   144          0
   146          0
   148          2
   150         64
   151        291
   152         72
   153          8
   165          0
   167          0
   169          0
   171          1
   179          0
   181          8
   182          1
   183          0
   193          0
   194          2
   197        213
   198         16
   199          1