##TITLE=Library Entry 45629
##JCAMP-DX=Revision 4.10 
##DATA TYPE=MASS SPECTRUM
##SAMPLE DESCRIPTION=Chuck Anderson, Aldrich Chemical Co.
##NAMES=HP
##CAS NAME=3-(Methylthio)-2-butanone
##MOLFORM=C5H10OS
##CAS REGISTRY NO=53475-15-3
##MP= -300
##BP= -300
##MW= 118
##$RETENTION INDEX=0
##$CONDENSED SPECTRUM=NO
##NPOINTS= 60
##XYDATA=(XY..XY) 1 
    13          0
    14          7
    15         54
    16          0
    18          0
    25          1
    26         21
    27         87
    28         28
    29         27
    31          1
    32          1
    33          1
    34          0
    35          3
    37          1
    38          3
    39         19
    40          1
    41        269
    42         31
    43        263
    44          8
    45         71
    46         24
    47        217
    48         14
    49         64
    50          4
    51          5
    52          0
    53          7
    54          1
    55         12
    56          6
    57         11
    58         16
    59         65
    60         21
    61         24
    62          1
    63          1
    64          1
    69          1
    70          0
    71          9
    72          9
    73          4
    74         36
    75        999
    76         43
    77         48
    78          1
    85          0
    87          2
   103          0
   118        325
   119         21
   120         15
   121          0