##TITLE=Library Entry 28614
##JCAMP-DX=Revision 4.10 
##DATA TYPE=MASS SPECTRUM
##SAMPLE DESCRIPTION=Dennis Rohrbaugh, CBDCOM/ERDEC, Edgewood, MD
##NAMES=HP
##CAS NAME=Phosphonotriamide, N,N',N''-tri(isopropyl)-
##MOLFORM=C9H24N3OP
##CAS REGISTRY NO=53484-45-0
##MP= -300
##BP= -300
##MW= 221
##$RETENTION INDEX=0
##$CONDENSED SPECTRUM=NO
##NPOINTS= 33
##XYDATA=(XY..XY) 1 
    45         31
    46         24
    47         21
    56         44
    58        999
    59         50
    60         87
    61         14
    64         95
    78         44
    79        502
    80         20
    86         23
    88         14
    90         13
    95         67
   104         22
   105         58
   106         27
   107         17
   119         16
   121        359
   122         23
   147         28
   149         34
   161         10
   163        336
   164         48
   165         49
   206        154
   207         16
   221         42
   222          4