##TITLE=Library Entry 59274
##JCAMP-DX=Revision 4.10 
##DATA TYPE=MASS SPECTRUM
##SAMPLE DESCRIPTION=Japan AIST/NIMC Database- Spectrum MS-NW-9425
##NAMES=HP
##CAS NAME=1-Methyl-2-propynyl p-toluenesulfonate
##MOLFORM=C11H12O3S
##CAS REGISTRY NO=53487-52-8
##MP= -300
##BP= -300
##MW= 224
##$RETENTION INDEX=0
##$CONDENSED SPECTRUM=NO
##NPOINTS= 117
##XYDATA=(XY..XY) 1 
    14          1
    15          8
    25          4
    26         22
    27        168
    28         13
    29          2
    32          3
    34          1
    36          3
    37          9
    38         21
    39        112
    40         10
    41         68
    42          3
    43         28
    44          7
    45          6
    48          4
    49         16
    50         93
    51        147
    52        170
    53        357
    54         16
    55          3
    56          1
    57          2
    61          2
    62         14
    63         61
    64         19
    65        272
    66         16
    67          7
    68          7
    69         98
    70          5
    71          1
    73          1
    74          5
    75          6
    76          5
    77         59
    78         12
    79         70
    80         20
    81          2
    82          2
    85          1
    86          2
    87          3
    88          3
    89         66
    90         57
    91        999
    92        132
    93          9
    94          1
    95          2
   102          1
   103          1
   104          1
   105          3
   106          2
   107        175
   108        156
   109         12
   110          1
   111          9
   113          1
   115         11
   116          8
   117         19
   118          2
   119          6
   121          2
   122          1
   123          6
   124          5
   125          1
   127          4
   128          9
   129         44
   130          6
   131          9
   132         23
   133          2
   134         12
   139        349
   140         32
   141         19
   142          3
   143          8
   144        229
   145         40
   146          3
   155        183
   156         19
   157         13
   158          2
   159          3
   160          1
   170          1
   171          4
   172        335
   173         30
   174         17
   175          1
   180          4
   181          1
   195          1
   209          3
   211          1
   224         11
   225          1