##TITLE=Library Entry 21450
##JCAMP-DX=Revision 4.10 
##DATA TYPE=MASS SPECTRUM
##SAMPLE DESCRIPTION=V.G.Zaikin, TIPS, Russian Acad. Sci.
##NAMES=HP
##CAS NAME=Cholest-4-en-3-one, 26-(acetyloxy)-
##MOLFORM=C29H46O3
##CAS REGISTRY NO=53481-63-3
##MP= -300
##BP= -300
##MW= 442
##$RETENTION INDEX=0
##$CONDENSED SPECTRUM=NO
##NPOINTS= 144
##XYDATA=(XY..XY) 1 
    53        142
    54         67
    55        999
    56        270
    57        418
    60         69
    61         83
    65         64
    66         22
    67        474
    68        122
    69        695
    70        120
    71        156
    73        382
    77        192
    78         44
    79        474
    80         75
    81        594
    82         94
    83        368
    84         47
    85         72
    87         64
    91        410
    92         67
    93        441
    94        128
    95        483
    96         69
    97        184
    98         36
   103         41
   104         39
   105        365
   106        103
   107        463
   108        120
   109        354
   110         47
   111        117
   115        111
   116         22
   117        103
   118         25
   119        279
   120         35
   121        287
   122        236
   123        268
   124        932
   125        111
   128         36
   129         72
   130         41
   131        212
   132         86
   133        268
   134        142
   135        332
   136        131
   137        159
   138         47
   141         30
   142         33
   143         86
   144         41
   145        156
   146         83
   147        346
   148        229
   149        273
   150         55
   155         41
   156         27
   157         78
   158         30
   159        136
   160         50
   161        159
   162         72
   163         78
   165         30
   169         27
   171         64
   172         33
   173        106
   174         81
   175         97
   176         27
   177         30
   183         25
   184         25
   185         72
   186         36
   187        111
   188         47
   189         61
   191         16
   211        111
   212         30
   213         47
   214         25
   215         50
   216         13
   217         53
   225         19
   226         16
   227         13
   228         13
   229        388
   230         78
   231         27
   243         33
   244         72
   245         53
   269         34
   270         17
   271         97
   272         20
   297         11
   299         17
   303         20
   305         22
   318         34
   319        132
   320         17
   352         11
   357         31
   358         20
   367         28
   382         68
   383         28
   385         34
   400        227
   401         40
   424         17
   427         31
   428         20
   442        324
   443        103
   444         16
   445          2