##TITLE=Library Entry 51291
##JCAMP-DX=Revision 4.10 
##DATA TYPE=MASS SPECTRUM
##SAMPLE DESCRIPTION=A.A.Kutin, Moscow, Russia
##NAMES=HP
##CAS NAME=Tricyclo[6.4.0.0(2,7)]dodecane
##MOLFORM=C12H20
##CAS REGISTRY NO=53485-49-7
##MP= -300
##BP= -300
##MW= 164
##$RETENTION INDEX=1344
##$CONDENSED SPECTRUM=NO
##NPOINTS= 47
##XYDATA=(XY..XY) 1 
    33         48
    38          8
    39        237
    40        123
    41        501
    42         38
    43         57
    44         21
    50          4
    51         33
    52         33
    53        160
    54        143
    55        499
    56         24
    65         69
    66         86
    67        679
    68        143
    69         43
    77        186
    79        530
    80        300
    81        622
    82        999
    83        469
    84         13
    91        143
    92         34
    93        229
    94        101
    95        120
    96        117
    97        104
   105         16
   106          4
   107        119
   108         76
   109         58
   121        139
   122         78
   123         10
   135         93
   136          7
   149         20
   164        461
   165         59