##TITLE=Library Entry 32117
##JCAMP-DX=Revision 4.10 
##DATA TYPE=MASS SPECTRUM
##SAMPLE DESCRIPTION=D.HENNEBERG, MAX-PLANCK INSTITUTE, MULHEIM, WEST GERMAN
Y
##NAMES=HP
##CAS NAME=4-Nonen-2-yne, (E)-
##MOLFORM=C9H14
##CAS REGISTRY NO=53497-79-3
##MP= -300
##BP= -300
##MW= 122
##$RETENTION INDEX=0
##$CONDENSED SPECTRUM=NO
##NPOINTS= 93
##XYDATA=(XY..XY) 1 
    22          0
    23          2
    24          3
    25          1
    26         14
    27        213
    28         44
    29         77
    30          1
    31          1
    32          3
    33          2
    34          3
    35          2
    36          2
    37          7
    38         20
    39        222
    40         85
    41        257
    42         31
    43         83
    44         11
    45          2
    47          1
    48          1
    49          5
    50         42
    51        124
    52         64
    53        122
    54         14
    55         53
    56         31
    57         41
    58          7
    59          2
    60          1
    61          4
    62         15
    63         40
    64         26
    65        148
    66        999
    67        113
    68         24
    69         28
    70          7
    71          5
    72          0
    73          2
    74          6
    75         34
    76          8
    77        573
    78        101
    79        523
    80         68
    81         19
    82         23
    83          3
    84          0
    85          1
    86          1
    87          1
    89         10
    90          3
    91        165
    92         22
    93        174
    94         35
    95          5
    98          1
    99          0
   102          1
   103          9
   104          2
   105         29
   106          5
   107        156
   108         12
   109          1
   114          0
   115          9
   116          3
   117          7
   118          7
   119          1
   120          7
   121          7
   122        305
   123         29
   124          1