##TITLE=Library Entry 32116
##JCAMP-DX=Revision 4.10 
##DATA TYPE=MASS SPECTRUM
##SAMPLE DESCRIPTION=D.HENNEBERG, MAX-PLANCK INSTITUTE, MULHEIM, WEST GERMAN
Y
##NAMES=HP
##CAS NAME=4-Nonen-2-yne, (Z)-
##MOLFORM=C9H14
##CAS REGISTRY NO=53497-78-2
##MP= -300
##BP= -300
##MW= 122
##$RETENTION INDEX=0
##$CONDENSED SPECTRUM=NO
##NPOINTS= 91
##XYDATA=(XY..XY) 1 
    22          0
    23          2
    24          2
    25          3
    26         14
    27        209
    28         36
    29         70
    30          1
    31          6
    32          1
    33          1
    34          3
    35          1
    36          2
    37          8
    38         21
    39        225
    40         85
    41        231
    42         21
    43         63
    44         10
    45          2
    46          0
    47          1
    48          1
    49          4
    50         44
    51        120
    52         57
    53        119
    54         13
    55         38
    56         19
    57          8
    58          5
    59          4
    60          2
    61          4
    62         12
    63         42
    64         25
    65        146
    66        999
    67        117
    68         25
    69         22
    70          4
    71          3
    72          1
    73          2
    74          7
    75         25
    76          8
    77        524
    78        100
    79        466
    80         71
    81         19
    82         17
    83          2
    85          0
    86          1
    87          1
    89         10
    90          4
    91        186
    92         25
    93        209
    94         39
    95          4
    96          0
   102          1
   103          8
   104          2
   105         27
   106          3
   107        185
   108         17
   109          0
   115          7
   116          2
   117          7
   118          4
   119          1
   120          5
   121          7
   122        249
   123         24
   124          0