##TITLE=Library Entry 33234
##JCAMP-DX=Revision 4.10 
##DATA TYPE=MASS SPECTRUM
##SAMPLE DESCRIPTION=NIST Mass Spectrometry Data Center, 1998.
##NAMES=HP
##CAS NAME=Endrin ketone
##MOLFORM=C12H8Cl6O
##CAS REGISTRY NO=53494-70-5
##MP= -300
##BP= -300
##MW= 378
##$RETENTION INDEX=2426
##$CONDENSED SPECTRUM=NO
##NPOINTS= 277
##XYDATA=(XY..XY) 1 
    26         10
    27         90
    29          8
    35         12
    36         22
    37         13
    38         35
    39        162
    40         26
    41         24
    42          4
    43          4
    47          8
    49         37
    50         76
    51        142
    52         30
    53         50
    54         16
    55        156
    56         25
    57          6
    60         15
    61         49
    62         79
    63        148
    64         18
    65        110
    66        216
    67        999
    68         86
    69         54
    71          5
    72         26
    73        161
    74        128
    75        192
    76         25
    77        203
    78         39
    79        216
    80         37
    81         35
    82         27
    83         62
    84         44
    85        117
    86        138
    87        161
    88         43
    89         60
    90         12
    91         33
    92         17
    94          9
    95         12
    96         36
    97         83
    98         60
    99        190
   100         64
   101        230
   102         79
   103         89
   104         89
   105          9
   106         43
   107        146
   108        133
   109        159
   110         53
   111        169
   112         51
   113        267
   114         65
   115         97
   116         15
   117         23
   118         10
   119         36
   120         23
   121         64
   122         66
   123        102
   124         29
   125         49
   126         40
   127         36
   128         23
   129         12
   130          7
   131         26
   132         10
   133         98
   134         38
   135        131
   136         93
   137        130
   138        106
   139        313
   140         96
   141         59
   142         18
   143         52
   144         18
   145         87
   146         57
   147        262
   148         87
   149        233
   150         43
   151         55
   152          7
   154          8
   155         13
   156          8
   157         40
   158         15
   159         74
   160         37
   161         58
   162         68
   163         31
   164         22
   165         11
   166          7
   167         63
   168         18
   169         74
   170         89
   171         57
   172         73
   173        204
   174         77
   175        182
   176         38
   177         48
   178         10
   179         25
   180         82
   181         87
   182        105
   183        190
   184         65
   185        101
   186         21
   187         21
   188          2
   191         13
   192          6
   193         74
   194         40
   195         74
   196         99
   197         56
   198         56
   199         23
   200         11
   201         27
   202         14
   203         33
   204         25
   205         31
   206         48
   207         66
   208         57
   209        241
   210         72
   211        161
   212         39
   213         39
   214         61
   215         31
   216         73
   217        100
   218         51
   219         96
   220         25
   221         44
   222          8
   223         10
   227         22
   228          8
   229         29
   230         30
   231         26
   232         30
   233         18
   234         14
   235         14
   236         18
   237         18
   238         19
   239         16
   240         15
   241         18
   242         15
   243        174
   244         94
   245        211
   246         83
   247         90
   248        158
   249         46
   250        209
   251         58
   252        130
   253         59
   254         55
   255         33
   256         14
   257         10
   259          2
   261         17
   263         26
   264          4
   265         21
   266          5
   267         12
   268          4
   269          4
   271         19
   272          8
   273         23
   274         12
   275         14
   276         19
   277         13
   278         58
   279        163
   280         85
   281        220
   282         64
   283        113
   284         24
   285         27
   286          4
   287          4
   289          5
   290          3
   291          2
   307         36
   308          8
   309         52
   310         11
   311         31
   312          6
   313         27
   314          7
   315        390
   316         53
   317        601
   318         77
   319        385
   320         44
   321        121
   322         15
   323         21
   342          3
   343         86
   344         19
   345        135
   346         22
   347         87
   348         13
   349         30
   350         19
   351          8
   352         29
   353          4
   354         24
   355          2
   356          8
   378          7
   380         15
   382         12
   384          4