##TITLE=Library Entry 25923
##JCAMP-DX=Revision 4.10 
##DATA TYPE=MASS SPECTRUM
##SAMPLE DESCRIPTION=Chuck Anderson, Aldrich Chemical Co.
##NAMES=HP
##CAS NAME=Benzyl isobutyl ketone
##MOLFORM=C12H16O
##CAS REGISTRY NO=5349-62-2
##MP= -300
##BP= -300
##MW= 176
##$RETENTION INDEX=0
##$CONDENSED SPECTRUM=NO
##NPOINTS= 62
##XYDATA=(XY..XY) 1 
    15          3
    26          4
    27         69
    28         11
    29        171
    30          4
    31          1
    32          0
    37          0
    38          8
    39         97
    40         10
    41        233
    42         22
    43        105
    44          4
    45          5
    50          9
    51         27
    52          8
    53          6
    55         14
    56          0
    57        999
    58         42
    61          0
    62          9
    63         41
    64         12
    65        183
    66         10
    69         24
    70          0
    73          2
    74          2
    75          3
    76          2
    77         12
    78          4
    79          3
    83          2
    84          7
    85        857
    86         47
    87          4
    89         45
    90         20
    91        452
    92         57
    93          3
   103          3
   105          8
   115          7
   116          7
   117          1
   118          3
   119         14
   133          1
   134          3
   161          0
   176         79
   177          9