##TITLE=Library Entry 100341
##JCAMP-DX=Revision 4.10 
##DATA TYPE=MASS SPECTRUM
##SAMPLE DESCRIPTION=Japan AIST/NIMC Database- Spectrum MS-IW-3007
##NAMES=HP
##CAS NAME=Benzene, 1-methyl-3-(1-methylethyl)-
##MOLFORM=C10H14
##CAS REGISTRY NO=535-77-3
##MP= -300
##BP= -300
##MW= 134
##$RETENTION INDEX=1023
##$CONDENSED SPECTRUM=NO
##NPOINTS= 65
##XYDATA=(XY..XY) 1 
    15          2
    26          1
    27         12
    29          1
    38          3
    39         37
    40          4
    41         40
    42          2
    43         13
    50          9
    51         25
    52          8
    53          9
    55          1
    57         13
    58         17
    59          9
    60          1
    61          1
    62          6
    63         20
    64          9
    65         45
    66         10
    67          2
    74          4
    75          4
    76          3
    77         50
    78         16
    79         18
    80          1
    86          2
    87          2
    89         12
    90          4
    91        151
    92         20
    93         23
    94          1
   101          1
   102          8
   103         32
   104         22
   105         34
   106          3
   107          1
   114          1
   115         42
   116         11
   117         80
   118         16
   119        999
   120         99
   121          4
   127          1
   128          2
   129          1
   131          2
   132          6
   133         18
   134        255
   135         34
   136          2