##TITLE=Library Entry 82586
##JCAMP-DX=Revision 4.10 
##DATA TYPE=MASS SPECTRUM
##SAMPLE DESCRIPTION=W.T.RAINEY OAK RIDGE NATIONAL LABORATORY,OAK RIDGE,TN.U
SA
##NAMES=HP
##CAS NAME=Trigonelline
##MOLFORM=C7H7NO2
##CAS REGISTRY NO=535-83-1
##MP= -300
##BP= -300
##MW= 137
##$RETENTION INDEX=0
##$CONDENSED SPECTRUM=NO
##NPOINTS= 22
##XYDATA=(XY..XY) 1 
    42        101
    44        434
    45         47
    50        195
    51        369
    52         94
    53         50
    58         76
    59         43
    77         90
    78        782
    79        105
    92         57
    93         85
    94         94
   105         86
   106        999
   107         92
   120         50
   136        195
   137        623
   138         90