##TITLE=Library Entry 45174
##JCAMP-DX=Revision 4.10 
##DATA TYPE=MASS SPECTRUM
##SAMPLE DESCRIPTION=Japan AIST/NIMC Database- Spectrum MS-NW- 469
##NAMES=HP
##CAS NAME=D-Ethionone
##MOLFORM=C6H13NO2S
##CAS REGISTRY NO=535-32-0
##MP= -300
##BP= -300
##MW= 163
##$RETENTION INDEX=0
##$CONDENSED SPECTRUM=NO
##NPOINTS= 130
##XYDATA=(XY..XY) 1 
    15          8
    17          3
    18          8
    26         17
    27        124
    28        247
    29        172
    30         81
    31          3
    32          2
    33          2
    34          6
    35         35
    36          2
    37          2
    38          3
    39         25
    40          5
    41         74
    42        109
    43        102
    44         49
    45         83
    46         50
    47        245
    48         13
    49         11
    50          1
    51          3
    52          7
    53          6
    54         50
    55        445
    56        536
    57        118
    58         61
    59         46
    60         36
    61        315
    62         53
    63         16
    64          3
    65          2
    66          1
    67         21
    68         11
    69         29
    70         28
    71         16
    72          7
    73         37
    74        450
    75        999
    76         56
    77         39
    78          4
    79          6
    80          5
    81         16
    82         15
    83        360
    84         30
    85         14
    86         31
    87         24
    88        128
    89        252
    90         33
    91         23
    92          3
    93          4
    94          3
    95         12
    96         12
    97         18
    98         13
    99         17
   100         24
   101        391
   102         32
   103         76
   104          5
   105          3
   106          1
   107          3
   108          2
   109          7
   110          6
   111         10
   112          5
   113          4
   114          2
   115          4
   116        300
   117         37
   118        163
   119         12
   120          9
   121          4
   122          2
   123          6
   124          5
   125          6
   126          2
   127          3
   128         45
   129         11
   130          4
   131          2
   133          2
   134         37
   135          4
   136          3
   137          4
   138          4
   139          4
   140          2
   141          2
   143          3
   145        258
   146         65
   147         16
   148          4
   149          1
   161          2
   162          1
   163        343
   164         27
   165         17
   166          2