##TITLE=Library Entry 386
##JCAMP-DX=Revision 4.10 
##DATA TYPE=MASS SPECTRUM
##SAMPLE DESCRIPTION=Japan AIST/NIMC Database- Spectrum MS-NW-6376
##NAMES=HP
##CAS NAME=Acetic acid, dichloro-, ethyl ester
##MOLFORM=C4H6Cl2O2
##CAS REGISTRY NO=535-15-9
##MP= -300
##BP= -300
##MW= 156
##$RETENTION INDEX=874
##$CONDENSED SPECTRUM=NO
##NPOINTS= 57
##XYDATA=(XY..XY) 1 
    12          1
    13          4
    14          5
    15         12
    16          1
    17          1
    18          6
    25          1
    26         15
    27        162
    28         77
    29        999
    30         24
    31          4
    35          6
    36         16
    37          2
    38          5
    39          1
    40          1
    41         24
    42          4
    43         12
    44          4
    45         14
    47         11
    48         35
    49          9
    50         11
    51          2
    63          4
    64          1
    65          5
    67          1
    73          7
    76         32
    77         41
    78         10
    79         13
    82          3
    83         94
    84          4
    85         59
    86          2
    87          9
    93          3
    94          2
   110          1
   111         22
   112          2
   113         18
   114          1
   115          6
   127          2
   129          1
   141          4
   143          3