##TITLE=Library Entry 388
##JCAMP-DX=Revision 4.10 
##DATA TYPE=MASS SPECTRUM
##SAMPLE DESCRIPTION=Japan AIST/NIMC Database- Spectrum MS-NW- 448
##NAMES=HP
##CAS NAME=Propanoic acid, 2-bromo-, ethyl ester
##MOLFORM=C5H9BrO2
##CAS REGISTRY NO=535-11-5
##MP= -300
##BP= -300
##MW= 180
##$RETENTION INDEX=931
##$CONDENSED SPECTRUM=NO
##NPOINTS= 88
##XYDATA=(XY..XY) 1 
    14          6
    15         20
    18          2
    25          6
    26         82
    27        487
    28        187
    29        999
    30         23
    31         20
    32          1
    37          2
    38          4
    39          6
    40          4
    41         72
    42          9
    43         15
    44          2
    45         94
    46          3
    50          4
    51          7
    52          4
    54          1
    55          9
    56         39
    57        255
    58         13
    62          2
    63          4
    65          6
    67          4
    68          1
    69          4
    71          1
    72          2
    73         20
    74         17
    75          3
    77          1
    78         10
    79          7
    80          7
    81          6
    84         12
    85          5
    86          4
    89          2
    90          1
    93          3
    94          1
    97         13
    98         19
    99          4
   100          1
   101         33
   102          5
   105          3
   106         79
   107        471
   108        233
   109        462
   110        163
   111          4
   112          5
   114          2
   120          1
   122          1
   123          1
   128          1
   130          1
   131          2
   134          3
   135        108
   136          9
   137        107
   138          6
   152         34
   153          6
   154         34
   155          5
   165          2
   167          3
   180        114
   181          8
   182        113
   183          7