##TITLE=Library Entry 584
##JCAMP-DX=Revision 4.10 
##DATA TYPE=MASS SPECTRUM
##SAMPLE DESCRIPTION=Chuck Anderson, Aldrich Chemical Co.
##NAMES=HP
##CAS NAME=Propanoic acid, 2-chloro-, ethyl ester
##MOLFORM=C5H9ClO2
##CAS REGISTRY NO=535-13-7
##MP= -300
##BP= -300
##MW= 136
##$RETENTION INDEX=857
##$CONDENSED SPECTRUM=NO
##NPOINTS= 95
##XYDATA=(XY..XY) 1 
    12          0
    13          1
    14          5
    15         24
    16          1
    17          0
    19          3
    24          0
    25          5
    26         86
    27        541
    28        202
    29        999
    30         32
    31         43
    32          0
    33          0
    35          3
    36          4
    37          3
    38          2
    39          4
    40          2
    41         42
    42          9
    43         33
    44          6
    45         73
    46          1
    47          1
    48          4
    49          1
    50          1
    51          0
    52          0
    53          4
    54          2
    55         40
    56         99
    57        140
    58          6
    59          0
    60          2
    61         11
    62        231
    63        628
    64         79
    65        200
    66          4
    67          0
    71          0
    72          0
    73         22
    74          6
    75          0
    76          8
    77         14
    78          3
    79          6
    80          0
    81          0
    82          0
    83          0
    84          0
    85          0
    86          0
    87          0
    89          1
    90          5
    91        199
    92          8
    93         64
    94          2
    95          0
    99          0
   100          0
   101          2
   102          0
   106          0
   107          0
   108         26
   109         13
   110          9
   111          4
   112          0
   121         11
   122          0
   123          3
   124          0
   135          1
   136         14
   137          3
   138          4
   139          1
   140          0