##TITLE=Library Entry 59416
##JCAMP-DX=Revision 4.10 
##DATA TYPE=MASS SPECTRUM
##SAMPLE DESCRIPTION=Japan AIST/NIMC Database- Spectrum MS-NW-7084
##NAMES=HP
##CAS NAME=Benzyltrimethylammonium bromide
##MOLFORM=C10H16BrN
##CAS REGISTRY NO=5350-41-4
##MP= -300
##BP= -300
##MW= 229
##$RETENTION INDEX=0
##$CONDENSED SPECTRUM=NO
##NPOINTS= 115
##XYDATA=(XY..XY) 1 
    14          3
    15         39
    25          1
    26          6
    27         15
    28         42
    29         13
    30         47
    31          2
    32          2
    37          9
    38         19
    39         66
    40         13
    41         30
    42        106
    43         29
    44         29
    45         12
    46          2
    49          3
    50         28
    51         36
    52         17
    53          5
    54          2
    55          5
    56          9
    57         31
    58        433
    59        121
    60          5
    61          9
    62         25
    63         59
    64         20
    65        126
    66          9
    67          3
    68          2
    69          4
    70          3
    71          5
    73          2
    74          6
    75          5
    76          7
    77          9
    78          4
    79          7
    80          8
    81          8
    82          9
    83          4
    84          4
    85          9
    86          9
    87          4
    88          3
    89         49
    90         24
    91        999
    92         90
    93          6
    94         30
    95          4
    96         29
    97          1
    98          3
    99          2
   103          4
   104          3
   105          3
   107          1
   109          1
   110          1
   111          2
   112          2
   113          1
   115          2
   116          1
   117          1
   118          6
   119          1
   120          3
   121          1
   123          1
   125          1
   126          1
   127          1
   128          1
   129          1
   132          4
   133          2
   134         63
   135         87
   136          9
   137          2
   139          1
   141          2
   143          1
   149          1
   150          1
   151          4
   152          3
   153          3
   165         11
   166         10
   167          6
   168          1
   169          2
   170         58
   171          7
   172         53
   173          4