##TITLE=Library Entry 47527
##JCAMP-DX=Revision 4.10 
##DATA TYPE=MASS SPECTRUM
##SAMPLE DESCRIPTION=Japan AIST/NIMC Database- Spectrum MS-NW-2083
##NAMES=HP
##CAS NAME=Hydrazinecarbothioamide, N-phenyl-
##MOLFORM=C7H9N3S
##CAS REGISTRY NO=5351-69-9
##MP= -300
##BP= -300
##MW= 167
##$RETENTION INDEX=0
##$CONDENSED SPECTRUM=NO
##NPOINTS= 108
##XYDATA=(XY..XY) 1 
    14          1
    15          1
    16         34
    17         63
    18         42
    26         10
    27         35
    28         83
    29         23
    30         20
    31         70
    32        171
    33         25
    34         77
    36          5
    37         27
    38         47
    39        138
    40         18
    41         17
    42          5
    43         17
    44          8
    45         39
    46          5
    47          8
    48          6
    49         10
    50        107
    51        363
    52         49
    53         10
    54          8
    57          1
    58          8
    59         18
    60         18
    61         10
    62         20
    63         58
    64         59
    65        174
    66        104
    67         20
    68          3
    69         10
    70          6
    71          1
    73          5
    74         51
    75         53
    76         56
    77        999
    78        113
    79         12
    80          6
    81          1
    82          5
    83          5
    84          5
    87          1
    88          3
    89          1
    90         15
    91        167
    92         87
    93        329
    94         29
    95          1
    96         10
    97          6
    99          1
   102          3
   103         54
   104         77
   105         13
   106          6
   107          5
   108         25
   109        192
   110         49
   111         12
   112          1
   117         13
   118        246
   119         39
   120          3
   122          5
   123         15
   124          5
   125          1
   133         70
   134         15
   135        638
   136        490
   137        138
   138         27
   139          5
   149         17
   150         32
   151          6
   152         15
   153          1
   166          5
   167        838
   168         82
   169         41
   170          3