##TITLE=Library Entry 30648
##JCAMP-DX=Revision 4.10 
##DATA TYPE=MASS SPECTRUM
##SAMPLE DESCRIPTION=D.HENNEBERG, MAX-PLANCK INSTITUTE, MULHEIM, WEST GERMAN
Y
##NAMES=HP
##CAS NAME=Trisilane, 1,1,1,3,3,3-hexamethoxy-2-(trimethoxysilyl)-
##MOLFORM=C9H28O9Si4
##CAS REGISTRY NO=53518-40-4
##MP= -300
##BP= -300
##MW= 392
##$RETENTION INDEX=0
##$CONDENSED SPECTRUM=NO
##NPOINTS= 264
##XYDATA=(XY..XY) 1 
    27          3
    28         63
    29         13
    30          7
    31         11
    32          7
    33          0
    36          1
    37          0
    38          0
    39          2
    40          1
    41          7
    45          5
    46          0
    47          1
    49          0
    50          1
    51          2
    52          0
    53          1
    54          0
    55          5
    56          4
    57         14
    59        999
    60         66
    61         73
    62          3
    63          2
    65          1
    66          0
    67          2
    68          1
    69          4
    70          3
    71          6
    72          0
    73          4
    74          2
    75          7
    76          2
    77         13
    78          2
    79          1
    80          0
    81          2
    82          2
    83          3
    84          1
    85          2
    86          0
    87          0
    88          3
    89          4
    90         14
    91        190
    92         14
    93          7
    94          2
    95          2
    96          1
    97          2
   101          0
   102          0
   103         28
   104          6
   105        111
   106         13
   107         21
   108          2
   109          2
   111          2
   112          1
   114          0
   115          2
   116          1
   117          1
   118          7
   119         13
   120         11
   121        206
   122         20
   123         10
   124          1
   125          1
   126          0
   127          2
   128          1
   129          2
   130          1
   131          0
   132          0
   133          1
   134          2
   135        459
   136         60
   137        116
   138         11
   139          7
   140          1
   142          2
   143          1
   145          2
   146          0
   147          0
   148          1
   149         84
   150         15
   151         53
   152         18
   153          6
   154          1
   155          2
   156          0
   157          1
   158          1
   159          1
   161          0
   163          4
   164          2
   165        603
   166         88
   167        293
   168         37
   169         22
   170          1
   171          1
   172          0
   173          1
   174          0
   176          0
   177          0
   178          1
   179         18
   180         14
   181        162
   182         25
   183         15
   184          2
   185          0
   187          0
   189          0
   190          0
   191          0
   192          0
   193          4
   194          2
   195         96
   196         27
   197        443
   198         61
   199         36
   200          3
   201          0
   202          1
   203          0
   204          0
   205          1
   206          0
   207          1
   208          5
   209         34
   210          8
   211        142
   212         24
   213         16
   214          2
   215          1
   216          0
   217          1
   218          0
   219          0
   220          1
   221          1
   222          0
   223          2
   224          3
   225         71
   226         26
   227        115
   228         18
   229         10
   230          1
   231          0
   233          0
   234          1
   235          8
   236          2
   237          0
   238          0
   239         12
   240        546
   241        143
   242         77
   243         19
   244          4
   245          1
   247          0
   248          0
   249          2
   250          8
   251          1
   252          0
   254          0
   255         76
   256         17
   257         60
   258         12
   259          7
   260          1
   264          0
   265          0
   269          1
   270         29
   271         35
   272         11
   273          7
   274          1
   275          0
   283          0
   285          1
   286          0
   287        142
   288         28
   289         17
   290          2
   291          0
   299          1
   301         16
   302          5
   303          8
   304          2
   305          1
   314          0
   315          1
   316          1
   317         14
   318          3
   319          2
   320          0
   330          0
   331          1
   332          4
   333          5
   334          1
   335          0
   344          3
   345          3
   346          1
   347          1
   348          0
   360          6
   361         35
   362         11
   363          6
   364          1
   365          0
   377          2
   378          0
   379          0
   391          1
   392          0
   393          0