##TITLE=Library Entry 36405
##JCAMP-DX=Revision 4.10 
##DATA TYPE=MASS SPECTRUM
##SAMPLE DESCRIPTION=A.Pleshkova, Nesmeyanov Inst.Org.Elem.Cpds, Moscow
##NAMES=HP
##CAS NAME=1,1,1,3,3,3-Hexafluoropropan-2-one, o-1,1,2,3,3,3-hexafluoropropy
loxime
##MOLFORM=C6HF12NO
##CAS REGISTRY NO=53517-77-4
##MP= -300
##BP= -300
##MW= 331
##$RETENTION INDEX=0
##$CONDENSED SPECTRUM=NO
##NPOINTS= 25
##XYDATA=(XY..XY) 1 
    32         22
    45         23
    47         32
    50         21
    51        102
    57         23
    66         24
    69        999
    70         11
    76         25
    82         39
    95         24
   100         23
   101         45
   112         25
   113         28
   129         24
   131         33
   151        634
   152         23
   161         24
   162         29
   181         26
   281         22
   282          5