##TITLE=Library Entry 13997
##JCAMP-DX=Revision 4.10 
##DATA TYPE=MASS SPECTRUM
##SAMPLE DESCRIPTION=A.A.Kutin, Moscow, Russia
##NAMES=HP
##CAS NAME=Benzaldehyde, 2-hydroxy-5-nitro-, thiosemicarbazone
##MOLFORM=C8H8N4O3S
##CAS REGISTRY NO=5351-82-6
##MP= -300
##BP= -300
##MW= 240
##$RETENTION INDEX=0
##$CONDENSED SPECTRUM=NO
##NPOINTS= 86
##XYDATA=(XY..XY) 1 
    33         12
    37         15
    38         46
    39         99
    40         26
    41         33
    42         65
    43        999
    44         56
    45         22
    47         13
    48         27
    50         77
    51        166
    52        106
    53        150
    54         34
    55         27
    57         12
    58         11
    59         55
    60        420
    61         37
    62         80
    63        164
    64         76
    65         87
    66         28
    67         17
    68         16
    69         14
    70         11
    74         60
    75         59
    76        410
    77        102
    78         90
    79         81
    80         64
    81         15
    89         10
    90         72
    91         62
    92         66
    93         27
    94         14
    95         11
   101         12
   102         90
   104         20
   105        100
   106         73
   107         22
   108         20
   118         60
   119        112
   120         30
   121         33
   122         11
   133         55
   134        140
   135         28
   136         28
   147         10
   148         21
   149         21
   150         25
   151         21
   152         31
   163         67
   164         65
   165        111
   166         42
   167         30
   180         33
   181         14
   193         19
   206         14
   207         12
   209         10
   210         19
   223         37
   239         36
   240        754
   241         88
   242         42