##TITLE=Library Entry 30653
##JCAMP-DX=Revision 4.10 
##DATA TYPE=MASS SPECTRUM
##SAMPLE DESCRIPTION=D.HENNEBERG, MAX-PLANCK INSTITUTE, MULHEIM, WEST GERMAN
Y
##NAMES=HP
##CAS NAME=Trisilane, 1,1,1,3,3,3-hexamethoxy-
##MOLFORM=C6H20O6Si3
##CAS REGISTRY NO=53518-41-5
##MP= -300
##BP= -300
##MW= 272
##$RETENTION INDEX=0
##$CONDENSED SPECTRUM=NO
##NPOINTS= 180
##XYDATA=(XY..XY) 1 
    26          8
    28        207
    29         31
    30         15
    31         21
    32         16
    33          1
    34          3
    35          0
    36          9
    38          3
    39          4
    40          2
    41          9
    42          2
    43         17
    44          6
    45          7
    46          2
    47          2
    48          0
    50          2
    51          1
    52          0
    53          0
    54          0
    55          8
    56         12
    57         27
    58          2
    59        999
    60         66
    61         97
    62          5
    63          4
    65          2
    66          3
    67          2
    68          2
    69          6
    70          4
    71         12
    72          1
    73          2
    74          2
    75         20
    76          3
    77          9
    78          2
    79          2
    81          2
    82          2
    83          4
    84          3
    85          7
    88          1
    89          5
    90         12
    91        280
    92         22
    93         11
    94          9
    95          3
    96          1
    97          2
    98          2
    99          2
   103         13
   104          5
   105        279
   106         31
   107         53
   108          7
   109          5
   110          1
   111          2
   112          2
   113          2
   115          0
   118          2
   119         10
   120         54
   121        224
   122         24
   123         11
   124          1
   125          2
   126          1
   127          1
   129          0
   131          0
   133          1
   134          2
   135        581
   136         71
   137        231
   138         28
   139         17
   140          2
   141          1
   142          1
   148          0
   149         33
   150         18
   151         65
   152         14
   153          8
   154          3
   155          2
   156          0
   159          0
   163          2
   164          1
   165        249
   166         46
   167        614
   168         77
   169         52
   170          4
   171          1
   178          0
   179          4
   180          5
   181         73
   182         26
   183         12
   184          2
   185          1
   186          1
   189          0
   190          1
   193          0
   195         12
   196         23
   197         95
   198         17
   199          7
   200          2
   201          1
   202          1
   204          0
   205          1
   209          1
   210          1
   211         64
   212          9
   213         28
   214          4
   215          2
   222          3
   223          0
   225          2
   226         31
   227         71
   228         12
   229          6
   230          0
   232          0
   237          1
   239         10
   240         11
   241         57
   242         14
   243         14
   244          3
   245          1
   248          1
   249          0
   250          0
   252          1
   255          5
   256          4
   257        207
   258         44
   259         29
   260          3
   261          1
   271          5
   272          6
   273          3