##TITLE=Library Entry 8580
##JCAMP-DX=Revision 4.10 
##DATA TYPE=MASS SPECTRUM
##SAMPLE DESCRIPTION=CARL DJERASSI DEPT OF CHEM STANFORD UNIV STANFORD CALIF
 94305
##NAMES=HP
##CAS NAME=Lanost-9(11)-en-18-oic acid, 3-(acetyloxy)-20,25-dihydroxy-16-oxo
-, .gamma.-lactone, (3.beta.)-
##MOLFORM=C32H48O6
##CAS REGISTRY NO=53534-45-5
##MP= -300
##BP= -300
##MW= 528
##$RETENTION INDEX=0
##$CONDENSED SPECTRUM=NO
##NPOINTS= 138
##XYDATA=(XY..XY) 1 
    41        360
    43        999
    44         80
    45         60
    53         50
    55        310
    56         30
    57        100
    59        240
    60         50
    67        140
    68         20
    69        620
    70         50
    71         90
    73         20
    77         50
    78         20
    79        100
    80         20
    81        190
    82         50
    83        110
    85         70
    91        120
    92         20
    93        160
    94         30
    95        160
    96         30
    97         30
   105        150
   106         40
   107        180
   108         80
   109        490
   110         60
   111         50
   115         20
   117         40
   119        140
   120         50
   121        140
   122        110
   123        190
   124         20
   125         40
   127         60
   128         20
   129         50
   130         20
   131        100
   132         20
   133         90
   134        100
   135        120
   136         60
   137         30
   138         40
   139         20
   141         20
   142         30
   143         80
   144         20
   145        110
   146         20
   147         70
   148         30
   149         50
   151         40
   155         40
   156         20
   157        130
   158         30
   159         90
   160         20
   161         40
   169         60
   170         30
   171        100
   172         30
   173         60
   174         20
   175         40
   181         20
   183         50
   185         70
   187         50
   189         30
   194         50
   195         20
   197         50
   199         50
   201         30
   209         30
   211         40
   213         90
   214         20
   215         20
   223         30
   225         40
   227         70
   228        140
   229         40
   239         30
   241        130
   242         70
   243         50
   256         40
   257         50
   267         20
   269         40
   281         30
   316        190
   317         60
   328         60
   367         40
   379         40
   381         40
   395         40
   408         40
   422         20
   423         10
   435        210
   436         70
   437         20
   450         60
   451         30
   465         90
   466         40
   467         20
   493         30
   495         50
   510        420
   511        160
   512         50
   513         60
   528         20