##TITLE=Library Entry 42219
##JCAMP-DX=Revision 4.10 
##DATA TYPE=MASS SPECTRUM
##SAMPLE DESCRIPTION=Exported from NIST MS Search
##NAMES=HP
##CAS NAME=D-Fucitol, 5TMS derivative
##MOLFORM=C21H54O5Si5
##CAS REGISTRY NO=53537-99-8
##MP= -300
##BP= -300
##MW= 526
##$RETENTION INDEX=0
##$CONDENSED SPECTRUM=NO
##NPOINTS= 67
##XYDATA=(XY..XY) 1 
    28         26
    41         14
    43          9
    44          4
    45         52
    46          2
    47          9
    55          4
    57          2
    58          2
    59         26
    72         24
    73        999
    74         88
    75        105
    76          4
    77          4
    89          4
   101         16
   103        125
   104          9
   105          9
   115          7
   116         12
   117        644
   118         69
   119         28
   129         84
   130         14
   131         38
   133         31
   143         48
   144          4
   147        189
   148         33
   149         24
   157         28
   163          2
   189         16
   191         19
   203          4
   204         24
   205        228
   206         45
   207         19
   217         91
   218         24
   219         86
   220         19
   221          9
   229         16
   230          4
   231         43
   232          9
   233          2
   257         16
   258          2
   277         19
   278          4
   305          4
   307         33
   308         14
   319        161
   320         52
   321         36
   322          9
   333          4