##TITLE=Library Entry 68361
##JCAMP-DX=Revision 4.10 
##DATA TYPE=MASS SPECTRUM
##SAMPLE DESCRIPTION=V.G.Zaikin, TIPS, Russian Acad. Sci.
##NAMES=HP
##CAS NAME=5,17-Dehydroallomatridine, (6.beta.)-
##MOLFORM=C15H24N2
##CAS REGISTRY NO=53537-50-1
##MP= -300
##BP= -300
##MW= 232
##$RETENTION INDEX=0
##$CONDENSED SPECTRUM=NO
##NPOINTS= 86
##XYDATA=(XY..XY) 1 
    52         43
    53        125
    54        155
    55        221
    56         55
    57         47
    58         27
    65         68
    66         41
    67        263
    68        193
    69         73
    70         43
    77        100
    78         38
    79        123
    80        232
    81        194
    82        167
    83         71
    84         36
    91         98
    92         36
    93         89
    94        214
    95        999
    96        658
    97         89
    98         40
   105         44
   106         73
   107         29
   108         89
   109         69
   110         44
   117         48
   118         34
   119         30
   120         87
   121         38
   122        143
   123         51
   124         54
   131         26
   132         71
   133         37
   134        162
   135         77
   136        238
   137        197
   138         48
   144         32
   145         29
   146         65
   147         32
   148         64
   149         84
   150        149
   151        112
   152         76
   153         41
   160         34
   161         37
   162        118
   163         82
   164         38
   173         25
   174         75
   175         59
   176         61
   177         61
   178         40
   182         33
   188         65
   189         55
   190        253
   191         61
   202         47
   203         69
   204         57
   229         22
   230         27
   231        217
   232        519
   233         86
   234          7