##TITLE=Library Entry 44441
##JCAMP-DX=Revision 4.10 
##DATA TYPE=MASS SPECTRUM
##SAMPLE DESCRIPTION=CARL DJERASSI DEPT OF CHEM STANFORD UNIV STANFORD CALIF
 94305
##NAMES=HP
##CAS NAME=Lanost-9(11)-en-18-oic acid, 3-(acetyloxy)-20-hydroxy-25-methoxy-
16-oxo-, .gamma.-lactone, (3.beta.)-
##MOLFORM=C33H50O6
##CAS REGISTRY NO=53534-46-6
##MP= -300
##BP= -300
##MW= 542
##$RETENTION INDEX=0
##$CONDENSED SPECTRUM=NO
##NPOINTS= 87
##XYDATA=(XY..XY) 1 
    41        250
    43        610
    44        560
    45         50
    55        270
    56         30
    57        220
    60         40
    67         90
    69        330
    70         50
    71         90
    73        999
    79         60
    81        160
    82         40
    83        110
    84        350
    91         50
    93         80
    95        140
    96         30
    97         50
   105         70
   107        100
   108         60
   109        360
   110         30
   111         30
   119         60
   121         70
   122         40
   123        130
   125         20
   127         80
   131         20
   133         30
   134         30
   135         80
   136         20
   143         30
   145         60
   147         30
   149         50
   157         60
   159         40
   161         20
   171         30
   173         20
   194         30
   213         30
   226        100
   227         20
   228         60
   241         90
   242         40
   257         10
   316        160
   317         40
   328         30
   329         20
   354         40
   355         20
   367         10
   379         20
   381         40
   387         20
   407         20
   421         20
   422         20
   423         20
   424         20
   435        260
   436         70
   450         50
   451         40
   465        110
   466         40
   470         20
   495         70
   496         30
   510        970
   511        380
   512         60
   527         60
   528         20
   542         10