##TITLE=Library Entry 48918
##JCAMP-DX=Revision 4.10 
##DATA TYPE=MASS SPECTRUM
##SAMPLE DESCRIPTION=Chemical Concepts
##NAMES=HP
##CAS NAME=Cyclopentanepropanol, 2-methylene-
##MOLFORM=C9H16O
##CAS REGISTRY NO=53544-48-2
##MP= -300
##BP= -300
##MW= 140
##$RETENTION INDEX=0
##$CONDENSED SPECTRUM=NO
##NPOINTS= 75
##XYDATA=(XY..XY) 1 
    26         14
    27        169
    28         44
    29        138
    30          4
    31        145
    37          7
    38         18
    39        305
    40         57
    41        342
    42         44
    43         68
    44         17
    45         11
    50         27
    51         68
    52         39
    53        223
    54         93
    55        242
    56         30
    57         35
    58         12
    59          2
    62          5
    63         13
    65         91
    66         87
    67        520
    68        134
    69         41
    70          9
    71         14
    74          3
    75          5
    76          5
    77        210
    78         70
    79        999
    80        215
    81        895
    82         80
    83         26
    84         22
    85          9
    86          5
    91        155
    92         35
    93        274
    94        462
    95        118
    96        240
    97         71
    98         13
   103          5
   104          3
   105         28
   106          4
   107        211
   108         17
   109         44
   110          6
   111         12
   112         10
   117          5
   118          3
   119          5
   120          6
   121          8
   122         69
   123         12
   124          2
   140         14
   141          2