##TITLE=Library Entry 70093
##JCAMP-DX=Revision 4.10 
##DATA TYPE=MASS SPECTRUM
##SAMPLE DESCRIPTION=Institute of Chemistry, SAS, Bratislava, Slovakia
##NAMES=HP
##CAS NAME=Methyl-3,4-O-furylidene.beta.l-arabinopyranoside
##MOLFORM=C11H14O6
##CAS REGISTRY NO=53547-58-3
##MP= -300
##BP= -300
##MW= 242
##$RETENTION INDEX=0
##$CONDENSED SPECTRUM=NO
##NPOINTS= 38
##XYDATA=(XY..XY) 1 
    51         18
    52         37
    55         42
    57        124
    60         89
    61         99
    67         14
    68         65
    69        155
    70         42
    71         61
    73         51
    74        160
    75         18
    81        108
    85         25
    86         51
    87         37
    95        136
    96         49
    97        999
    98         42
   101         28
   109         20
   110         18
   112         51
   113         32
   114         76
   115          9
   123         70
   127          9
   138          9
   169          4
   181          4
   188          3
   211          4
   242         32
   243          3