##TITLE=Library Entry 49329
##JCAMP-DX=Revision 4.10 
##DATA TYPE=MASS SPECTRUM
##SAMPLE DESCRIPTION=DR. C. C. VAN DE SANDE, STATE UNIVERSITY OF GENT, BELGI
UM
##NAMES=HP
##CAS NAME=2-Cyclohexen-1-one, 3,5,5-trimethyl-2-(2-propenyl)-
##MOLFORM=C12H18O
##CAS REGISTRY NO=53543-47-8
##MP= -300
##BP= -300
##MW= 178
##$RETENTION INDEX=0
##$CONDENSED SPECTRUM=NO
##NPOINTS= 103
##XYDATA=(XY..XY) 1 
    37         20
    38         40
    39        470
    40         90
    41        620
    42         90
    43        610
    44         90
    45        100
    46         10
    47         25
    49         10
    50         80
    51        180
    52        100
    53        150
    54         50
    55        140
    56        100
    57        360
    58         30
    59         40
    60         15
    61         60
    62         30
    63         70
    64         25
    65        170
    66         85
    67        150
    68         20
    69        150
    70         70
    71         40
    72         10
    73         95
    74         50
    75         70
    76         15
    77        440
    78        115
    79        999
    80        240
    81        135
    82         30
    83        140
    84         20
    85         30
    88         10
    89         10
    90         10
    91        410
    92        130
    93        360
    94        400
    95         90
    96         10
    97         15
    99         20
   103         50
   104         20
   105        150
   106         30
   107        755
   108         90
   109         65
   110         10
   115         50
   116         15
   117        100
   118         10
   119         90
   120         30
   121        260
   122        620
   123         80
   128         15
   129         20
   130         30
   131         50
   132         10
   133         30
   134         10
   135        110
   136         60
   137         10
   145        450
   146         60
   147         20
   148         10
   149         10
   159         10
   160        150
   161         40
   162         10
   163        950
   164        130
   165         15
   177         50
   178        820
   179        120
   180         10
   181         10