##TITLE=Library Entry 114546
##JCAMP-DX=Revision 4.10 
##DATA TYPE=MASS SPECTRUM
##SAMPLE DESCRIPTION=A.A.Kutin, Moscow, Russia
##NAMES=HP
##CAS NAME=1,1'-Bisisoquinoline, 2,2'-diacetyl-1,1',2,2'-tetrahydro-
##MOLFORM=C22H20N2O2
##CAS REGISTRY NO=53545-45-2
##MP= -300
##BP= -300
##MW= 344
##$RETENTION INDEX=0
##$CONDENSED SPECTRUM=NO
##NPOINTS= 105
##XYDATA=(XY..XY) 1 
    34          0
    35          0
    37          4
    38          7
    39         12
    40          4
    43        343
    45          0
    48          0
    50         24
    51         23
    52          9
    53          1
    54          0
    55          0
    56          0
    57          0
    58          0
    59          0
    60          0
    61          2
    62          7
    63         14
    64          3
    65          1
    69          0
    70          0
    71          0
    72          0
    73          3
    74         17
    75         31
    76         39
    77         75
    78         14
    79          2
    80          0
    82          0
    85          1
    86          1
    87          2
    89          7
    91          1
    96          0
    97          0
    98          1
    99          2
   101         53
   102        128
   103        136
   105          0
   107          0
   111          0
   113          1
   114          1
   115          3
   116          1
   117          0
   118          0
   119          0
   121          0
   123          0
   124          1
   128        160
   129        320
   130        999
   131         68
   132          6
   133          0
   139          0
   140          0
   141          0
   142          0
   143          1
   144          0
   145          0
   150          0
   151          0
   153          0
   162          0
   165          0
   168          0
   169          1
   170         12
   172        191
   173         23
   174          1
   175          0
   177          0
   199          0
   200          0
   201          0
   202          0
   207          0
   227          0
   228          0
   229          0
   230          0
   242          0
   254          0
   255          0
   257          0
   343          0
   344          0
   345          0