##TITLE=Library Entry 84250
##JCAMP-DX=Revision 4.10 
##DATA TYPE=MASS SPECTRUM
##SAMPLE DESCRIPTION=Dr. Jiri Zamecnik, DCIEM, North York, Canada, GP Librar
y
##NAMES=HP
##CAS NAME=Phenol, 4-(methoxymethyl)-
##MOLFORM=C8H10O2
##CAS REGISTRY NO=5355-17-9
##MP= -300
##BP= -300
##MW= 138
##$RETENTION INDEX=1306
##$CONDENSED SPECTRUM=NO
##NPOINTS= 38
##XYDATA=(XY..XY) 1 
    38         27
    39        101
    41         14
    45         25
    50         50
    51         94
    52         67
    53         45
    55         22
    62         17
    63         28
    64          8
    65         47
    66         16
    73         13
    74         11
    77        158
    78        138
    79         44
    81         13
    90          4
    91         21
    93         15
    94         19
    95         34
   105         11
   106        149
   107        999
   108        105
   109         15
   121         75
   122         16
   123          6
   134          2
   136          2
   137        159
   138        218
   139         18