##TITLE=Library Entry 58751
##JCAMP-DX=Revision 4.10 
##DATA TYPE=MASS SPECTRUM
##SAMPLE DESCRIPTION=Japan AIST/NIMC Database- Spectrum MS-IW-2376
##NAMES=HP
##CAS NAME=2,2-Bis(chloromethyl)-1-propanol
##MOLFORM=C5H10Cl2O
##CAS REGISTRY NO=5355-54-4
##MP= -300
##BP= -300
##MW= 156
##$RETENTION INDEX=0
##$CONDENSED SPECTRUM=NO
##NPOINTS= 76
##XYDATA=(XY..XY) 1 
    15          3
    17          1
    18          3
    26          4
    27         66
    28         10
    29         50
    30          3
    31        109
    32          1
    33          1
    35          1
    36         11
    37          4
    38          9
    39         92
    40         10
    41        122
    42          8
    43         97
    44          5
    45         15
    47          1
    48          1
    49         31
    50          8
    51         21
    52          4
    53        100
    54        117
    55        415
    56         23
    57         14
    58          2
    61          6
    62         14
    63         43
    64          6
    65         18
    66          1
    67         12
    68          1
    69          6
    70          1
    71         31
    72          2
    73          8
    74          1
    75         47
    76          4
    77         34
    78          2
    79         11
    81          2
    83          2
    84          5
    85          9
    87          3
    88          3
    89         79
    90        999
    91         84
    92        337
    93         18
    97          1
   102         21
   103          6
   104          7
   105          4
   107         53
   108          3
   109         16
   124          4
   125          3
   126          2
   127          2