##TITLE=Library Entry 77377
##JCAMP-DX=Revision 4.10 
##DATA TYPE=MASS SPECTRUM
##SAMPLE DESCRIPTION=Japan AIST/NIMC Database- Spectrum MS-IW-4957
##NAMES=HP
##CAS NAME=1,3-Diphenyl-1,3-butanediol
##MOLFORM=C16H18O2
##CAS REGISTRY NO=5355-62-4
##MP= -300
##BP= -300
##MW= 242
##$RETENTION INDEX=0
##$CONDENSED SPECTRUM=NO
##NPOINTS= 119
##XYDATA=(XY..XY) 1 
    15          2
    17          6
    18          2
    27          7
    28          3
    29          4
    37          2
    38          4
    39         21
    40          2
    41          5
    42          1
    43        248
    44          6
    49          2
    50         26
    51         80
    52         19
    53          6
    55          1
    57          8
    58         14
    59          2
    61          2
    62          5
    63         14
    64          2
    65         16
    66          1
    69          1
    73          2
    74         11
    75          9
    76         17
    77        265
    78        119
    79         67
    80          4
    82          2
    86          1
    87          2
    88          3
    89         15
    90          3
    91        102
    92          9
    93          3
    94          3
    95          5
    98          1
   100          1
   101         12
   102         22
   103        132
   104        999
   105        486
   106        142
   107         80
   108          7
   113          1
   114          1
   115         53
   116         10
   117        161
   118        391
   119         44
   120         60
   121        255
   122         97
   123          8
   126          1
   127          9
   128         27
   129         18
   130          2
   131          4
   135          4
   139          1
   141          1
   145          1
   146          2
   147          2
   151          1
   152          3
   153          1
   163          1
   164          4
   165         10
   166          2
   176          2
   177          1
   178          9
   179          6
   180          1
   181          2
   189         11
   190         13
   191         36
   192          6
   193          3
   200          1
   201          2
   202         15
   203         21
   204         18
   205         59
   206        130
   207         23
   208          7
   209         39
   210          6
   223          1
   224         94
   225         16
   226          1
   227         13
   228          2
   242          5
   243          1