##TITLE=Library Entry 9519
##JCAMP-DX=Revision 4.10 
##DATA TYPE=MASS SPECTRUM
##SAMPLE DESCRIPTION=Exported from NIST MS Search
##NAMES=HP
##CAS NAME=2-Hexyne, 5-methyl-
##MOLFORM=C7H12
##CAS REGISTRY NO=53566-37-3
##MP= -300
##BP= -300
##MW= 96
##$RETENTION INDEX=701
##$CONDENSED SPECTRUM=NO
##NPOINTS= 76
##XYDATA=(XY..XY) 1 
    12          2
    13         11
    14         31
    15        157
    16          8
    19          2
    20          1
    24          2
    25         11
    26        109
    27        809
    28        107
    29         76
    30          2
    31          2
    32          1
    36          6
    37         53
    38         96
    39        786
    40         87
    41        764
    42        112
    43        999
    44         34
    45          4
    46          1
    48          2
    49         23
    50        179
    51        271
    52        153
    53        609
    54        751
    55        235
    56         90
    57         15
    58         13
    59          1
    60          2
    61         13
    62         24
    63         50
    64          9
    65         72
    66         42
    67        134
    68        114
    69         11
    70          3
    71          1
    72          1
    73          5
    74         20
    75          9
    76          4
    77        100
    78         22
    79        176
    80         41
    81        878
    82         60
    83          2
    84          1
    85          2
    86          2
    87          1
    89          1
    91         12
    92          1
    93          7
    94         10
    95         58
    96        860
    97         68
    98          2