##TITLE=Library Entry 15613
##JCAMP-DX=Revision 4.10 
##DATA TYPE=MASS SPECTRUM
##SAMPLE DESCRIPTION=C.M.WILLIAMS UNIV. OF FLORIDA, GAINESVILLE, FLORIDA, US
A
##NAMES=HP
##CAS NAME=Benzenemethanol, 2-(2-aminopropoxy)-3-methyl-
##MOLFORM=C11H17NO2
##CAS REGISTRY NO=53566-98-6
##MP= -300
##BP= -300
##MW= 195
##$RETENTION INDEX=0
##$CONDENSED SPECTRUM=NO
##NPOINTS= 144
##XYDATA=(XY..XY) 1 
    12         12
    13          1
    14          5
    15         30
    16         19
    17         28
    19          2
    20          1
    22          2
    26          5
    27         37
    29         45
    30        120
    31         22
    32         15
    36          3
    37          2
    38          5
    39         50
    40         10
    41        108
    42         54
    43         60
    44        999
    45        100
    46         42
    47          2
    50          9
    51         30
    52         15
    53         28
    54          7
    55         16
    56         28
    57         35
    58        250
    59         25
    60          9
    61          2
    62          4
    63         16
    64          5
    65         32
    66         11
    67          5
    68          3
    69          5
    70          4
    71          4
    72          2
    73          4
    74          6
    75          4
    76          9
    77         56
    78         22
    79         21
    80          3
    81         10
    82          3
    83          3
    84          5
    85          3
    86          2
    87          3
    89          9
    90          9
    91         88
    92         21
    93         10
    94         10
    95          3
    96          2
    97          2
    98          2
   101          1
   102          4
   103          7
   104          3
   105         17
   106          6
   107         16
   108          5
   109          9
   110          2
   111          3
   112          1
   113          1
   114          1
   115          3
   116          2
   117          3
   118          5
   119         11
   120         22
   121         30
   122          4
   123          3
   124          1
   125          1
   126          1
   129          2
   130          2
   131          2
   132          5
   133          9
   134         12
   135         20
   136         12
   137          7
   138          2
   139          1
   141          1
   142          1
   143          2
   144          2
   145          5
   146          3
   147          3
   148          3
   149          3
   150          2
   151          1
   152          6
   153          1
   154          1
   158          2
   159          2
   160          4
   161          1
   162          5
   163          2
   164          2
   173          1
   174          2
   175          2
   176          2
   177          3
   178         19
   179          4
   180          1
   190          1
   195          6
   196          1