##TITLE=Library Entry 92498
##JCAMP-DX=Revision 4.10 
##DATA TYPE=MASS SPECTRUM
##SAMPLE DESCRIPTION=Japan AIST/NIMC Database- Spectrum MS-NW-3108
##NAMES=HP
##CAS NAME=Silane, ethenylethoxydimethyl-
##MOLFORM=C6H14OSi
##CAS REGISTRY NO=5356-83-2
##MP= -300
##BP= -300
##MW= 130
##$RETENTION INDEX=704
##$CONDENSED SPECTRUM=NO
##NPOINTS= 77
##XYDATA=(XY..XY) 1 
    14          1
    15          9
    26          4
    27         20
    28         30
    29         10
    30          1
    31         12
    32          9
    38          1
    39          7
    41          3
    42          9
    43         59
    44          9
    45         91
    46          5
    47         34
    48          2
    49          2
    50          5
    51          2
    53          9
    54          2
    55         17
    56          2
    57         10
    58         20
    59        128
    60         14
    61        250
    62         15
    63          9
    65          1
    66          2
    67          3
    68          1
    69          4
    70          6
    71        247
    72         22
    73         31
    74          5
    75        154
    76         11
    77          7
    78          1
    83          3
    84          3
    85        137
    86         15
    87        214
    88         34
    89         21
    90          2
    91         15
    92         10
    97          5
    99          5
   100          1
   101          5
   102          3
   103         96
   104          9
   105          5
   106          3
   111          1
   113         18
   114          3
   115        999
   116        108
   117         41
   118          2
   129          4
   130         23
   131          3
   132          1