##TITLE=Library Entry 54683
##JCAMP-DX=Revision 4.10 
##DATA TYPE=MASS SPECTRUM
##SAMPLE DESCRIPTION=V.G.Zaikin, Petrochem. Synth. Inst., Moscow
##NAMES=HP
##CAS NAME=2-Butyl-1,2-oxaborolane
##MOLFORM=C7H15BO
##CAS REGISTRY NO=5357-13-1
##MP= -300
##BP= -300
##MW= 126
##$RETENTION INDEX=0
##$CONDENSED SPECTRUM=NO
##NPOINTS= 22
##XYDATA=(XY..XY) 1 
    39        109
    40          3
    42        813
    43        839
    44         76
    55        121
    56        175
    57        147
    58         12
    69        125
    70         11
    83         70
    84        274
    85        999
    86         55
    87          4
    97         31
    98         42
    99          4
   125         24
   126         79
   127          8