##TITLE=Library Entry 60050
##JCAMP-DX=Revision 4.10 
##DATA TYPE=MASS SPECTRUM
##SAMPLE DESCRIPTION=Div. of Experiment Therapeutics WRAIR, WRAMC, Washingto
n DC 20307
##NAMES=HP
##CAS NAME=2-Benzyloxy-N,N-diethyl-5-nitrobenzamide
##MOLFORM=C18H20N2O4
##CAS REGISTRY NO=53572-74-0
##MP= -300
##BP= -300
##MW= 328
##$RETENTION INDEX=0
##$CONDENSED SPECTRUM=NO
##NPOINTS= 125
##XYDATA=(XY..XY) 1 
    41         13
    42         31
    43          3
    44         20
    45          0
    46          0
    47          2
    48          0
    49         11
    50          5
    51         11
    52          3
    53          4
    54          2
    56         29
    57          8
    58         30
    59          0
    61          0
    62          3
    63         22
    64          3
    65         81
    66          4
    67          2
    68          1
    69          1
    70          2
    72         93
    73         13
    74         56
    75          8
    76          3
    77          7
    78          2
    79          6
    80          1
    82          0
    84          6
    86          5
    89         12
    91        999
    92         78
    93          2
   100          2
   102          0
   103          1
   104          4
   105          2
   106          1
   107          4
   108          1
   113          0
   115          1
   118          3
   119          5
   120         25
   121          2
   126          1
   127          1
   128          0
   131          0
   132          0
   134          4
   135          4
   136          1
   137          0
   139          0
   141          0
   147          0
   148          0
   149          7
   150         16
   151          2
   152          3
   153          2
   154          0
   162          1
   163          1
   164          0
   165         11
   166         30
   167          2
   174          1
   175          3
   176          2
   178          2
   179          1
   180          3
   181          2
   190          0
   191          1
   193         23
   194          4
   202          1
   205         10
   206          0
   207          2
   208          0
   209          2
   210          0
   211          0
   219          0
   221         31
   222          9
   223          1
   226          2
   235          2
   237          9
   238          2
   239          2
   251          2
   254          8
   255         42
   256         12
   257          2
   295          0
   299          8
   300          1
   311          4
   312          1
   327          0
   328         62
   329         11
   330          1