##TITLE=Library Entry 67370
##JCAMP-DX=Revision 4.10 
##DATA TYPE=MASS SPECTRUM
##SAMPLE DESCRIPTION=Japan AIST/NIMC Database- Spectrum MS-IW-2426
##NAMES=HP
##CAS NAME=2-Phenoxy-2-phenylethanol
##MOLFORM=C14H14O2
##CAS REGISTRY NO=53574-80-4
##MP= -300
##BP= -300
##MW= 214
##$RETENTION INDEX=0
##$CONDENSED SPECTRUM=NO
##NPOINTS= 67
##XYDATA=(XY..XY) 1 
    18          2
    27          4
    28          3
    29          1
    31          3
    38          3
    39         26
    40          5
    41          4
    43          6
    50          9
    51         48
    52          6
    53          3
    55          6
    62          3
    63         12
    64          5
    65         44
    66         19
    67          1
    74          2
    75          3
    76          5
    77        126
    78         21
    79         24
    80          1
    89         15
    90         10
    91        161
    92         23
    93         16
    94        999
    95         74
    96          4
   101          1
   102          4
   103        151
   104         19
   105          9
   107          1
   115          4
   119          8
   120        380
   121        176
   122         14
   123          1
   127          2
   128          2
   129          3
   141          1
   151          1
   152          5
   153          8
   154          6
   155         38
   156          5
   165          5
   166          1
   177          1
   181          2
   182          1
   183         53
   184          7
   214         58
   215          9