##TITLE=Library Entry 37799
##JCAMP-DX=Revision 4.10 
##DATA TYPE=MASS SPECTRUM
##SAMPLE DESCRIPTION=B. Derendyaev, Novosibirsk Institute of Organic Chemist
ry
##NAMES=HP
##CAS NAME=(3-Aminopropyl)dibutylborane
##MOLFORM=C11H26BN
##CAS REGISTRY NO=5357-23-3
##MP= -300
##BP= -300
##MW= 183
##$RETENTION INDEX=0
##$CONDENSED SPECTRUM=NO
##NPOINTS= 9
##XYDATA=(XY..XY) 1 
    41        229
    42        389
    54         79
    55         69
    68         69
    69        259
    70        999
   125        119
   126        419