##TITLE=Library Entry 35554
##JCAMP-DX=Revision 4.10 
##DATA TYPE=MASS SPECTRUM
##SAMPLE DESCRIPTION=Chemical Concepts
##NAMES=HP
##CAS NAME=Piperazine, 1,4-bis(1-oxooctadecyl)-
##MOLFORM=C40H78N2O2
##CAS REGISTRY NO=53575-22-7
##MP= -300
##BP= -300
##MW= 618
##$RETENTION INDEX=0
##$CONDENSED SPECTRUM=NO
##NPOINTS= 322
##XYDATA=(XY..XY) 1 
    26         11
    27         51
    29         99
    30         29
    31          2
    34          3
    36          2
    37          1
    38          3
    39         30
    40          8
    41        198
    42         66
    43        558
    44        300
    45         15
    46          3
    50          4
    51          4
    52          3
    53         13
    54         27
    55        293
    56        248
    57        500
    58         58
    59         12
    60         10
    61          2
    63          2
    65          7
    66          4
    67         52
    68         37
    69        999
    70        168
    71        250
    72         37
    73         33
    74          7
    75          2
    76          4
    77          7
    78          4
    79         12
    80          7
    81         52
    82         31
    83         89
    84         66
    85        745
    86         73
    87        610
    88         36
    89          2
    91         12
    92          4
    93         11
    94          5
    95         52
    96         22
    97         75
    98         76
    99         55
   100         19
   101         15
   102          4
   103          2
   104          4
   105          8
   106          3
   107          8
   108          5
   109         29
   110         27
   111         73
   112         57
   113        107
   114         19
   115         12
   116          3
   117          3
   119          5
   121          9
   122          5
   123         19
   124         12
   125         21
   126         42
   127         48
   128        191
   129         90
   130         13
   131          3
   133          5
   135          8
   136          3
   137          9
   138          9
   139         17
   140         20
   141        100
   142         34
   143          7
   144          2
   145          2
   147          3
   149         68
   150          7
   151          6
   152         11
   153         10
   154         20
   155         73
   156         19
   157          4
   158          2
   159          2
   160          2
   161          2
   163          3
   165          7
   166         23
   167         15
   168         17
   169         28
   170        271
   171         32
   172          3
   173          1
   175          1
   177          2
   178          2
   179          5
   180          5
   181         11
   182         15
   183        128
   184         30
   185          5
   186          2
   189          3
   191          3
   192          3
   193          3
   194          4
   195          8
   196         12
   197         29
   198         12
   199          4
   200          3
   202          2
   205          5
   206          2
   207          3
   208          3
   209          7
   210         11
   211         23
   212         13
   213          3
   220          2
   221          3
   222          3
   223         10
   224         11
   225         28
   226         12
   227          3
   228          1
   232          3
   234          3
   235          2
   236          4
   237          8
   238         11
   239         32
   240         11
   241          3
   247          1
   249          2
   250          3
   251          7
   252         11
   253         27
   254         11
   255          5
   256          1
   262          2
   264          4
   265          9
   266         14
   267         51
   268         15
   269          4
   270          2
   277          2
   278          4
   279          7
   280         12
   281         29
   282         14
   283          3
   284         64
   285         14
   286          2
   291          2
   292          5
   293          7
   294         16
   295         27
   296         13
   297          6
   298          6
   305          2
   306          4
   307         10
   308         14
   309         55
   310         59
   311         14
   312          4
   313          2
   320          3
   321          6
   322         16
   323         33
   324         15
   325         12
   326          6
   327          2
   333          3
   334          7
   335         50
   336         18
   337         70
   338         20
   339          5
   340          2
   348          5
   349         16
   351        197
   352        121
   353        162
   354         47
   355          6
   361          3
   362          1
   363          3
   364          3
   365         14
   366         18
   367          5
   368          2
   376          3
   377          3
   379        384
   380        116
   381         23
   382          2
   390          3
   391          4
   392          3
   393          9
   394        230
   395         68
   396         10
   397          2
   406          1
   407         73
   408         22
   409          4
   421          8
   422          5
   423          1
   435          8
   436          4
   437          1
   449         10
   450          4
   463          8
   464          3
   477          5
   478          2
   491          5
   492          2
   505          5
   506          3
   519          6
   520          3
   533          6
   534          2
   547          5
   548          3
   549          1
   550          6
   551          2
   561          5
   562          3
   563          1
   568          0
   575         10
   576          5
   577          1
   588          2
   589          9
   590         15
   591          5
   592          1
   600          2
   601          1
   602          1
   603         35
   604         16
   605          3
   616          9
   617         25
   618        113
   619         49
   620         11
   621          2