##TITLE=Library Entry 3646
##JCAMP-DX=Revision 4.10 
##DATA TYPE=MASS SPECTRUM
##SAMPLE DESCRIPTION=JACSAT, 100(17)5512(1978); B. M. TROST ET AL.
##NAMES=HP
##CAS NAME=4-Hexenoic acid, 6-hydroxy-4-methyl-, methyl ester, (E)-
##MOLFORM=C8H14O3
##CAS REGISTRY NO=53585-95-8
##MP= -300
##BP= -300
##MW= 158
##$RETENTION INDEX=0
##$CONDENSED SPECTRUM=NO
##NPOINTS= 40
##XYDATA=(XY..XY) 1 
    39        700
    40        150
    41        999
    42        140
    43        560
    44        850
    50        150
    51        240
    52        150
    53        400
    54        130
    55        530
    56        270
    57        240
    59        190
    63        100
    64         90
    65        180
    66        120
    67        400
    68        130
    69        230
    71        350
    74        280
    77        230
    78        100
    79        320
    80        180
    81        900
    82        140
    83        320
    84        260
    85        130
    91        240
    96        120
    97        260
    98        480
   111        160
   140        210
   141         70