##TITLE=Library Entry 33594
##JCAMP-DX=Revision 4.10 
##DATA TYPE=MASS SPECTRUM
##SAMPLE DESCRIPTION=Exported from NIST MS Search
##NAMES=HP
##CAS NAME=p-Mentha-1,8-dien-7-ol
##MOLFORM=C10H16O
##CAS REGISTRY NO=536-59-4
##MP= -300
##BP= -300
##MW= 152
##$RETENTION INDEX=1296
##$CONDENSED SPECTRUM=NO
##NPOINTS= 85
##XYDATA=(XY..XY) 1 
    15          7
    17          6
    26          9
    27        171
    28         47
    29        137
    30          6
    31         81
    32          7
    38         13
    39        269
    40         88
    41        416
    42         74
    43        144
    44         17
    45          6
    50         20
    51         77
    52         43
    53        249
    54         44
    55        407
    56        121
    57         59
    58          5
    59          8
    61          5
    62          7
    63         24
    64          9
    65         84
    66        124
    67        533
    68        999
    69        181
    70         87
    71         36
    72          7
    75         13
    77        202
    78         80
    79        732
    80        124
    81        211
    82         54
    83        184
    84         67
    85         15
    89         10
    90          7
    91        310
    92        139
    93        566
    94        114
    95        105
    96         35
    97         20
   103         23
   104         11
   105        154
   106        154
   107         80
   108        166
   109        179
   110         45
   111         13
   115         15
   116          6
   117         22
   118          8
   119        226
   120         28
   121        462
   122         60
   123         31
   124         18
   132          5
   133         15
   134        104
   135         18
   137         16
   150          8
   152        124
   153         12