##TITLE=Library Entry 27727
##JCAMP-DX=Revision 4.10 
##DATA TYPE=MASS SPECTRUM
##SAMPLE DESCRIPTION=Finnigan MAT: Toxicological Library (LIBR-TX)
##NAMES=HP
##CAS NAME=Ethylnoradrenaline
##MOLFORM=C10H15NO3
##CAS REGISTRY NO=536-24-3
##MP= -300
##BP= -300
##MW= 197
##$RETENTION INDEX=0
##$CONDENSED SPECTRUM=NO
##NPOINTS= 17
##XYDATA=(XY..XY) 1 
    41         78
    43         18
    51         20
    55         18
    56         57
    58        999
    59         37
    65         40
    77         18
    78         10
    93         31
   123         21
   124         39
   137         10
   139         10
   150          9
   179         20