##TITLE=Library Entry 2516
##JCAMP-DX=Revision 4.10 
##DATA TYPE=MASS SPECTRUM
##SAMPLE DESCRIPTION=G. SIPMA, POLAK@S FRUTAL, AMERSFOORT, HOLLAND.
##NAMES=HP
##CAS NAME=2-Cyclohexen-1-ol, 2-methyl-5-(1-methylethyl)-, (1S-cis)-
##MOLFORM=C10H18O
##CAS REGISTRY NO=536-30-1
##MP= -300
##BP= -300
##MW= 154
##$RETENTION INDEX=1197
##$CONDENSED SPECTRUM=NO
##NPOINTS= 74
##XYDATA=(XY..XY) 1 
    26         34
    27        463
    29        317
    31         55
    38         24
    39        524
    40        104
    41        999
    42        104
    43        951
    44         55
    45         73
    50         34
    51        122
    52         61
    53        287
    54        152
    55        707
    56        220
    57        115
    58         34
    59         44
    63         37
    65        159
    66         63
    67        348
    68         76
    69        646
    70        104
    71        159
    72        402
    73         27
    77        378
    78         73
    79        316
    80         62
    81        305
    82        902
    83        549
    84        854
    85        118
    86         62
    91        378
    92        171
    93        756
    94         91
    95        256
    96         50
    97        280
    98         88
    99         17
   103         15
   105         55
   107         73
   108         38
   109         84
   110         50
   111        427
   112         44
   119         34
   121        146
   122         17
   123         13
   125        122
   126         50
   135         19
   136         66
   137         21
   139        293
   140         30
   152         60
   153         40
   154        439
   155         51