##TITLE=Library Entry 1327
##JCAMP-DX=Revision 4.10 
##DATA TYPE=MASS SPECTRUM
##SAMPLE DESCRIPTION=Japan AIST/NIMC Database- Spectrum MS-NW-3221
##NAMES=HP
##CAS NAME=Norfenefrine
##MOLFORM=C8H11NO2
##CAS REGISTRY NO=536-21-0
##MP= -300
##BP= -300
##MW= 153
##$RETENTION INDEX=0
##$CONDENSED SPECTRUM=NO
##NPOINTS= 91
##XYDATA=(XY..XY) 1 
    15          4
    16          2
    17          9
    18         22
    26          3
    27         15
    28         34
    29         15
    30        999
    31         51
    32         75
    33          2
    39         64
    40         12
    41         27
    42          7
    43          7
    44          5
    45          1
    46          1
    49          1
    50         12
    51         30
    52          8
    53         10
    54          2
    55         15
    56          1
    57          3
    58          1
    59          2
    60          2
    61          4
    62          9
    63         17
    64          8
    65         53
    66         20
    67         18
    68          3
    69          2
    70          1
    71          2
    73          2
    74          4
    75          4
    76          4
    77        163
    78         28
    79         11
    80          3
    81          3
    82          1
    83          2
    85          1
    89          3
    90          3
    91          8
    92          3
    93         28
    94         26
    95        213
    96         17
    97          2
   104          2
   105         17
   106         19
   107         24
   108          6
   109          7
   110          1
   111          1
   116          5
   117          3
   118          3
   119          3
   120          5
   121         58
   122         38
   123         81
   124        466
   125         37
   126          4
   133          5
   134         12
   135         10
   136          3
   150          1
   151          3
   153         57
   154          7