##TITLE=Library Entry 61855
##JCAMP-DX=Revision 4.10 
##DATA TYPE=MASS SPECTRUM
##SAMPLE DESCRIPTION=Chemical Concepts
##NAMES=HP
##CAS NAME=p-Toluenesulfinic acid
##MOLFORM=C7H8O2S
##CAS REGISTRY NO=536-57-2
##MP= -300
##BP= -300
##MW= 156
##$RETENTION INDEX=0
##$CONDENSED SPECTRUM=NO
##NPOINTS= 86
##XYDATA=(XY..XY) 1 
    26          7
    27         34
    29          3
    34          4
    36          3
    37          8
    38         25
    39        192
    40         14
    41         37
    43          6
    44         18
    45        249
    46          6
    47         13
    48          5
    49          5
    50         53
    51         98
    52         29
    53         41
    54          3
    55          3
    57          6
    58         12
    59          8
    60         12
    61         22
    62         56
    63        120
    64         30
    65        287
    66         21
    67          4
    69         55
    70         14
    71         21
    73          6
    74         14
    75         14
    76          9
    77        245
    78         63
    79        279
    80         41
    81          8
    82         14
    83          6
    84          7
    85          6
    86         10
    87          9
    88          4
    89        107
    90         81
    91        999
    92        108
    93          9
    94          3
    95         12
    96          7
    97         24
   104          4
   105         19
   106          7
   107        234
   108        176
   109         21
   110          5
   115          5
   121         77
   122         73
   123        818
   124        451
   125         66
   126         20
   127          3
   129          3
   130          5
   139         12
   152          6
   153          9
   154         21
   155         38
   156          7
   157          3