##TITLE=Library Entry 20799
##JCAMP-DX=Revision 4.10 
##DATA TYPE=MASS SPECTRUM
##SAMPLE DESCRIPTION=CARL DJERASSI DEPT OF CHEM STANFORD UNIV STANFORD CALIF
 94305
##NAMES=HP
##CAS NAME=3,5-Cyclostigmast-22-ene, 6-methoxy-, (3.beta.,5.alpha.,6.beta.,2
2E)-
##MOLFORM=C30H50O
##CAS REGISTRY NO=53603-94-4
##MP= -300
##BP= -300
##MW= 426
##$RETENTION INDEX=0
##$CONDENSED SPECTRUM=NO
##NPOINTS= 187
##XYDATA=(XY..XY) 1 
    41        370
    42         10
    43        360
    45        120
    50         10
    51         10
    53         80
    54         20
    55        999
    56         50
    57        200
    59         40
    65         30
    66         10
    67        290
    68         40
    69        630
    70         40
    71        150
    77        100
    78         30
    79        280
    82         70
    83        960
    84         80
    85         50
    91        270
    92         50
    93        320
    94        120
    95        390
    96         80
    97        240
    98         20
    99         10
   103         10
   104         10
   105        310
   106         80
   107        330
   108         60
   109        190
   110         40
   111         30
   115         20
   116         10
   117         80
   118         30
   119        160
   120         70
   121        280
   122         60
   123        150
   124         30
   125         20
   128         20
   129         40
   130         20
   131        120
   132         40
   133        210
   134         50
   135        140
   136         30
   137        130
   138         50
   139        150
   140         10
   141         10
   142         10
   143         50
   144         20
   145        200
   146         40
   147        170
   148         30
   149         80
   150         10
   151         30
   152         10
   155         10
   157         50
   158         20
   159        220
   160         60
   161        140
   162         20
   163         30
   164         10
   165         10
   166         10
   172         30
   173         10
   174         80
   175         20
   176         50
   177         10
   178         20
   179         10
   185         40
   186         10
   187         60
   188         20
   189         40
   191         30
   197         10
   199         70
   200         20
   201         40
   202         10
   203         10
   205         10
   211         10
   213        110
   214         30
   215         50
   216         10
   217         10
   225         10
   227         80
   228         60
   229        120
   230         20
   231         30
   239         20
   240         20
   241         40
   242         10
   243         20
   245         20
   253        170
   254         60
   255        510
   256         70
   257         30
   259         40
   260         10
   267         20
   269         10
   271         10
   272         10
   273         20
   281         20
   282         60
   283         50
   284         30
   285         80
   286         40
   287         40
   288         10
   289         10
   295         10
   296         10
   299         30
   300         10
   309         10
   313         10
   314         80
   315         30
   325         30
   328         20
   332         30
   343         20
   351        230
   352         70
   353         30
   365         20
   368        140
   369         60
   370         20
   371        590
   372        180
   373         40
   379         40
   380         20
   383         30
   384         20
   385         40
   394        370
   395        130
   396         30
   411        310
   412        120
   413         30
   426        480
   427        160
   428         40