##TITLE=Library Entry 87699
##JCAMP-DX=Revision 4.10 
##DATA TYPE=MASS SPECTRUM
##SAMPLE DESCRIPTION=Exported from NIST MS Search
##NAMES=HP
##CAS NAME=Androstane-12,17-dione, 3-hydroxy-, (3.alpha.,5.beta.)-
##MOLFORM=C19H28O3
##CAS REGISTRY NO=53604-39-0
##MP= -300
##BP= -300
##MW= 304
##$RETENTION INDEX=0
##$CONDENSED SPECTRUM=NO
##NPOINTS= 144
##XYDATA=(XY..XY) 1 
    41        527
    42         30
    43        460
    44        139
    53        212
    54         30
    55        727
    56         90
    57        369
    65          9
    66         21
    67        572
    68        160
    69        469
    70         57
    71         90
    77        151
    78         21
    79        490
    80        112
    81        512
    82        115
    83        257
    84         21
    85         54
    91        333
    92         54
    93        503
    94        200
    95        472
    96        187
    97        696
    98         45
   105        312
   106        118
   107        348
   108        230
   109        303
   110        999
   111        193
   112         12
   117         30
   118         30
   119        178
   120        100
   121        412
   122        172
   123        469
   124        103
   125         60
   126          9
   129          6
   131        103
   132         18
   133        151
   134         90
   135        160
   136        133
   137        103
   138         30
   139         12
   143         21
   144          6
   145          9
   146         36
   147        203
   148         97
   149        157
   150         42
   151         60
   157         21
   158         21
   159         81
   160         60
   161        181
   162         90
   163        100
   164         60
   165         54
   166          9
   171         21
   172          9
   173         72
   174         54
   175         60
   176         30
   177        103
   178         33
   179         39
   185         30
   186         24
   187         69
   188         54
   189         54
   190         42
   191          9
   192          9
   199         21
   200          9
   201         54
   202         21
   203         27
   204         27
   211          3
   213         24
   214         36
   215         60
   216         24
   217         18
   225          6
   226          6
   227         45
   228          9
   229         78
   230        151
   231        112
   232         27
   241          9
   242        130
   243         66
   244         30
   245         24
   246          9
   248         42
   258        106
   259         12
   260         27
   261         12
   262          6
   268         30
   269         21
   270         30
   271         81
   272         21
   276        157
   277         18
   278          6
   286        675
   287        136
   288         21
   289          6
   304        896
   305        157
   306         18