##TITLE=Library Entry 10042
##JCAMP-DX=Revision 4.10 
##DATA TYPE=MASS SPECTRUM
##SAMPLE DESCRIPTION=FOOD RESEARCH REPORT 120, K.E. MURRAY & COLLEAGUES, DIV
. OF FOOD RESEARCH, CSIRO, AUSTRALIA
##NAMES=HP
##CAS NAME=Butanoic acid, 3-hydroxy-, butyl ester
##MOLFORM=C8H16O3
##CAS REGISTRY NO=53605-94-0
##MP= -300
##BP= -300
##MW= 160
##$RETENTION INDEX=1080
##$CONDENSED SPECTRUM=NO
##NPOINTS= 45
##XYDATA=(XY..XY) 1 
    25         10
    26         50
    27        320
    29        540
    30         20
    31        230
    33         20
    37         10
    38         20
    39        260
    40         60
    41        710
    42        320
    43        999
    45        580
    46         10
    51         10
    53         20
    54         10
    55        130
    56        690
    57        370
    58         60
    59         10
    60        270
    61        100
    68         30
    69        570
    70         40
    71        110
    72         20
    73         60
    75         10
    85         60
    86         80
    87        880
    88         40
    89        210
    99         10
   101         10
   103         20
   104         20
   105         30
   127         10
   145         40