##TITLE=Library Entry 109266
##JCAMP-DX=Revision 4.10 
##DATA TYPE=MASS SPECTRUM
##SAMPLE DESCRIPTION=NIST Mass Spectrometry Data Center, 1994
##NAMES=HP
##CAS NAME=p-Methylsulfonylbenzyl chloride
##MOLFORM=C8H9ClO2S
##CAS REGISTRY NO=53606-06-7
##MP= -300
##BP= -300
##MW= 204
##$RETENTION INDEX=0
##$CONDENSED SPECTRUM=NO
##NPOINTS= 102
##XYDATA=(XY..XY) 1 
    14         13
    15        168
    18          5
    26          9
    27         19
    28         45
    29         17
    31          8
    32         17
    33          5
    35         12
    36         10
    37         18
    38         64
    39        201
    40         29
    41          7
    44          8
    45         33
    46          8
    47          8
    48         24
    49         23
    50         91
    51        160
    52         34
    53         10
    61         31
    62        139
    63        449
    64        140
    65         53
    66         10
    69         20
    73         49
    74         26
    75         47
    76         10
    77        307
    78         78
    79         46
    82          4
    84          5
    85         16
    86         35
    87         31
    88          4
    89        764
    90        334
    91         34
    93          6
    94          7
    95          6
    97          7
    99        122
   100          9
   101         37
   102          6
   103         13
   104         13
   105          9
   106          6
   107        553
   108         48
   109         10
   110         11
   112          7
   113         79
   114          6
   115         25
   121         18
   122         10
   123          7
   124          6
   125        999
   126         84
   127        316
   128         21
   137         10
   138         47
   139          9
   140          7
   141        454
   142        100
   143        145
   144         27
   154          7
   169        189
   170         19
   171         12
   173         16
   175          7
   189        440
   190         44
   191        156
   192         16
   193          7
   204        355
   205         42
   206        128
   207         10
   208          6