##TITLE=Library Entry 2856
##JCAMP-DX=Revision 4.10 
##DATA TYPE=MASS SPECTRUM
##SAMPLE DESCRIPTION=A.Kamal-Eldin ET AL.J.Chrom.,776,245(1997)
##NAMES=HP
##CAS NAME=Methyl 11-oxo-9-undecenoate
##MOLFORM=C12H20O3
##CAS REGISTRY NO=53613-55-1
##MP= -300
##BP= -300
##MW= 212
##$RETENTION INDEX=1698
##$CONDENSED SPECTRUM=NO
##NPOINTS= 62
##XYDATA=(XY..XY) 1 
    41        999
    42        143
    43        329
    53        153
    54        110
    55        686
    56         77
    57        227
    58         15
    65         32
    66         36
    67        220
    68        106
    69        331
    70        330
    71         58
    73         88
    74        382
    78         14
    79        114
    80         67
    81        191
    82         85
    83        281
    84        156
    85         42
    87        179
    88         22
    91         45
    92         30
    93         79
    94         85
    95        128
    96         87
    97         96
    98        239
    99         32
   101         25
   103         35
   105         23
   107         34
   108         39
   109         67
   110         46
   111         66
   112         39
   113         12
   115         12
   119         18
   120         33
   121         36
   123         33
   125         27
   129         13
   135         39
   136         27
   137         17
   151         16
   152         45
   180         24
   181         32
   212          4