##TITLE=Library Entry 3463
##JCAMP-DX=Revision 4.10 
##DATA TYPE=MASS SPECTRUM
##SAMPLE DESCRIPTION=A. KHOKER STATE UNIVERSITY OF GHENT, GHENT, BELGIUM
##NAMES=HP
##CAS NAME=3-Pentenal, 4-methyl-
##MOLFORM=C6H10O
##CAS REGISTRY NO=5362-50-5
##MP= -300
##BP= -300
##MW= 98
##$RETENTION INDEX=0
##$CONDENSED SPECTRUM=NO
##NPOINTS= 30
##XYDATA=(XY..XY) 1 
    37         15
    38         25
    39        200
    40         45
    41        999
    42        130
    43        180
    44         75
    50         30
    51         45
    52         17
    53        137
    54         32
    55        360
    56         80
    57         60
    59         15
    65         20
    67         50
    69        540
    70        100
    71         20
    77         20
    79         50
    80         25
    81         25
    83        420
    84         35
    97         60
    98        450