##TITLE=Library Entry 57857
##JCAMP-DX=Revision 4.10 
##DATA TYPE=MASS SPECTRUM
##SAMPLE DESCRIPTION=Chemical Concepts
##NAMES=HP
##CAS NAME=6-(Methylthio)hex-5-en-3-ol
##MOLFORM=C7H14OS
##CAS REGISTRY NO=53634-85-8
##MP= -300
##BP= -300
##MW= 146
##$RETENTION INDEX=0
##$CONDENSED SPECTRUM=NO
##NPOINTS= 116
##XYDATA=(XY..XY) 1 
    26          6
    27         73
    28          1
    29         94
    30          4
    31        250
    33          2
    34          2
    35          6
    36          0
    37          2
    38          7
    39        135
    40         14
    41        310
    42         22
    43         45
    44         10
    45        248
    46         46
    47         85
    48         20
    49         13
    50          4
    51         11
    52          4
    53         57
    54         15
    55         60
    56          6
    57         80
    58         29
    59        357
    60         19
    61         67
    62          5
    63          5
    64          1
    65          9
    66          3
    67         14
    68         17
    69         89
    70          9
    71         66
    72         89
    73        700
    74         48
    75         73
    76          4
    77         14
    78          2
    79         19
    80          4
    81         32
    82          4
    83          8
    84          4
    85         38
    86          4
    87        359
    88        999
    89        114
    90         51
    91          7
    92          1
    93          3
    94          1
    95          2
    96          1
    97         14
    98          8
    99         25
   100          3
   101          7
   102          4
   103          2
   104          2
   105          2
   106          1
   107          1
   109          3
   110          1
   111          3
   112          2
   113          9
   114          2
   115         18
   116          8
   117         27
   118          2
   119          2
   120          1
   121          3
   122          1
   123          1
   124          0
   125          1
   126          0
   127          3
   128          2
   129          7
   130          2
   131          1
   133          1
   137          1
   138          2
   139          2
   140          1
   141          1
   144          6
   145          3
   146        311
   147         27
   148         16
   149          2