##TITLE=Library Entry 81571
##JCAMP-DX=Revision 4.10 
##DATA TYPE=MASS SPECTRUM
##SAMPLE DESCRIPTION=Chemical Concepts
##NAMES=HP
##CAS NAME=Benzenemethanol, .alpha.-[1-(methylthio)-2-propenyl]-.alpha.-phen
yl-
##MOLFORM=C17H18OS
##CAS REGISTRY NO=53635-00-0
##MP= -300
##BP= -300
##MW= 270
##$RETENTION INDEX=0
##$CONDENSED SPECTRUM=NO
##NPOINTS= 121
##XYDATA=(XY..XY) 1 
    27         12
    28         13
    29          3
    39         34
    40          4
    41         20
    43         10
    44          5
    45         43
    46          6
    47         16
    48          6
    50         14
    51         74
    52          9
    53         11
    55          6
    59          6
    61          7
    62          4
    63         14
    64          3
    65         11
    68          3
    69          4
    71         10
    72         11
    73         32
    74          8
    75         12
    76         21
    77        416
    78         38
    79          5
    83          2
    85          3
    86          2
    87         23
    88        171
    89         29
    90         11
    91         38
    92          4
    98          5
   100          4
   101         23
   102         14
   103         13
   104          7
   105        999
   106         78
   107          7
   111          2
   113          3
   114          3
   115         45
   116         10
   117         17
   118          4
   121          4
   126         11
   127         28
   128         24
   129         10
   131         12
   139          7
   141          4
   144          5
   145         14
   146          6
   149          6
   150          4
   151          9
   152         28
   153         11
   154          4
   155          3
   160          2
   163          6
   164          5
   165         35
   166          8
   167          8
   176          7
   177          5
   178         20
   179          9
   181         15
   182         40
   183        966
   184        139
   185         11
   189         19
   190         31
   191         24
   192          5
   193          3
   194          2
   195          1
   200          4
   201          6
   202         44
   203         77
   204         76
   205        177
   206         43
   207          6
   208          3
   209         28
   210          5
   212          2
   213          3
   221          5
   222          3
   223          3
   234          3
   235          2
   237          2
   252         76
   253         16
   254          4