##TITLE=Library Entry 8668
##JCAMP-DX=Revision 4.10 
##DATA TYPE=MASS SPECTRUM
##SAMPLE DESCRIPTION=CARL DJERASSI DEPT OF CHEM STANFORD UNIV STANFORD CALIF
 94305
##NAMES=HP
##CAS NAME=Pentane, 1-(ethenyloxy)-
##MOLFORM=C7H14O
##CAS REGISTRY NO=5363-63-3
##MP= -300
##BP= -300
##MW= 114
##$RETENTION INDEX=0
##$CONDENSED SPECTRUM=NO
##NPOINTS= 21
##XYDATA=(XY..XY) 1 
    41        247
    42        207
    43        999
    44        108
    45         59
    53          9
    54          9
    55        306
    56         19
    57         29
    59         19
    68          9
    69         19
    70        316
    71        118
    72          9
    78         19
    85          9
    99        237
   100         19
   114         29