##TITLE=Library Entry 17627
##JCAMP-DX=Revision 4.10 
##DATA TYPE=MASS SPECTRUM
##SAMPLE DESCRIPTION=Div. of Experiment Therapeutics WRAIR, WRAMC, Washingto
n DC 20307
##NAMES=HP
##CAS NAME=6-Methylpyridine-2,3-dicarboxylic acid
##MOLFORM=C8H7NO4
##CAS REGISTRY NO=53636-70-7
##MP= -300
##BP= -300
##MW= 181
##$RETENTION INDEX=0
##$CONDENSED SPECTRUM=NO
##NPOINTS= 39
##XYDATA=(XY..XY) 1 
    42        122
    43         11
    44         39
    45        999
    46          8
    47         17
    49         67
    50         93
    51        106
    52        203
    53        112
    54         31
    55          9
    61         31
    62         57
    63        133
    64        132
    65        169
    66        133
    67         26
    75         22
    76         40
    77         38
    78         52
    80         79
    81         10
    84         37
    90          8
    91        236
    92        216
    93        596
    94         32
   104          9
   108         28
   119        244
   120         69
   137        928
   138         26
   181          8