##TITLE=Library Entry 99645
##JCAMP-DX=Revision 4.10 
##DATA TYPE=MASS SPECTRUM
##SAMPLE DESCRIPTION=Div. of Experiment Therapeutics WRAIR, WRAMC, Washingto
n DC 20307
##NAMES=HP
##CAS NAME=Pyrindino[2,3-c]pyrrole-5,7(6H)-dione, 2-methyl-
##MOLFORM=C8H6N2O2
##CAS REGISTRY NO=53636-28-5
##MP= -300
##BP= -300
##MW= 162
##$RETENTION INDEX=0
##$CONDENSED SPECTRUM=NO
##NPOINTS= 58
##XYDATA=(XY..XY) 1 
    41        103
    42         35
    43        101
    44        127
    45         51
    49         56
    50        104
    51        112
    52        228
    53        121
    54         18
    56          5
    59         56
    61         64
    62        108
    63        278
    64        465
    65        151
    66         27
    67         30
    68          5
    70         47
    75         34
    76         62
    77         60
    78         49
    79         34
    80         60
    84          6
    86         12
    87         12
    88         25
    89         14
    90         99
    91        961
    92         39
    93        328
    94         21
   104         16
   105         24
   106         15
   107        105
   108         11
   109         20
   117         29
   118         30
   119        999
   120        194
   121         54
   135         73
   136        120
   137          5
   144         11
   160         24
   161         18
   162        940
   163        127
   164         89