##TITLE=Library Entry 32477
##JCAMP-DX=Revision 4.10 
##DATA TYPE=MASS SPECTRUM
##SAMPLE DESCRIPTION=A. J. HORNG
##NAMES=HP
##CAS NAME=Cyclohexane, 1-propenyl-
##MOLFORM=C9H16
##CAS REGISTRY NO=5364-83-0
##MP= -300
##BP= -300
##MW= 124
##$RETENTION INDEX=923
##$CONDENSED SPECTRUM=NO
##NPOINTS= 76
##XYDATA=(XY..XY) 1 
    13          2
    14          9
    15        102
    16          2
    18          2
    25          2
    26         61
    27        573
    28        133
    29        297
    30          7
    31          6
    37         15
    38         45
    39        641
    40        113
    41        955
    42         93
    43         72
    44          8
    45          4
    46          3
    47          2
    49          3
    50         37
    51         89
    52         48
    53        265
    54        344
    55        897
    56         74
    57         34
    58          5
    61          3
    62          9
    63         24
    64          6
    65         61
    66         79
    67        999
    68        419
    69        119
    70         20
    71          3
    73          2
    74          4
    75          5
    77         67
    78         22
    79        112
    80         86
    81        853
    82        911
    83        473
    84         30
    85          2
    89          2
    90          1
    91         20
    92          4
    93         17
    94         13
    95        304
    96        121
    97          9
   105          2
   107          4
   108          2
   109        145
   110         13
   117          3
   119          3
   123          5
   124        327
   125         32
   126          1