##TITLE=Library Entry 40599
##JCAMP-DX=Revision 4.10 
##DATA TYPE=MASS SPECTRUM
##SAMPLE DESCRIPTION=R.T. LOEFFLER,LONG ASHTON RES. STN.,LONG ASHTON,BRISTOL
,U.K.
##NAMES=HP
##CAS NAME=(1-Amino-2,2,2-trichloroethyl)formamide
##MOLFORM=C3H5Cl3N2O
##CAS REGISTRY NO=53654-73-2
##MP= -300
##BP= -300
##MW= 190
##$RETENTION INDEX=0
##$CONDENSED SPECTRUM=NO
##NPOINTS= 25
##XYDATA=(XY..XY) 1 
    43        640
    44        170
    45        320
    46        490
    55        180
    57        290
    63        140
    69        140
    71        260
    73        999
    82        150
    83        310
    85        240
    97        140
   110        230
   111        240
   112        170
   113        150
   115        190
   146        260
   148        260
   150        100
   174        200
   176        190
   178         60