##TITLE=Library Entry 86210
##JCAMP-DX=Revision 4.10 
##DATA TYPE=MASS SPECTRUM
##SAMPLE DESCRIPTION=NIST Mass Spectrometry Data Center, 1994
##NAMES=HP
##CAS NAME=2,2-Dichlorocyclopropylacetonitrile
##MOLFORM=C5H5Cl2N
##CAS REGISTRY NO=5365-25-3
##MP= -300
##BP= -300
##MW= 149
##$RETENTION INDEX=0
##$CONDENSED SPECTRUM=NO
##NPOINTS= 82
##XYDATA=(XY..XY) 1 
    12         16
    13         16
    14         28
    15         15
    17          1
    18          4
    24          7
    25         36
    26        186
    27        212
    28         50
    29          0
    31          2
    35         51
    36         44
    37        140
    38        164
    39        224
    40         74
    41         40
    42          2
    43          2
    44          1
    47         62
    48         20
    49        132
    50        135
    51        292
    52        134
    53         36
    54         11
    56          2
    59          2
    60         41
    61        138
    62         37
    63         57
    64         28
    65          3
    66          3
    71          4
    72         18
    73        105
    74         18
    75         64
    76         57
    77          3
    78        145
    79          9
    82         43
    83        136
    84         30
    85        106
    86         19
    87         79
    88         10
    89         19
    90          2
    96         79
    97          6
    98         54
    99          2
   100         14
   102          1
   107          6
   109        999
   111        617
   112         29
   113        102
   114         57
   115          4
   116         17
   121          4
   122          7
   123          3
   124          5
   134          7
   136          3
   149          1
   150          0
   151          1
   153          0