##TITLE=Library Entry 11096
##JCAMP-DX=Revision 4.10 
##DATA TYPE=MASS SPECTRUM
##SAMPLE DESCRIPTION=K.Roinestad ET AL.J.Agric.Food Chem.,42,2025(1994)
##NAMES=HP
##CAS NAME=3-Methyl-4-oxo-2-pentenoic acid
##MOLFORM=C6H8O3
##CAS REGISTRY NO=53663-10-8
##MP= -300
##BP= -300
##MW= 128
##$RETENTION INDEX=0
##$CONDENSED SPECTRUM=NO
##NPOINTS= 17
##XYDATA=(XY..XY) 1 
    38         19
    39        245
    40         24
    41        139
    42         34
    43        999
    44         19
    45         38
    57         29
    67         53
    68         43
    82        183
    85        202
   110        423
   111         38
   113        115
   128         24