##TITLE=Library Entry 59172
##JCAMP-DX=Revision 4.10 
##DATA TYPE=MASS SPECTRUM
##SAMPLE DESCRIPTION=MASS SPECTROMETRY CENTER, UNIV. OF UTAH ALDRICH 18438-1
##NAMES=HP
##CAS NAME=2-Propanone, 1-[(4-methylphenyl)sulfonyl]-
##MOLFORM=C10H12O3S
##CAS REGISTRY NO=5366-49-4
##MP= -300
##BP= -300
##MW= 212
##$RETENTION INDEX=0
##$CONDENSED SPECTRUM=NO
##NPOINTS= 75
##XYDATA=(XY..XY) 1 
    14         36
    15        109
    16          4
    17         35
    18        120
    26         38
    27        216
    28        134
    29        114
    32         18
    37         15
    38         57
    39        487
    40         41
    41        151
    42        116
    43        854
    44         54
    45         55
    48         15
    50        107
    51        187
    52         54
    53         43
    55          2
    57         21
    59         18
    61         18
    62         78
    63        272
    64         95
    65        723
    66         57
    67         22
    69         20
    71          6
    74         22
    75         23
    76         18
    77        146
    78         56
    79         74
    80         11
    86         13
    87         14
    88          2
    89        212
    90        107
    91        999
    92        260
    93         17
   103         20
   104         13
   105        448
   106         70
   107        193
   108        103
   109         14
   110          7
   111         12
   121          8
   122          2
   148        557
   149         62
   150          3
   151          7
   155        735
   156         80
   157         48
   170        482
   171         49
   172         24
   212        276
   213         34
   214         14