##TITLE=Library Entry 82550
##JCAMP-DX=Revision 4.10 
##DATA TYPE=MASS SPECTRUM
##SAMPLE DESCRIPTION=A.A.Kutin, Moscow, Russia
##NAMES=HP
##CAS NAME=Pyridine-3-carboxamide, N-(3-hydroxypropyl)-
##MOLFORM=C9H12N2O2
##CAS REGISTRY NO=53676-54-3
##MP= -300
##BP= -300
##MW= 180
##$RETENTION INDEX=0
##$CONDENSED SPECTRUM=NO
##NPOINTS= 128
##XYDATA=(XY..XY) 1 
    33          3
    35         32
    36        127
    38         60
    39         20
    40         10
    41         19
    42         13
    43         15
    44         23
    45          4
    46          0
    50        100
    51        225
    52         45
    53         21
    54          4
    56         37
    57          9
    58          2
    59          0
    60          0
    61          0
    62          1
    63          2
    64          2
    65          4
    66          3
    67          2
    68          1
    69          0
    70          1
    71          0
    72          1
    74         17
    75          8
    76         19
    78        542
    79         55
    80         10
    81          2
    82          0
    83          0
    84          2
    85          0
    86          0
    87          0
    88          0
    89          0
    91          7
    92          4
    93          9
    94          3
    95          0
    96          0
    97          0
    98          0
   101          0
   106        999
   107         54
   108          5
   109          1
   110          0
   111          0
   112          0
   113          0
   115          0
   116          0
   117          1
   118          1
   119          4
   120          3
   121          2
   122          8
   123         22
   124          2
   125          0
   126          0
   127          0
   128          0
   129          0
   130          0
   131          1
   132          1
   133          5
   135        176
   136        194
   137         15
   138          1
   139          0
   140          0
   141          0
   142          0
   143          0
   144          0
   145          0
   147         38
   149         61
   150         30
   151          3
   152          0
   153          0
   154          0
   155          0
   156          0
   157          0
   159          1
   162        154
   163         16
   164          1
   165          0
   167          0
   168          0
   169          0
   170          0
   171          0
   173          0
   174          0
   175          0
   176          0
   179          8
   180         40
   181          4
   182          0
   183          0
   184          0
   185          0
   189          0