##TITLE=Library Entry 7120
##JCAMP-DX=Revision 4.10 
##DATA TYPE=MASS SPECTRUM
##SAMPLE DESCRIPTION=NIST Mass Spectrometry Data Center
##NAMES=HP
##CAS NAME=3-Decenoic acid, (E)-
##MOLFORM=C10H18O2
##CAS REGISTRY NO=53678-20-9
##MP= -300
##BP= -300
##MW= 170
##$RETENTION INDEX=1366
##$CONDENSED SPECTRUM=NO
##NPOINTS= 85
##XYDATA=(XY..XY) 1 
    17         11
    18         31
    20         10
    26         23
    27        329
    29        422
    30         13
    31         16
    32          1
    36         22
    38         24
    39        375
    40         50
    41        820
    42        332
    43        999
    44         74
    45        176
    50         18
    51         48
    52         29
    53        203
    54        368
    55        851
    56        412
    57        258
    58         78
    59         35
    60        134
    61         15
    63         10
    65         47
    66         32
    67        277
    68        290
    69        476
    70        217
    71        182
    72         16
    73        132
    74         18
    77         45
    78         10
    79         65
    80         25
    81        308
    82        192
    83        195
    84        315
    85         66
    86         25
    87        107
    88         16
    91         15
    93         14
    94         26
    95        140
    96        182
    97        121
    98         61
    99         75
   100        158
   101         96
   102         16
   105         22
   108         77
   109         75
   110        340
   111         97
   112         11
   113         40
   114         77
   115         19
   119         14
   122         12
   123        136
   124         46
   127         32
   128         10
   134         39
   137         17
   141         11
   152        196
   153         24
   170         10