##TITLE=Library Entry 38921
##JCAMP-DX=Revision 4.10 
##DATA TYPE=MASS SPECTRUM
##SAMPLE DESCRIPTION=D.HENNEBERG, MAX-PLANCK INSTITUTE, MULHEIM, WEST GERMAN
Y
##NAMES=HP
##CAS NAME=Borane, diethyl[1-ethyl-2-(methoxymethyl)-1-butenyl]-, (Z)-
##MOLFORM=C12H25BO
##CAS REGISTRY NO=53670-48-7
##MP= -300
##BP= -300
##MW= 196
##$RETENTION INDEX=0
##$CONDENSED SPECTRUM=NO
##NPOINTS= 53
##XYDATA=(XY..XY) 1 
    27         26
    28         10
    29         23
    39         23
    40          9
    41         39
    42         40
    43        191
    44          6
    45         12
    51         10
    52          5
    53         19
    54          7
    55         30
    56         14
    57         29
    63          5
    65          5
    66          6
    67         22
    68          9
    69         21
    70        263
    71        999
    72         40
    73          4
    74          3
    77          9
    78          5
    79         10
    80          5
    81         24
    82          6
    83         10
    84          3
    85          3
    91          5
    93          6
    94          3
    95         15
    96         12
    97         31
   107          4
   108          2
   109          5
   110          4
   166         45
   167        159
   168         28
   195          2
   196          5
   197          2