##TITLE=Library Entry 64724
##JCAMP-DX=Revision 4.10 
##DATA TYPE=MASS SPECTRUM
##SAMPLE DESCRIPTION=Exported from NIST MS Search
##NAMES=HP
##CAS NAME=Benzene, p-bis(4-phenylbutyl)-
##MOLFORM=C26H30
##CAS REGISTRY NO=5368-75-2
##MP= -300
##BP= -300
##MW= 342
##$RETENTION INDEX=0
##$CONDENSED SPECTRUM=NO
##NPOINTS= 206
##XYDATA=(XY..XY) 1 
    37          1
    38          5
    39         77
    40          7
    41         83
    42          4
    43          4
    44          1
    45          1
    49          1
    50         12
    51         47
    52         15
    53         16
    54          1
    55          9
    56          1
    57          3
    58          1
    60          1
    61          1
    62          4
    63         22
    64          8
    65         96
    66          7
    67          3
    68          1
    69          1
    70          1
    71          1
    72          1
    73          1
    74          2
    75          4
    76          5
    77         68
    78         47
    79         45
    80          3
    81          2
    82          1
    83          1
    84          1
    85          1
    86          1
    87          1
    88          1
    89         16
    90         10
    91        999
    92        131
    93         16
    94          2
    95          1
    96          1
    97          1
    98          1
    99          1
   100          1
   101          1
   102          8
   103         47
   104        204
   105        139
   106         28
   107          4
   108          1
   109          1
   111          7
   112          2
   113          1
   114          1
   115         47
   116         22
   117        166
   118         35
   119         25
   120          4
   121          1
   122          1
   125          1
   126          1
   127          5
   128         13
   129         21
   130         12
   131        253
   132         37
   133         17
   134          2
   135          1
   139          1
   140          1
   141          4
   142          2
   143          5
   144          3
   145         13
   146          3
   147          1
   148          1
   149          1
   151          1
   152          1
   153          1
   154          1
   155          2
   156          1
   157          2
   158          1
   159          2
   160          1
   163          1
   164          1
   165          3
   166          2
   167          6
   168          1
   169          2
   170          1
   171          2
   172          1
   173          1
   174          1
   176          1
   177          1
   178          3
   179          3
   180          2
   181         11
   182          2
   183          1
   184          1
   185          1
   186          1
   189          1
   190          1
   191          1
   192          1
   193          1
   194          1
   195          2
   196          1
   197          1
   198          1
   199          1
   202          1
   203          1
   204          1
   205          1
   206          1
   207          1
   208          1
   209          5
   210          6
   211          1
   212          2
   213          1
   215          1
   217          1
   218          1
   219          1
   220          1
   221          1
   223        345
   224         78
   225         13
   226          2
   227          1
   232          1
   234          1
   235          1
   236          4
   237          3
   238          2
   239          1
   241          1
   246          1
   248          1
   249          6
   250          4
   251          5
   252          1
   257          1
   260          1
   261          1
   262          2
   263          2
   264          1
   265          1
   288          1
   299          3
   300          1
   301          1
   313          1
   314          1
   336          1
   338          1
   339          1
   340          2
   341          1
   342        368
   343        104
   344         14
   345          1