##TITLE=Library Entry 8771
##JCAMP-DX=Revision 4.10 
##DATA TYPE=MASS SPECTRUM
##SAMPLE DESCRIPTION=NIST Mass Spectrometry Data Center
##NAMES=HP
##CAS NAME=4-Heptadecanone
##MOLFORM=C17H34O
##CAS REGISTRY NO=53685-77-1
##MP= -300
##BP= -300
##MW= 254
##$RETENTION INDEX=0
##$CONDENSED SPECTRUM=NO
##NPOINTS= 85
##XYDATA=(XY..XY) 1 
    15          4
    16          1
    18          3
    27        165
    28         38
    29        236
    30          5
    39         80
    41        523
    42        136
    43        999
    44         31
    45         10
    51          1
    53         24
    54         27
    55        267
    56         69
    57        329
    58        486
    59         12
    60          1
    65          5
    67         44
    68         18
    69        100
    71        675
    72         34
    73          1
    77          3
    79          9
    80          3
    81         47
    82         18
    83         49
    84         18
    85         90
    86        523
    87        283
    88         16
    91          1
    93          3
    95         56
    96         17
    97         37
    99        145
   100         13
   101          1
   107          1
   109         34
   110         14
   111         23
   112          5
   113         30
   114          3
   121          1
   123         17
   124          8
   125          5
   126          1
   127          7
   128         17
   129          2
   137          9
   138          5
   139          1
   141          6
   142          6
   151          2
   152          2
   155         11
   156          1
   166         11
   167          1
   168          2
   169          5
   183          1
   193          1
   209          1
   211        151
   212         23
   213          1
   225          1
   254          5
   255          2