##TITLE=Library Entry 6276
##JCAMP-DX=Revision 4.10 
##DATA TYPE=MASS SPECTRUM
##SAMPLE DESCRIPTION=CARL DJERASSI DEPT OF CHEM STANFORD UNIV STANFORD CALIF
 94305
##NAMES=HP
##CAS NAME=Hexane, 1-propoxy-
##MOLFORM=C9H20O
##CAS REGISTRY NO=53685-78-2
##MP= -300
##BP= -300
##MW= 144
##$RETENTION INDEX=0
##$CONDENSED SPECTRUM=NO
##NPOINTS= 17
##XYDATA=(XY..XY) 1 
    39         90
    40         10
    41        240
    42         90
    43        999
    44         40
    45         20
    55         90
    56        180
    57         70
    59         10
    69         30
    73        130
    83         50
    84         80
    85        220
    86         10