##TITLE=Library Entry 97056
##JCAMP-DX=Revision 4.10 
##DATA TYPE=MASS SPECTRUM
##SAMPLE DESCRIPTION=NIST Mass Spectrometry Data Center
##NAMES=HP
##CAS NAME=2-Heptanol, TMS derivative
##MOLFORM=C10H24OSi
##CAS REGISTRY NO=53690-75-8
##MP= -300
##BP= -300
##MW= 188
##$RETENTION INDEX=1009
##$CONDENSED SPECTRUM=NO
##NPOINTS= 84
##XYDATA=(XY..XY) 1 
    15          2
    26          1
    27         18
    28          5
    29         36
    30          1
    31          2
    39         15
    40          3
    41         40
    42          9
    43         44
    44         12
    45         63
    46          5
    47         32
    48          2
    49          1
    51          2
    52          1
    53          6
    54          2
    55         33
    56         11
    57         11
    58         16
    59         37
    60         10
    61         52
    62          3
    63          2
    65          1
    67          3
    68          1
    69          8
    70          8
    71          7
    72         25
    73        612
    74         67
    75        504
    76         39
    77         19
    78          1
    79          1
    81          2
    83         12
    84          1
    85          7
    86          2
    87         17
    88          2
    89          4
    91          5
    95          1
    97          5
    98          4
    99          9
   100          2
   101         51
   102         16
   103         39
   104          4
   105          1
   111          1
   113          4
   115         27
   117        999
   118        176
   119         66
   120          4
   127          1
   129         25
   130          4
   131          2
   143          3
   157          3
   159          1
   173        229
   174         35
   175         10
   176          1
   187          9
   188          2