##TITLE=Library Entry 97058
##JCAMP-DX=Revision 4.10 
##DATA TYPE=MASS SPECTRUM
##SAMPLE DESCRIPTION=NIST Mass Spectrometry Data Center
##NAMES=HP
##CAS NAME=2-Decanol, TMS derivative
##MOLFORM=C13H30OSi
##CAS REGISTRY NO=53690-77-0
##MP= -300
##BP= -300
##MW= 230
##$RETENTION INDEX=1297
##$CONDENSED SPECTRUM=NO
##NPOINTS= 99
##XYDATA=(XY..XY) 1 
    15          1
    26          1
    27         11
    28          3
    29         25
    30          1
    31          1
    39         11
    40          3
    41         53
    42         11
    43         52
    44          7
    45         34
    46          3
    47         20
    48          1
    49          1
    51          1
    53          5
    54          3
    55         36
    56         10
    57         11
    58          9
    59         21
    60          6
    61         34
    62          2
    63          1
    65          1
    67          5
    68          2
    69         23
    70          7
    71          4
    72          7
    73        385
    74         42
    75        336
    76         26
    77         13
    79          1
    81          3
    82          2
    83         16
    84          3
    85          5
    86          3
    87          8
    88          2
    89          5
    90          1
    91          5
    93          1
    95          2
    96          1
    97          8
    98          2
    99         11
   100          2
   101         26
   102          6
   103         24
   104          2
   105          1
   109          1
   111          4
   112          2
   113          9
   114          2
   115         14
   117        999
   118        158
   119         59
   120          3
   125          1
   127          2
   128          1
   129         14
   130          2
   131          1
   139          1
   140          2
   141          1
   143         10
   144          1
   145          1
   157          9
   158          1
   159          1
   171          1
   199          1
   215        144
   216         27
   217          7
   218          1
   229          6
   230          1