##TITLE=Library Entry 76485
##JCAMP-DX=Revision 4.10 
##DATA TYPE=MASS SPECTRUM
##SAMPLE DESCRIPTION=V.G. Zaikin, TIPS RAS, Moscow, Russia
##NAMES=HP
##CAS NAME=2-Dimethylsilyloxypentane
##MOLFORM=C7H18OSi
##CAS REGISTRY NO=53691-19-3
##MP= -300
##BP= -300
##MW= 146
##$RETENTION INDEX=0
##$CONDENSED SPECTRUM=NO
##NPOINTS= 59
##XYDATA=(XY..XY) 1 
    25          9
    26         59
    27        197
    28         16
    29        121
    30          6
    31         78
    36          6
    37         16
    38         21
    39        128
    40         21
    41        135
    42         59
    43        265
    44         53
    45        322
    46         18
    47         77
    48          4
    49         15
    50         59
    51         79
    52        145
    53         32
    54          4
    55         69
    56          6
    57         21
    58         35
    59        545
    60         59
    61        359
    62         27
    63         16
    69          8
    70          9
    71          9
    73         59
    74          9
    75        608
    76         49
    77         25
    78         25
    79        149
    80          7
    87         25
    89         53
   101         13
   102         13
   103        999
   104         95
   105         38
   131         97
   132         11
   133         11
   145         19
   146          4
   147          2