##TITLE=Library Entry 63246
##JCAMP-DX=Revision 4.10 
##DATA TYPE=MASS SPECTRUM
##SAMPLE DESCRIPTION=Chemical Concepts
##NAMES=HP
##CAS NAME=Urea, N,N'-diphenyl-N-(phenylmethyl)-
##MOLFORM=C20H18N2O
##CAS REGISTRY NO=53693-58-6
##MP= -300
##BP= -300
##MW= 302
##$RETENTION INDEX=0
##$CONDENSED SPECTRUM=NO
##NPOINTS= 139
##XYDATA=(XY..XY) 1 
    25          0
    27         14
    28          9
    29          4
    30          1
    31          2
    36          0
    37          5
    38         15
    39         65
    40          7
    41         17
    42          1
    43          2
    44          1
    45          1
    49          0
    50         15
    51         69
    52         15
    53          2
    54          1
    55          1
    56          0
    57          1
    59          0
    60          0
    61          1
    62          5
    63         25
    64         32
    65        134
    66         12
    67          1
    69          0
    70          0
    71          1
    72          0
    73          0
    74          2
    75          3
    76          7
    77        150
    78         18
    79          8
    80          1
    81          0
    83          0
    85          0
    86          0
    87          0
    88          0
    89         11
    90          8
    91        999
    92         95
    93         16
    94          3
    95          0
    97          0
   101          0
   102          0
   103          1
   104         30
   105         66
   106         70
   107          7
   108          0
   109          0
   111          1
   112          0
   113          0
   115          2
   116          0
   117          0
   118          1
   119         64
   120          8
   121          1
   122          0
   126          0
   127          1
   128          1
   129          0
   130          0
   132          1
   133          0
   134          0
   135          3
   136          0
   137          0
   139          0
   140          0
   141          0
   143          0
   147          0
   149          1
   150          0
   151          4
   152          3
   153          2
   154          2
   155          1
   156          0
   164          0
   165          4
   166          2
   167         21
   168          4
   169          2
   170          0
   178          0
   179          1
   180         14
   181         16
   182        100
   183        264
   184         37
   185          2
   194          0
   195          1
   196          0
   197         18
   198          2
   207          0
   208          0
   209          1
   210          2
   211          6
   223          1
   224          0
   225          0
   226          0
   300          0
   301          6
   302        242
   303         52
   304          6
   305          0