##TITLE=Library Entry 28735
##JCAMP-DX=Revision 4.10 
##DATA TYPE=MASS SPECTRUM
##SAMPLE DESCRIPTION=AAFS Toxicology Section MS DB Committee, U. Alberta, Ca
nada
##NAMES=HP
##CAS NAME=Methamphetamine
##MOLFORM=C10H15N
##CAS REGISTRY NO=537-46-2
##MP= -300
##BP= -300
##MW= 149
##$RETENTION INDEX=1187
##$CONDENSED SPECTRUM=NO
##NPOINTS= 69
##XYDATA=(XY..XY) 1 
    29          4
    30         29
    31          1
    32          1
    38          1
    39         13
    41          8
    42         17
    43          5
    44          1
    50          4
    51         11
    52          4
    53          1
    54          3
    55          1
    56         47
    57         13
    58        999
    59         37
    62          2
    63         10
    64          1
    65         44
    66          5
    68          1
    70          1
    71          1
    74          1
    75          2
    76          4
    77         17
    78          7
    79          4
    80          1
    81          1
    82          1
    84          1
    87          1
    89         12
    90          4
    91         72
    92          8
    93          1
    95          1
   102          1
   103          4
   104          5
   105          4
   106          1
   111          1
   113          2
   115         12
   116          5
   117         13
   118          6
   119          9
   120          1
   121          1
   125          1
   130          2
   131          1
   132          7
   133          6
   134         21
   135          2
   146          1
   148          6
   149          9