##TITLE=Library Entry 83953
##JCAMP-DX=Revision 4.10 
##DATA TYPE=MASS SPECTRUM
##SAMPLE DESCRIPTION=Japan AIST/NIMC Database- Spectrum MS-NW-3592
##NAMES=HP
##CAS NAME=Acetamide, N-(3-methylphenyl)-
##MOLFORM=C9H11NO
##CAS REGISTRY NO=537-92-8
##MP= -300
##BP= -300
##MW= 149
##$RETENTION INDEX=1478
##$CONDENSED SPECTRUM=NO
##NPOINTS= 64
##XYDATA=(XY..XY) 1 
    15         23
    18          1
    26          3
    27         16
    28          2
    29          2
    30          4
    37          4
    38         11
    39         45
    40          8
    41         11
    42          9
    43        184
    44          5
    49          1
    50         15
    51         34
    52         22
    53         18
    54          5
    61          3
    62          7
    63         17
    64          9
    65         29
    66          8
    67          4
    68          1
    74          4
    75          3
    76          5
    77         81
    78         29
    79         54
    80         19
    81          4
    86          1
    87          1
    89          9
    90         12
    91         34
    92          6
    93          1
   102          1
   103          1
   104         13
   105          9
   106        389
   107        999
   108         84
   109          3
   118          1
   120          7
   121          3
   131          3
   132          4
   133          3
   134          3
   147          1
   148          3
   149        328
   150         35
   151          3