##TITLE=Library Entry 20268
##JCAMP-DX=Revision 4.10 
##DATA TYPE=MASS SPECTRUM
##SAMPLE DESCRIPTION=Japan AIST/NIMC Database- Spectrum MS-IW-5067
##NAMES=HP
##CAS NAME=9-Octadecenoic acid, 1,2,3-propanetriyl ester, (E,E,E)-
##MOLFORM=C57H104O6
##CAS REGISTRY NO=537-39-3
##MP= -300
##BP= -300
##MW= 884
##$RETENTION INDEX=0
##$CONDENSED SPECTRUM=NO
##NPOINTS= 341
##XYDATA=(XY..XY) 1 
    14          1
    15          3
    16          3
    17          5
    18         19
    25          4
    26         27
    27        111
    28         99
    29        139
    30          5
    31          5
    32          1
    36          2
    37          7
    38         11
    39        137
    40         33
    41        514
    42        109
    43        406
    44         59
    45         18
    46          1
    49          2
    50         10
    51         17
    52         10
    53         75
    54        242
    55        999
    56        256
    57        397
    58         23
    59         10
    60         32
    61          7
    62          2
    63          7
    64          3
    65         27
    66         36
    67        559
    68        261
    69        773
    70        234
    71        178
    72         10
    73         64
    74          8
    75          4
    76          5
    77         40
    78         33
    79        161
    80        109
    81        563
    82        341
    83        702
    84        267
    85        114
    86          9
    87         27
    88          6
    89          5
    90          2
    91         90
    92         37
    93        119
    94         96
    95        447
    96        297
    97        516
    98        618
    99         85
   100         32
   101         44
   102          8
   103          8
   104         11
   105         50
   106         20
   107         88
   108         71
   109        242
   110        168
   111        276
   112        149
   113         49
   114         48
   115         41
   116         30
   117         37
   118         10
   119         58
   120         24
   121        127
   122         49
   123        156
   124        101
   125        107
   126         53
   127         43
   128         21
   129         84
   130         15
   131         21
   132         10
   133         60
   134         44
   135        108
   136         33
   137        114
   138         75
   139         55
   140         20
   141         27
   142          9
   143         20
   144          7
   145         13
   146          7
   147         47
   148         32
   149         57
   150         23
   151        106
   152         69
   153         39
   154         16
   155         28
   156          8
   157         11
   158         32
   159         10
   160          4
   161         26
   162         10
   163         29
   164         20
   165         65
   166         44
   167         27
   168         10
   169         24
   170          7
   171         55
   172         14
   173          8
   174          3
   175         15
   176          6
   177         17
   178         13
   179         33
   180         28
   181         18
   182          9
   183         16
   184          5
   185         29
   186          8
   187          6
   188          2
   189         12
   190          4
   191         12
   192          8
   193         20
   194         14
   195         10
   196          6
   197          9
   198          3
   199          9
   200          4
   201          3
   202          5
   203          9
   204          3
   205          8
   206          5
   207         27
   208         13
   209          9
   210          4
   211          6
   212          2
   213         10
   214          7
   215          7
   216          4
   217          5
   218          4
   219          5
   220         43
   221         34
   222         24
   223          8
   224          3
   225          6
   226          6
   227         23
   228          8
   229          4
   230          5
   231          3
   232          4
   233          4
   234          6
   235         13
   236         15
   237          6
   238          3
   239          9
   240          9
   241         11
   242          8
   243          3
   244          5
   245         11
   246         43
   247         33
   248          9
   249          5
   250          2
   251          1
   252          1
   253          6
   254          3
   255          3
   256          4
   257          1
   258          1
   259          1
   260          2
   261          4
   262         35
   263         29
   264        169
   265        132
   266         25
   267          7
   268          2
   269          3
   270          2
   271          1
   274          1
   275          1
   277          1
   278          2
   279          8
   280          9
   281          7
   282         13
   283          8
   284          5
   285          1
   291          1
   293          1
   295          6
   296          1
   297          4
   298          1
   307          1
   309          2
   310          1
   311          2
   319          1
   320          3
   321          3
   322          5
   323         11
   324          3
   325          2
   335          1
   336          3
   337         15
   338         39
   339         93
   340         20
   341          7
   342          1
   351          2
   353          1
   354          1
   356          1
   357          1
   365          1
   367          1
   379          1
   380          5
   381          5
   382          1
   391          1
   393         83
   394         22
   395          5
   396          1
   407          4
   408          1
   419          3
   420          1
   421          1
   433          1
   435          5
   436          3
   437          1
   447          3
   448          1
   449         40
   450         12
   451          3
   461          1
   463          2
   464          1
   475          1
   476          1
   477          1
   478          1
   489          1
   490          1
   491          1
   492          2
   503          6
   504          1
   505          4
   506          5
   517          3
   518          1
   520          2
   529          1
   531          1
   559          4
   561          1
   573          1
   587          1
   603         73
   866          1
   884          2
   885          2