##TITLE=Library Entry 32618
##JCAMP-DX=Revision 4.10 
##DATA TYPE=MASS SPECTRUM
##SAMPLE DESCRIPTION=Japan AIST/NIMC Database- Spectrum MS-IW-5614
##NAMES=HP
##CAS NAME=Trilinolein
##MOLFORM=C57H98O6
##CAS REGISTRY NO=537-40-6
##MP= -300
##BP= -300
##MW= 878
##$RETENTION INDEX=0
##$CONDENSED SPECTRUM=NO
##NPOINTS= 366
##XYDATA=(XY..XY) 1 
    15          9
    17          1
    18          3
    26         37
    27        150
    28        119
    29        184
    30          8
    31         12
    38          9
    39        138
    40         35
    41        528
    42        102
    43        350
    44         51
    45         32
    50         10
    51         22
    52         15
    53        109
    54        310
    55        839
    56        123
    57        251
    58         22
    59         14
    60         57
    61         10
    63         10
    65         55
    66         69
    67        999
    68        324
    69        448
    70         55
    71        101
    72         10
    73         51
    77        103
    78         56
    79        409
    80        269
    81        829
    82        385
    83        272
    84         65
    85         75
    86          9
    87         17
    89          8
    91        243
    92         87
    93        269
    94        157
    95        610
    96        304
    97        180
    98        113
    99         70
   100         14
   101         27
   103         14
   104         18
   105        203
   106         67
   107        170
   108        105
   109        310
   110        190
   111         99
   112         36
   113         38
   114         12
   115         33
   116         27
   117         82
   118         19
   119        104
   120         46
   121        170
   122         85
   123        214
   124        111
   125         56
   126         24
   127         47
   128         22
   129         74
   130         18
   131         90
   132         23
   133         92
   134         43
   135        158
   136        104
   137        130
   138         64
   139         32
   140         23
   141         23
   142         10
   143         39
   144         12
   145         52
   146         21
   147         88
   148         44
   149        133
   150         87
   151         88
   152         38
   153         49
   154         20
   155         41
   156          9
   157         25
   158         14
   159         48
   160         19
   161         70
   162         40
   163         98
   164         65
   165         65
   166         21
   167         27
   168         27
   169         21
   171         37
   172          9
   173         35
   174         12
   175         56
   176         30
   177         57
   178         38
   179         30
   180         16
   181         25
   182         21
   183         26
   184          8
   185         31
   186          9
   187         39
   188         11
   189         52
   190         23
   191         41
   192         15
   193         24
   194         18
   195         25
   196         20
   197         15
   199         27
   200          9
   201         43
   202         11
   203         29
   204         14
   205         32
   206         23
   207         20
   208         10
   209         24
   210         16
   211         17
   213         26
   214         12
   215         29
   216          8
   217         19
   218         25
   219         28
   220         27
   221         25
   222         13
   223         24
   224          7
   225         13
   226          8
   227         20
   228         14
   229         24
   230         10
   231         15
   232         34
   233         24
   234         46
   235         26
   236         10
   237         22
   238         10
   239         20
   240          6
   241         23
   242         11
   243         25
   244         15
   245         32
   246         14
   247         19
   248         11
   249         11
   250          6
   251         19
   253         21
   254          9
   255         26
   256         10
   257         16
   258         27
   259         51
   260        183
   261        126
   262        261
   263        186
   264         50
   265         26
   266          8
   267         14
   269         11
   271         12
   272          7
   273         13
   274         16
   275         18
   276         23
   277         41
   278         30
   279         73
   280        134
   281         41
   282          9
   283         10
   285         12
   286          9
   287         12
   288         14
   289         10
   290          9
   291         12
   292          7
   293         12
   294          8
   295          8
   297          9
   299         10
   300          8
   301         12
   303          9
   304         10
   305         14
   307          9
   309          7
   311         12
   313          6
   315         11
   316         14
   317         20
   318         21
   319         26
   320         13
   321         28
   322          8
   323         12
   324          8
   325          8
   327          8
   331         11
   332          6
   333         30
   334         20
   335         47
   336         63
   337        159
   338         43
   339         57
   340         15
   341         10
   343          8
   344          8
   345          8
   347          9
   349          9
   351         32
   352         11
   353         19
   354          7
   355         11
   357          9
   359         10
   361          8
   362          7
   365          7
   367         13
   369         11
   371         13
   375          7
   377          8
   378          8
   379         13
   380          6
   381         11
   382         12
   383          9
   384          9
   385          8
   387          8
   389          7
   390          7
   391         48
   392         16
   393         10
   394         13
   395          9
   396         24
   397         19
   398          9
   399          7
   401          9
   403          8
   405         10
   406          7
   407          9
   409          8
   414          6
   415          7
   416          7
   417          7
   418          7
   427          7
   429          6
   430          9
   431          6
   433          7
   445          7
   447         16
   448          9
   449          9
   457          6
   460          6
   461         11
   462         13
   463         14
   464         10
   472          6
   475          7
   487          9
   489          9
   491          8
   499          6
   597         18
   598         40
   599         58
   600         25
   601         12
   602          7
   613          8
   615         11
   616          9
   617          7
   878         18
   879          7