##TITLE=Library Entry 4430
##JCAMP-DX=Revision 4.10 
##DATA TYPE=MASS SPECTRUM
##SAMPLE DESCRIPTION=Chemical Concepts
##NAMES=HP
##CAS NAME=2-Furanol, tetrahydro-
##MOLFORM=C4H8O2
##CAS REGISTRY NO=5371-52-8
##MP= -300
##BP= -300
##MW= 88
##$RETENTION INDEX=0
##$CONDENSED SPECTRUM=NO
##NPOINTS= 57
##XYDATA=(XY..XY) 1 
    25          7
    26          0
    27        246
    28         59
    29        225
    30         56
    31        273
    33          1
    36          2
    37         16
    38         27
    39        175
    40         97
    41        423
    42        999
    43        144
    44        113
    45         93
    46          2
    47        104
    48          1
    49          1
    50          2
    51          2
    52          1
    53          5
    54          2
    55         15
    56         10
    57        215
    58         93
    59         11
    60         31
    61          1
    63          1
    65          1
    67          2
    68          2
    69         23
    70         31
    71        133
    72          8
    73          3
    74          2
    75          0
    77          0
    78          0
    79          1
    81          1
    82          0
    83          2
    84          3
    85          2
    86          4
    87         47
    88         30
    89          2