##TITLE=Library Entry 32660
##JCAMP-DX=Revision 4.10 
##DATA TYPE=MASS SPECTRUM
##SAMPLE DESCRIPTION=NIST Mass Spectrometry Data Center, 1994
##NAMES=HP
##CAS NAME=5-Octyn-3-ol
##MOLFORM=C8H14O
##CAS REGISTRY NO=53723-18-5
##MP= -300
##BP= -300
##MW= 126
##$RETENTION INDEX=0
##$CONDENSED SPECTRUM=NO
##NPOINTS= 63
##XYDATA=(XY..XY) 1 
    14          4
    15         45
    16          2
    17          3
    18          8
    19          5
    26         42
    27        300
    28         81
    29        352
    30          2
    31        627
    32         10
    37         11
    38         41
    39        380
    40        167
    41        718
    42        115
    43        154
    44         21
    49          4
    50         55
    51        105
    52         59
    53        361
    54         24
    55         90
    56         16
    57        183
    58         46
    59        652
    60         25
    61          7
    62         21
    63         38
    64          7
    65         67
    66          4
    67        999
    68        744
    69         96
    70         41
    71         10
    72          4
    77         41
    78          7
    79         48
    80          6
    81         19
    82          4
    83         15
    84         13
    85         10
    91         14
    93          8
    95          4
    96          6
    97         72
    98         20
   111         54
   112          5
   126          9