##TITLE=Library Entry 54711
##JCAMP-DX=Revision 4.10 
##DATA TYPE=MASS SPECTRUM
##SAMPLE DESCRIPTION=Japan AIST/NIMC Database- Spectrum MS-NW-6692
##NAMES=HP
##CAS NAME=(4S,5S)-(-)-2-Methyl-5-phenyl-2-oxazoline-4-methanol
##MOLFORM=C11H13NO2
##CAS REGISTRY NO=53732-41-5
##MP= -300
##BP= -300
##MW= 191
##$RETENTION INDEX=0
##$CONDENSED SPECTRUM=NO
##NPOINTS= 98
##XYDATA=(XY..XY) 1 
    14          2
    15         36
    17          4
    18         14
    26          3
    27         19
    28         29
    29         17
    30         31
    31         20
    32          1
    37          1
    38          4
    39         23
    40          4
    41          9
    42         81
    43        834
    44         45
    45          2
    50         15
    51         53
    52         13
    53          9
    54          4
    55          6
    56          9
    57         23
    58          4
    59         16
    60        634
    61         17
    62          4
    63         12
    64          5
    65         15
    66          2
    67          1
    68         65
    69          4
    70          1
    71          2
    72          3
    73          2
    74          4
    75          5
    76          5
    77        130
    78         25
    79        115
    80          9
    81          1
    84         18
    85        999
    86         73
    87          5
    88          1
    89         14
    90         12
    91        102
    92          9
    93          1
   101          2
   102        104
   103         55
   104          9
   105         33
   106          8
   107         79
   108          8
   115          3
   116          2
   117         13
   118         75
   119         80
   120         12
   121          1
   128          2
   130          5
   131          9
   132         13
   133          3
   134          1
   135          2
   136         57
   137          5
   146          1
   147          2
   148          3
   149          3
   150          6
   159          1
   160         55
   161         12
   162          2
   173          3
   191         10
   192          3