##TITLE=Library Entry 90108
##JCAMP-DX=Revision 4.10 
##DATA TYPE=MASS SPECTRUM
##SAMPLE DESCRIPTION=A.A.Kutin, Moscow, Russia
##NAMES=HP
##CAS NAME=Propanone-1, 3-(4-methylpiperazin-1-yl)-1,2-diphenyl-
##MOLFORM=C20H24N2O
##CAS REGISTRY NO=53756-76-6
##MP= -300
##BP= -300
##MW= 308
##$RETENTION INDEX=0
##$CONDENSED SPECTRUM=NO
##NPOINTS= 112
##XYDATA=(XY..XY) 1 
    34          0
    37          0
    38          2
    39         13
    40         14
    41         28
    42        221
    43        104
    44         40
    45          2
    50         14
    51         54
    52          6
    53          4
    54         11
    55         26
    56         81
    57         39
    58         59
    59          2
    61          0
    62          1
    63          6
    64          1
    65          6
    66          0
    67          1
    68          5
    70        670
    71         39
    72          7
    73          1
    74          3
    75          4
    76         11
    77        155
    78         21
    79          4
    80          2
    81          2
    82          9
    83         10
    84          5
    85          4
    86          0
    87          0
    88          0
    89          7
    90          7
    91         15
    92          1
    94          0
    95          2
    96          2
    97          8
    98         45
    99         11
   100         11
   101          1
   102          5
   103         19
   104         23
   105        134
   106         10
   107          0
   109          0
   110          1
   111         20
   113        999
   114         70
   115          6
   116          0
   117          4
   118          3
   119          0
   126          0
   127          0
   128          1
   129          1
   130          5
   131          2
   132          1
   133          0
   137          0
   139          0
   140          0
   141          0
   144          0
   146          0
   149          0
   151          0
   152          3
   153          0
   158          0
   160          2
   161          0
   163          0
   164          0
   165          6
   166          2
   167          1
   171          0
   176          0
   178          1
   179          1
   180          0
   181          0
   194          0
   196          1
   203          1
   208         10
   209          1