##TITLE=Library Entry 42880
##JCAMP-DX=Revision 4.10 
##DATA TYPE=MASS SPECTRUM
##SAMPLE DESCRIPTION=D.HENNEBERG, MAX-PLANCK INSTITUTE, MULHEIM, WEST GERMAN
Y
##NAMES=HP
##CAS NAME=5-Decanol, TMS derivative
##MOLFORM=C13H30OSi
##CAS REGISTRY NO=53754-40-8
##MP= -300
##BP= -300
##MW= 230
##$RETENTION INDEX=0
##$CONDENSED SPECTRUM=NO
##NPOINTS= 145
##XYDATA=(XY..XY) 1 
    21          0
    22          0
    26          1
    27         22
    28         14
    29         42
    30          1
    31          3
    39         12
    40          3
    41         64
    42         13
    43         38
    44         14
    45         62
    46          5
    47         33
    48          1
    49          1
    50          0
    51          0
    52          1
    53          4
    54          5
    55         91
    56         21
    57         15
    58          7
    59         40
    60          7
    61         51
    62          4
    63          2
    64          0
    65          0
    67          8
    68          3
    69         87
    70         16
    71          7
    72         16
    73        999
    74         82
    75        505
    76         33
    77         17
    78          0
    79          1
    80          0
    81          2
    82          2
    83         85
    84          9
    85         12
    86          1
    87          5
    88          1
    89          6
    90          0
    91         16
    92          1
    93          0
    94          0
    95          1
    96          0
    97          6
    98          2
    99          8
   100          1
   101         29
   102          3
   103        250
   104         24
   105          9
   106          0
   107          0
   109          0
   110          0
   111          2
   112          0
   113          2
   114          0
   115         22
   116          8
   117          5
   118          0
   119          0
   120          0
   121          0
   124          0
   127          1
   128          0
   129         21
   130          4
   131          2
   132          0
   136          0
   138          0
   140          3
   141          0
   142          0
   143          5
   144          1
   145          0
   147          0
   148          0
   149          0
   152          0
   153          0
   157          4
   158          3
   159        848
   160        110
   161         34
   162          2
   166          0
   170          0
   171          3
   172          2
   173        673
   174         91
   175         28
   176          2
   177          0
   181          0
   182          0
   185          0
   186          0
   187          0
   193          0
   197          0
   199          0
   204          0
   205          0
   209          0
   210          0
   215         60
   216         11
   217          3
   221          0
   222          0
   223          0
   228          0
   229          5
   230          1