##TITLE=Library Entry 52290
##JCAMP-DX=Revision 4.10 
##DATA TYPE=MASS SPECTRUM
##SAMPLE DESCRIPTION=CARL DJERASSI DEPT OF CHEM STANFORD UNIV STANFORD CALIF
 94305
##NAMES=HP
##CAS NAME=Cyclopropa[5,6]stigmast-22-en-3-ol, 3',6-dihydro-, (3.beta.,5.bet
a.,6.alpha.,22E)-
##MOLFORM=C30H50O
##CAS REGISTRY NO=53755-20-7
##MP= -300
##BP= -300
##MW= 426
##$RETENTION INDEX=0
##$CONDENSED SPECTRUM=NO
##NPOINTS= 136
##XYDATA=(XY..XY) 1 
    41        250
    43        250
    53         40
    55        650
    56         40
    57        240
    67        200
    68         30
    69        570
    70         40
    71        150
    77         70
    78         30
    79        190
    80         50
    81        470
    82         80
    83        999
    84        100
    85         90
    91        150
    92         40
    93        280
    94        100
    95        340
    96         80
    97        280
    98         40
    99         80
   105        170
   106         40
   107        360
   108         70
   109        170
   110         50
   111         60
   117         40
   118         30
   119        110
   120        120
   121        260
   122         60
   123        140
   124         30
   131         80
   132         30
   133        190
   134        100
   135        200
   136         40
   137         80
   138        130
   139        190
   145         80
   146         30
   147        130
   148         30
   149        190
   150         30
   151         50
   152         30
   159         80
   160         30
   161        110
   162         30
   163         50
   164         20
   165         30
   166         30
   173         90
   174         30
   175        100
   176         30
   177         50
   178         30
   179         20
   185         30
   186         20
   187         60
   188         30
   189         70
   190         30
   191         30
   201         30
   203         30
   213         30
   215         30
   217         30
   219         20
   227         40
   228         20
   229         40
   230         20
   231         30
   232         20
   233         40
   234         20
   241         30
   242         30
   243         40
   244         30
   245         90
   246         30
   268         30
   269        180
   270         50
   271         40
   272         40
   273         50
   274         30
   285        110
   286         80
   287        130
   288         50
   299         50
   300         30
   301         30
   313         40
   314         80
   315         40
   326         30
   327         30
   328         50
   329         30
   365         50
   366         20
   393         60
   394         30
   408         60
   409         10
   410         10
   411         30
   412         10
   426        280
   427         90
   428         30