##TITLE=Library Entry 50441
##JCAMP-DX=Revision 4.10 
##DATA TYPE=MASS SPECTRUM
##SAMPLE DESCRIPTION=CARL DJERASSI DEPT OF CHEM STANFORD UNIV STANFORD CALIF
 94305
##NAMES=HP
##CAS NAME=Cyclopropa[7,8]cholestan-3-one, 3',7-dihydro-, (5.alpha.,7.beta.,
8.alpha.)-
##MOLFORM=C28H46O
##CAS REGISTRY NO=53755-19-4
##MP= -300
##BP= -300
##MW= 398
##$RETENTION INDEX=0
##$CONDENSED SPECTRUM=NO
##NPOINTS= 151
##XYDATA=(XY..XY) 1 
    41        530
    42         50
    43        590
    44         60
    53         90
    54         20
    55        690
    56         70
    57        510
    58         20
    65         30
    66         10
    67        430
    68        100
    69        500
    70         40
    71        270
    77        130
    78         30
    79        410
    80         80
    81        999
    82        180
    83        350
    84         20
    85         60
    91        430
    92        100
    93        590
    94        180
    95        840
    96        160
    97        250
   105        430
   106        120
   107        570
   108        120
   109        440
   110         80
   111        180
   117        110
   118         40
   119        420
   120        120
   121        390
   122         60
   123        240
   124         60
   129         60
   130         40
   131        180
   132         80
   133        430
   134        170
   135        580
   136        110
   137        170
   143         70
   144         30
   145        210
   146         60
   147        230
   148        250
   149        400
   150         70
   151        100
   152        100
   157         90
   158         30
   159        150
   160         40
   161        250
   162         70
   163        420
   164         60
   165         80
   171         80
   172         30
   173        150
   174         50
   175        200
   176         30
   177        120
   178         20
   179         30
   183         20
   185        100
   186         40
   187        120
   188         40
   189        120
   190        210
   191        140
   192         20
   193         40
   197         30
   198         10
   199         60
   200         20
   201        100
   202         30
   203        110
   204         50
   205         30
   206         60
   207         20
   211         30
   212         10
   213         40
   214         20
   215        100
   216         50
   217        110
   218         20
   219         20
   225         50
   226         10
   227         40
   228         10
   229        150
   230        110
   231         70
   241         30
   242         10
   243        390
   244        320
   245        130
   246         60
   247        650
   248        130
   257        100
   258        100
   259        100
   260         30
   261         30
   267         80
   268         20
   271        140
   272        100
   273         80
   274         70
   275         60
   285        310
   286         90
   287         30
   313         70
   314         20
   383        450
   384        150
   398        380
   399        120