##TITLE=Library Entry 52023
##JCAMP-DX=Revision 4.10 
##DATA TYPE=MASS SPECTRUM
##SAMPLE DESCRIPTION=CARL DJERASSI DEPT OF CHEM STANFORD UNIV STANFORD CALIF
 94305
##NAMES=HP
##CAS NAME=Cyclopropa[5,6]-33-norgorgostan-3-ol, 3',6-dihydro-, (3.beta.,5.b
eta.,6.alpha.,22.xi.,23.xi.)-
##MOLFORM=C30H50O
##CAS REGISTRY NO=53761-94-7
##MP= -300
##BP= -300
##MW= 426
##$RETENTION INDEX=0
##$CONDENSED SPECTRUM=NO
##NPOINTS= 171
##XYDATA=(XY..XY) 1 
    41        290
    42         20
    43        830
    44        100
    55        800
    56         50
    57        390
    67        300
    68         50
    69        820
    70         80
    71        130
    77         80
    78         20
    79        340
    80         70
    81        600
    82        100
    83        999
    84         80
    85         30
    91        300
    92         70
    93        400
    94        130
    95        500
    96         80
    97        330
    98         40
   105        260
   106         90
   107        470
   108        100
   109        280
   110         50
   111         70
   117         90
   118         40
   119        280
   120        180
   121        350
   122         80
   123        150
   124         30
   129         30
   131        170
   132         50
   133        310
   134        140
   135        250
   136         50
   137         90
   138        100
   139         80
   143         70
   144         30
   145        200
   146         70
   147        290
   148         80
   149        200
   150         50
   151         70
   152         40
   157        290
   158         40
   159        250
   160         70
   161        210
   162         40
   163        100
   164         20
   165         40
   171         70
   172         40
   173        180
   174         70
   175        150
   176         40
   177         80
   178         30
   185         70
   186         40
   187        130
   188         50
   189        120
   190         40
   191         50
   192         20
   199         70
   200         30
   201         80
   202         20
   203         70
   204         20
   205         20
   211         40
   212         10
   213        100
   214         40
   215        120
   216         50
   217         60
   225         50
   226         20
   227        130
   228         60
   229         90
   230         50
   231         60
   232         20
   233         30
   242         80
   243         50
   244         90
   245         40
   246        110
   247         40
   254         40
   255         20
   256         90
   257         30
   258         60
   259         30
   260         50
   261         20
   268         70
   269         30
   270        130
   271         50
   272        100
   273         60
   274         60
   281         50
   282         20
   283         70
   284         30
   285        150
   286         70
   287         80
   288         20
   295        120
   296         40
   297         40
   298         10
   299         60
   300         40
   301         30
   309         20
   310         80
   311         40
   312         20
   313        100
   314         80
   315         30
   326         40
   327         70
   328        280
   329         80
   365         90
   366         30
   383         30
   384         30
   393         50
   394         30
   408        120
   409         50
   411         60
   412         30
   426        140
   427         40