##TITLE=Library Entry 32303
##JCAMP-DX=Revision 4.10 
##DATA TYPE=MASS SPECTRUM
##SAMPLE DESCRIPTION=A.E.WILLIAMS ICI DYESTUFFS DIVISION. BLACKLEY
##NAMES=HP
##CAS NAME=2-Pentenenitrile, 5-hydroxy-, (E)-
##MOLFORM=C5H7NO
##CAS REGISTRY NO=53778-56-6
##MP= -300
##BP= -300
##MW= 97
##$RETENTION INDEX=0
##$CONDENSED SPECTRUM=NO
##NPOINTS= 40
##XYDATA=(XY..XY) 1 
    27        223
    28        300
    29        120
    30          8
    31        718
    36         27
    37         51
    38         78
    39        282
    40         95
    41        437
    42         34
    43         73
    44         85
    45         10
    49         12
    50         62
    51         96
    52        189
    53        220
    54         42
    55         17
    57         32
    63         15
    64         39
    65         14
    66         59
    67        999
    68        103
    69         42
    75         11
    76         10
    78         22
    79         37
    80         15
    81         40
    82         14
    96        125
    97         93
    98         14