##TITLE=Library Entry 32500
##JCAMP-DX=Revision 4.10 
##DATA TYPE=MASS SPECTRUM
##SAMPLE DESCRIPTION=A.E.WILLIAMS ICI DYESTUFFS DIVISION. BLACKLEY
##NAMES=HP
##CAS NAME=2-Pentenenitrile, 5-hydroxy-, (Z)-
##MOLFORM=C5H7NO
##CAS REGISTRY NO=53778-55-5
##MP= -300
##BP= -300
##MW= 97
##$RETENTION INDEX=0
##$CONDENSED SPECTRUM=NO
##NPOINTS= 45
##XYDATA=(XY..XY) 1 
    15         10
    16          8
    17         63
    26         37
    27        148
    28        143
    29         49
    30          8
    31        128
    32          4
    36         10
    37         16
    38         34
    39        112
    40         42
    41        184
    42         23
    43         48
    44         73
    45          7
    49          7
    50         49
    51         70
    52        104
    53        158
    54         35
    55         12
    56          4
    57         30
    63          5
    64         13
    65          6
    66         25
    67        999
    68          7
    69          4
    70          5
    78         16
    79         22
    80         14
    81         23
    96        174
    97        148
    98         13
    99          1