##TITLE=Library Entry 54623
##JCAMP-DX=Revision 4.10 
##DATA TYPE=MASS SPECTRUM
##SAMPLE DESCRIPTION=SHELL RESEARCH LIMITED THORNTON RESEARCH CENTRE
##NAMES=HP
##CAS NAME=Oxetane, 2-ethyl-3-methyl-
##MOLFORM=C6H12O
##CAS REGISTRY NO=53778-62-4
##MP= -300
##BP= -300
##MW= 100
##$RETENTION INDEX=0
##$CONDENSED SPECTRUM=NO
##NPOINTS= 26
##XYDATA=(XY..XY) 1 
    27        116
    28         70
    29        170
    31         23
    39        133
    40         36
    41        766
    42        300
    43        400
    51         13
    53         36
    54         20
    55        633
    56        700
    57        433
    58         30
    59         26
    67         70
    68         13
    69         30
    70        233
    71         60
    85        999
    86         43
    99         23
   100         73