##TITLE=Library Entry 80535
##JCAMP-DX=Revision 4.10 
##DATA TYPE=MASS SPECTRUM
##SAMPLE DESCRIPTION=Tox21 Consortium/NIST Mass Spectrometry Data Center, 20
12
##NAMES=HP
##CAS NAME=Metomidate
##MOLFORM=C13H14N2O2
##CAS REGISTRY NO=5377-20-8
##MP= -300
##BP= -300
##MW= 230
##$RETENTION INDEX=0
##$CONDENSED SPECTRUM=NO
##NPOINTS= 102
##XYDATA=(XY..XY) 1 
    15          7
    26          1
    27         16
    28          5
    29          3
    30          1
    31          1
    37          1
    38          3
    39         22
    40          9
    41          4
    42          5
    43          4
    44          1
    45          1
    50         11
    51         43
    52         15
    53         14
    54          2
    55          1
    56          1
    57          1
    59          7
    62          3
    63         12
    64          3
    65          9
    66         12
    67         11
    68          3
    69          1
    70          1
    71          2
    74          4
    75          5
    76          7
    77        126
    78         37
    79         95
    80          6
    81          1
    85          2
    86          1
    87          1
    88          1
    89          8
    90          3
    91          9
    92          3
    93          1
    94          3
    95         21
    96          1
    98          1
    99          2
   100          1
   101          4
   102         14
   103         90
   104        175
   105        999
   106         85
   107          3
   114          1
   115         12
   116          7
   117          3
   118          1
   121          7
   122          1
   126          2
   127          2
   128          9
   129          4
   130          2
   131          1
   135          2
   140          1
   141          1
   142          3
   143          6
   144          3
   145          1
   155          3
   156          1
   168          1
   169          3
   170          5
   171          5
   172          1
   183          1
   184          1
   197          3
   198          7
   199         11
   200          2
   215          2
   230         70
   231         11
   232          1