##TITLE=Library Entry 70165
##JCAMP-DX=Revision 4.10 
##DATA TYPE=MASS SPECTRUM
##SAMPLE DESCRIPTION=Chemical Concepts
##NAMES=HP
##CAS NAME=3-Cyclohexen-1-ol, 3-methyl-
##MOLFORM=C7H12O
##CAS REGISTRY NO=53783-91-8
##MP= -300
##BP= -300
##MW= 112
##$RETENTION INDEX=0
##$CONDENSED SPECTRUM=NO
##NPOINTS= 70
##XYDATA=(XY..XY) 1 
    26         10
    27        148
    29        106
    30          3
    31         19
    37          7
    38         24
    39        245
    40         44
    41        298
    42         39
    43        180
    44         17
    45         10
    46          2
    47          4
    48          1
    49          2
    50         27
    51         52
    52         21
    53         88
    54         31
    55        293
    56         94
    57         37
    58         11
    60          0
    61          4
    62          9
    63         17
    64          4
    65         38
    66         25
    67        118
    68         14
    69        274
    70         20
    71         10
    72          0
    73          1
    74          1
    75          1
    77        114
    78         17
    79        257
    80         17
    81         26
    82         13
    83        236
    84        323
    85         15
    86          1
    89          2
    91         51
    92          5
    93         39
    94         53
    95         38
    96          3
    97        999
    98         65
    99          3
   107          1
   109          2
   110          1
   111         48
   112        118
   113          9
   114          0