##TITLE=Library Entry 50670
##JCAMP-DX=Revision 4.10 
##DATA TYPE=MASS SPECTRUM
##SAMPLE DESCRIPTION=TAT 0971
##NAMES=HP
##CAS NAME=Bicyclo[2.2.1]hept-2-en-7-ol
##MOLFORM=C7H10O
##CAS REGISTRY NO=53783-87-2
##MP= -300
##BP= -300
##MW= 110
##$RETENTION INDEX=1164
##$CONDENSED SPECTRUM=NO
##NPOINTS= 41
##XYDATA=(XY..XY) 1 
    26         80
    27        350
    28         40
    29        150
    31         80
    32         10
    40         80
    41        460
    42         80
    43        310
    44         30
    50        120
    51        190
    52         80
    53        310
    54        230
    55        270
    56         20
    63         80
    64         10
    65        150
    66        120
    67        380
    68        120
    69         80
    77        460
    78        270
    79        150
    80        230
    81        999
    82        420
    83         80
    91        460
    92        420
    93         80
    95        500
    96         40
   109        150
   110        730
   111         80
   112         10