##TITLE=Library Entry 67095
##JCAMP-DX=Revision 4.10 
##DATA TYPE=MASS SPECTRUM
##SAMPLE DESCRIPTION=Exported from NIST MS Search
##NAMES=HP
##CAS NAME=1,2-Propanediol, 3-phenoxy-
##MOLFORM=C9H12O3
##CAS REGISTRY NO=538-43-2
##MP= -300
##BP= -300
##MW= 168
##$RETENTION INDEX=0
##$CONDENSED SPECTRUM=NO
##NPOINTS= 71
##XYDATA=(XY..XY) 1 
    18         20
    19         47
    26         11
    27         75
    28         88
    29        143
    30         10
    31        135
    32         15
    35          7
    36         71
    37          9
    38         42
    39        119
    40         30
    41         24
    42         14
    43        111
    44         19
    45         43
    47          7
    50         28
    51        102
    52         14
    53         10
    55         29
    56         11
    57         84
    58          9
    59          9
    60          6
    61         41
    62          8
    63         18
    64         11
    65         81
    66         66
    67          9
    68          5
    69          6
    71          5
    72          5
    73          7
    74         16
    75         14
    76          9
    77        203
    78         62
    79         40
    80          4
    87          5
    91         33
    93         20
    94        999
    95        132
    96          5
   101          9
   107         68
   108         64
   109          7
   117         10
   119         45
   120          6
   121          5
   131          4
   133          8
   136          7
   137         18
   150          4
   168        143
   169         15