##TITLE=Library Entry 78885
##JCAMP-DX=Revision 4.10 
##DATA TYPE=MASS SPECTRUM
##SAMPLE DESCRIPTION=NIST Mass Spectrometry Data Center, 1994
##NAMES=HP
##CAS NAME=Benzene, 1,1'-(1,2-ethanediyl)bis[4-methyl-
##MOLFORM=C16H18
##CAS REGISTRY NO=538-39-6
##MP= -300
##BP= -300
##MW= 210
##$RETENTION INDEX=0
##$CONDENSED SPECTRUM=NO
##NPOINTS= 84
##XYDATA=(XY..XY) 1 
    15          2
    18          0
    27         59
    28          1
    37          0
    39         61
    40          6
    41          9
    42          0
    44          0
    50         13
    51         46
    52         17
    53         23
    54          1
    55          0
    61          0
    62          6
    63         26
    64          6
    65         36
    66          4
    69          0
    74          2
    75          5
    77        149
    78         48
    79        127
    80          8
    82          2
    83          1
    86          1
    87          2
    89         17
    90          4
    91         23
    92          2
    94          1
    95          1
    96          1
   101          2
   102         11
   103         74
   104          1
   105        999
   106         82
   107          3
   113          0
   115         19
   116          3
   117          8
   118          6
   119          1
   126          0
   127          1
   128          3
   129          1
   139          2
   141          1
   150          1
   151          1
   152          4
   153          1
   163          0
   164          1
   165          7
   166          1
   167          0
   176          1
   178         11
   179          8
   180          1
   181          0
   189          3
   190          1
   191          3
   192          2
   193          3
   194          1
   207          0
   208          1
   210        119
   211         21
   212          1