##TITLE=Library Entry 60648
##JCAMP-DX=Revision 4.10 
##DATA TYPE=MASS SPECTRUM
##SAMPLE DESCRIPTION=D. LUKE UNILEVER RESEARCH LAB., PORT SUNLIGHT
##NAMES=HP
##CAS NAME=Benzene, pentyl-
##MOLFORM=C11H16
##CAS REGISTRY NO=538-68-1
##MP= -300
##BP= -300
##MW= 148
##$RETENTION INDEX=1157
##$CONDENSED SPECTRUM=NO
##NPOINTS= 71
##XYDATA=(XY..XY) 1 
    15          3
    17          4
    26          4
    27         47
    29         66
    30          1
    31         22
    38          4
    39         56
    40          5
    41         76
    42          8
    43          7
    44          3
    45          7
    50         11
    51         38
    52         10
    53          7
    55          8
    56          3
    57         34
    58          2
    59          9
    62          4
    63         20
    64          6
    65         99
    66          7
    67          1
    69          1
    70          3
    74          8
    75          4
    76          4
    77         47
    78         59
    79         29
    80          3
    81          1
    82          1
    87          1
    88          0
    89         16
    90         13
    91        999
    92        680
    93         53
    94          4
   101          1
   102          4
   103         19
   104         16
   105        106
   106         18
   107          2
   115         13
   116          3
   117          9
   118          2
   119         21
   120          5
   127          0
   128          2
   129          1
   133         16
   134          1
   147          1
   148        280
   149         33
   150          2