##TITLE=Library Entry 2243
##JCAMP-DX=Revision 4.10 
##DATA TYPE=MASS SPECTRUM
##SAMPLE DESCRIPTION=NIST Mass Spectrometry Data Center, 2010
##NAMES=HP
##CAS NAME=Cyanamide, di-2-propenyl-
##MOLFORM=C7H10N2
##CAS REGISTRY NO=538-08-9
##MP= -300
##BP= -300
##MW= 122
##$RETENTION INDEX=0
##$CONDENSED SPECTRUM=NO
##NPOINTS= 48
##XYDATA=(XY..XY) 1 
    15          7
    25          1
    26         15
    27         46
    28         39
    29          5
    30          1
    37         13
    38         33
    39        344
    40         46
    41        999
    42         59
    43          6
    50          2
    51          6
    52         12
    53         67
    54        100
    55        174
    56         14
    62          1
    63          1
    65          3
    66          9
    67         67
    68        128
    69         17
    70          2
    77          4
    78          3
    79         16
    80         40
    81        142
    82         97
    83          7
    92          2
    93         19
    94         77
    95        104
    96         10
   106          4
   107         35
   119          3
   121        134
   122        288
   123         25
   124          1