##TITLE=Library Entry 60637
##JCAMP-DX=Revision 4.10 
##DATA TYPE=MASS SPECTRUM
##SAMPLE DESCRIPTION=Japan AIST/NIMC Database- Spectrum MS-NW- 147
##NAMES=HP
##CAS NAME=Benzene, (2-methylpropyl)-
##MOLFORM=C10H14
##CAS REGISTRY NO=538-93-2
##MP= -300
##BP= -300
##MW= 134
##$RETENTION INDEX=995
##$CONDENSED SPECTRUM=NO
##NPOINTS= 56
##XYDATA=(XY..XY) 1 
    15          3
    26          2
    27         40
    28         10
    29          6
    38          6
    39         74
    40          7
    41         75
    42          4
    43        135
    44          5
    50         14
    51         44
    52         12
    53          7
    55          9
    56         14
    57         12
    58         10
    59          1
    61          1
    62          8
    63         29
    64          9
    65        115
    66          8
    69          3
    74          4
    75          5
    76          5
    77         29
    78         27
    79          9
    86          1
    87          2
    89         23
    90          9
    91        999
    92        622
    93         42
    94          1
   102          5
   103          9
   104          6
   105          9
   106          2
   115         22
   116          6
   117         15
   118          4
   119         13
   133          3
   134        268
   135         28
   136          1