##TITLE=Library Entry 63704
##JCAMP-DX=Revision 4.10 
##DATA TYPE=MASS SPECTRUM
##SAMPLE DESCRIPTION=NIST Mass Spectrometry Data Center, 1990.
##NAMES=HP
##CAS NAME=Benzyl sulfide
##MOLFORM=C14H14S
##CAS REGISTRY NO=538-74-9
##MP= -300
##BP= -300
##MW= 214
##$RETENTION INDEX=2146
##$CONDENSED SPECTRUM=NO
##NPOINTS= 64
##XYDATA=(XY..XY) 1 
    26          2
    27         11
    28          3
    37          3
    38         13
    39         88
    40          7
    41         19
    45        216
    46          7
    47          9
    50         17
    51         59
    52         14
    53          5
    58          1
    61          3
    62         14
    63         52
    64         17
    65        178
    66         10
    69          8
    70          2
    71          3
    74          3
    75          4
    76          5
    77         68
    78         15
    79         18
    80          1
    81          1
    82          1
    86          3
    87          1
    89         39
    91        999
    92        190
    93         13
    95          1
    96          1
    97          3
   106          1
   108          2
   121         44
   122        121
   123        226
   124         24
   125         10
   135          6
   136          4
   152          2
   165          3
   166          1
   167          2
   168          2
   178          2
   179          2
   181          3
   214        235
   215         37
   216         13
   217          1