##TITLE=Library Entry 50567
##JCAMP-DX=Revision 4.10 
##DATA TYPE=MASS SPECTRUM
##SAMPLE DESCRIPTION=Chuck Anderson, Aldrich Chemical Co.
##NAMES=HP
##CAS NAME=Furfuryl glycidyl ether
##MOLFORM=C8H10O3
##CAS REGISTRY NO=5380-87-0
##MP= -300
##BP= -300
##MW= 154
##$RETENTION INDEX=0
##$CONDENSED SPECTRUM=NO
##NPOINTS= 58
##XYDATA=(XY..XY) 1 
    14          4
    15         21
    18          0
    26         11
    27         93
    28          8
    29         88
    30          6
    31         49
    32          0
    37          5
    38         15
    39         60
    40          8
    41         57
    42         23
    43         23
    44          4
    45          6
    49          0
    50         19
    51         40
    52         37
    53        219
    54         16
    55          9
    56          0
    57         40
    58          6
    65          4
    66          6
    67         11
    68         19
    69         40
    70          6
    71          3
    73          0
    77          2
    79          6
    80         10
    81        999
    82         62
    83         10
    94         16
    95        193
    96        349
    97        658
    98         38
    99          3
   100          3
   107          2
   108          2
   109          2
   110          2
   123         11
   124          1
   154         72
   155          5