##TITLE=Library Entry 88657
##JCAMP-DX=Revision 4.10 
##DATA TYPE=MASS SPECTRUM
##SAMPLE DESCRIPTION=Japan AIST/NIMC Database- Spectrum MS-NW-8728
##NAMES=HP
##CAS NAME=Methyl-2-thiophene carboxylate
##MOLFORM=C6H6O2S
##CAS REGISTRY NO=5380-42-7
##MP= -300
##BP= -300
##MW= 142
##$RETENTION INDEX=0
##$CONDENSED SPECTRUM=NO
##NPOINTS= 59
##XYDATA=(XY..XY) 1 
    14          1
    15         33
    18          2
    25          1
    26          2
    27          3
    28          3
    29          7
    30          2
    31          1
    33          1
    34          1
    36          1
    37         11
    38         24
    39        245
    40          9
    41          2
    44          8
    45         37
    46          1
    47          2
    48          1
    49          5
    50          9
    51          3
    53         12
    55          3
    56          2
    57         51
    58         11
    59         11
    66          1
    68          1
    69          7
    70          1
    71          2
    72          1
    77          2
    80          1
    81         19
    82         25
    83        104
    84         14
    85          6
    97         14
    98          2
    99          2
   109          1
   111        999
   112         69
   113         48
   114          3
   124          2
   141          9
   142        376
   143         28
   144         18
   145          1