##TITLE=Library Entry 34943
##JCAMP-DX=Revision 4.10 
##DATA TYPE=MASS SPECTRUM
##SAMPLE DESCRIPTION=NIST Mass Spectrometry Data Center
##NAMES=HP
##CAS NAME=Acetic acid, trifluoro-, undecyl ester
##MOLFORM=C13H23F3O2
##CAS REGISTRY NO=53800-01-4
##MP= -300
##BP= -300
##MW= 268
##$RETENTION INDEX=1342
##$CONDENSED SPECTRUM=NO
##NPOINTS= 95
##XYDATA=(XY..XY) 1 
    15          1
    26          5
    27         81
    28         16
    29        185
    30          5
    31          1
    33          3
    37          1
    39        118
    40         29
    41        656
    42        193
    43        766
    50          3
    51          9
    52          5
    53         63
    54         99
    55        961
    56        531
    57        677
    58         30
    59          4
    61          2
    63          1
    65         11
    66         11
    67        137
    68        206
    69        999
    70        563
    71        251
    72         13
    73          1
    77          8
    78          8
    79         15
    80          5
    81         57
    82        306
    83        617
    84        402
    85        164
    86         10
    87          1
    91          2
    93          2
    94          1
    95         19
    96        101
    97        546
    98        213
    99        100
   100          3
   101          1
   109          4
   110         35
   111        251
   112         93
   113         15
   114          1
   115          4
   121          1
   123          2
   124         13
   125         99
   126        136
   127         25
   128          1
   137          1
   138          4
   139          2
   140          1
   141          2
   150          1
   151          3
   152          8
   153          2
   154         58
   155         10
   156          1
   165          1
   166          1
   168          1
   170          1
   179          1
   180          1
   181          3
   182          1
   193          2
   199         39
   200          5
   207          1
   250          1