##TITLE=Library Entry 65179
##JCAMP-DX=Revision 4.10 
##DATA TYPE=MASS SPECTRUM
##SAMPLE DESCRIPTION=Chemical Concepts
##NAMES=HP
##CAS NAME=Benzeneethanol, .alpha.-(phenylmethyl)-
##MOLFORM=C15H16O
##CAS REGISTRY NO=5381-92-0
##MP= -300
##BP= -300
##MW= 212
##$RETENTION INDEX=0
##$CONDENSED SPECTRUM=NO
##NPOINTS= 92
##XYDATA=(XY..XY) 1 
    26          1
    27          9
    31          1
    37          1
    38          3
    39         44
    40          2
    41         13
    42          0
    43         17
    44          0
    45          0
    50          8
    51         33
    52          8
    53          8
    55          2
    56          0
    57          0
    62          4
    63         19
    64          5
    65         97
    66          6
    67          1
    69          2
    70          0
    71          0
    74          1
    75          2
    76          3
    77         85
    78         19
    79         61
    80          3
    82          0
    83          0
    85          1
    86          0
    87          0
    89         15
    90          7
    91        497
    92        999
    93        104
    94          5
    95          2
    96          0
    97          0
   101          0
   102          5
   103        249
   104         22
   105          3
   107          1
   109          0
   110          0
   111          0
   113          0
   115          7
   116          1
   117          2
   118          3
   119          6
   120         35
   121        228
   122         19
   123          1
   125          1
   127          0
   128          0
   131          0
   137          0
   139          0
   145          0
   152          1
   153          0
   163          0
   164          0
   165          2
   166          0
   167          0
   178          4
   179          3
   190          0
   191          1
   193          4
   194          4
   195          0
   210          2
   212          7
   213          0