##TITLE=Library Entry 114791
##JCAMP-DX=Revision 4.10 
##DATA TYPE=MASS SPECTRUM
##SAMPLE DESCRIPTION=Japan AIST/NIMC Database- Spectrum MS-IW-4884
##NAMES=HP
##CAS NAME=3-Hydroxy-4-phenyl-2-butanone semicarbazone
##MOLFORM=C11H15N3O2
##CAS REGISTRY NO=5381-91-9
##MP= -300
##BP= -300
##MW= 221
##$RETENTION INDEX=0
##$CONDENSED SPECTRUM=NO
##NPOINTS= 131
##XYDATA=(XY..XY) 1 
    15         14
    16          5
    17         18
    18          2
    26          2
    27         17
    28         18
    29         26
    30         39
    31         13
    32          1
    38          5
    39         50
    40         11
    41         30
    42        172
    43         51
    44         81
    45          4
    46          6
    50         12
    51         41
    52         10
    53          9
    54          2
    55         10
    56          9
    57        134
    58          7
    59         14
    60         11
    61         27
    62          8
    63         28
    64         10
    65        128
    66          9
    67          1
    69          4
    70          1
    71          4
    72          3
    73          1
    74          4
    75          7
    76          8
    77         70
    78         22
    79         13
    80          1
    81          1
    82          1
    83        103
    84          6
    85         16
    86          8
    87        962
    88         48
    89         30
    90         15
    91        580
    92        302
    93         25
    94          1
    99          2
   100        318
   101         17
   102         35
   103         72
   104         18
   105          9
   106         15
   107          9
   108          1
   112          2
   113         28
   114          2
   115         40
   116         19
   117         33
   118         12
   119          7
   120         37
   121         14
   122          1
   126          7
   127          9
   128         25
   129         35
   130        999
   131         73
   132         27
   133         10
   134         13
   135          2
   142         13
   143         67
   144         74
   145         13
   146          7
   147         16
   148          4
   149          3
   150         13
   151          2
   157          2
   158          5
   159         84
   160         40
   161         20
   162        228
   163         25
   164          1
   171          1
   175          3
   176          2
   178          1
   179          3
   185         25
   186         10
   187          7
   188          4
   192          3
   201          1
   202          9
   203         10
   204         16
   205          5
   221         18
   222         48
   223          6