##TITLE=Library Entry 12107
##JCAMP-DX=Revision 4.10 
##DATA TYPE=MASS SPECTRUM
##SAMPLE DESCRIPTION=Dr. Jiri Zamecnik, DCIEM, North York, Canada, GP Librar
y
##NAMES=HP
##CAS NAME=1-Hydroxyimino-1-(4-methylphenyl)propan-2-one
##MOLFORM=C10H11NO2
##CAS REGISTRY NO=53815-22-8
##MP= -300
##BP= -300
##MW= 177
##$RETENTION INDEX=0
##$CONDENSED SPECTRUM=NO
##NPOINTS= 23
##XYDATA=(XY..XY) 1 
    43        999
    50         52
    51         64
    63        108
    65        145
    77         88
    89        137
    90        128
    91        172
    92        140
   103         38
   106         25
   107         24
   116        197
   117        182
   118         59
   119         39
   135        523
   136         30
   147          1
   164          1
   177         93
   178          6