##TITLE=Library Entry 16865
##JCAMP-DX=Revision 4.10 
##DATA TYPE=MASS SPECTRUM
##SAMPLE DESCRIPTION=Leung Pu, NIH, Bethesda, Maryland, U.S.
##NAMES=HP
##CAS NAME=1,2-Propanediol diformate
##MOLFORM=C5H8O4
##CAS REGISTRY NO=53818-14-7
##MP= -300
##BP= -300
##MW= 132
##$RETENTION INDEX=1513
##$CONDENSED SPECTRUM=NO
##NPOINTS= 39
##XYDATA=(XY..XY) 1 
    41         80
    42         37
    43        206
    44         17
    45        999
    47         61
    48          9
    54          2
    55          7
    56          0
    57         72
    58        135
    59         29
    60        171
    61         78
    62          3
    63          0
    69          2
    70          1
    71          2
    73         29
    74         19
    75          7
    76          1
    77         13
    78          1
    81          2
    82          2
    83          4
    86          6
    87         11
    88          7
    89          5
   102          1
   103          0
   117          1
   131          1
   132          5
   133          0