##TITLE=Library Entry 77817
##JCAMP-DX=Revision 4.10 
##DATA TYPE=MASS SPECTRUM
##SAMPLE DESCRIPTION=Asinex Ltd, Moscow, Russia
##NAMES=HP
##CAS NAME=5-Methylamino-2-phenyl-oxazole-4-carbonitrile
##MOLFORM=C11H9N3O
##CAS REGISTRY NO=53828-02-7
##MP= -300
##BP= -300
##MW= 199
##$RETENTION INDEX=0
##$CONDENSED SPECTRUM=NO
##NPOINTS= 105
##XYDATA=(XY..XY) 1 
    34          1
    36          5
    37         20
    39        185
    40         49
    41         28
    42         37
    43         13
    44         43
    45          7
    47          1
    48          2
    49         11
    50        138
    51        312
    52         44
    53         65
    54         22
    55          5
    56          5
    57         11
    58        156
    59          4
    60          3
    61         18
    62         79
    63        219
    64         38
    65         15
    66          8
    67         24
    68         43
    69          9
    70          5
    71          2
    72          3
    73          4
    74         32
    75         47
    76        119
    77        501
    78         49
    79          9
    80          4
    81         12
    82          1
    83          6
    85         10
    86         15
    87         31
    88         95
    89        348
    90         36
    91          5
    93          4
    94          1
    95          3
    96         11
    98          1
   100        100
   101          4
   102         23
   103        124
   104        999
   105        258
   106         20
   107          2
   108          1
   111          1
   112          2
   113         13
   114         80
   115        281
   116         34
   117         17
   118         28
   119        107
   120         13
   122          1
   127          1
   128          7
   129         69
   130          9
   131          1
   139          3
   140         14
   141        193
   142        139
   143         30
   144         52
   145         15
   154          7
   156        220
   157         23
   158          2
   168          2
   169         48
   170         95
   171        128
   172         15
   184          2
   197         19
   199        982
   200        121
   201         10