##TITLE=Library Entry 22122
##JCAMP-DX=Revision 4.10 
##DATA TYPE=MASS SPECTRUM
##SAMPLE DESCRIPTION=NIST Mass Spectrometry Data Center, 1994
##NAMES=HP
##CAS NAME=4-Hydroxypiperidine
##MOLFORM=C5H11NO
##CAS REGISTRY NO=5382-16-1
##MP= -300
##BP= -300
##MW= 101
##$RETENTION INDEX=0
##$CONDENSED SPECTRUM=NO
##NPOINTS= 47
##XYDATA=(XY..XY) 1 
    14         13
    15         41
    18         25
    19         10
    26         40
    27        182
    28        416
    29        356
    30        364
    31         42
    32          5
    38         14
    39         88
    40         39
    41        121
    42        612
    43        371
    44        289
    45         74
    50         15
    51         27
    52         21
    53         49
    54         81
    55        256
    56        999
    57        602
    58         57
    59         14
    60         15
    65          7
    67         31
    68        192
    69         21
    70         22
    71          7
    72        172
    73         29
    80         29
    82        352
    83        136
    84        225
    85         14
    86          9
   100        253
   101        564
   102         36