##TITLE=Library Entry 85788
##JCAMP-DX=Revision 4.10 
##DATA TYPE=MASS SPECTRUM
##SAMPLE DESCRIPTION=Chemical Concepts
##NAMES=HP
##CAS NAME=5,9-Undecadien-2-ol, 6,10-dimethyl-
##MOLFORM=C13H24O
##CAS REGISTRY NO=53837-34-6
##MP= -300
##BP= -300
##MW= 196
##$RETENTION INDEX=1459
##$CONDENSED SPECTRUM=NO
##NPOINTS= 102
##XYDATA=(XY..XY) 1 
    26          4
    27        135
    29         98
    30          1
    31         16
    38          2
    39        109
    40         27
    41        881
    42         47
    43        193
    44          6
    45        312
    46          5
    50          1
    51         13
    52          7
    53         90
    54         24
    55        307
    56         27
    57         28
    58         23
    59         19
    63          0
    65         20
    66         11
    67        724
    68        139
    69        996
    70         98
    71        132
    72         15
    73          2
    77         33
    78          3
    79         61
    80         24
    81        259
    82        110
    83        121
    84         10
    85         28
    86          2
    91         30
    92          9
    93         91
    94         41
    95        162
    96         57
    97         11
    98          1
    99          4
   100          1
   103          1
   105         12
   106          2
   107         87
   108         36
   109        999
   110        127
   111         33
   112          6
   113          6
   114          1
   117          1
   119          5
   120          1
   121         44
   122         33
   123        156
   124         19
   125         16
   126          6
   127          9
   133          1
   134          9
   135        252
   136         67
   137         18
   138         10
   139          6
   140          1
   149          5
   150          2
   152         26
   153        376
   154         34
   155          0
   161          0
   163         44
   164          6
   165          2
   176          2
   177          1
   178          4
   179          1
   181          0
   190          0
   196         96
   197         13
   198          1