##TITLE=Library Entry 88415
##JCAMP-DX=Revision 4.10 
##DATA TYPE=MASS SPECTRUM
##SAMPLE DESCRIPTION=TNO Volatile Compounds in Food - Chemical Concepts
##NAMES=HP
##CAS NAME=Oxazole, 4,5-dimethyl-2-propyl-
##MOLFORM=C8H13NO
##CAS REGISTRY NO=53833-32-2
##MP= -300
##BP= -300
##MW= 139
##$RETENTION INDEX=996
##$CONDENSED SPECTRUM=NO
##NPOINTS= 83
##XYDATA=(XY..XY) 1 
    25          2
    26         20
    27        124
    28        104
    29         12
    30         12
    31         23
    32         19
    33          8
    34          9
    35          7
    36          6
    37          8
    38         13
    39         85
    40         26
    41        121
    42        173
    43        753
    50          2
    51          5
    52         15
    53         26
    54         40
    55        101
    56         13
    57          1
    58         12
    60          6
    61          9
    62         11
    63          5
    64          2
    65          8
    66         16
    67         21
    68         77
    69         72
    70         65
    71          9
    76          1
    79          2
    80          3
    81          4
    82          6
    83          1
    89          1
    91          2
    93          1
    95          6
    96         19
    97          9
    99          5
   101          4
   103          1
   104          6
   106          2
   107          8
   108          4
   110        871
   111        999
   112         36
   113          3
   114          5
   115          1
   116          3
   117          2
   118          3
   121          2
   122          2
   123          4
   124        105
   125          7
   126          2
   129          1
   133          2
   135          1
   136          3
   137          7
   138         46
   139        137
   140         13
   141          3