##TITLE=Library Entry 48441
##JCAMP-DX=Revision 4.10 
##DATA TYPE=MASS SPECTRUM
##SAMPLE DESCRIPTION=Div. of Experiment Therapeutics WRAIR, WRAMC, Washingto
n DC 20307
##NAMES=HP
##CAS NAME=Methanone, 2-pyridyl-[2-(1-adamantyl)-6,8-dichloro-4-quinolyl)-
##MOLFORM=C25H22Cl2N2O
##CAS REGISTRY NO=53868-22-7
##MP= -300
##BP= -300
##MW= 436
##$RETENTION INDEX=0
##$CONDENSED SPECTRUM=NO
##NPOINTS= 215
##XYDATA=(XY..XY) 1 
    41        445
    42         34
    43         58
    47         29
    49         17
    51        270
    52         78
    53        147
    55        179
    56          7
    57         16
    63         15
    65         49
    67        118
    69         42
    74          6
    78        999
    79        320
    80         59
    81         56
    82          3
    84          6
    86          5
    88         17
    89          3
    91        107
    93         77
    94         13
    95         16
    98         13
    99         19
   102          4
   103         11
   106        160
   107         42
   109          5
   114          4
   115         12
   117         16
   119         23
   121          9
   124         12
   125          7
   126         12
   127          7
   133         26
   134         12
   135         43
   137         12
   139         11
   140         22
   143          3
   145          8
   146         10
   148          6
   150         13
   151         24
   152         17
   153          6
   156          3
   157          3
   158         20
   159         15
   160         14
   161         17
   162         17
   163         10
   164         22
   165         18
   166         23
   169         19
   170          3
   171          3
   172         22
   173          7
   174          3
   175         30
   176         29
   177         32
   178         19
   179          8
   184         13
   185         12
   186         11
   187          7
   188         14
   189         18
   190         35
   191         21
   192          3
   195          8
   196         20
   197         35
   198         33
   199          6
   200         12
   201         21
   202         19
   203         28
   204         26
   205          8
   211         10
   212         18
   213         15
   214         18
   215         16
   216          9
   217          3
   219          5
   221          3
   222          7
   224         14
   225         17
   226         10
   227         11
   234          3
   235         11
   236         22
   237         19
   238         44
   239         28
   240         23
   241         14
   242          3
   247          3
   248         33
   249         15
   250         50
   251         30
   252         21
   253         14
   257          3
   260          4
   261         11
   262         26
   263         10
   264         20
   265         11
   266         13
   267         11
   271          5
   272          9
   273         19
   274         32
   275         28
   276         44
   277         23
   278         23
   279         12
   286         19
   287         33
   288         39
   289         22
   290         17
   291          7
   295          3
   299          7
   301         20
   302         19
   303         27
   304         14
   305         13
   311         13
   312          3
   313         19
   314         10
   315         18
   316         26
   317         12
   318         14
   323          3
   325          7
   327         13
   328          4
   329         46
   330        246
   331         69
   332        146
   333         28
   334         17
   337          3
   339         12
   341         10
   343         18
   345         14
   351         21
   353         13
   355         24
   357         18
   358          3
   365         10
   367         36
   368         18
   369         13
   379         95
   381         66
   382         27
   383         12
   384         13
   385          3
   393         43
   394          4
   395         30
   396          5
   397          4
   401          3
   433         14
   434          3
   435         33
   436        582
   437        200
   438        406
   439        113
   440         66
   441         17