##TITLE=Library Entry 35059
##JCAMP-DX=Revision 4.10 
##DATA TYPE=MASS SPECTRUM
##SAMPLE DESCRIPTION=CARL DJERASSI DEPT OF CHEM STANFORD UNIV STANFORD CALIF
 94305
##NAMES=HP
##CAS NAME=Cycloprop[7,8]ergost-22-en-3-ol, 3',7-dihydro-, (3.beta.,5.alpha.
,7.beta.,8.alpha.,22E)-
##MOLFORM=C29H48O
##CAS REGISTRY NO=53866-87-8
##MP= -300
##BP= -300
##MW= 412
##$RETENTION INDEX=0
##$CONDENSED SPECTRUM=NO
##NPOINTS= 145
##XYDATA=(XY..XY) 1 
    41        262
    42         20
    43        272
    44         10
    53         40
    54         10
    55        565
    56         30
    57        222
    67        232
    68         40
    69        999
    70         90
    71         70
    77         50
    78         10
    79        181
    80         40
    81        464
    82        171
    83        373
    84         40
    85         30
    91        171
    92         40
    93        303
    94         90
    95        383
    96        101
    97        272
    98         20
   105        171
   106         60
   107        353
   108         70
   109        252
   110         40
   111         40
   117         50
   118         20
   119        171
   120         70
   121        161
   122        151
   123        161
   124         30
   125        323
   126         30
   131         70
   132         40
   133        181
   134        101
   135        505
   136         60
   137         50
   145         90
   146         20
   147        141
   148         40
   149        101
   150         20
   151         30
   152         20
   153         30
   157         20
   158         10
   159        121
   160         30
   161        161
   162         30
   163         40
   173        101
   174         20
   175        111
   176         10
   177         20
   178         10
   179         10
   185         10
   187         60
   188         10
   189         80
   190         10
   191         40
   192        191
   193         30
   199         20
   201         50
   202         10
   203         30
   204         10
   205         50
   206         10
   213         20
   214         10
   215         20
   217         10
   218         10
   219         10
   227         20
   228         10
   229         40
   230         10
   231         20
   232         10
   242         40
   243         10
   244         40
   245         40
   246         30
   254         20
   255         10
   256         20
   257         10
   258         30
   259         50
   260         20
   267         20
   268         20
   269        393
   270        101
   271         40
   272         90
   273         40
   284         30
   285        232
   286        121
   287        111
   288         20
   314         40
   315        101
   316         30
   328         20
   351         50
   352         20
   365         70
   366         30
   369         30
   370         10
   383        101
   384         30
   397         50
   398         20
   412        151
   413         60