##TITLE=Library Entry 9282
##JCAMP-DX=Revision 4.10 
##DATA TYPE=MASS SPECTRUM
##SAMPLE DESCRIPTION=Institute of Organic Chemistry, Novosibirsk, USSR 1988
##NAMES=HP
##CAS NAME=Methyl 3,4-di-O-acetyl-2-O-methyl-.alpha.-D-xylopyranoside
##MOLFORM=C11H18O7
##CAS REGISTRY NO=53872-83-6
##MP= -300
##BP= -300
##MW= 262
##$RETENTION INDEX=0
##$CONDENSED SPECTRUM=NO
##NPOINTS= 69
##XYDATA=(XY..XY) 1 
    40         13
    41        108
    42         80
    43        999
    44         93
    45        221
    53         18
    55         58
    56         13
    57         52
    58         23
    59         82
    60         16
    61         45
    68         26
    69        449
    70         26
    71        173
    72         22
    73         56
    74        999
    75        130
    76          7
    82         40
    83         45
    84         24
    85        147
    86         19
    87        430
    88         73
    89         14
    97         38
    98         13
    99        104
   100        509
   101        149
   102         56
   103         69
   111        199
   112         14
   113          6
   114          6
   115         27
   116         99
   117         17
   127          9
   128          9
   129        239
   130         18
   131         18
   133          2
   139          1
   140          0
   141          0
   142        289
   143        129
   144         21
   145          3
   157          2
   159          8
   160          2
   170          2
   171          6
   172          2
   187          0
   202          0
   203          0
   231         14
   232          1