##TITLE=Library Entry 11956
##JCAMP-DX=Revision 4.10 
##DATA TYPE=MASS SPECTRUM
##SAMPLE DESCRIPTION=Institute of Organic Chemistry, Novosibirsk, USSR 1988
##NAMES=HP
##CAS NAME=Methyl 2,3-di-O-acetyl-4-O-methyl-.alpha.-D-xylopyranoside
##MOLFORM=C11H18O7
##CAS REGISTRY NO=53872-84-7
##MP= -300
##BP= -300
##MW= 262
##$RETENTION INDEX=0
##$CONDENSED SPECTRUM=NO
##NPOINTS= 75
##XYDATA=(XY..XY) 1 
    40         16
    41        119
    42         69
    43        999
    44         99
    45        199
    53         19
    55         40
    56         19
    57         62
    58        589
    59        139
    60         92
    61         45
    68         65
    69        399
    70         50
    71        189
    72         23
    73         57
    74        419
    75        219
    76          8
    82         60
    83         49
    84         11
    85        149
    86         37
    87        899
    88         57
    89         15
    97        199
    98         30
    99        169
   100        359
   101        229
   102        529
   103        109
   104          8
   111         57
   112         12
   113         10
   114         13
   115         85
   116         50
   117         45
   127         18
   128         39
   129        999
   130         80
   131         13
   139          2
   140          3
   141          2
   142        129
   143        109
   144        129
   145         13
   146          4
   157         24
   158          2
   159         17
   160          2
   161          3
   170        209
   171        149
   172         22
   173          3
   187          0
   188          1
   189          2
   202          5
   203          3
   231         20
   232          2