##TITLE=Library Entry 21986
##JCAMP-DX=Revision 4.10 
##DATA TYPE=MASS SPECTRUM
##SAMPLE DESCRIPTION=Exported from NIST MS Search
##NAMES=HP
##CAS NAME=1-Pentanethiol, 4-methyl-
##MOLFORM=C6H14S
##CAS REGISTRY NO=53897-50-0
##MP= -300
##BP= -300
##MW= 118
##$RETENTION INDEX=0
##$CONDENSED SPECTRUM=NO
##NPOINTS= 71
##XYDATA=(XY..XY) 1 
    26         16
    27        226
    28         40
    29        107
    30          3
    32          5
    33         11
    34         11
    35         24
    36          1
    37          6
    38         14
    39        170
    40         28
    41        401
    42        114
    43        400
    44         15
    45         67
    46         29
    47        155
    48         12
    49          9
    50          7
    51          9
    52          3
    53         21
    54          7
    55         85
    56        999
    57         66
    58         14
    59         19
    60         15
    61         83
    62          7
    63          6
    64          1
    65          4
    66          2
    67         12
    68          4
    69        142
    70          9
    71          6
    72          1
    73          4
    74          5
    75          9
    76          4
    77          2
    78          1
    79          1
    81          2
    82          1
    83         12
    84         49
    85          7
    86          1
    87          3
    89          1
    90          1
   101          4
   102          1
   103          3
   116          2
   117          5
   118        207
   119         16
   120         10
   121          1