##TITLE=Library Entry 37075
##JCAMP-DX=Revision 4.10 
##DATA TYPE=MASS SPECTRUM
##SAMPLE DESCRIPTION=T. KAWAI, SHIONO KORYO KAISHA LTD., NIITAKAKITA, OSAKA,
 JAPAN
##NAMES=HP
##CAS NAME=3,4,5,6-Tetrahydro-2,4,6-trimethyl-2H-1,3,5-thiadiazine
##MOLFORM=C6H14N2S
##CAS REGISTRY NO=53897-63-5
##MP= -300
##BP= -300
##MW= 146
##$RETENTION INDEX=1067
##$CONDENSED SPECTRUM=NO
##NPOINTS= 27
##XYDATA=(XY..XY) 1 
    32         80
    33         80
    34        220
    35         20
    36         20
    39         30
    40         60
    41        120
    42        420
    43        210
    44        100
    45        120
    54        130
    55         30
    56         40
    57         30
    58         70
    59        140
    60        170
    61         50
    68         60
    69        140
    70        999
    71         80
   103         20
   129          5
   146         10