##TITLE=Library Entry 24773
##JCAMP-DX=Revision 4.10 
##DATA TYPE=MASS SPECTRUM
##SAMPLE DESCRIPTION=Exported from NIST MS Search
##NAMES=HP
##CAS NAME=1-Propene, 2-methyl-3-propoxy-
##MOLFORM=C7H14O
##CAS REGISTRY NO=53897-29-3
##MP= -300
##BP= -300
##MW= 114
##$RETENTION INDEX=0
##$CONDENSED SPECTRUM=NO
##NPOINTS= 82
##XYDATA=(XY..XY) 1 
    14          3
    15         14
    16          1
    17          2
    18          8
    26         14
    27        237
    28         73
    29        224
    30          9
    31         52
    32          4
    33          1
    36          1
    37          5
    38         14
    39        216
    40         36
    41        368
    42         85
    43        709
    44         59
    45         21
    46          1
    47          2
    49          5
    50          9
    51         18
    52          8
    53         80
    54         88
    55        938
    56        202
    57        999
    58         46
    59         23
    60          3
    61          3
    62          2
    63          3
    64          1
    65          1
    67          6
    68          4
    69         41
    70         13
    71         84
    72        750
    73        105
    74          7
    75          9
    76          1
    77          9
    78          1
    79          3
    81          3
    82          1
    83          6
    84          2
    85         14
    86          3
    87         14
    88          2
    89         19
    90         11
    91          8
    92          4
    93          1
    95          2
    96          3
    97          4
    98          2
    99         59
   100          7
   101          1
   109          8
   111          6
   112          1
   113          4
   114        129
   115         12
   116          1