##TITLE=Library Entry 16456
##JCAMP-DX=Revision 4.10 
##DATA TYPE=MASS SPECTRUM
##SAMPLE DESCRIPTION=G.F.WHITFIELD TEMPLE UNIV., PHILADELPHIA, PENNSYLVANIA,
 USA
##NAMES=HP
##CAS NAME=Carbamic acid, ethylidenebis-, diethyl ester
##MOLFORM=C8H16N2O4
##CAS REGISTRY NO=539-71-9
##MP= -300
##BP= -300
##MW= 204
##$RETENTION INDEX=0
##$CONDENSED SPECTRUM=NO
##NPOINTS= 58
##XYDATA=(XY..XY) 1 
    15         45
    16          6
    17         96
    18        491
    25          6
    26         48
    27        323
    28        185
    29        513
    30         17
    31         52
    39          6
    40          9
    41         35
    42        183
    43        194
    44        999
    45        238
    46         57
    50          5
    51          3
    52          1
    55          2
    56        100
    57          4
    59          9
    60          8
    61          6
    62        116
    69          4
    70         85
    71         31
    72        134
    73         42
    74         13
    85         10
    87          2
    88         19
    89         96
    90         32
    99         10
   100          5
   101          1
   102          1
   103         41
   115         20
   116        843
   117        135
   118          8
   131        266
   132         19
   143         26
   161          2
   175         15
   189        929
   190         74
   191         11
   203          4