##TITLE=Library Entry 654
##JCAMP-DX=Revision 4.10 
##DATA TYPE=MASS SPECTRUM
##SAMPLE DESCRIPTION=Japan AIST/NIMC Database- Spectrum MS-NW-4697
##NAMES=HP
##CAS NAME=Pentanoic acid, ethyl ester
##MOLFORM=C7H14O2
##CAS REGISTRY NO=539-82-2
##MP= -300
##BP= -300
##MW= 130
##$RETENTION INDEX=900
##$CONDENSED SPECTRUM=NO
##NPOINTS= 77
##XYDATA=(XY..XY) 1 
    14          7
    15         30
    16          1
    17          4
    18         16
    19          6
    25          2
    26         41
    27        318
    28        126
    29        999
    30         26
    31         26
    32          3
    37          3
    38          9
    39        102
    40         15
    41        410
    42         81
    43         98
    44         21
    45        218
    46          6
    47          5
    49          1
    50          7
    51          8
    52          4
    53         15
    54          8
    55        119
    56         86
    57        825
    58         42
    59         29
    60        507
    61        258
    62         10
    63          2
    67          2
    68          2
    69          6
    70        179
    71         12
    72          1
    73        281
    74         35
    75         11
    77          3
    78          3
    79          1
    81          1
    82          1
    83         23
    84         18
    85        962
    86         55
    87         34
    88        912
    89         45
    90          6
    91          1
    99          3
   100          4
   101        250
   102         34
   103        100
   104          7
   105          1
   107          1
   115         22
   116          5
   117          1
   129          1
   130         13
   131          2