##TITLE=Library Entry 65316
##JCAMP-DX=Revision 4.10 
##DATA TYPE=MASS SPECTRUM
##SAMPLE DESCRIPTION=Japan AIST/NIMC Database- Spectrum MS-NW-7375
##NAMES=HP
##CAS NAME=Pyridine, 3-butyl-
##MOLFORM=C9H13N
##CAS REGISTRY NO=539-32-2
##MP= -300
##BP= -300
##MW= 135
##$RETENTION INDEX=1101
##$CONDENSED SPECTRUM=NO
##NPOINTS= 73
##XYDATA=(XY..XY) 1 
    15          1
    26          5
    27         51
    28          8
    29         13
    30          1
    37          4
    38         14
    39        134
    40         13
    41         61
    42          5
    43        100
    44          4
    45          1
    46          1
    49          2
    50         25
    51         63
    52         36
    53         23
    54          6
    55          4
    56          5
    57          1
    58          3
    59          2
    61          3
    62          9
    63         33
    64         17
    65        207
    66         45
    67         17
    68          2
    74          5
    75          6
    76          7
    77         49
    78         47
    79         47
    80         23
    81          2
    85          1
    87          1
    88          1
    89          4
    90          4
    91         16
    92        999
    93        886
    94         63
    95          3
   102          2
   103          2
   104         18
   105         14
   106        136
   107         32
   108          4
   116          1
   117         13
   118         11
   119          3
   120         26
   121          3
   130          2
   132          2
   133          1
   134         21
   135        731
   136         77
   137          4