##TITLE=Library Entry 48228
##JCAMP-DX=Revision 4.10 
##DATA TYPE=MASS SPECTRUM
##SAMPLE DESCRIPTION=NIST Mass Spectrometry Data Center, 1994
##NAMES=HP
##CAS NAME=2,4,6-Cycloheptatrien-1-one
##MOLFORM=C7H6O
##CAS REGISTRY NO=539-80-0
##MP= -300
##BP= -300
##MW= 106
##$RETENTION INDEX=1182
##$CONDENSED SPECTRUM=NO
##NPOINTS= 55
##XYDATA=(XY..XY) 1 
    12          0
    13          1
    14          1
    15          6
    16          1
    18          0
    24          0
    25          6
    26         50
    27         29
    28          6
    29          5
    31          0
    36          6
    37         44
    38         73
    39        134
    40          5
    41          3
    42          1
    43          3
    48          5
    49         36
    50        215
    51        247
    52        235
    53         27
    54          4
    55          1
    60          5
    61         20
    62         25
    63         56
    64          3
    65          2
    66          1
    72          1
    73         13
    74         43
    75         18
    76         43
    77        195
    78        999
    79         67
    80          2
    84          2
    85          4
    86          4
    87          2
    89          2
    90          0
   101          0
   106        405
   107         32
   108          2