##TITLE=Library Entry 60587
##JCAMP-DX=Revision 4.10 
##DATA TYPE=MASS SPECTRUM
##SAMPLE DESCRIPTION=Exported from NIST MS Search
##NAMES=HP
##CAS NAME=Benzene, (ethoxymethyl)-
##MOLFORM=C9H12O
##CAS REGISTRY NO=539-30-0
##MP= -300
##BP= -300
##MW= 136
##$RETENTION INDEX=1046
##$CONDENSED SPECTRUM=NO
##NPOINTS= 86
##XYDATA=(XY..XY) 1 
     2          5
    12          2
    13          4
    14         18
    15         16
    16          3
    17          1
    18          1
    19          1
    24          1
    25          2
    26         26
    27        109
    28         26
    29        138
    30         21
    31         47
    32          1
    36          1
    37          8
    38         24
    39        132
    40         10
    41         28
    42          4
    43         14
    44          3
    45          6
    46          3
    48          1
    49          4
    50         54
    51        132
    52         34
    53         16
    54          1
    55          1
    57          4
    58          5
    59          7
    60          1
    61          6
    62         20
    63         58
    64         18
    65        158
    66         10
    67          1
    68          1
    73          2
    74         10
    75         14
    76         11
    77        172
    78         41
    79        332
    80         25
    81          1
    85          3
    86          4
    87          2
    88          3
    89         46
    90         38
    91        999
    92        787
    93         57
    94          2
    99          2
   100          3
   101          4
   102          1
   103          1
   104          1
   105         33
   106         16
   107        171
   108         26
   109          2
   120          1
   121          1
   122          1
   135        100
   136         85
   137          8
   138          1