##TITLE=Library Entry 10659
##JCAMP-DX=Revision 4.10 
##DATA TYPE=MASS SPECTRUM
##SAMPLE DESCRIPTION=Exported from NIST MS Search
##NAMES=HP
##CAS NAME=Pentanoic acid, 4-oxo-, ethyl ester
##MOLFORM=C7H12O3
##CAS REGISTRY NO=539-88-8
##MP= -300
##BP= -300
##MW= 144
##$RETENTION INDEX=1045
##$CONDENSED SPECTRUM=NO
##NPOINTS= 70
##XYDATA=(XY..XY) 1 
    15         60
    17          3
    18          9
    19          3
    25          1
    26         20
    27        111
    28         81
    29        173
    30         15
    31         32
    32          2
    36          4
    37          1
    38          3
    39         12
    40          2
    41         13
    42         51
    43        999
    44         27
    45        103
    46          7
    47          2
    50          2
    51          2
    52          1
    53          7
    54          3
    55         99
    56         83
    57         70
    58         17
    59          5
    60          4
    61         11
    69          2
    70          7
    71        106
    72         11
    73        134
    74        194
    75         51
    76          3
    77          2
    81         12
    82          2
    83          3
    84          5
    87          2
    89          8
    91          1
    97          2
    98        104
    99        673
   100         44
   101        182
   102        192
   103         16
   104          2
   105          1
   115          3
   116         12
   117          3
   118          1
   129        215
   130         15
   131          2
   144         36
   145          5