##TITLE=Library Entry 82327
##JCAMP-DX=Revision 4.10 
##DATA TYPE=MASS SPECTRUM
##SAMPLE DESCRIPTION=NIST Mass Spectrometry Data Center
##NAMES=HP
##CAS NAME=p-Xylylenediamine
##MOLFORM=C8H12N2
##CAS REGISTRY NO=539-48-0
##MP= -300
##BP= -300
##MW= 136
##$RETENTION INDEX=0
##$CONDENSED SPECTRUM=NO
##NPOINTS= 74
##XYDATA=(XY..XY) 1 
    14          2
    15          8
    16          9
    17         12
    18         52
    26          8
    27         47
    28        486
    29         64
    30        545
    31          9
    34          1
    37          5
    38         19
    39         79
    40         13
    41         30
    42         17
    43          5
    45        121
    46          4
    50         55
    51        101
    52         52
    53         31
    54         29
    55          4
    56          3
    59          4
    60         15
    61          4
    62         13
    63         48
    64         13
    65         70
    66         23
    67         29
    68          5
    69          2
    74         15
    75         13
    76         25
    77        168
    78         67
    79        253
    80         35
    81          5
    82          2
    86          2
    89         53
    90         82
    91        384
    92        173
    93         60
    94          8
   100          1
   102         11
   103         17
   104         73
   106        999
   107         80
   108         17
   117         34
   118        298
   119        246
   120         44
   121          2
   131          3
   132          3
   133         16
   134         24
   135        133
   136         60
   137          6