##TITLE=Library Entry 396
##JCAMP-DX=Revision 4.10 
##DATA TYPE=MASS SPECTRUM
##SAMPLE DESCRIPTION=Japan AIST/NIMC Database- Spectrum MS-NW-1062
##NAMES=HP
##CAS NAME=Propanoic acid, 3-bromo-, ethyl ester
##MOLFORM=C5H9BrO2
##CAS REGISTRY NO=539-74-2
##MP= -300
##BP= -300
##MW= 180
##$RETENTION INDEX=1007
##$CONDENSED SPECTRUM=NO
##NPOINTS= 86
##XYDATA=(XY..XY) 1 
    13          1
    14          9
    15         27
    16          1
    18          2
    25          7
    26         93
    27        567
    28        183
    29        999
    30         22
    31         41
    32          8
    36          1
    37          1
    38          1
    39          5
    40          2
    41         32
    42         21
    43         57
    44         10
    45        200
    46          6
    47          2
    50          1
    52          2
    53          5
    54          3
    55        121
    56         22
    57          7
    58          4
    59         17
    60          1
    71          8
    72          4
    73        277
    74         12
    75          2
    77          1
    78          8
    79          7
    80          8
    81          8
    82          7
    83          3
    85          1
    89          2
    91          1
    92          1
    93          6
    94          1
    95          6
    99          2
   100          1
   101        192
   102         13
   103          1
   104          1
   105          6
   106         17
   107        369
   108         42
   109        357
   110         24
   117          4
   124          1
   126          2
   133          2
   134          2
   135        288
   136         10
   137        274
   138          9
   152        554
   153         32
   154        542
   155         29
   156          3
   165          4
   167          4
   180         32
   181          2
   182         31
   183          2