##TITLE=Library Entry 38745
##JCAMP-DX=Revision 4.10 
##DATA TYPE=MASS SPECTRUM
##SAMPLE DESCRIPTION=V.Zaikin,Topchiev Inst.Petrochem.Synth.,Moscow
##NAMES=HP
##CAS NAME=Butanoic acid, 2-methylpropyl ester
##MOLFORM=C8H16O2
##CAS REGISTRY NO=539-90-2
##MP= -300
##BP= -300
##MW= 144
##$RETENTION INDEX=955
##$CONDENSED SPECTRUM=NO
##NPOINTS= 32
##XYDATA=(XY..XY) 1 
    26         14
    27         41
    28          9
    29         38
    35         10
    36         80
    38         27
    39         48
    40          9
    41        125
    42         20
    43        278
    44         10
    49          8
    55         19
    56        343
    57        148
    58          7
    60         49
    70         16
    71        999
    72         49
    73         51
    75          6
    87          7
    88         38
    89        194
    90          9
   101         72
   114         26
   116         15
   129          1