##TITLE=Library Entry 24829
##JCAMP-DX=Revision 4.10 
##DATA TYPE=MASS SPECTRUM
##SAMPLE DESCRIPTION=Exported from NIST MS Search
##NAMES=HP
##CAS NAME=Carbonic acid, bis(2-methylpropyl) ester
##MOLFORM=C9H18O3
##CAS REGISTRY NO=539-92-4
##MP= -300
##BP= -300
##MW= 174
##$RETENTION INDEX=0
##$CONDENSED SPECTRUM=NO
##NPOINTS= 53
##XYDATA=(XY..XY) 1 
    15          5
    18          3
    19          2
    26          6
    27         67
    28         54
    29        235
    30          9
    31         28
    32          4
    33          1
    36          2
    38          2
    39         39
    40          8
    41        320
    42         23
    43         47
    44         17
    45         18
    46          1
    50          1
    51          2
    53          6
    54          6
    55        129
    56        404
    57        999
    58         46
    59          7
    63        265
    64          4
    69          2
    70          3
    71          3
    72          3
    73        116
    74          7
    76          4
    77          2
    83          1
    85          3
    88          3
    89         26
    90          4
    91          1
   103          4
   117          2
   118         77
   119         33
   120          2
   138          1
   174          1