##TITLE=Library Entry 23515
##JCAMP-DX=Revision 4.10 
##DATA TYPE=MASS SPECTRUM
##SAMPLE DESCRIPTION=Exported from NIST MS Search
##NAMES=HP
##CAS NAME=Oxirane, (3,3-dimethylbutyl)-
##MOLFORM=C8H16O
##CAS REGISTRY NO=53907-77-0
##MP= -300
##BP= -300
##MW= 128
##$RETENTION INDEX=934
##$CONDENSED SPECTRUM=NO
##NPOINTS= 39
##XYDATA=(XY..XY) 1 
    41        648
    42         74
    43        358
    44         50
    45          4
    50         18
    51         30
    53         64
    54         34
    55        405
    56        203
    57        999
    58         50
    59         25
    65          6
    67         92
    68         18
    69        324
    70         97
    71        250
    72        111
    73         18
    77         18
    79         18
    80          4
    81         23
    82          4
    83         57
    84         23
    85         18
    93          6
    95        196
    96         18
    97          4
    99         18
   100         23
   112         18
   113         41
   114          6