##TITLE=Library Entry 24772
##JCAMP-DX=Revision 4.10 
##DATA TYPE=MASS SPECTRUM
##SAMPLE DESCRIPTION=Exported from NIST MS Search
##NAMES=HP
##CAS NAME=Butane, 1-[(2-methyl-2-propenyl)oxy]-
##MOLFORM=C8H16O
##CAS REGISTRY NO=53907-74-7
##MP= -300
##BP= -300
##MW= 128
##$RETENTION INDEX=0
##$CONDENSED SPECTRUM=NO
##NPOINTS= 86
##XYDATA=(XY..XY) 1 
    14          3
    15         14
    17          4
    18         19
    19          2
    26         14
    27        189
    28         85
    29        472
    30         14
    31         45
    33          2
    37          5
    38         13
    39        198
    40         33
    41        557
    42         64
    43        250
    44         45
    45         18
    47          2
    49         21
    50          8
    51         19
    52          6
    53         60
    54         84
    55        833
    56        352
    57        999
    58         47
    59          8
    60          5
    61          3
    62          5
    63          6
    64          3
    65          3
    67          7
    68          4
    69         57
    70         16
    71         85
    72        787
    73         60
    74          6
    75         17
    76          7
    77         70
    78          5
    79         22
    80          1
    81          5
    82          2
    83          6
    84          3
    85         62
    86          8
    87         38
    88          3
    89          5
    90         71
    91         10
    92         24
    93          3
    95          5
    96          2
    97          5
    99          4
   100          2
   101          2
   103          3
   105          3
   106          3
   107          2
   109          4
   111          3
   112          3
   113         21
   114          4
   126          2
   127          7
   128         62
   129          8
   130          1