##TITLE=Library Entry 55032
##JCAMP-DX=Revision 4.10 
##DATA TYPE=MASS SPECTRUM
##SAMPLE DESCRIPTION=CARL DJERASSI DEPT OF CHEM STANFORD UNIV STANFORD CALIF
 94305
##NAMES=HP
##CAS NAME=Oxirane, 2-methyl-2-pentyl-
##MOLFORM=C8H16O
##CAS REGISTRY NO=53907-75-8
##MP= -300
##BP= -300
##MW= 128
##$RETENTION INDEX=0
##$CONDENSED SPECTRUM=NO
##NPOINTS= 30
##XYDATA=(XY..XY) 1 
    41        560
    42        170
    43        310
    44         10
    45         20
    51         10
    53         50
    54         30
    55        460
    56        260
    57        340
    58        690
    59         40
    67         40
    68         30
    69        100
    70         40
    71        140
    72        450
    73         30
    81         30
    85        999
    86        130
    95         30
    97         20
    99         90
   110         10
   112         10
   113         30
   128         10