##TITLE=Library Entry 31351
##JCAMP-DX=Revision 4.10 
##DATA TYPE=MASS SPECTRUM
##SAMPLE DESCRIPTION=W. KELLY UNILEVER RESEARCH COLWORTH/WELWYN, BEDFORD U.K
.
##NAMES=HP
##CAS NAME=Propanoic acid, 2-mercapto-, methyl ester
##MOLFORM=C4H8O2S
##CAS REGISTRY NO=53907-46-3
##MP= -300
##BP= -300
##MW= 120
##$RETENTION INDEX=813
##$CONDENSED SPECTRUM=NO
##NPOINTS= 32
##XYDATA=(XY..XY) 1 
    27        220
    29         40
    31         24
    33         14
    34         11
    41         13
    42          4
    43         22
    45        111
    46          8
    47         20
    55        100
    56         40
    57         20
    58         45
    59        335
    60        390
    61        999
    62         50
    63         50
    75          8
    77          8
    87         30
    88        212
    89         41
    90         11
   105         15
   118         10
   119         18
   120        480
   121         40
   122         30