##TITLE=Library Entry 70037
##JCAMP-DX=Revision 4.10 
##DATA TYPE=MASS SPECTRUM
##SAMPLE DESCRIPTION=Exported from NIST MS Search
##NAMES=HP
##CAS NAME=2-Pentene, 3-ethyl-4,4-dimethyl-
##MOLFORM=C9H18
##CAS REGISTRY NO=53907-59-8
##MP= -300
##BP= -300
##MW= 126
##$RETENTION INDEX=0
##$CONDENSED SPECTRUM=NO
##NPOINTS= 77
##XYDATA=(XY..XY) 1 
    25          1
    26         14
    27        326
    28         51
    29        359
    30          8
    37          2
    38         10
    39        325
    40         52
    41        779
    42         68
    43        200
    44          7
    45          3
    46          6
    47          3
    48          1
    50          9
    51         41
    52         21
    53        153
    54         30
    55        855
    56         70
    57        288
    58         12
    59          1
    61          1
    62          2
    63          9
    64          3
    65         33
    66         15
    67        100
    68         16
    69        892
    70         95
    71         34
    72          2
    73          1
    74          1
    75          2
    76          1
    77         30
    78          7
    79         32
    80          8
    81         45
    82          9
    83        111
    84         11
    85          1
    86          1
    89          1
    91          9
    92          1
    93          6
    94          2
    95         23
    96         13
    97        999
    98         80
    99          3
   105          1
   107          1
   109          4
   110          6
   111        385
   112         33
   113          2
   123          1
   124          1
   125          1
   126        279
   127         28
   128          1