##TITLE=Library Entry 16743
##JCAMP-DX=Revision 4.10 
##DATA TYPE=MASS SPECTRUM
##SAMPLE DESCRIPTION=Exported from NIST MS Search
##NAMES=HP
##CAS NAME=Propane, 2-chloro-1-methoxy-
##MOLFORM=C4H9ClO
##CAS REGISTRY NO=5390-71-6
##MP= -300
##BP= -300
##MW= 108
##$RETENTION INDEX=0
##$CONDENSED SPECTRUM=NO
##NPOINTS= 70
##XYDATA=(XY..XY) 1 
    15         30
    16          1
    17          1
    18          3
    25          1
    26          7
    27         43
    28         14
    29         58
    30          2
    31         14
    32          1
    33          2
    35          1
    36          2
    37          3
    38          5
    39         29
    40          5
    41         67
    42          9
    43         18
    44          4
    45        999
    46         24
    47          3
    48          1
    49          9
    50          1
    51          4
    53          1
    54          1
    55          3
    56          2
    57         11
    58          2
    59          8
    60          1
    61          4
    62          4
    63         15
    64          2
    65          5
    67          1
    69          1
    70          1
    71          4
    72          3
    73          8
    74          1
    75          3
    76          5
    77          8
    78          2
    79          3
    81          1
    83          1
    85          1
    87          2
    89          1
    91          3
    92          2
    93          2
    94          1
    95          1
   107          1
   108         51
   109          3
   110         17
   111          1