##TITLE=Library Entry 37330
##JCAMP-DX=Revision 4.10 
##DATA TYPE=MASS SPECTRUM
##SAMPLE DESCRIPTION=Exported from NIST MS Search
##NAMES=HP
##CAS NAME=Cyclobutanone, 2,3,3,4-tetramethyl-
##MOLFORM=C8H14O
##CAS REGISTRY NO=53907-62-3
##MP= -300
##BP= -300
##MW= 126
##$RETENTION INDEX=0
##$CONDENSED SPECTRUM=NO
##NPOINTS= 11
##XYDATA=(XY..XY) 1 
    42        190
    55        580
    56        110
    57         50
    70        999
    71         60
    83         50
    98         30
   111         20
   126        110
   127         10