##TITLE=Library Entry 35193
##JCAMP-DX=Revision 4.10 
##DATA TYPE=MASS SPECTRUM
##SAMPLE DESCRIPTION=P.E. BUTLER ESSO R. & E. CO., LINDEN, NEW JERSEY, USA
##NAMES=HP
##CAS NAME=1-Butyne, 3-methyl-3-(1-methylethoxy)-
##MOLFORM=C8H14O
##CAS REGISTRY NO=53907-63-4
##MP= -300
##BP= -300
##MW= 126
##$RETENTION INDEX=0
##$CONDENSED SPECTRUM=NO
##NPOINTS= 20
##XYDATA=(XY..XY) 1 
    39        296
    41        355
    43        406
    51        113
    52         43
    53         77
    55         15
    57          3
    59         60
    63         22
    65         78
    67        895
    69        999
    81          3
    83         13
    95          2
    97          3
   111        363
   112         29
   125          0