##TITLE=Library Entry 35497
##JCAMP-DX=Revision 4.10 
##DATA TYPE=MASS SPECTRUM
##SAMPLE DESCRIPTION=GULF R. ' D. CO., PITTSBURGH, PA, USA
##NAMES=HP
##CAS NAME=Cyclopentane, 1,1,3,4-tetramethyl-, cis-
##MOLFORM=C9H18
##CAS REGISTRY NO=53907-60-1
##MP= -300
##BP= -300
##MW= 126
##$RETENTION INDEX=818
##$CONDENSED SPECTRUM=NO
##NPOINTS= 63
##XYDATA=(XY..XY) 1 
    14          3
    15         64
    16          1
    26         13
    27        253
    28          5
    29        185
    30          4
    37          3
    38         12
    39        267
    40         37
    41        607
    42        120
    43        213
    44          7
    45          2
    46          3
    47          1
    50          9
    51         28
    52         12
    53         88
    54         20
    55        605
    56        166
    57         66
    58          3
    62          5
    64          3
    65         27
    66         11
    67         76
    68         26
    69        999
    70        719
    71        107
    72          4
    77         29
    78          8
    79         26
    80          7
    81         18
    82        140
    83        982
    84        206
    85         14
    91         12
    92          2
    93          5
    94          2
    95         15
    96          2
    97          4
    98          1
   105          1
   109          4
   110          8
   111        399
   112         34
   113          1
   125          1
   126          4