##TITLE=Library Entry 29627
##JCAMP-DX=Revision 4.10 
##DATA TYPE=MASS SPECTRUM
##SAMPLE DESCRIPTION=Exported from NIST MS Search
##NAMES=HP
##CAS NAME=6-Hepten-3-ol, 4-methyl-
##MOLFORM=C8H16O
##CAS REGISTRY NO=53907-71-4
##MP= -300
##BP= -300
##MW= 128
##$RETENTION INDEX=986
##$CONDENSED SPECTRUM=NO
##NPOINTS= 69
##XYDATA=(XY..XY) 1 
    16         17
    17          3
    18         15
    26         17
    27        163
    28         34
    29        205
    30         13
    31        258
    32          3
    33          8
    37          5
    38         19
    39        263
    40         41
    41        501
    42         62
    43        463
    44         17
    45        177
    46          4
    50         10
    51         19
    52          8
    53         72
    54         36
    55        411
    56         51
    57        279
    58        100
    59        999
    60         28
    61          3
    62          3
    63          6
    65         15
    66          6
    67         70
    68         92
    69        139
    70        451
    71         56
    72         25
    73          6
    74          0
    76          0
    77          8
    78          0
    79         22
    80          4
    81        185
    82         20
    83          8
    84          2
    85         31
    86        150
    87         15
    92          2
    94          2
    95        126
    96         10
    97          3
    98          2
    99         93
   100          6
   104          1
   109          3
   110         90
   111          8