##TITLE=Library Entry 63
##JCAMP-DX=Revision 4.10 
##DATA TYPE=MASS SPECTRUM
##SAMPLE DESCRIPTION=Exported from NIST MS Search
##NAMES=HP
##CAS NAME=Ethanol, 2-nitro-, propionate (ester)
##MOLFORM=C5H9NO4
##CAS REGISTRY NO=5390-28-3
##MP= -300
##BP= -300
##MW= 147
##$RETENTION INDEX=0
##$CONDENSED SPECTRUM=NO
##NPOINTS= 38
##XYDATA=(XY..XY) 1 
    24          3
    25         19
    26        125
    27        999
    29        344
    30        238
    31          5
    36          1
    37          2
    38          7
    39         16
    40         13
    41         38
    42         22
    43         75
    44         68
    45        217
    46         37
    47         12
    52          1
    53          6
    54          2
    55         49
    56         43
    57        122
    58          5
    59          4
    60         17
    61          1
    71          2
    72          2
    73        259
    74        270
    75         15
    76          2
    87          1
    88          3
    99          2