##TITLE=Library Entry 35202
##JCAMP-DX=Revision 4.10 
##DATA TYPE=MASS SPECTRUM
##SAMPLE DESCRIPTION=P.E. BUTLER ESSO R. & E. CO., LINDEN, NEW JERSEY, USA
##NAMES=HP
##CAS NAME=1-Butyne, 3-methyl-3-propoxy-
##MOLFORM=C8H14O
##CAS REGISTRY NO=53907-64-5
##MP= -300
##BP= -300
##MW= 126
##$RETENTION INDEX=0
##$CONDENSED SPECTRUM=NO
##NPOINTS= 22
##XYDATA=(XY..XY) 1 
    39        312
    41        404
    43        387
    51        120
    52         70
    53         75
    55         20
    57         47
    59         37
    63         21
    65         80
    67        832
    69        999
    77          3
    79          5
    81         27
    83         17
    95          5
    97         18
   111        525
   112         42
   125          1