##TITLE=Library Entry 17474
##JCAMP-DX=Revision 4.10 
##DATA TYPE=MASS SPECTRUM
##SAMPLE DESCRIPTION=CCC 0028
##NAMES=HP
##CAS NAME=Boronic acid, ethyl-, diethyl ester
##MOLFORM=C6H15BO2
##CAS REGISTRY NO=53907-92-9
##MP= -300
##BP= -300
##MW= 130
##$RETENTION INDEX=0
##$CONDENSED SPECTRUM=NO
##NPOINTS= 81
##XYDATA=(XY..XY) 1 
     2          4
    10          1
    11          2
    12          2
    13          5
    14         12
    15         51
    16          2
    17          1
    18          1
    19          3
    23          1
    24          2
    25          6
    26         45
    27        204
    28        114
    29        352
    30          8
    31         21
    32          1
    37          5
    38          3
    39         13
    40          8
    41         23
    42         42
    43         35
    44        252
    45        999
    46          4
    47          4
    48          1
    49          1
    50          1
    51          1
    52          7
    53         24
    54         15
    55         49
    56         81
    57        227
    58         61
    59          6
    60          1
    61          1
    62          1
    63          1
    64          1
    65          1
    66          1
    67          1
    68          1
    69          4
    70          6
    71         14
    72        135
    73        496
    74         12
    75          2
    76          1
    77          1
    78          1
    79          1
    80          1
    81          1
    82          1
    83          2
    84         18
    85         59
    86          5
    87          8
    99          2
   100        132
   101        519
   102         23
   103          3
   115          6
   116          1
   129          4
   130          1