##TITLE=Library Entry 91158
##JCAMP-DX=Revision 4.10 
##DATA TYPE=MASS SPECTRUM
##SAMPLE DESCRIPTION=R.T. LOEFFLER,LONG ASHTON RES. STN.,LONG ASHTON,BRISTOL
,U.K.
##NAMES=HP
##CAS NAME=2-Iodo-4-nitro-1-naphthol
##MOLFORM=C10H6INO3
##CAS REGISTRY NO=53913-61-4
##MP= -300
##BP= -300
##MW= 315
##$RETENTION INDEX=0
##$CONDENSED SPECTRUM=NO
##NPOINTS= 127
##XYDATA=(XY..XY) 1 
    39         31
    40         93
    41         10
    43         27
    44         11
    50         13
    51         34
    52          9
    53         31
    55         19
    56         11
    57         37
    58          7
    60          5
    62         41
    63        163
    64         25
    65         10
    66          6
    67          5
    69         12
    70          9
    71         22
    73          9
    74         31
    75         91
    76         43
    77         40
    78          9
    81         12
    83         12
    85         14
    86         38
    87        100
    88        233
    89         55
    90         10
    91          8
    93         12
    94          7
    95          8
    96          5
    97         10
    98          9
    99         17
   100         13
   101        143
   102        206
   103         21
   104         46
   105         78
   106          9
   109          9
   110          6
   111         13
   113        619
   114        999
   115        113
   116         31
   117          9
   118          9
   119          7
   120         10
   121         10
   123          6
   125          7
   127         46
   128         23
   129        127
   130        135
   131         58
   132         94
   133         15
   135          8
   139          6
   141         42
   142        736
   143         82
   144         27
   145          8
   146          8
   147          7
   149         51
   150          6
   152          9
   156         21
   157        125
   158         37
   159         10
   160         65
   161         11
   163          6
   167          6
   171          8
   172         10
   173          8
   175          5
   178          5
   179          5
   188         17
   189         16
   191          6
   204          6
   205          6
   240          8
   241         64
   242          6
   245          5
   254          6
   257         48
   258          8
   259         11
   260          6
   268          5
   269         13
   270          6
   273          6
   283         19
   284          9
   285        136
   286         13
   287         19
   299         45
   300          5
   315        727
   316         71
   317          6