##TITLE=Library Entry 80005
##JCAMP-DX=Revision 4.10 
##DATA TYPE=MASS SPECTRUM
##SAMPLE DESCRIPTION=A.Mazepa, Phys.-Chem.Institute, Odessa, Ukraine
##NAMES=HP
##CAS NAME=1,3-Dibenzoylimidazolidin-2-one
##MOLFORM=C17H14N2O3
##CAS REGISTRY NO=5391-42-4
##MP= -300
##BP= -300
##MW= 294
##$RETENTION INDEX=0
##$CONDENSED SPECTRUM=NO
##NPOINTS= 24
##XYDATA=(XY..XY) 1 
    50         16
    51        107
    52          2
    56          4
    70          8
    75          4
    76         17
    77        526
    78         34
    85         15
    86          7
   103          1
   104          5
   105        999
   106         74
   107          2
   147          9
   162          1
   189         91
   190         28
   266         16
   267          8
   294        135
   295         25