##TITLE=Library Entry 47601
##JCAMP-DX=Revision 4.10 
##DATA TYPE=MASS SPECTRUM
##SAMPLE DESCRIPTION=NIST Mass Spectrometry Data Center
##NAMES=HP
##CAS NAME=Benzenemethanol, 4-bromo-.alpha.-methyl-
##MOLFORM=C8H9BrO
##CAS REGISTRY NO=5391-88-8
##MP= -300
##BP= -300
##MW= 200
##$RETENTION INDEX=1315
##$CONDENSED SPECTRUM=NO
##NPOINTS= 118
##XYDATA=(XY..XY) 1 
    14          2
    15         14
    16          1
    19          4
    25          1
    26          7
    27         33
    28          3
    29         37
    30          2
    31          2
    36          1
    37         13
    38         36
    39         69
    40          5
    41          6
    43        495
    44         19
    45         73
    46          8
    47          1
    48          1
    49         17
    50        205
    51        254
    52         60
    53         71
    55          7
    59          8
    60         15
    61         15
    62         34
    63         61
    64          9
    65         30
    66          5
    67          1
    68          1
    69          1
    72          1
    73         21
    74        116
    75        153
    76        135
    77        999
    78        473
    79         48
    80          6
    81          7
    82          4
    83          1
    84          1
    85          5
    86         10
    87         11
    88          4
    89         24
    90         13
    91         59
    92         65
    93         57
    95          1
    97          1
    98          6
    99         12
   100         11
   101         12
   102         52
   103         69
   104         87
   105         70
   106         36
   107          6
   116          2
   117          5
   118          3
   119          8
   120         13
   121        275
   122         25
   123          2
   128          3
   129          6
   130          3
   131          6
   141          1
   143          2
   145          1
   152          1
   155         70
   156         83
   157        331
   158         97
   159        259
   160         17
   161          1
   169          3
   171          3
   172          1
   173          1
   174          1
   180          1
   181          2
   182         11
   183         57
   185        779
   186         69
   187        708
   188         56
   189          3
   198          3
   199         11
   200        189
   201         27
   202        180
   203         15
   204          1