##TITLE=Library Entry 54002
##JCAMP-DX=Revision 4.10 
##DATA TYPE=MASS SPECTRUM
##SAMPLE DESCRIPTION=Japan AIST/NIMC Database- Spectrum MS-IW-7761
##NAMES=HP
##CAS NAME=N-Nitro-N',N'-pentamethyleneguanidine
##MOLFORM=C6H12N4O2
##CAS REGISTRY NO=53913-64-7
##MP= -300
##BP= -300
##MW= 172
##$RETENTION INDEX=0
##$CONDENSED SPECTRUM=NO
##NPOINTS= 79
##XYDATA=(XY..XY) 1 
    14          1
    15         14
    16          1
    17          7
    18          3
    26         10
    27         52
    28         31
    29         54
    30         76
    31          2
    37          1
    38          3
    39         49
    40         14
    41        142
    42        329
    43        149
    44        125
    45         27
    46         23
    50          4
    51          6
    52          8
    53         29
    54         61
    55        267
    56        184
    57         58
    58          7
    59          1
    60          4
    65          7
    66          2
    67         44
    68         92
    69         96
    70         25
    71          4
    72          4
    73          1
    78          2
    79          5
    80         11
    81         14
    82        132
    83        374
    84        999
    85         72
    86          3
    88          1
    92          5
    93          1
    94          1
    95          7
    96          6
    97          7
    98          7
    99          4
   100          1
   107          1
   108          1
   109         98
   110        119
   111         20
   112         23
   113          5
   124          4
   125          9
   126        259
   127         26
   128         10
   135          1
   140          1
   149          1
   156          2
   172         86
   173         22
   174          2