##TITLE=Library Entry 8959
##JCAMP-DX=Revision 4.10 
##DATA TYPE=MASS SPECTRUM
##SAMPLE DESCRIPTION=Institute of Organic Chemistry, Novosibirsk, USSR 1988
##NAMES=HP
##CAS NAME=Methyl 2,3-di-O-acetyl-4,6-di-O-methyl-.alpha.-D-mannopyranoside
##MOLFORM=C13H22O8
##CAS REGISTRY NO=53919-56-5
##MP= -300
##BP= -300
##MW= 306
##$RETENTION INDEX=0
##$CONDENSED SPECTRUM=NO
##NPOINTS= 88
##XYDATA=(XY..XY) 1 
    41        129
    42         45
    43        999
    44         58
    45        499
    46         10
    53         30
    54         13
    55         91
    56         27
    57        109
    58         99
    59        129
    60         30
    61         33
    68         23
    69         99
    70        109
    71        999
    72        139
    73         70
    74        929
    75        209
    76         10
    77          9
    81         99
    82         41
    83         45
    84         45
    85        199
    86         24
    87        919
    88         83
    89        129
    94         13
    95         20
    96         13
    97         62
    98         64
    99        399
   100         91
   101        399
   102        659
   103        169
   104         12
   109         26
   111         91
   112        279
   113        249
   114         37
   115        129
   116        229
   117         87
   126         32
   127        229
   128         26
   129        909
   130        109
   131         70
   139         12
   141        149
   142         27
   143         58
   144        109
   145         83
   149         20
   154         21
   155         45
   157         16
   159         52
   169        149
   170         17
   172         24
   173        179
   174         19
   186        119
   187         74
   188          9
   189         15
   201         19
   203         12
   214         41
   215         70
   216         12
   261        129
   262         22
   275         29
   276          5