##TITLE=Library Entry 17499
##JCAMP-DX=Revision 4.10 
##DATA TYPE=MASS SPECTRUM
##SAMPLE DESCRIPTION=Chemical Concepts
##NAMES=HP
##CAS NAME=3,6,9,12,15-Pentaoxabicyclo[15.3.1]heneicosa-1(21),17,19-triene
##MOLFORM=C16H24O5
##CAS REGISTRY NO=53914-83-3
##MP= -300
##BP= -300
##MW= 296
##$RETENTION INDEX=0
##$CONDENSED SPECTRUM=NO
##NPOINTS= 105
##XYDATA=(XY..XY) 1 
    26          1
    27         27
    28         58
    29         44
    30          4
    31         28
    39         17
    40          0
    41         10
    42          9
    43         81
    44         34
    45        999
    46         22
    50          3
    51         22
    52         32
    53          3
    55          0
    57          8
    58          9
    59         30
    60          1
    61          0
    62          0
    63         12
    64          2
    65         28
    71          4
    72          4
    73         37
    74         48
    75          6
    76          5
    77         51
    78        121
    79         38
    81          2
    86          2
    87         29
    88          8
    89        689
    90         62
    91         91
    92         18
    93          0
    96          7
   101          1
   102          7
   103        131
   104        800
   105        287
   106         25
   107          4
   111          0
   115         13
   116          4
   117        144
   118         93
   119        130
   120         39
   121         16
   128          1
   129          7
   130          8
   131         23
   132         15
   133        236
   134         25
   135          9
   136          1
   145          5
   146         15
   147         17
   148          4
   149          6
   159          4
   160          3
   161          2
   162          2
   163          9
   164         10
   165          5
   173          1
   174          0
   175          2
   177        575
   178         53
   179         10
   188          0
   189          1
   190          5
   191          2
   205          0
   206          1
   207          1
   208          6
   209          3
   210          6
   223          0
   252          5
   262          3
   296        292
   297         54
   298          5