##TITLE=Library Entry 29689
##JCAMP-DX=Revision 4.10 
##DATA TYPE=MASS SPECTRUM
##SAMPLE DESCRIPTION=Chemical Concepts
##NAMES=HP
##CAS NAME=6-Methylheptane-1,6-diol
##MOLFORM=C8H18O2
##CAS REGISTRY NO=5392-57-4
##MP= -300
##BP= -300
##MW= 146
##$RETENTION INDEX=0
##$CONDENSED SPECTRUM=NO
##NPOINTS= 68
##XYDATA=(XY..XY) 1 
    26          4
    27         56
    28         12
    29         54
    30          2
    31        144
    37          1
    38          2
    39         48
    40          8
    41        133
    42         81
    43        459
    44         17
    45         21
    50          1
    51          4
    52          2
    53         13
    54          6
    55        111
    56         32
    57         26
    58         47
    59        999
    60         33
    61          2
    65          3
    66          1
    67         13
    68          4
    69         39
    70         22
    71         35
    72          2
    73          2
    75          4
    77          2
    79          2
    80          0
    81          3
    82         19
    83          5
    84          0
    85          3
    86          1
    89          3
    90          0
    91          2
    92          0
    93          1
    94          0
    95         17
    96          1
    97          1
    98          2
    99          0
   109          1
   110          1
   111          2
   112          0
   113         59
   114          4
   115          0
   128          1
   129          1
   131         12
   132          1