##TITLE=Library Entry 71727
##JCAMP-DX=Revision 4.10 
##DATA TYPE=MASS SPECTRUM
##SAMPLE DESCRIPTION=Patti Price, Georgia Bureau of Investigation, Decatur,
 Georgia
##NAMES=HP
##CAS NAME=Thioridazine disulfoxide analog
##MOLFORM=C21H26N2O2S2
##CAS REGISTRY NO=53926-89-9
##MP= -300
##BP= -300
##MW= 402
##$RETENTION INDEX=0
##$CONDENSED SPECTRUM=NO
##NPOINTS= 201
##XYDATA=(XY..XY) 1 
    35          5
    36         24
    38         11
    39         16
    40          3
    41         39
    42         99
    43         39
    44         74
    45         22
    46          2
    51          8
    52          2
    53         10
    54          9
    55         50
    56         21
    57         26
    60         15
    63          9
    64          6
    65          8
    67         16
    68         34
    69         26
    70        177
    71         26
    72          5
    73         19
    74          6
    75          6
    76          5
    77         10
    79         12
    80          6
    81         13
    82         32
    83         22
    84         34
    85         11
    86          3
    87          3
    88          3
    89          5
    90          3
    94         14
    95         15
    96         54
    97         44
    98        999
    99         81
   100          5
   101          4
   102          5
   103          5
   104          2
   107          3
   108         10
   109         10
   110         32
   111         17
   112         22
   113          7
   114         48
   115         10
   117          3
   120          3
   122          8
   123          9
   124         79
   125         15
   126         23
   127         11
   128          5
   129          4
   130          3
   131          3
   134          3
   135          6
   136          4
   137          4
   138          4
   139         12
   140         14
   141          8
   142         12
   143          2
   146          4
   147          2
   149          5
   150          5
   151         12
   152         15
   153         20
   154         12
   158          3
   160          2
   162          1
   163          2
   164         11
   165         15
   167         20
   168          7
   169          6
   170          6
   171          8
   172          6
   173          9
   174          2
   177          5
   178         22
   179         44
   180         16
   181          7
   182          4
   183          4
   184         11
   185         42
   186         17
   190          3
   191         14
   192         25
   193         18
   194          5
   195          4
   196         53
   197         67
   198         35
   199         12
   200          3
   201          3
   204          3
   205          4
   206          4
   207         10
   208          3
   209          8
   210         27
   211         40
   212         21
   213         12
   214          8
   216          8
   217          5
   218          3
   220          2
   221          9
   222          8
   223         24
   224         13
   225          8
   226         13
   227         18
   228          7
   229         11
   230          5
   235          7
   236          5
   241          4
   242          8
   243          5
   244         23
   245         57
   246         29
   247          9
   250          1
   254          5
   255          4
   258         61
   259        155
   260         41
   261         63
   262         12
   263          7
   267         11
   268          3
   271          6
   272         20
   273         10
   274        559
   275         95
   276         58
   277         13
   278          5
   287          8
   288          4
   290         18
   291          3
   367         11
   368          4
   369          9
   370         11
   371          5
   372          2
   384          2
   385        309
   386         82
   387         39
   388          8
   401          9
   402          3