##TITLE=Library Entry 19265
##JCAMP-DX=Revision 4.10 
##DATA TYPE=MASS SPECTRUM
##SAMPLE DESCRIPTION=NIST Mass Spectrometry Data Center, 1998.
##NAMES=HP
##CAS NAME=cis-11-Hexadecenal
##MOLFORM=C16H30O
##CAS REGISTRY NO=53939-28-9
##MP= -300
##BP= -300
##MW= 238
##$RETENTION INDEX=1805
##$CONDENSED SPECTRUM=NO
##NPOINTS= 127
##XYDATA=(XY..XY) 1 
    15          2
    26          3
    27         73
    28         15
    29        135
    30          3
    31          5
    38          2
    39        110
    40         20
    41        554
    42         94
    43        242
    44         89
    45         10
    50          2
    51          9
    52          7
    53         85
    54        213
    55        999
    56        231
    57        213
    58         23
    59          9
    63          1
    65         28
    66         28
    67        392
    68        196
    69        436
    70        221
    71         85
    72         19
    73          5
    77         24
    78         11
    79        126
    80         89
    81        376
    82        283
    83        293
    84        167
    85         57
    86         17
    87          4
    91         15
    92          5
    93        105
    94         79
    95        284
    96        208
    97        216
    98        274
    99         33
   100         10
   101          2
   105          4
   106          2
   107         66
   108         55
   109        116
   110         87
   111        143
   112         87
   113         15
   114          5
   115          2
   119          2
   120          3
   121        133
   122         45
   123         40
   124         48
   125         45
   126         16
   127          6
   128          3
   129          1
   133          1
   134          1
   135         72
   136         28
   137         19
   138         33
   139         16
   140          8
   141          3
   142          3
   149         28
   150         10
   151         10
   152         12
   153          9
   154          6
   155          2
   156          3
   163         12
   164          5
   165          4
   166          6
   167          6
   168          4
   169          1
   170          1
   177          6
   178          3
   179          2
   180          1
   181          5
   182          3
   183          1
   191          3
   192          3
   193          1
   194          6
   195          6
   196          3
   197          1
   207          1
   209          3
   210          2
   220         34
   221          6
   223          1
   238          8
   239          1