##TITLE=Library Entry 19185
##JCAMP-DX=Revision 4.10 
##DATA TYPE=MASS SPECTRUM
##SAMPLE DESCRIPTION=NIST Mass Spectrometry Data Center, 1998.
##NAMES=HP
##CAS NAME=9-Tetradecenal, (Z)-
##MOLFORM=C14H26O
##CAS REGISTRY NO=53939-27-8
##MP= -300
##BP= -300
##MW= 210
##$RETENTION INDEX=1603
##$CONDENSED SPECTRUM=NO
##NPOINTS= 111
##XYDATA=(XY..XY) 1 
    15          2
    26          4
    27         99
    28         20
    29        165
    30          4
    31          6
    37          1
    38          3
    39        149
    40         26
    41        626
    42        106
    43        247
    44         57
    45         11
    50          3
    51         13
    52         10
    53        104
    54        263
    55        999
    56        222
    57        207
    58         20
    59          7
    63          3
    64          1
    65         34
    66         37
    67        438
    68        219
    69        400
    70        222
    71         74
    72         12
    73          3
    77         32
    78         14
    79        175
    80        110
    81        382
    82        249
    83        238
    84        152
    85         44
    86          9
    87          1
    91         22
    92          5
    93        137
    94         83
    95        217
    96        185
    97        187
    98        252
    99         24
   100          5
   101          1
   105          5
   106          2
   107         75
   108         53
   109         81
   110        104
   111        136
   112         71
   113          8
   114          6
   115          1
   119          2
   120          3
   121        140
   122         39
   123         33
   124         30
   125         31
   126         11
   127          2
   128          8
   129          1
   133          1
   134          1
   135         69
   136         25
   137         12
   138         13
   139         10
   140          5
   141          1
   142          2
   149         23
   150         10
   151          4
   152          1
   153          5
   154          4
   155          1
   163         11
   164          6
   165          1
   166          9
   167          7
   168          2
   177          1
   179          2
   181          2
   182          1
   192         42
   193          6
   210          4