##TITLE=Library Entry 61179
##JCAMP-DX=Revision 4.10 
##DATA TYPE=MASS SPECTRUM
##SAMPLE DESCRIPTION=Chemical Concepts
##NAMES=HP
##CAS NAME=Sulfurous acid, di-(p-tolyl) ester
##MOLFORM=C14H14O3S
##CAS REGISTRY NO=53941-78-9
##MP= -300
##BP= -300
##MW= 262
##$RETENTION INDEX=0
##$CONDENSED SPECTRUM=NO
##NPOINTS= 189
##XYDATA=(XY..XY) 1 
    25          0
    26         12
    27         77
    28          0
    29          2
    30          1
    31          1
    33          0
    34          1
    35          1
    36          8
    37          4
    38         14
    39         84
    40          7
    41         10
    42          1
    43          0
    44          1
    45          1
    46          1
    48         26
    49          3
    50         48
    51        116
    52         80
    53         86
    54          9
    55          7
    56          1
    57          0
    59          1
    60          1
    61          3
    62         11
    63         38
    64         10
    65         81
    66          6
    67          0
    68          1
    69          0
    70          1
    71          1
    72          1
    73          1
    74          3
    75          8
    76          4
    77        413
    78        106
    79        259
    80         24
    81          3
    82          0
    83          0
    84          1
    85          1
    86          0
    87          0
    88          0
    89         15
    90         28
    91        999
    92         69
    93          3
    94          1
    95          0
    96          0
    97          0
    98          1
    99          1
   100          1
   101          0
   102          1
   104          1
   105          5
   106          8
   107        871
   108        311
   109         20
   110          0
   111          0
   112          0
   115          0
   116          1
   117          1
   118          1
   120          1
   121          1
   122          1
   124          1
   125          1
   126          1
   127          0
   128          0
   129          0
   130          1
   131          1
   132          1
   134          1
   135          1
   136          1
   137          1
   138          0
   140          1
   141          0
   142          1
   144          1
   146          1
   147          1
   148          1
   149          0
   151          0
   152          0
   153          1
   154          5
   155        400
   156         27
   157         14
   158          1
   159          1
   160          1
   161          1
   163          1
   164          1
   165          1
   166          1
   167          1
   168          0
   169          3
   170          0
   171          1
   173          1
   174          1
   175          1
   176          1
   177          1
   178          1
   179          1
   180          1
   181          0
   182          0
   183          1
   184          1
   185          1
   186          1
   187          1
   188          1
   190          1
   191          1
   192          1
   193          0
   194          1
   195          1
   196          1
   197          1
   198          8
   199          2
   200          1
   201          1
   202          1
   203          1
   204          1
   205          1
   206          1
   207          1
   208          1
   210          1
   211          1
   212          1
   214          1
   215          2
   216          0
   217          0
   218          1
   219          1
   221          1
   222          1
   223          0
   225          0
   226          1
   227          0
   229          0
   230          0
   262        249
   263         50
   264          9
   265          2