##TITLE=Library Entry 69833
##JCAMP-DX=Revision 4.10 
##DATA TYPE=MASS SPECTRUM
##SAMPLE DESCRIPTION=Exported from NIST MS Search
##NAMES=HP
##CAS NAME=2-Hexene, 3,4,4-trimethyl-
##MOLFORM=C9H18
##CAS REGISTRY NO=53941-19-8
##MP= -300
##BP= -300
##MW= 126
##$RETENTION INDEX=0
##$CONDENSED SPECTRUM=NO
##NPOINTS= 67
##XYDATA=(XY..XY) 1 
    25          1
    26         11
    27        244
    28         36
    29        219
    30          5
    37          1
    38          5
    39        176
    40         26
    41        403
    42         33
    43        209
    44          7
    45          2
    46          1
    50          5
    51         22
    52         12
    53         95
    54         21
    55        811
    56         53
    57        136
    58          8
    62          1
    63          4
    64          1
    65         16
    66          7
    67         53
    68          8
    69        340
    70         43
    71         20
    72          2
    73          1
    75          1
    76          1
    77         16
    78          3
    79         19
    80          4
    81         37
    82          9
    83         50
    84         11
    85          5
    86          1
    91          5
    92          1
    93          3
    94          1
    95         12
    96         19
    97        999
    98         89
    99          4
   100          1
   109          3
   110          2
   111         54
   112          5
   113          1
   126        158
   127         16
   128          1