##TITLE=Library Entry 22616
##JCAMP-DX=Revision 4.10 
##DATA TYPE=MASS SPECTRUM
##SAMPLE DESCRIPTION=V.A.Korolev, Moscow, Russia
##NAMES=HP
##CAS NAME=N-Methylpiperidine-2-carboxamide
##MOLFORM=C7H14N2O
##CAS REGISTRY NO=53941-92-7
##MP= -300
##BP= -300
##MW= 142
##$RETENTION INDEX=0
##$CONDENSED SPECTRUM=NO
##NPOINTS= 53
##XYDATA=(XY..XY) 1 
    30         54
    35          4
    37          3
    38         42
    39        184
    40         95
    41        317
    42        338
    43         88
    44        114
    45         48
    46          8
    50         13
    51         23
    52         24
    53         76
    54        164
    55        434
    56        999
    57        138
    58        247
    59         39
    60          9
    61          4
    65         21
    66          5
    67        136
    68         82
    69         42
    70         35
    71         13
    72          4
    73          7
    76          3
    78          4
    79          3
    80         38
    81         14
    82        161
    83         71
    84        990
    85        246
    86         55
    87          4
    92          6
    97          4
    98         11
    99          7
   109          3
   110          7
   112          5
   142        115
   143          9