##TITLE=Library Entry 98003
##JCAMP-DX=Revision 4.10 
##DATA TYPE=MASS SPECTRUM
##SAMPLE DESCRIPTION=Japan AIST/NIMC Database- Spectrum MS-IW- 588
##NAMES=HP
##CAS NAME=Benzenemethanol, 2,5-dimethyl-
##MOLFORM=C9H12O
##CAS REGISTRY NO=53957-33-8
##MP= -300
##BP= -300
##MW= 136
##$RETENTION INDEX=0
##$CONDENSED SPECTRUM=NO
##NPOINTS= 86
##XYDATA=(XY..XY) 1 
    14          4
    15          3
    16          1
    18          2
    26          4
    27         75
    28         36
    29         22
    30          1
    31         14
    37          3
    38         11
    39        123
    40         13
    41         55
    42          3
    43         17
    44          3
    45          4
    46          2
    49          1
    50         36
    51        105
    52         30
    53         48
    54          4
    55          9
    57         16
    58         29
    59         16
    60         18
    61          4
    62         16
    63         52
    64         10
    65        109
    66         16
    67         23
    68          1
    69          1
    73          1
    74         12
    75         12
    76         10
    77        293
    78         71
    79        128
    80          9
    81          2
    85          1
    86          4
    87          4
    88          1
    89         21
    90          9
    91        500
    92         62
    93        349
    94         27
    95          2
    98          2
   101          2
   102         17
   103        111
   104         31
   105        191
   106         21
   107        165
   108         14
   109          1
   114          1
   115         66
   116         17
   117        346
   118        999
   119        169
   120         20
   121        190
   122         16
   123          1
   133         29
   134         14
   135         17
   136        343
   137         33
   138          2