##TITLE=Library Entry 16868
##JCAMP-DX=Revision 4.10 
##DATA TYPE=MASS SPECTRUM
##SAMPLE DESCRIPTION=Exported from NIST MS Search
##NAMES=HP
##CAS NAME=2-Propanol, 1-(propylthio)-
##MOLFORM=C6H14OS
##CAS REGISTRY NO=53957-22-5
##MP= -300
##BP= -300
##MW= 134
##$RETENTION INDEX=0
##$CONDENSED SPECTRUM=NO
##NPOINTS= 70
##XYDATA=(XY..XY) 1 
    15         71
    16         11
    17         71
    19         60
    26         26
    27        320
    29        125
    31        179
    32         28
    33         10
    34         25
    35         28
    37         11
    38         21
    39        195
    40         35
    41        640
    42        172
    43        987
    44        141
    45        999
    46        343
    47        600
    48        868
    49        675
    50         66
    51         31
    55         51
    56         82
    57         56
    58        178
    59        204
    60         29
    61        947
    62         79
    63         47
    69          9
    71         15
    73         69
    74        134
    75        419
    76         71
    77        176
    78         15
    79          9
    81          5
    85          4
    87         31
    88          5
    89        240
    90        549
    91         95
    92         32
    93          5
   101          5
   103         33
   104          6
   105         11
   116         11
   117         22
   118          3
   119         54
   120         12
   121          3
   132          4
   133          7
   134        604
   135         70
   136         32
   137          3