##TITLE=Library Entry 72187
##JCAMP-DX=Revision 4.10 
##DATA TYPE=MASS SPECTRUM
##SAMPLE DESCRIPTION=R. F. HUDSON UNIVERSITY OF KENT, CANTERBURY
##NAMES=HP
##CAS NAME=2-Butene, 1-chloro-4-ethoxy-
##MOLFORM=C6H11ClO
##CAS REGISTRY NO=53957-23-6
##MP= -300
##BP= -300
##MW= 134
##$RETENTION INDEX=0
##$CONDENSED SPECTRUM=NO
##NPOINTS= 31
##XYDATA=(XY..XY) 1 
    27        400
    29        470
    31        170
    36         30
    38         20
    39        210
    40         20
    41        290
    42        100
    43        690
    45         40
    49         30
    50         20
    51         60
    52         10
    53        460
    54        120
    55         50
    57        380
    59         40
    69         60
    70         30
    71        830
    72        280
    85        130
    89        320
    90         10
    91        100
    99        999
   100         60
   105         10