##TITLE=Library Entry 72129
##JCAMP-DX=Revision 4.10 
##DATA TYPE=MASS SPECTRUM
##SAMPLE DESCRIPTION=Exported from NIST MS Search
##NAMES=HP
##CAS NAME=2H-Cyclopenta[b]thiophene, hexahydro-, cis-
##MOLFORM=C7H12S
##CAS REGISTRY NO=53956-11-9
##MP= -300
##BP= -300
##MW= 128
##$RETENTION INDEX=0
##$CONDENSED SPECTRUM=NO
##NPOINTS= 108
##XYDATA=(XY..XY) 1 
    24          1
    25          4
    26         79
    27        491
    28        101
    29         97
    30          2
    31          1
    32         11
    33         11
    34         12
    35         13
    36          1
    37         19
    38         58
    39        588
    40         91
    41        466
    42         39
    43         14
    44          6
    45        437
    46         79
    47        118
    48          7
    49          9
    50         37
    51         77
    52         34
    53        181
    54         99
    55         70
    56          6
    57         15
    58         97
    59        113
    60         99
    61         92
    62         23
    63         30
    64          5
    65        135
    66        170
    67        777
    68        125
    69         26
    70          7
    71         95
    72         72
    73         41
    74         17
    75          4
    76          3
    77         82
    78         20
    79        434
    80         60
    81        193
    82         35
    83          5
    84         21
    85        397
    86        188
    87         76
    88         11
    89          4
    90          1
    91         42
    92          8
    93         57
    94        703
    95        123
    96          8
    97         37
    98          7
    99        999
   100        235
   101         57
   102         11
   103          1
   104          1
   105          5
   106          3
   107          1
   108          1
   109          1
   110          1
   111          4
   112          1
   113         41
   114          3
   115          2
   116          1
   117          1
   118          1
   119          1
   120          2
   121          1
   122          1
   123          1
   124          1
   125          2
   126          1
   127         20
   128        614
   129         56
   130         30
   131          3