##TITLE=Library Entry 45799
##JCAMP-DX=Revision 4.10 
##DATA TYPE=MASS SPECTRUM
##SAMPLE DESCRIPTION=Japan AIST/NIMC Database- Spectrum MS-NW-5796
##NAMES=HP
##CAS NAME=1,2-Bis(ethylthio)ethane
##MOLFORM=C6H14S2
##CAS REGISTRY NO=5395-75-5
##MP= -300
##BP= -300
##MW= 150
##$RETENTION INDEX=1180
##$CONDENSED SPECTRUM=NO
##NPOINTS= 79
##XYDATA=(XY..XY) 1 
    14          2
    15          4
    16          1
    17          3
    18         11
    25          2
    26         25
    27        218
    28         24
    29        273
    30          7
    31          4
    32          5
    33          4
    34          9
    35         76
    36          1
    37          3
    39          4
    41         59
    42          2
    43          3
    44         20
    45        109
    46         41
    47        305
    48          8
    49         13
    53          2
    54          1
    55         19
    56          1
    57          9
    58         45
    59        125
    60        367
    61        383
    62         81
    63         20
    64         14
    65          6
    66          9
    67          1
    68          1
    69          1
    71          1
    73         21
    74          8
    75        999
    76         44
    77         47
    78          3
    79          1
    85          1
    87          3
    88        193
    89        578
    90         46
    91         27
    92          6
    93         87
    94         16
    95          9
    96          2
   103          3
   104          1
   105          2
   106          1
   108          1
   120          1
   121         46
   122         32
   123          7
   124          4
   150        710
   151         60
   152         67
   153          5
   154          2