##TITLE=Library Entry 10720
##JCAMP-DX=Revision 4.10 
##DATA TYPE=MASS SPECTRUM
##SAMPLE DESCRIPTION=Exported from NIST MS Search
##NAMES=HP
##CAS NAME=1,3-Dioxolane-2-methanol, 2,4-dimethyl-
##MOLFORM=C6H12O3
##CAS REGISTRY NO=53951-43-2
##MP= -300
##BP= -300
##MW= 132
##$RETENTION INDEX=0
##$CONDENSED SPECTRUM=NO
##NPOINTS= 93
##XYDATA=(XY..XY) 1 
    12          1
    13          1
    14          8
    15         54
    16          2
    17         13
    18         57
    19          7
    24          1
    25          2
    26         14
    27         64
    28         92
    29        122
    30         18
    31        149
    32          5
    33          2
    35          1
    36          2
    37          3
    38          6
    39         38
    40         20
    41        153
    42         51
    43        999
    44         29
    45         68
    46          2
    47          2
    49          2
    50          1
    51          1
    52          1
    53          2
    54          1
    55          7
    56          7
    57         79
    58        172
    59         93
    60          4
    61         19
    62          1
    63          1
    64          1
    65          1
    66          1
    67          1
    68          3
    69          2
    70          1
    71          5
    72          2
    73         14
    74         11
    75          5
    76          1
    77          1
    78          1
    79          1
    80          1
    81          1
    82          1
    83          1
    84          1
    85          2
    86          1
    87         18
    88          9
    89          1
    90          1
    91          1
    95          1
    96          1
    97          1
    98          1
   100          1
   101        276
   102         17
   103          3
   104          1
   112          2
   113          1
   114          4
   115          1
   116          1
   117         15
   118          1
   130          1
   131          1
   132          1