##TITLE=Library Entry 26337
##JCAMP-DX=Revision 4.10 
##DATA TYPE=MASS SPECTRUM
##SAMPLE DESCRIPTION=Exported from NIST MS Search
##NAMES=HP
##CAS NAME=1,3-Dioxolane-4-methanol, 2-ethyl-
##MOLFORM=C6H12O3
##CAS REGISTRY NO=53951-44-3
##MP= -300
##BP= -300
##MW= 132
##$RETENTION INDEX=0
##$CONDENSED SPECTRUM=NO
##NPOINTS= 46
##XYDATA=(XY..XY) 1 
    15         70
    16          2
    17          4
    18         18
    19         99
    26         26
    27        176
    28        128
    29        498
    30         28
    31        314
    32          9
    38          7
    39         68
    40         17
    41        176
    42        102
    43        572
    44        158
    45        165
    46          4
    47        198
    53          4
    55         77
    56         17
    57        999
    58         62
    59        194
    60         10
    61         40
    69          2
    71         54
    72        134
    73         51
    74          5
    75         30
    83         20
    85          2
   100          3
   101        208
   102         19
   103        769
   104         35
   115          2
   131         40
   132          3