##TITLE=Library Entry 60511
##JCAMP-DX=Revision 4.10 
##DATA TYPE=MASS SPECTRUM
##SAMPLE DESCRIPTION=Japan AIST/NIMC Database- Spectrum MS-IW-7245
##NAMES=HP
##CAS NAME=Benzene, 1-methyl-4-[(phenylmethyl)sulfonyl]-
##MOLFORM=C14H14O2S
##CAS REGISTRY NO=5395-20-0
##MP= -300
##BP= -300
##MW= 246
##$RETENTION INDEX=0
##$CONDENSED SPECTRUM=NO
##NPOINTS= 49
##XYDATA=(XY..XY) 1 
    27          1
    28          1
    38          1
    39         21
    40          1
    41          7
    45          1
    50          3
    51          9
    52          2
    53          1
    62          3
    63         14
    64          4
    65         82
    66          5
    75          1
    77          5
    78          2
    79          1
    89         17
    90          9
    91        999
    92         85
    93          2
   105          3
   106          1
   107          1
   115          1
   124          1
   128          1
   139          3
   140          4
   141          1
   152          5
   153          1
   165         13
   166         10
   167         26
   168          3
   178          1
   179          1
   180          1
   181          8
   182         10
   183          1
   246         56
   247          9
   248          3