##TITLE=Library Entry 20111
##JCAMP-DX=Revision 4.10 
##DATA TYPE=MASS SPECTRUM
##SAMPLE DESCRIPTION=Exported from NIST MS Search
##NAMES=HP
##CAS NAME=2-Octene, 4-ethyl-
##MOLFORM=C10H20
##CAS REGISTRY NO=53966-52-2
##MP= -300
##BP= -300
##MW= 140
##$RETENTION INDEX=0
##$CONDENSED SPECTRUM=NO
##NPOINTS= 64
##XYDATA=(XY..XY) 1 
    25          1
    26          9
    27        226
    28         31
    29        247
    30          6
    37          1
    38          3
    39        153
    40         27
    41        436
    42         55
    43        112
    44          4
    45          1
    50          3
    51         12
    52          8
    53         73
    54         28
    55        999
    56        121
    57         68
    58          3
    62          1
    63          2
    64          1
    65         14
    66          8
    67         80
    68         45
    69        502
    70        198
    71         15
    72          2
    77         11
    78          2
    79         12
    80          2
    81         25
    82         23
    83        349
    84         98
    85          9
    86          1
    91          2
    92          1
    93          1
    94          1
    95          4
    96          2
    97         31
    98        147
    99         14
   100          1
   109          2
   110          3
   111         83
   112         10
   113          1
   125          1
   140        102
   141         11
   142          1