##TITLE=Library Entry 51321
##JCAMP-DX=Revision 4.10 
##DATA TYPE=MASS SPECTRUM
##SAMPLE DESCRIPTION=Exported from NIST MS Search
##NAMES=HP
##CAS NAME=Bicyclo[3.1.0]hexan-2-one, 3,3,6-trimethyl-
##MOLFORM=C9H14O
##CAS REGISTRY NO=53966-40-8
##MP= -300
##BP= -300
##MW= 138
##$RETENTION INDEX=0
##$CONDENSED SPECTRUM=NO
##NPOINTS= 43
##XYDATA=(XY..XY) 1 
    41        220
    42         40
    43         30
    50         10
    51         30
    52         20
    53        120
    54         50
    55        100
    56         20
    57         10
    60         10
    62         10
    63         10
    65         20
    66         20
    67        530
    68        100
    69         30
    70         10
    77         30
    78         10
    79         30
    80         20
    81        130
    82        999
    83         90
    91         10
    93         10
    94         10
    95        290
    96        100
    97         10
   105         10
   108         10
   109         10
   110        200
   111         20
   123         80
   124         10
   137         10
   138        100
   139         10