##TITLE=Library Entry 61146
##JCAMP-DX=Revision 4.10 
##DATA TYPE=MASS SPECTRUM
##SAMPLE DESCRIPTION=Japan AIST/NIMC Database- Spectrum MS-NW-9415
##NAMES=HP
##CAS NAME=Butanoic acid, 3-oxo-, phenylmethyl ester
##MOLFORM=C11H12O3
##CAS REGISTRY NO=5396-89-4
##MP= -300
##BP= -300
##MW= 192
##$RETENTION INDEX=0
##$CONDENSED SPECTRUM=NO
##NPOINTS= 84
##XYDATA=(XY..XY) 1 
    13          1
    14          6
    15         41
    16          1
    17          1
    18          3
    25          1
    26          9
    27         34
    28          9
    29         17
    30          1
    36          2
    37          5
    38         13
    39         85
    40          9
    41         26
    42         32
    43        464
    44         28
    45          4
    49          2
    50         34
    51         97
    52         26
    53         15
    54          2
    55          4
    56          1
    57          2
    58        276
    59         55
    60          3
    61          3
    62         11
    63         42
    64         12
    65        164
    66          9
    68          1
    69         27
    70          1
    71          1
    73          1
    74          8
    75          6
    76          7
    77        156
    78         38
    79        315
    80         27
    81          1
    84         23
    85         41
    86          4
    87          2
    88          1
    89         65
    90        106
    91        999
    92         79
    93          3
   103          1
   104         11
   105         32
   106         46
   107        900
   108        259
   109         18
   110          1
   121          3
   131          1
   132          7
   133          1
   146          5
   147          1
   150          1
   164        120
   165         13
   166          1
   174          3
   192         28
   193          6