##TITLE=Library Entry 10331
##JCAMP-DX=Revision 4.10 
##DATA TYPE=MASS SPECTRUM
##SAMPLE DESCRIPTION=H.J. MOECKEL & J. WEISS, HAHN-MEITNER-INST. BERLIN, W.
 G
##NAMES=HP
##CAS NAME=Disulfide, ethyl 1-methylethyl
##MOLFORM=C5H12S2
##CAS REGISTRY NO=53966-36-2
##MP= -300
##BP= -300
##MW= 136
##$RETENTION INDEX=985
##$CONDENSED SPECTRUM=NO
##NPOINTS= 79
##XYDATA=(XY..XY) 1 
    15         21
    24          0
    25          2
    26         36
    27        541
    29        375
    30         12
    31          0
    33          5
    34          6
    35         34
    36          0
    37          6
    38         18
    39        174
    40         22
    41        547
    42         57
    43        999
    44         45
    45         79
    46         22
    47         37
    48          1
    49          8
    50          0
    51          0
    53          0
    55          0
    56          0
    57          6
    58         32
    59        118
    60         38
    61         24
    62          4
    63          3
    64         41
    65         31
    66        550
    67         14
    68         44
    69          2
    70          1
    71          2
    72          1
    73         12
    74         33
    75         11
    76          4
    77          1
    78          2
    79         13
    80          1
    81          1
    87          0
    88          0
    89          0
    91          1
    92          2
    93         56
    94        737
    95         35
    96         65
    97          2
    98          1
   103          0
   106          0
   107          2
   108          1
   109          0
   121          1
   134          0
   135          9
   136        357
   137         27
   138         31
   139          2
   140          0