##TITLE=Library Entry 68
##JCAMP-DX=Revision 4.10 
##DATA TYPE=MASS SPECTRUM
##SAMPLE DESCRIPTION=Exported from NIST MS Search
##NAMES=HP
##CAS NAME=3,8-Dioxatricyclo[5.1.0.0(2,4)]octane, 4-ethenyl-
##MOLFORM=C8H10O2
##CAS REGISTRY NO=53966-43-1
##MP= -300
##BP= -300
##MW= 138
##$RETENTION INDEX=0
##$CONDENSED SPECTRUM=NO
##NPOINTS= 97
##XYDATA=(XY..XY) 1 
    14        123
    15        281
    16         20
    17         20
    18         60
    19          7
    24          3
    25         11
    26        154
    27        999
    28        404
    29        762
    30         54
    31        267
    32         22
    33          2
    36          3
    37         40
    38        110
    39        971
    40        198
    41        961
    42        335
    43        307
    44        129
    45         35
    46          3
    47          2
    48          2
    49         11
    50         99
    51        183
    52        128
    53        368
    54        184
    55        501
    56         93
    57        171
    58         25
    59          4
    60          5
    61         12
    62         18
    63         39
    64         10
    65        111
    66        165
    67        416
    68        359
    69        255
    70        160
    71         41
    72          4
    73         10
    74         11
    76         13
    77        241
    78        173
    79        862
    80        271
    81        382
    82         70
    83        237
    84         56
    85          8
    86          5
    87          3
    88          2
    89          6
    91        181
    92         52
    93        120
    94         63
    95        137
    96        117
    97        105
    98         14
    99          8
   103          9
   104         36
   105         12
   106          6
   107         34
   108          9
   109        109
   110         17
   111         31
   112         11
   113          1
   119          3
   120         15
   121         24
   122          4
   123          1
   137          3
   138         27
   139          1