##TITLE=Library Entry 69168
##JCAMP-DX=Revision 4.10 
##DATA TYPE=MASS SPECTRUM
##SAMPLE DESCRIPTION=Exported from NIST MS Search
##NAMES=HP
##CAS NAME=1H-Imidazole-4-ethanamine, N,5-dimethyl-
##MOLFORM=C7H13N3
##CAS REGISTRY NO=53966-46-4
##MP= -300
##BP= -300
##MW= 139
##$RETENTION INDEX=0
##$CONDENSED SPECTRUM=NO
##NPOINTS= 33
##XYDATA=(XY..XY) 1 
    28        130
    29         20
    30         40
    39         50
    41         80
    42        160
    43         50
    44        899
    52         50
    53         50
    54         70
    55         50
    56         20
    57         20
    67         20
    68         50
    69         50
    80         20
    81        100
    82         30
    94         40
    95        420
    96        999
    97        120
   107         30
   108         20
   109         50
   122         20
   123         20
   124         20
   138         10
   139         40
   140         10