##TITLE=Library Entry 35097
##JCAMP-DX=Revision 4.10 
##DATA TYPE=MASS SPECTRUM
##SAMPLE DESCRIPTION=Exported from NIST MS Search
##NAMES=HP
##CAS NAME=3-Nonene, 2-methyl-
##MOLFORM=C10H20
##CAS REGISTRY NO=53966-53-3
##MP= -300
##BP= -300
##MW= 140
##$RETENTION INDEX=0
##$CONDENSED SPECTRUM=NO
##NPOINTS= 70
##XYDATA=(XY..XY) 1 
    26         19
    27        350
    28         56
    29        340
    30          8
    31          1
    37          3
    38         11
    39        253
    40         47
    41        728
    42        115
    43        287
    44         12
    45          1
    46          1
    47          1
    50          8
    51         25
    52         14
    53         96
    54         43
    55        820
    56        885
    57        263
    58         12
    59          1
    61          1
    62          1
    63          6
    64          1
    65         18
    67         87
    68         94
    69        999
    70        218
    71         29
    72          3
    73          2
    74          1
    77         14
    78          4
    79         13
    80          3
    81         28
    82         20
    83        130
    84        102
    85         17
    86          1
    90          1
    91          3
    92          1
    93          1
    94          1
    95          7
    96          7
    97         57
    98         19
    99          1
   109          1
   110          1
   111         12
   112         14
   113          2
   125         10
   126          1
   140        141
   141         15
   142          1