##TITLE=Library Entry 20109
##JCAMP-DX=Revision 4.10 
##DATA TYPE=MASS SPECTRUM
##SAMPLE DESCRIPTION=Exported from NIST MS Search
##NAMES=HP
##CAS NAME=3-Octene, 4-ethyl-
##MOLFORM=C10H20
##CAS REGISTRY NO=53966-51-1
##MP= -300
##BP= -300
##MW= 140
##$RETENTION INDEX=0
##$CONDENSED SPECTRUM=NO
##NPOINTS= 74
##XYDATA=(XY..XY) 1 
    25          1
    26          9
    27        268
    28         32
    29        258
    30          6
    31          1
    37          1
    38          4
    39        168
    40         31
    41        568
    42         70
    43        157
    44          6
    45          1
    46          1
    50          4
    51         18
    52         12
    53         95
    54         35
    55        999
    56        131
    57         84
    58          4
    62          1
    63          3
    64          1
    65         20
    66         10
    67         91
    68         28
    69        845
    70        428
    71         32
    72          2
    73          1
    77         18
    78          4
    79         20
    80          4
    81         40
    82         15
    83        150
    84         51
    85         12
    86          1
    91          5
    92          1
    93          2
    94          1
    95         11
    96          7
    97        128
    98        146
    99         13
   100          1
   105          1
   107          1
   109          4
   110          4
   111        100
   112         13
   113          2
   114          1
   123          1
   125          1
   127          1
   138          1
   139          1
   140        169
   141         19
   142          1