##TITLE=Library Entry 60986
##JCAMP-DX=Revision 4.10 
##DATA TYPE=MASS SPECTRUM
##SAMPLE DESCRIPTION=Chemical Concepts
##NAMES=HP
##CAS NAME=3-Pentanone, 1,5-diphenyl-
##MOLFORM=C17H18O
##CAS REGISTRY NO=5396-91-8
##MP= -300
##BP= -300
##MW= 238
##$RETENTION INDEX=0
##$CONDENSED SPECTRUM=NO
##NPOINTS= 162
##XYDATA=(XY..XY) 1 
    25          0
    26          4
    27         74
    28         29
    29          2
    31          2
    32          5
    34          0
    36          0
    37          0
    38          5
    39         72
    40          5
    41         25
    42          1
    43         16
    44          1
    45          1
    46          1
    47          0
    49          0
    50         17
    51         79
    52         18
    53         17
    54          1
    55         41
    56          2
    57          1
    58          0
    59          0
    60          0
    61          1
    62          3
    63         25
    64          6
    65        137
    66         10
    67          0
    69          1
    70          0
    73          0
    74          2
    75          1
    76         11
    77        180
    78         74
    79        121
    80          8
    81          1
    82          0
    83          3
    84          0
    86          0
    87          1
    88          1
    89         19
    90         12
    91        999
    92        171
    93         10
    94          0
    95          1
    96          0
    97          0
    98          0
    99          0
   100          0
   101          3
   102         12
   103         93
   104        134
   105        845
   106         76
   107         10
   108          1
   109          0
   113          0
   114          1
   115         20
   116         10
   117         21
   118         13
   119         10
   120          2
   121          4
   122          0
   124          0
   125          0
   126          0
   127          6
   128         14
   129         46
   130         15
   131         57
   132         17
   133        564
   134         93
   135          8
   136          0
   137          0
   139          0
   141          1
   142          2
   143          2
   144          6
   145         11
   146         22
   147         29
   148          4
   149          0
   152          1
   153          0
   158          0
   159          5
   160          6
   161          1
   163          0
   165          2
   166          1
   167          2
   168          0
   177          0
   178          2
   179          3
   180          1
   181          2
   191          1
   192          1
   193          0
   194          0
   195          0
   202          0
   203          2
   204          1
   205          1
   206          0
   207          0
   211          0
   213          0
   215          0
   217          0
   218          1
   219          1
   220         14
   221          3
   222         13
   223          2
   224          0
   227          0
   230          0
   231          0
   232          0
   233          0
   234          1
   235          2
   236          7
   237          4
   238        329
   239         70
   240          7
   241          1