##TITLE=Library Entry 36014
##JCAMP-DX=Revision 4.10 
##DATA TYPE=MASS SPECTRUM
##SAMPLE DESCRIPTION=P.E. BUTLER ESSO R. & E. CO., LINDEN, NEW JERSEY, USA
##NAMES=HP
##CAS NAME=1-Pentyne, 3-methyl-3-(1-methylethoxy)-
##MOLFORM=C9H16O
##CAS REGISTRY NO=53966-55-5
##MP= -300
##BP= -300
##MW= 140
##$RETENTION INDEX=0
##$CONDENSED SPECTRUM=NO
##NPOINTS= 23
##XYDATA=(XY..XY) 1 
    39        174
    41        194
    43        319
    51         73
    52         64
    53        142
    55         53
    57         21
    59          4
    63         15
    65         33
    67         26
    69        999
    77         27
    79         74
    81        205
    83        190
    97          5
   111        367
   112         29
   125         36
   126          4
   139          0