##TITLE=Library Entry 53076
##JCAMP-DX=Revision 4.10 
##DATA TYPE=MASS SPECTRUM
##SAMPLE DESCRIPTION=P.E. BUTLER ESSO R. & E. CO., LINDEN, NEW JERSEY, USA
##NAMES=HP
##CAS NAME=1-Pentyne, 3-ethoxy-3-ethyl-
##MOLFORM=C9H16O
##CAS REGISTRY NO=53966-56-6
##MP= -300
##BP= -300
##MW= 140
##$RETENTION INDEX=0
##$CONDENSED SPECTRUM=NO
##NPOINTS= 23
##XYDATA=(XY..XY) 1 
    39        258
    41        108
    43        208
    51         72
    52         27
    53        195
    55        262
    57         86
    59          2
    63         39
    65         74
    67         84
    69         26
    77         43
    79         46
    81         33
    83        999
    91         12
    95         75
    97         27
   111        923
   112         73
   125          3