##TITLE=Library Entry 11986
##JCAMP-DX=Revision 4.10 
##DATA TYPE=MASS SPECTRUM
##SAMPLE DESCRIPTION=Chemical Concepts
##NAMES=HP
##CAS NAME=2-Acetyltetradecanoic acid, ethyl ester
##MOLFORM=C18H34O3
##CAS REGISTRY NO=5397-53-5
##MP= -300
##BP= -300
##MW= 298
##$RETENTION INDEX=0
##$CONDENSED SPECTRUM=NO
##NPOINTS= 196
##XYDATA=(XY..XY) 1 
    25          0
    26          6
    27         94
    28         23
    29        270
    30          6
    31          7
    32          2
    38          0
    39         43
    40          9
    41        306
    42         63
    43        999
    44         27
    45         33
    46          1
    47          1
    50          0
    51          1
    52          1
    53         22
    54         26
    55        288
    56         59
    57        225
    58        134
    59         68
    60         32
    61         36
    62          1
    63          1
    65          2
    66          3
    67         37
    68         23
    69        136
    70         63
    71        155
    72         10
    73        225
    74         15
    75          3
    77          3
    78          1
    79          9
    80          9
    81         30
    82         22
    83         73
    84         67
    85         86
    86         18
    87         22
    88        267
    89         39
    90          2
    91          3
    92          1
    93          6
    94          3
    95         23
    96         19
    97         93
    98         69
    99         19
   100          5
   101        499
   102         99
   103         21
   104          2
   105          1
   106          0
   107          5
   108          3
   109         12
   110          8
   111         31
   112         18
   113         14
   114          7
   115         65
   116          7
   117          1
   119          1
   121          5
   122          5
   123          6
   124          4
   125         13
   126         17
   127          8
   128          2
   129         14
   130        685
   131        133
   132         12
   133          2
   134          0
   135         55
   136          3
   137         52
   138          4
   139          8
   140         14
   141          3
   142          1
   143        204
   144         22
   145          3
   147          0
   148          0
   149         11
   150          1
   151          9
   152          2
   153          4
   154          6
   155          3
   156          4
   157         97
   158         12
   159          1
   160          0
   161          0
   163          2
   164          1
   165          1
   166          5
   167          3
   168          9
   169          3
   170          6
   171         18
   172          6
   173          0
   176          0
   177          2
   178          1
   179          1
   181          1
   182          1
   183          3
   184          1
   185         11
   186         10
   187          1
   189          0
   191          5
   192          1
   193          0
   195          0
   196          0
   197          3
   198          0
   199         17
   200          6
   201          1
   202          0
   205          0
   206          1
   207          2
   208          2
   209          5
   210          7
   211         25
   212          4
   213         57
   214          9
   215          1
   223          0
   224          1
   225          0
   226          6
   227         15
   228          2
   229          0
   234          0
   235          0
   237          1
   248          1
   250          1
   251          1
   252          1
   253         26
   254          5
   255          7
   256        190
   257         32
   258          3
   280          0
   283          2
   284          0
   297          0
   298          9
   299          2