##TITLE=Library Entry 83437
##JCAMP-DX=Revision 4.10 
##DATA TYPE=MASS SPECTRUM
##SAMPLE DESCRIPTION=Chemical Concepts
##NAMES=HP
##CAS NAME=Propanoic acid, 3-hydroxy-3-phenyl-, t-butyl ester
##MOLFORM=C13H18O3
##CAS REGISTRY NO=5397-27-3
##MP= -300
##BP= -300
##MW= 222
##$RETENTION INDEX=0
##$CONDENSED SPECTRUM=NO
##NPOINTS= 128
##XYDATA=(XY..XY) 1 
    25          0
    26          3
    27         48
    28          1
    29        142
    30          4
    31         14
    34          0
    37          1
    38          3
    39         57
    40         11
    41        221
    42         24
    43        122
    44          8
    45          5
    46          0
    47          0
    49          0
    50         17
    51         74
    52         20
    53         14
    54          2
    55         17
    56         36
    57        881
    58         42
    59         87
    60         19
    61         10
    62          2
    63          7
    64          2
    65         15
    66          1
    67          1
    68          0
    69          5
    70          0
    71          6
    72          1
    73          4
    74          4
    75          5
    76          8
    77        211
    78         71
    79        247
    80         16
    81          0
    82          0
    83          1
    84          0
    85          0
    86          0
    87          5
    88          0
    89          3
    90          0
    91         25
    92          3
    93          1
    94          1
    95          2
    96          0
    97          0
    98          0
    99          0
   100          0
   101          1
   102          5
   103         37
   104         60
   105        580
   106        160
   107        999
   108         80
   109          3
   110          0
   111          0
   115          0
   116          0
   117          0
   118          0
   119          2
   120         32
   121          6
   122          0
   123          2
   124          0
   125          0
   127          0
   129          0
   130          0
   131         10
   132          1
   142          0
   143          0
   144          0
   145          0
   146          2
   147        144
   148         37
   149        133
   150         12
   151          1
   152          0
   153          1
   154          0
   161          0
   162          0
   163          1
   164         13
   165        410
   166        278
   167         28
   168          2
   169          0
   179          0
   189          1
   192          0
   194          0
   203          0
   220          1
   222         17
   223          1