##TITLE=Library Entry 23182
##JCAMP-DX=Revision 4.10 
##DATA TYPE=MASS SPECTRUM
##SAMPLE DESCRIPTION=NIST Mass Spectrometry Data Center, 2009
##NAMES=HP
##CAS NAME=3-(2-Ethylhexyloxy)-propylamine
##MOLFORM=C11H25NO
##CAS REGISTRY NO=5397-31-9
##MP= -300
##BP= -300
##MW= 187
##$RETENTION INDEX=1357
##$CONDENSED SPECTRUM=NO
##NPOINTS= 84
##XYDATA=(XY..XY) 1 
    15          1
    18          8
    26          2
    27         33
    28         32
    29         73
    30        457
    31         22
    38          1
    39         36
    40          7
    41        213
    42         43
    43        181
    44         67
    45         39
    46          2
    50          1
    51          2
    52          2
    53         14
    54         10
    55        102
    56        342
    57        999
    58        223
    59        148
    60         14
    65          2
    66          1
    67          8
    68          4
    69         27
    70         45
    71        173
    72         18
    74        287
    75         40
    76         70
    77          4
    78          1
    79          2
    81          3
    82          5
    83         24
    84         14
    85          4
    86          4
    87          1
    88         12
    89          3
    90          1
    95          1
    96          1
    97          3
    98          4
    99          1
   100          1
   102          1
   109          1
   110          1
   111          1
   112         52
   113         34
   114          4
   116          2
   123          1
   126          1
   127          1
   128          1
   130         12
   131          7
   132          1
   141          8
   142          1
   144          2
   154          1
   158         20
   159          2
   170          8
   171          1
   172          2
   187          1
   188          1