##TITLE=Library Entry 34572
##JCAMP-DX=Revision 4.10 
##DATA TYPE=MASS SPECTRUM
##SAMPLE DESCRIPTION=Chemical Concepts
##NAMES=HP
##CAS NAME=Sulfone, 2-chlorooctyl phenyl
##MOLFORM=C14H21ClO2S
##CAS REGISTRY NO=5398-14-1
##MP= -300
##BP= -300
##MW= 288
##$RETENTION INDEX=0
##$CONDENSED SPECTRUM=NO
##NPOINTS= 145
##XYDATA=(XY..XY) 1 
    24          0
    25          1
    26         13
    27        339
    28         29
    29        455
    30          9
    31          0
    34          0
    35          1
    36         10
    37          2
    38          6
    39        201
    40         29
    41        804
    42        144
    43        599
    44         17
    45         13
    46          0
    47          1
    48          1
    49          5
    50         52
    51        282
    52         22
    53         82
    54         87
    55        601
    56        103
    57        325
    58         12
    59          1
    61          1
    62          7
    63         22
    64          5
    65         36
    66         18
    67        136
    68         75
    69        999
    70        110
    71         44
    72          1
    73          1
    74          9
    75         27
    76         27
    77        688
    78        339
    79         70
    80          6
    81         85
    82         27
    83         33
    84         15
    85          9
    86          0
    87          0
    88          0
    89          8
    90          1
    91         53
    92          4
    93         11
    94         34
    95         28
    96          2
    97         21
    98          1
    99          0
   101          0
   102          0
   103          4
   104         12
   105         40
   106          5
   107         12
   108          3
   109         26
   110        392
   111        408
   112         46
   113          2
   114          0
   115          4
   116          1
   117         14
   118          3
   119          1
   120          0
   123          6
   124          0
   125         74
   126         22
   127          5
   128          1
   129          1
   130          0
   131          6
   132          0
   133          0
   135          0
   141         73
   142        135
   143        694
   144         55
   145         32
   146          5
   147         47
   148          5
   149         13
   150          1
   156          0
   158          0
   159          1
   167          0
   169          2
   177          1
   179          0
   182          2
   183          5
   184          0
   185          7
   186          0
   187          6
   188          1
   189          4
   195          1
   197          2
   204          1
   211          4
   220          1
   221          0
   250          0
   252          1
   253        162
   254         25
   255          9
   256          2
   288          4
   289          1
   290          1