##TITLE=Library Entry 78565
##JCAMP-DX=Revision 4.10 
##DATA TYPE=MASS SPECTRUM
##SAMPLE DESCRIPTION=Chuck Anderson, Aldrich Chemical Co.
##NAMES=HP
##CAS NAME=Phenacyl thiocyanate
##MOLFORM=C9H7NOS
##CAS REGISTRY NO=5399-30-4
##MP= -300
##BP= -300
##MW= 177
##$RETENTION INDEX=0
##$CONDENSED SPECTRUM=NO
##NPOINTS= 43
##XYDATA=(XY..XY) 1 
    18          0
    26          4
    27         20
    28          3
    32          6
    36          8
    37          4
    38         12
    39         28
    41          5
    42          9
    43          7
    44          2
    45         15
    46          6
    49          3
    50         59
    51        161
    52         11
    58          9
    59          7
    61          5
    62         11
    63         22
    64          4
    65         46
    66          0
    72          9
    73          6
    74         33
    75         19
    76         25
    77        607
    78         41
    89         12
    91         84
    92          6
   102          0
   105        999
   106         72
   107          4
   120         13
   121          0