##TITLE=Library Entry 6111
##JCAMP-DX=Revision 4.10 
##DATA TYPE=MASS SPECTRUM
##SAMPLE DESCRIPTION=Exported from NIST MS Search
##NAMES=HP
##CAS NAME=Heptadecanenitrile
##MOLFORM=C17H33N
##CAS REGISTRY NO=5399-02-0
##MP= -300
##BP= -300
##MW= 251
##$RETENTION INDEX=0
##$CONDENSED SPECTRUM=NO
##NPOINTS= 170
##XYDATA=(XY..XY) 1 
    12          1
    13          2
    14          5
    15         19
    16          1
    24          1
    25          2
    26         14
    27        277
    28        113
    29        575
    30         36
    31          3
    36          1
    37          4
    38          5
    39        151
    40         36
    41        894
    42        214
    43        999
    44         51
    45          2
    47          1
    49          1
    50          2
    51          6
    52          7
    53         52
    54        167
    55        525
    56        209
    57        747
    58         42
    59          4
    60          1
    61          2
    63          2
    64          2
    65          8
    66          9
    67         63
    68         54
    69        243
    70        266
    71        247
    72         18
    73          2
    76          2
    77          7
    78          4
    79         25
    80         17
    81         51
    82        174
    83        208
    84         94
    85        125
    86         11
    87          2
    89          2
    91          6
    92          3
    93         14
    94         16
    95         28
    96        220
    97        461
    98         72
    99         41
   100          5
   101          1
   103          1
   104          1
   105          3
   106          2
   107          8
   108         14
   109         14
   110        270
   111        209
   112         50
   113         26
   114          5
   115          1
   117          1
   118          1
   119          2
   120          2
   121          6
   122         20
   123          9
   124        204
   125         82
   126         34
   127         18
   128          4
   129          1
   131          1
   133          1
   134          2
   135          5
   136         15
   137          5
   138        138
   139         41
   140         26
   141         10
   142          3
   143          1
   145          1
   147          1
   148          1
   149          3
   150          5
   151          3
   152         87
   153         21
   154         19
   155          6
   156          2
   157          1
   161          1
   162          1
   163          2
   164          4
   165          2
   166         68
   167         19
   168         15
   169          4
   170          2
   171          1
   172          1
   176          1
   177          1
   178          3
   179          2
   180         64
   181         20
   182         12
   183          3
   184          1
   191          1
   192          2
   193          2
   194         76
   195         27
   196         12
   197          3
   198          1
   205          1
   206          2
   207          2
   208         93
   209         32
   210         12
   211          2
   220          2
   222         79
   223         27
   224          6
   225          2
   234          1
   236         49
   237          5
   238          1
   250         28
   251         15
   252          3