##TITLE=Library Entry 40780
##JCAMP-DX=Revision 4.10 
##DATA TYPE=MASS SPECTRUM
##SAMPLE DESCRIPTION=LAC, NIDDK, NIH, Bethesda, MD 20892
##NAMES=HP
##CAS NAME=2,5-Monomethylene-l-rhamnitol
##MOLFORM=C7H14O5
##CAS REGISTRY NO=5399-33-7
##MP= -300
##BP= -300
##MW= 178
##$RETENTION INDEX=0
##$CONDENSED SPECTRUM=NO
##NPOINTS= 83
##XYDATA=(XY..XY) 1 
    41        433
    42        324
    43        762
    44        383
    45        996
    46         56
    47         60
    48          6
    49          4
    50          6
    51         12
    52          4
    53         50
    54         25
    55        320
    56        658
    57        982
    58        477
    59        174
    60        179
    61        182
    62         10
    63          6
    64          7
    65          3
    66          2
    67          6
    68         43
    69        179
    70        198
    71        145
    72         42
    73        999
    74        730
    75        117
    76          8
    77          6
    78          1
    79          3
    81          6
    82          5
    83         19
    84         11
    85        119
    86        331
    87         94
    88         91
    89         22
    90          4
    91         68
    92          4
    95          3
    96          2
    97         17
    98         17
    99         23
   100         70
   101          9
   102          8
   103        366
   104         37
   105          8
   107          0
   111          2
   112          2
   113          4
   114          1
   115         29
   116        223
   117        193
   118         19
   119          3
   129         18
   130         23
   131          5
   133          0
   134          2
   141          1
   143          0
   147         36
   148          4
   149          2
   178          4