##TITLE=Library Entry 15168
##JCAMP-DX=Revision 4.10 
##DATA TYPE=MASS SPECTRUM
##SAMPLE DESCRIPTION=Japan AIST/NIMC Database- Spectrum MS-IW-3281
##NAMES=HP
##CAS NAME=Cefaclor
##MOLFORM=C15H14ClN3O4S
##CAS REGISTRY NO=53994-73-3
##MP= -300
##BP= -300
##MW= 367
##$RETENTION INDEX=0
##$CONDENSED SPECTRUM=NO
##NPOINTS= 256
##XYDATA=(XY..XY) 1 
    15          2
    16         29
    17         14
    18         13
    26          7
    27         10
    28        132
    29         15
    30        117
    31          3
    32         51
    33         47
    34        126
    35        101
    36        733
    37         34
    38        248
    39         28
    40          7
    41         11
    42         11
    43         17
    44        999
    45         45
    46         10
    47          4
    49          2
    50         19
    51         51
    52         25
    53         15
    54         10
    55          5
    56         16
    57         13
    58         11
    59          9
    60         25
    61          6
    62          7
    63         15
    64          7
    65          9
    66          4
    67          5
    68          4
    69          6
    70          5
    71         26
    72         15
    73          9
    74          7
    75          7
    76         14
    77         95
    78         42
    79         59
    80         14
    81          4
    82          4
    83          3
    84          4
    85         11
    86          7
    87          4
    88          3
    89         28
    90         41
    91         68
    92         11
    93          6
    94          6
    95          6
    96          2
    97          4
    98         39
    99        114
   100         15
   101          9
   102          5
   103         18
   104        174
   105         60
   106        289
   107         29
   108          3
   109          2
   110          2
   111          8
   112          9
   113          6
   114          3
   115          3
   116          6
   117         11
   118        126
   119         57
   120          6
   121          5
   122          3
   123          2
   124          3
   125         10
   126         15
   127         17
   128         10
   129          5
   130          4
   131          7
   132         29
   133         11
   134         22
   135          5
   136          8
   137          3
   138          6
   139         21
   140          9
   141          3
   142          2
   143          3
   144          4
   145          3
   146          9
   147        218
   148         26
   149          7
   150          2
   151          2
   152          1
   153          5
   154          7
   155          3
   156          4
   157          5
   158          3
   159          2
   160          3
   161         21
   162         19
   163          4
   164          1
   165          1
   166          1
   167          1
   168          1
   169          2
   170          3
   171          3
   172          8
   173         17
   174          6
   175          3
   176          9
   177          2
   178          1
   179          1
   180          1
   181          3
   182          5
   183          4
   184          2
   185          1
   186          3
   187          3
   188         11
   189         10
   190         86
   191         11
   192          2
   193          1
   194          1
   195          1
   196          4
   197          1
   198          2
   199          2
   200          5
   201          3
   202          5
   203          4
   204          1
   205          1
   206          4
   207          1
   208          1
   209          1
   210          2
   211          9
   212          4
   213          4
   214          3
   215          6
   216          4
   217         13
   218          3
   219          1
   220          1
   222          1
   224          1
   225          3
   226          5
   227          4
   228          3
   229          1
   230          1
   231          2
   232          3
   233          2
   234          3
   237          1
   238          1
   240          1
   241          4
   242          5
   243          4
   244          9
   245          4
   246          2
   247          1
   248          1
   249          4
   253          2
   254          5
   255          2
   256          1
   257          4
   258          4
   259          5
   260          1
   261          1
   262          1
   268          1
   269          2
   270          4
   271          2
   272          1
   284          1
   285         11
   286         18
   287         72
   288         13
   289          8
   290          1
   297          1
   305          2
   306          1
   307          1
   312          1
   313          1
   319          3
   323          1
   324          1
   325          1
   331          3
   332          1