##TITLE=Library Entry 55677
##JCAMP-DX=Revision 4.10 
##DATA TYPE=MASS SPECTRUM
##SAMPLE DESCRIPTION=R RYHAGE MS-LAB KAROLINSKA INSTITUTET STOCKHOLM SWEDEN
##NAMES=HP
##CAS NAME=Chloroquine
##MOLFORM=C18H26ClN3
##CAS REGISTRY NO=54-05-7
##MP= -300
##BP= -300
##MW= 319
##$RETENTION INDEX=2625
##$CONDENSED SPECTRUM=NO
##NPOINTS= 145
##XYDATA=(XY..XY) 1 
    26         13
    27         19
    28         18
    29         63
    30        166
    31          5
    35          2
    36         19
    38         12
    39         22
    40          4
    41         62
    42         88
    43         16
    44         38
    45          5
    49          9
    50          2
    51          5
    52         11
    53         13
    54         18
    55         20
    56         79
    57         20
    58        131
    59         13
    63         11
    65         15
    67         16
    68         15
    69          9
    70         15
    71         19
    72         27
    73         81
    74         19
    75         22
    76          1
    78          5
    80         11
    84         36
    86        999
    87         98
    88          9
    89          9
    93         12
    96         18
    97          8
    98         18
    99         49
   100         22
   102          9
   110         12
   111         13
   112         54
   113         20
   114         22
   115         12
   116         11
   120          5
   123          9
   125          6
   126         30
   127         11
   128          9
   129          6
   131          6
   135         31
   136         15
   137         13
   139          6
   140         22
   141         12
   142         22
   143         18
   147          5
   148          5
   149          9
   150         11
   152         18
   155         25
   156          6
   157          9
   162         27
   163         18
   164         16
   165         12
   166          9
   167          5
   168         16
   169         47
   170         29
   177         15
   178         11
   179         27
   181         11
   189          8
   190         12
   191         26
   192         12
   193          5
   194          5
   195         12
   197         11
   202         13
   203         15
   204         13
   205         51
   206         11
   207         22
   208          6
   211         13
   215          9
   217         13
   218         13
   219         19
   220         12
   221         19
   223          1
   229          8
   231         23
   233         16
   235          9
   236          5
   243          5
   245         41
   246         19
   247         43
   248         20
   249         11
   250          8
   251          5
   281          2
   290         44
   291         15
   292         15
   295         12
   304         13
   315          4
   316          1
   319         63
   320         20
   321         31
   322          5