##TITLE=Library Entry 1404
##JCAMP-DX=Revision 4.10 
##DATA TYPE=MASS SPECTRUM
##SAMPLE DESCRIPTION=AAFS Toxicology Section MS DB Committee, U. Alberta, Ca
nada
##NAMES=HP
##CAS NAME=Benzeneethanamine, 3,4,5-trimethoxy-
##MOLFORM=C11H17NO3
##CAS REGISTRY NO=54-04-6
##MP= -300
##BP= -300
##MW= 211
##$RETENTION INDEX=1696
##$CONDENSED SPECTRUM=NO
##NPOINTS= 119
##XYDATA=(XY..XY) 1 
    29         29
    30        999
    31         11
    33          1
    36          1
    37          6
    38         15
    39         81
    41         39
    42         15
    43         22
    44          7
    45         18
    46          4
    47          1
    49          2
    50         28
    51         71
    52        102
    53         71
    54         17
    55         17
    57          7
    58          5
    59          2
    60          1
    62          9
    63         39
    64         45
    65         79
    66         37
    67         22
    68          5
    69         10
    70          4
    71          1
    72          1
    73          1
    74          4
    75         12
    76          9
    77         90
    78         57
    79         42
    80         98
    81         23
    82          7
    83          1
    84          1
    85          1
    86          1
    89         21
    90         19
    91        179
    92         48
    93         25
    94         14
    95         58
    96          5
    97          4
   101          1
   103          5
   104          8
   105         27
   106         65
   107         61
   108         26
   109         23
   110          7
   111          1
   115          2
   116          1
   118          4
   119          9
   120         26
   121         54
   122         20
   123         46
   124         38
   125          5
   132          5
   133         15
   134         11
   135         22
   136        130
   137         31
   138          8
   139         33
   140          3
   146          1
   147          9
   148          8
   149         12
   150          4
   151         63
   152         23
   153          6
   155          1
   163          2
   164          4
   165         23
   166        274
   167        161
   168         22
   169          2
   176          1
   179         24
   180         77
   181        166
   182        638
   183         68
   184          7
   190          1
   192          3
   194          1
   195          1
   196          2
   211         35
   212          6