##TITLE=Library Entry 54268
##JCAMP-DX=Revision 4.10 
##DATA TYPE=MASS SPECTRUM
##SAMPLE DESCRIPTION=Japan AIST/NIMC Database- Spectrum MS-NW-5705
##NAMES=HP
##CAS NAME=Pyridine, 3-(1-methyl-2-pyrrolidinyl)-, (S)-
##MOLFORM=C10H14N2
##CAS REGISTRY NO=54-11-5
##MP= -300
##BP= -300
##MW= 162
##$RETENTION INDEX=1361
##$CONDENSED SPECTRUM=NO
##NPOINTS= 101
##XYDATA=(XY..XY) 1 
    15         19
    17          4
    18         21
    26          4
    27         16
    28         17
    29          5
    30          8
    32          1
    37          2
    38          8
    39         35
    40          5
    41         22
    42        121
    43          8
    44         16
    46          1
    49          1
    50         11
    51         33
    52         15
    53          8
    54         12
    55         29
    56          6
    57          6
    58          3
    59          4
    60          1
    61          1
    62          5
    63         16
    64          8
    65         31
    66          8
    67          7
    68          6
    69          4
    70          3
    73          2
    74          2
    75          3
    76          4
    77         15
    78         26
    79         11
    80         10
    81          8
    82         29
    83          8
    84        999
    85         61
    86          1
    88          1
    89          4
    90          6
    91         14
    92         42
    93         12
    94          3
    98          2
   102          1
   103          4
   104         12
   105         20
   106         13
   107          9
   108          1
   115          1
   116          3
   117         21
   118         37
   119         63
   120         19
   121          4
   128          1
   129          1
   130         28
   131          9
   132         10
   133        216
   134         32
   135          2
   142          1
   143          2
   144          4
   145          6
   146          3
   147          5
   148          1
   155          2
   156          4
   157          7
   158         15
   159         14
   160         10
   161        145
   162        176
   163         19
   164          1