##TITLE=Library Entry 50997
##JCAMP-DX=Revision 4.10 
##DATA TYPE=MASS SPECTRUM
##SAMPLE DESCRIPTION=Japan AIST/NIMC Database- Spectrum MS-NW-6096
##NAMES=HP
##CAS NAME=Furosemide
##MOLFORM=C12H11ClN2O5S
##CAS REGISTRY NO=54-31-9
##MP= -300
##BP= -300
##MW= 330
##$RETENTION INDEX=0
##$CONDENSED SPECTRUM=NO
##NPOINTS= 210
##XYDATA=(XY..XY) 1 
    16          1
    17          9
    18         37
    26          2
    27         32
    28         13
    29          4
    32          2
    36          6
    37          1
    38          4
    39         13
    40          2
    41          4
    42          1
    43          2
    44          7
    45          3
    46          1
    48          3
    49          1
    50          5
    51         12
    52         12
    53        113
    54          7
    55          2
    57          2
    61          3
    62          7
    63         10
    64          9
    65          3
    66          2
    67          1
    68          3
    69          3
    70          3
    71          1
    72          1
    73          3
    74          7
    75          9
    76          4
    77          4
    78          5
    79          3
    80          4
    81        999
    82         61
    83          5
    84          2
    85          2
    86          1
    87          3
    88          5
    89          4
    90          4
    91          2
    92          1
    93          1
    94          4
    95          4
    96         78
    97          7
    98          2
    99          4
   100          2
   101          2
   102          4
   103          2
   104          1
   105          4
   106          2
   107          1
   108          1
   109          4
   110          4
   111          2
   112          3
   113          6
   114          4
   115          3
   116          7
   117          3
   118          1
   120          3
   121          1
   122          1
   123          2
   124          4
   125          5
   126          4
   127          2
   128          2
   129          1
   130          1
   133          1
   134          1
   135          1
   136          1
   137          2
   138          2
   139          3
   140          6
   141          5
   142          4
   143          2
   144          1
   146          1
   147          1
   148          1
   149          3
   150          2
   151          2
   152          2
   153          2
   154          2
   155          1
   156          7
   157          4
   158          1
   161          1
   163          1
   164          2
   165          4
   166          2
   167          2
   168          4
   169          2
   170          2
   171          1
   172          1
   174          1
   175          2
   176          3
   177          2
   178          2
   179          1
   180          1
   182          1
   183          1
   184          1
   185          1
   186          2
   187          1
   188          1
   190          1
   191          1
   192          2
   193          1
   196          2
   197          1
   198          1
   202          1
   203          5
   204          3
   205          4
   206          2
   207          1
   216          1
   218          1
   219          1
   220          1
   222          1
   230          1
   231          2
   232          9
   233          3
   234          5
   235          2
   236          1
   243          1
   245          6
   246          1
   247          3
   248          1
   249          1
   250          9
   251          3
   252          3
   253          1
   256          4
   257          1
   258          2
   259          1
   283          8
   284          8
   285          5
   286          4
   287          2
   296          1
   298          1
   300          1
   301          1
   302          7
   303          1
   304          3
   311          5
   312         11
   313          5
   314          6
   315          2
   316          1
   329          5
   330        127
   331         20
   332         48
   333          8
   334          3