##TITLE=Library Entry 56337
##JCAMP-DX=Revision 4.10 
##DATA TYPE=MASS SPECTRUM
##SAMPLE DESCRIPTION=NIST Mass Spectrometry Data Center, 2010
##NAMES=HP
##CAS NAME=Camylofin
##MOLFORM=C19H32N2O2
##CAS REGISTRY NO=54-30-8
##MP= -300
##BP= -300
##MW= 320
##$RETENTION INDEX=0
##$CONDENSED SPECTRUM=NO
##NPOINTS= 81
##XYDATA=(XY..XY) 1 
    26          1
    27          5
    28         10
    29         16
    30         33
    31          1
    39          4
    41         16
    42         17
    43         33
    44         18
    51          3
    53          1
    54          3
    55          9
    56         23
    57         11
    58         54
    59          2
    63          2
    64          1
    65          2
    69         19
    70         10
    71          7
    72         53
    73         12
    74          1
    76          1
    77          8
    78          3
    79          8
    80          1
    84          5
    86        999
    87         89
    88          3
    89          5
    90          6
    91         23
    92          2
    95          7
    98          2
    99          8
   100         28
   101         13
   103          2
   104         11
   105          9
   106          2
   107          6
   112          1
   113          5
   114          5
   115          1
   117          4
   118         30
   119          6
   120          2
   130          3
   131          1
   132         11
   133          1
   134          5
   135          8
   136          1
   161          5
   162          1
   175          1
   188          1
   203          2
   205         17
   206          4
   234          4
   235          1
   303         11
   304          2
   305          1
   320         22
   321          4
   322          1