##TITLE=Library Entry 97768
##JCAMP-DX=Revision 4.10 
##DATA TYPE=MASS SPECTRUM
##SAMPLE DESCRIPTION=RADIAN CORP
##NAMES=HP
##CAS NAME=Idoxuridine
##MOLFORM=C9H11IN2O5
##CAS REGISTRY NO=54-42-2
##MP= -300
##BP= -300
##MW= 354
##$RETENTION INDEX=0
##$CONDENSED SPECTRUM=NO
##NPOINTS= 183
##XYDATA=(XY..XY) 1 
    15          5
    16          1
    25          2
    26          9
    27         41
    28         50
    29         88
    30         10
    31         92
    32          2
    36          2
    37          6
    38         19
    39         63
    40         66
    41         96
    42         75
    43        223
    44         81
    45        164
    46          5
    47         13
    48          2
    49          2
    50          7
    51         13
    52         22
    53        134
    54         40
    55         72
    56         16
    57         72
    58         10
    59          5
    60         13
    61         12
    63          1
    64          2
    65          5
    66         14
    67         60
    68         54
    69        132
    70         67
    71        136
    72         18
    73        253
    74         12
    75          9
    76          2
    77          2
    78          6
    79         11
    80         10
    81         84
    82         16
    83         11
    84         12
    85         31
    86          7
    87         12
    88          2
    91          7
    92          4
    93          8
    94         23
    95         34
    96         27
    97         80
    98        110
    99        196
   100         13
   101          4
   103          1
   104          3
   105         11
   106          6
   107         12
   108          5
   109          7
   110          6
   111         19
   112         78
   113         16
   114          4
   115         23
   116         18
   117        999
   118         63
   119         15
   120          9
   121          6
   122          6
   123          5
   124          4
   125          3
   127        131
   128         16
   129          6
   130          2
   131          5
   132          1
   133          5
   134          3
   135          8
   136          4
   137          6
   139         52
   140         45
   141          6
   142          4
   143          6
   144          2
   145          7
   146          3
   147         11
   148          2
   149          6
   151          2
   152        123
   153         15
   154          6
   155          7
   156          1
   157          2
   158          1
   159          3
   160          2
   161          3
   163          2
   165         13
   166         61
   167         33
   168        163
   169          6
   170          2
   171          2
   173          2
   178          5
   179          4
   180          4
   181          7
   182          4
   185          1
   190          4
   191          1
   192          5
   193          7
   194         16
   195        234
   196         22
   197          4
   199          1
   206          3
   207          1
   208         10
   209          2
   210          1
   213          2
   221         12
   222         52
   223          4
   224          1
   234          9
   238        354
   239         86
   240          8
   247          2
   250          2
   251          1
   254         13
   255          1
   262         11
   263          1
   264          3
   265          9
   266          6
   268          3
   293          1
   311          3
   318          2
   354         24
   355          3