##TITLE=Library Entry 15804
##JCAMP-DX=Revision 4.10 
##DATA TYPE=MASS SPECTRUM
##SAMPLE DESCRIPTION=Patti Price, Georgia Bureau of Investigation, Decatur,
 Georgia
##NAMES=HP
##CAS NAME=Metaraminol
##MOLFORM=C9H13NO2
##CAS REGISTRY NO=54-49-9
##MP= -300
##BP= -300
##MW= 167
##$RETENTION INDEX=0
##$CONDENSED SPECTRUM=NO
##NPOINTS= 36
##XYDATA=(XY..XY) 1 
    42         47
    43         15
    44        999
    45         19
    50         18
    51         56
    52         12
    53         15
    54          7
    55        123
    56          8
    63         37
    64         12
    65         97
    66         41
    68         13
    69         23
    74          6
    75          9
    77        173
    78         29
    80          1
    89          3
    93         40
    94         21
    95         71
    96          7
   105          9
   107         13
   116          4
   119          2
   121         35
   123         11
   134         10
   148          3
   167          7