##TITLE=Library Entry 85697
##JCAMP-DX=Revision 4.10 
##DATA TYPE=MASS SPECTRUM
##SAMPLE DESCRIPTION=K. Kirk, LBC, NIDDK, NIH, Bethesda, MD 20892
##NAMES=HP
##CAS NAME=3,4-Pyridinediamine
##MOLFORM=C5H7N3
##CAS REGISTRY NO=54-96-6
##MP= -300
##BP= -300
##MW= 109
##$RETENTION INDEX=0
##$CONDENSED SPECTRUM=NO
##NPOINTS= 58
##XYDATA=(XY..XY) 1 
    41         48
    42         22
    43         16
    44         87
    45         10
    46          3
    48          1
    49          3
    50          3
    51         22
    52        100
    53         52
    54        134
    55         87
    56         32
    57          8
    58          3
    59          4
    60          1
    61          1
    62          2
    63          6
    64         20
    65         38
    66         21
    67         17
    68         12
    69         28
    70          3
    71          3
    73          1
    74          0
    75          1
    76          3
    77          9
    78         11
    79          6
    80          9
    81        125
    82        126
    83         11
    84          7
    85          2
    89          4
    90          1
    91          6
    92         13
    93         14
    94          6
   103          0
   105          2
   106          6
   107          4
   108         47
   109        999
   110        132
   111          7
   112          1