##TITLE=Library Entry 37242
##JCAMP-DX=Revision 4.10 
##DATA TYPE=MASS SPECTRUM
##SAMPLE DESCRIPTION=Japan AIST/NIMC Database- Spectrum MS-NW-5154
##NAMES=HP
##CAS NAME=Hexanoic acid, pentyl ester
##MOLFORM=C11H22O2
##CAS REGISTRY NO=540-07-8
##MP= -300
##BP= -300
##MW= 186
##$RETENTION INDEX=1287
##$CONDENSED SPECTRUM=NO
##NPOINTS= 96
##XYDATA=(XY..XY) 1 
    14          1
    15          9
    17          1
    18          7
    26          8
    27        164
    28         43
    29        238
    30          6
    31         12
    32          4
    37          1
    38          3
    39         89
    40         19
    41        313
    42        304
    43        946
    44         31
    45         24
    50          1
    51          4
    52          2
    53         17
    54         11
    55        298
    56         36
    57         43
    58          9
    59         11
    60        191
    61        125
    62          4
    63          1
    65          2
    66          1
    67          8
    68          9
    69        109
    70        999
    71        428
    72         23
    73        159
    74         22
    75         20
    76          1
    79          1
    80          4
    81          8
    82          2
    83         15
    84          5
    85         14
    86          6
    87         97
    88          8
    89         48
    90          2
    95          1
    96          1
    97         14
    98         12
    99        749
   100         56
   101         15
   102         15
   103          3
   111          1
   112          4
   113         27
   114          7
   115         27
   116         46
   117        699
   118         47
   119          4
   125          1
   127          9
   128          2
   129          9
   130         35
   131         32
   132          3
   141          5
   142          1
   143         10
   144          3
   145         10
   146          1
   156          1
   157          6
   158          2
   159          7
   160          1
   186          1
   187          1