##TITLE=Library Entry 31846
##JCAMP-DX=Revision 4.10 
##DATA TYPE=MASS SPECTRUM
##SAMPLE DESCRIPTION=Exported from NIST MS Search
##NAMES=HP
##CAS NAME=Phenol, 4-iodo-
##MOLFORM=C6H5IO
##CAS REGISTRY NO=540-38-5
##MP= -300
##BP= -300
##MW= 220
##$RETENTION INDEX=1398
##$CONDENSED SPECTRUM=NO
##NPOINTS= 101
##XYDATA=(XY..XY) 1 
    12          4
    13          5
    24          3
    25         15
    26         50
    27         52
    36         24
    37        151
    38        300
    39        829
    40         32
    41         33
    42         26
    43         35
    44          6
    45          5
    48          7
    49         45
    50        168
    51         60
    52          8
    53        161
    54         16
    55         38
    56         13
    57         19
    60         24
    61         86
    62        219
    63        381
    64        207
    65        999
    66         94
    67         18
    68          3
    69         13
    70          4
    71          9
    72          3
    73         25
    74         68
    75         35
    76         15
    77         10
    78          1
    79          3
    80          2
    81         13
    82          3
    83          7
    84          5
    85          5
    89          1
    90          4
    91          6
    92         43
    93        429
    94         29
    95          8
    96          2
    97          5
    98          1
    99          1
   105          8
   106          1
   107          1
   109         11
   110         26
   111          3
   119          2
   120          2
   121         12
   122          1
   123          4
   124          6
   125          2
   127        343
   128         21
   129          1
   130          1
   137          1
   138          7
   139          6
   140          1
   141          1
   149          3
   151          1
   152          5
   153          1
   163          2
   164          5
   165         10
   172          2
   174          2
   176          2
   191         19
   192          1
   219          6
   220        524
   221         35
   222          2