##TITLE=Library Entry 90871
##JCAMP-DX=Revision 4.10 
##DATA TYPE=MASS SPECTRUM
##SAMPLE DESCRIPTION=Chuck Anderson, Aldrich Chemical Co.
##NAMES=HP
##CAS NAME=Benzene, 1,4-difluoro-
##MOLFORM=C6H4F2
##CAS REGISTRY NO=540-36-3
##MP= -300
##BP= -300
##MW= 114
##$RETENTION INDEX=687
##$CONDENSED SPECTRUM=NO
##NPOINTS= 57
##XYDATA=(XY..XY) 1 
    25          1
    26          5
    27          3
    31         61
    32          2
    33          2
    36          6
    37         42
    38         38
    39         25
    44          6
    45          4
    47          2
    48          3
    49         17
    50        128
    51         25
    52          0
    55          3
    56         24
    57        149
    58          3
    60          4
    61         37
    62         51
    63        355
    64         46
    65          1
    68         54
    69         39
    70         46
    71          1
    72          1
    73         14
    74         48
    75         66
    76          3
    79          1
    80          4
    81         46
    82          2
    83         10
    86          3
    87          9
    88        161
    89          6
    92          8
    93         12
    94         51
    95         20
    96          1
    99          2
   112          5
   113         27
   114        999
   115         59
   116          1