##TITLE=Library Entry 8941
##JCAMP-DX=Revision 4.10 
##DATA TYPE=MASS SPECTRUM
##SAMPLE DESCRIPTION=Japan AIST/NIMC Database- Spectrum MS-NW-8457
##NAMES=HP
##CAS NAME=Butanoic acid, pentyl ester
##MOLFORM=C9H18O2
##CAS REGISTRY NO=540-18-1
##MP= -300
##BP= -300
##MW= 158
##$RETENTION INDEX=1077
##$CONDENSED SPECTRUM=NO
##NPOINTS= 57
##XYDATA=(XY..XY) 1 
    14          1
    15         11
    17          1
    18          6
    19          1
    26          9
    27        199
    28         45
    29        151
    30          4
    31         14
    32          1
    37          1
    38          4
    39         94
    40         19
    41        314
    42        335
    43        999
    44         38
    45         17
    47          2
    51          2
    53          9
    54          7
    55        243
    56         15
    57         17
    58          5
    59          1
    60         76
    61         20
    67          3
    68          3
    69         64
    70        491
    71        910
    72         40
    73         57
    74          2
    85         10
    86         13
    87         10
    88         45
    89        454
    90         19
    91          2
    97          1
   100          1
   101         29
   102          4
   115         12
   116          1
   128          1
   129          3
   130          6
   159          2