##TITLE=Library Entry 1491
##JCAMP-DX=Revision 4.10 
##DATA TYPE=MASS SPECTRUM
##SAMPLE DESCRIPTION=Japan AIST/NIMC Database- Spectrum MS-NW-2182
##NAMES=HP
##CAS NAME=Ethanol, 2-bromo-
##MOLFORM=C2H5BrO
##CAS REGISTRY NO=540-51-2
##MP= -300
##BP= -300
##MW= 124
##$RETENTION INDEX=1492
##$CONDENSED SPECTRUM=NO
##NPOINTS= 64
##XYDATA=(XY..XY) 1 
    12          3
    13          9
    14         43
    15        194
    16          8
    17         12
    18         49
    19          5
    24          2
    25         10
    26         69
    27        343
    28         78
    29        228
    30         21
    31        999
    32          9
    33          2
    36          6
    38          2
    40          1
    41          9
    42         51
    43        231
    44        423
    45        769
    46         16
    47          1
    57          5
    58         17
    59          2
    61          1
    73          4
    75         16
    79         24
    80         20
    81         27
    82         18
    83          2
    87          2
    88         19
    89          1
    91          7
    92          7
    93         41
    94         71
    95        133
    96         65
    97        103
    98          1
   104          1
   105          6
   106          6
   107         94
   108          7
   109         88
   110          2
   121          1
   122          1
   123         17
   124         52
   125         16
   126         52
   127          1