##TITLE=Library Entry 19828
##JCAMP-DX=Revision 4.10 
##DATA TYPE=MASS SPECTRUM
##SAMPLE DESCRIPTION=NIST Mass Spectrometry Data Center
##NAMES=HP
##CAS NAME=Aminoacetonitrile
##MOLFORM=C2H4N2
##CAS REGISTRY NO=540-61-4
##MP= -300
##BP= -300
##MW= 56
##$RETENTION INDEX=0
##$CONDENSED SPECTRUM=NO
##NPOINTS= 20
##XYDATA=(XY..XY) 1 
    16          2
    24          2
    25          3
    26         12
    27         54
    28        184
    29        181
    30        148
    31          4
    38         33
    39         36
    40         65
    41         11
    45          2
    52         18
    53        142
    54         29
    55        999
    56        550
    57         15