##TITLE=Library Entry 44297
##JCAMP-DX=Revision 4.10 
##DATA TYPE=MASS SPECTRUM
##SAMPLE DESCRIPTION=Japan AIST/NIMC Database- Spectrum MS-IW-1797
##NAMES=HP
##CAS NAME=Cyclohexasiloxane, dodecamethyl-
##MOLFORM=C12H36O6Si6
##CAS REGISTRY NO=540-97-6
##MP= -300
##BP= -300
##MW= 444
##$RETENTION INDEX=1335
##$CONDENSED SPECTRUM=NO
##NPOINTS= 114
##XYDATA=(XY..XY) 1 
    15          7
    27          1
    28          2
    29          1
    31          2
    43          9
    44          2
    45         49
    46          2
    47          2
    55          1
    57          2
    58          6
    59         52
    60          3
    61          3
    71          2
    72          3
    73        999
    74         89
    75         44
    76          2
    83          1
    85          4
    87          7
   103          1
   115          1
   117          9
   118          1
   119          2
   131          4
   133         10
   134          1
   135          1
   147        122
   148         18
   149          9
   163          2
   165          1
   177          3
   179          3
   189          1
   191          9
   192          2
   193          9
   194          2
   195          1
   205          2
   207         31
   208          6
   209          3
   221          5
   222          1
   223          2
   235          1
   237          3
   238          1
   239          1
   249          6
   250          1
   251          9
   252          2
   253          4
   254          1
   263          1
   265          4
   266          1
   267          9
   268          2
   269          1
   281          9
   282          3
   283          1
   293          1
   295          6
   296          2
   297          2
   309          2
   311         11
   312          3
   313          2
   314          1
   323          4
   324          1
   325         81
   326         26
   327         20
   328          5
   329          2
   339          3
   341        272
   342         90
   343         61
   344         13
   345          5
   355          2
   369          1
   381          1
   383          1
   397          3
   398          1
   399          4
   400          2
   401          1
   413         10
   414          5
   415          4
   416          1
   429        383
   430        160
   431        114
   432         34
   433         13
   434          3