##TITLE=Library Entry 23124
##JCAMP-DX=Revision 4.10 
##DATA TYPE=MASS SPECTRUM
##SAMPLE DESCRIPTION=Exported from NIST MS Search
##NAMES=HP
##CAS NAME=Propanoic acid, 2-methylpropyl ester
##MOLFORM=C7H14O2
##CAS REGISTRY NO=540-42-1
##MP= -300
##BP= -300
##MW= 130
##$RETENTION INDEX=866
##$CONDENSED SPECTRUM=NO
##NPOINTS= 71
##XYDATA=(XY..XY) 1 
     2          2
    12          2
    13          3
    14         14
    15         48
    16          2
    17          1
    18          2
    19          1
    24          1
    25          3
    26         44
    27        250
    28         78
    29        467
    30         17
    31         35
    32          1
    33          1
    36          1
    37          4
    38          8
    39         85
    40         14
    41        161
    42         31
    43         77
    44          4
    45          9
    46          1
    47          1
    49          1
    50          2
    51          2
    52          1
    53          5
    54          3
    55         30
    56        276
    57        999
    58         35
    59          5
    60          1
    61          1
    69          1
    70          3
    71         30
    72          3
    73         25
    74         14
    75         72
    76          3
    77          1
    78          1
    79          1
    83          1
    85          1
    86          1
    87         80
    88          6
    89          1
    99          1
   100          9
   101          3
   102          1
   105          1
   106          1
   114          1
   115          1
   129          1
   130          1