##TITLE=Library Entry 31014
##JCAMP-DX=Revision 4.10 
##DATA TYPE=MASS SPECTRUM
##SAMPLE DESCRIPTION=Japan AIST/NIMC Database- Spectrum MS-IW-5648
##NAMES=HP
##CAS NAME=1,2-Ethanedithiol
##MOLFORM=C2H6S2
##CAS REGISTRY NO=540-63-6
##MP= -300
##BP= -300
##MW= 94
##$RETENTION INDEX=844
##$CONDENSED SPECTRUM=NO
##NPOINTS= 55
##XYDATA=(XY..XY) 1 
    12          1
    13          1
    14          2
    15          4
    24          1
    25          6
    26         43
    27        307
    28         57
    29          4
    32         54
    33         67
    34        124
    35        226
    36          8
    37          9
    38          1
    41          1
    44         29
    45        383
    46        188
    47        896
    48        105
    49         61
    50          5
    51          1
    55          1
    56         10
    57         72
    58        173
    59        423
    60        999
    61        515
    62         60
    63         21
    64         34
    65         26
    66         19
    67          4
    68          1
    76         22
    77          3
    78          4
    79          4
    88          5
    89          2
    90          3
    91          9
    92         10
    93          3
    94        925
    95         35
    96         84
    97          3
    98          2