##TITLE=Library Entry 7673
##JCAMP-DX=Revision 4.10 
##DATA TYPE=MASS SPECTRUM
##SAMPLE DESCRIPTION=Chuck Anderson, Aldrich Chemical Co.
##NAMES=HP
##CAS NAME=Acetic acid, 1,1-dimethylethyl ester
##MOLFORM=C6H12O2
##CAS REGISTRY NO=540-88-5
##MP= -300
##BP= -300
##MW= 116
##$RETENTION INDEX=639
##$CONDENSED SPECTRUM=NO
##NPOINTS= 38
##XYDATA=(XY..XY) 1 
    13          0
    14          6
    15         66
    16          1
    18          0
    26          4
    27         46
    28         18
    29        154
    30          3
    31         32
    32          0
    36          0
    37          2
    38          8
    39        105
    40         19
    41        375
    42         38
    43        999
    44         21
    45          7
    50          3
    51          4
    52          0
    53          5
    54          1
    55         25
    56        303
    57        429
    58         20
    59        314
    60         10
    61         19
    73          1
   101        204
   102         10
   103          1