##TITLE=Library Entry 31308
##JCAMP-DX=Revision 4.10 
##DATA TYPE=MASS SPECTRUM
##SAMPLE DESCRIPTION=NIST Mass Spectrometry Data Center
##NAMES=HP
##CAS NAME=1,2-Dichloroethylene
##MOLFORM=C2H2Cl2
##CAS REGISTRY NO=540-59-0
##MP= -300
##BP= -300
##MW= 96
##$RETENTION INDEX=552
##$CONDENSED SPECTRUM=NO
##NPOINTS= 31
##XYDATA=(XY..XY) 1 
    12          1
    13          2
    24          9
    25         48
    26        108
    27          2
    35         73
    36         12
    37         25
    38          4
    47         46
    48         47
    49         30
    50         13
    51          2
    59         23
    60        222
    61        999
    62         90
    63        330
    64          6
    70          8
    72          5
    94          5
    95         16
    96        691
    97         25
    98        443
    99         11
   100         72
   101          1