##TITLE=Library Entry 971
##JCAMP-DX=Revision 4.10 
##DATA TYPE=MASS SPECTRUM
##SAMPLE DESCRIPTION=Japan AIST/NIMC Database- Spectrum MS-NW-4194
##NAMES=HP
##CAS NAME=t-Butyl nitrite
##MOLFORM=C4H9NO2
##CAS REGISTRY NO=540-80-7
##MP= -300
##BP= -300
##MW= 103
##$RETENTION INDEX=533
##$CONDENSED SPECTRUM=NO
##NPOINTS= 48
##XYDATA=(XY..XY) 1 
    12          1
    13          3
    14         18
    15        127
    16          5
    17          4
    18         13
    19          1
    25          3
    26         20
    27         90
    28         30
    29        127
    30        999
    31         86
    32          4
    33          2
    36          1
    37          7
    38          9
    39         59
    40          9
    41        181
    42         32
    43        563
    44         15
    45         21
    46          2
    47          1
    48          1
    49          1
    50          4
    51          3
    52          1
    53          5
    54          1
    55         20
    56         29
    57        278
    58         58
    59        243
    60         11
    61          2
    62          1
    71          1
    73          4
    88        216
    89          9