##TITLE=Library Entry 22161
##JCAMP-DX=Revision 4.10 
##DATA TYPE=MASS SPECTRUM
##SAMPLE DESCRIPTION=NIST Mass Spectrometry Data Center
##NAMES=HP
##CAS NAME=4-t-Butylcyclohexylamine
##MOLFORM=C10H21N
##CAS REGISTRY NO=5400-88-4
##MP= -300
##BP= -300
##MW= 155
##$RETENTION INDEX=0
##$CONDENSED SPECTRUM=NO
##NPOINTS= 47
##XYDATA=(XY..XY) 1 
    17          1
    18         12
    27         19
    28         59
    29         14
    30         70
    38          5
    39         60
    41        134
    42         68
    43        186
    44         12
    51         10
    52          6
    53         27
    54         15
    56        999
    57         93
    58          5
    65          8
    67         55
    68         12
    69         32
    70         10
    77         12
    78          5
    79         21
    80         14
    81         75
    82         25
    83         10
    84         45
    93          4
    94          7
    95         27
    96         16
    98         27
    99          4
   109         11
   110          7
   123         40
   124          4
   138         11
   140          5
   154          7
   155         40
   156          5