##TITLE=Library Entry 23115
##JCAMP-DX=Revision 4.10 
##DATA TYPE=MASS SPECTRUM
##SAMPLE DESCRIPTION=Exported from NIST MS Search
##NAMES=HP
##CAS NAME=2-Pentanol, propanoate
##MOLFORM=C8H16O2
##CAS REGISTRY NO=54004-43-2
##MP= -300
##BP= -300
##MW= 144
##$RETENTION INDEX=883
##$CONDENSED SPECTRUM=NO
##NPOINTS= 41
##XYDATA=(XY..XY) 1 
    14          3
    15          9
    16          3
    17         21
    18        106
    26         18
    27        126
    28        173
    29        411
    30         11
    31         11
    32         18
    39         71
    40         12
    41        128
    42        152
    43        337
    44         25
    45         59
    53         18
    54          9
    55        248
    56         29
    57        999
    58         33
    67          6
    69         13
    70        249
    71        130
    72         12
    73          8
    74         21
    75         73
    87         18
   100         18
   101        122
   102          8
   115         12
   116          5
   129         15
   144          5