##TITLE=Library Entry 40537
##JCAMP-DX=Revision 4.10 
##DATA TYPE=MASS SPECTRUM
##SAMPLE DESCRIPTION=W1-14-A
##NAMES=HP
##CAS NAME=1-Heptene, 5-methoxy-4-methyl-
##MOLFORM=C9H18O
##CAS REGISTRY NO=54004-21-6
##MP= -300
##BP= -300
##MW= 142
##$RETENTION INDEX=0
##$CONDENSED SPECTRUM=NO
##NPOINTS= 66
##XYDATA=(XY..XY) 1 
    15          1
    16         20
    17         12
    18         94
    19          2
    26          9
    27         85
    28         18
    29         80
    30          3
    31         15
    32          4
    38          9
    39         40
    40         18
    41        265
    42         27
    43         49
    44          1
    45        259
    46          7
    50          5
    51         12
    52          5
    53         42
    54         13
    55         94
    56         13
    57         32
    58          5
    59         59
    65         11
    66          4
    67         33
    68         21
    69         51
    70         12
    71         48
    72         92
    73        999
    74         38
    75          2
    77          7
    79         13
    81        110
    82         10
    83         10
    84          0
    85          8
    86         12
    95         27
    96          2
    97          5
    98          0
    99          9
   100         34
   101          4
   109          2
   110         38
   111          5
   112          0
   113         89
   114          7
   115          0
   119          0
   142          0