##TITLE=Library Entry 25389
##JCAMP-DX=Revision 4.10 
##DATA TYPE=MASS SPECTRUM
##SAMPLE DESCRIPTION=Exported from NIST MS Search
##NAMES=HP
##CAS NAME=1-Pentanol, 3-methyl-2-propyl-
##MOLFORM=C9H20O
##CAS REGISTRY NO=54004-40-9
##MP= -300
##BP= -300
##MW= 144
##$RETENTION INDEX=0
##$CONDENSED SPECTRUM=NO
##NPOINTS= 91
##XYDATA=(XY..XY) 1 
    12          1
    13          1
    14          5
    15         31
    16          2
    17          5
    18         18
    19          3
    25          1
    26         32
    27        395
    28         57
    29        350
    30         15
    31        236
    32          5
    33          1
    36          1
    37          4
    38         11
    39        200
    40         33
    41        533
    42         62
    43        780
    44         31
    45        147
    46          4
    47          1
    49          1
    50          6
    51         16
    52          7
    53         55
    54         13
    55        366
    56        111
    57        999
    58         52
    59         93
    60          4
    61          1
    62          2
    63          4
    64          1
    65          9
    66          4
    67         26
    68         12
    69        142
    70         57
    71        860
    72         48
    73         13
    74          3
    75          1
    77          6
    78          2
    79          5
    80          1
    81          7
    82          8
    83        158
    84         38
    85         15
    86          2
    87          5
    91          1
    93          1
    95          2
    96          1
    97         13
    98          3
    99          4
   100         15
   101         43
   102          3
   104          1
   109          1
   111          4
   112        155
   113        449
   114         38
   115          2
   116          1
   117          2
   126          2
   127          1
   129          6
   130          1
   143          1