##TITLE=Library Entry 3065
##JCAMP-DX=Revision 4.10 
##DATA TYPE=MASS SPECTRUM
##SAMPLE DESCRIPTION=CARL DJERASSI DEPT OF CHEM STANFORD UNIV STANFORD CALIF
 94305
##NAMES=HP
##CAS NAME=1-Pentene, 5-butoxy-
##MOLFORM=C9H18O
##CAS REGISTRY NO=54004-24-9
##MP= -300
##BP= -300
##MW= 142
##$RETENTION INDEX=0
##$CONDENSED SPECTRUM=NO
##NPOINTS= 35
##XYDATA=(XY..XY) 1 
    39        120
    40         50
    41        999
    42        100
    43         80
    44         60
    45         80
    51         10
    53         90
    54         30
    55        160
    56        420
    57        890
    58         50
    65         10
    66         10
    67        250
    68        760
    69        520
    70         40
    71         30
    72         10
    73         20
    81         60
    85        160
    86         40
    87         60
    99        150
   100        190
   101         10
   113         50
   114         10
   141          1
   142          2
   143          0