##TITLE=Library Entry 23720
##JCAMP-DX=Revision 4.10 
##DATA TYPE=MASS SPECTRUM
##SAMPLE DESCRIPTION=CARL DJERASSI DEPT OF CHEM STANFORD UNIV STANFORD CALIF
 94305
##NAMES=HP
##CAS NAME=2-Pentene, 5-butoxy-, (E)-
##MOLFORM=C9H18O
##CAS REGISTRY NO=54004-23-8
##MP= -300
##BP= -300
##MW= 142
##$RETENTION INDEX=0
##$CONDENSED SPECTRUM=NO
##NPOINTS= 21
##XYDATA=(XY..XY) 1 
    39         70
    40         20
    41        380
    42         30
    43         10
    45         10
    53         30
    54         20
    55         80
    56         60
    57        999
    58         50
    67         10
    68         10
    69         50
    87         60
    88         10
    99        240
   100         10
   141          0
   142          0