##TITLE=Library Entry 21357
##JCAMP-DX=Revision 4.10 
##DATA TYPE=MASS SPECTRUM
##SAMPLE DESCRIPTION=K. NAGAI, YASUDA WOMEN'S UNIV., KAMIYASU, HIROSHIMA, JA
P
##NAMES=HP
##CAS NAME=1-Propanol, 2-methyl-2-[(2-methyl-2-propenyl)oxy]-
##MOLFORM=C8H16O2
##CAS REGISTRY NO=54004-45-4
##MP= -300
##BP= -300
##MW= 144
##$RETENTION INDEX=0
##$CONDENSED SPECTRUM=NO
##NPOINTS= 23
##XYDATA=(XY..XY) 1 
    39        110
    40         60
    41        100
    42         40
    43        140
    44         40
    45         50
    53         65
    54         50
    55        999
    56        120
    57        160
    58        130
    59        100
    70         40
    71         40
    72         70
    73        130
    74        120
   113        320
   114         65
   126         20
   144          1