##TITLE=Library Entry 87963
##JCAMP-DX=Revision 4.10 
##DATA TYPE=MASS SPECTRUM
##SAMPLE DESCRIPTION=Exported from NIST MS Search
##NAMES=HP
##CAS NAME=2H-Pyran-2-methanol, 3,4-dihydro-2,5-dimethyl-
##MOLFORM=C8H14O2
##CAS REGISTRY NO=54004-34-1
##MP= -300
##BP= -300
##MW= 142
##$RETENTION INDEX=0
##$CONDENSED SPECTRUM=NO
##NPOINTS= 90
##XYDATA=(XY..XY) 1 
    14          2
    15         16
    17          1
    18          7
    19          3
    26          8
    27        128
    28         59
    29        137
    30          8
    31         77
    32         10
    36          1
    37          5
    38         12
    39        192
    40         36
    41        287
    42         44
    43        719
    44         42
    45         29
    47          2
    50         10
    51         23
    52         10
    53         95
    54         69
    55        242
    56         50
    57        528
    58         67
    59          9
    62          2
    63          5
    65         17
    66          9
    67         87
    68         20
    69         78
    70         41
    71        565
    72        437
    73         25
    74          8
    75          4
    77         34
    78          6
    79         34
    80         15
    81        121
    82         32
    83         90
    84        436
    85         35
    86          4
    87          5
    91         31
    92          3
    93         49
    94          8
    95        139
    96         28
    97         29
    98          8
    99          6
   100          5
   105          4
   106          4
   107         11
   108          5
   109        205
   110         41
   111        999
   112         84
   113         30
   114          8
   115          1
   118          2
   123         13
   124          7
   125          5
   127          2
   128          5
   129          3
   140          2
   141          3
   142        632
   143         57
   144          5