##TITLE=Library Entry 44513
##JCAMP-DX=Revision 4.10 
##DATA TYPE=MASS SPECTRUM
##SAMPLE DESCRIPTION=R.J.C.KLEIPOOL CENTRAL INST. FOR NUTRITION, ZEIST, NETH
ERLANDS
##NAMES=HP
##CAS NAME=3-Heptenoic acid, methyl ester, (E)-
##MOLFORM=C8H14O2
##CAS REGISTRY NO=54004-30-7
##MP= -300
##BP= -300
##MW= 142
##$RETENTION INDEX=0
##$CONDENSED SPECTRUM=NO
##NPOINTS= 50
##XYDATA=(XY..XY) 1 
    39        320
    40         55
    41        960
    42        110
    43        330
    44         30
    45         37
    50         25
    51         43
    52         28
    53        150
    54        170
    55        810
    56         69
    57         24
    58         22
    59        590
    65         25
    66         16
    67        240
    68        480
    69        340
    70         25
    71        300
    72         30
    74        999
    75         56
    79         25
    80          6
    81        110
    82        320
    83        290
    84         22
    85         70
    86          4
    87         80
    88         18
    95         13
    99         24
   100         15
   101         22
   109          8
   110        360
   111         81
   112          7
   113         64
   114         14
   127         15
   142        110
   143         11