##TITLE=Library Entry 13751
##JCAMP-DX=Revision 4.10 
##DATA TYPE=MASS SPECTRUM
##SAMPLE DESCRIPTION=ORMSBG, 13(9)504(1978); H. DEMIAN ET AL
##NAMES=HP
##CAS NAME=Ethanone, 1-[4-methyl-2-(4-methylphenyl)-5-thiazolyl]-
##MOLFORM=C13H13NOS
##CAS REGISTRY NO=54001-03-5
##MP= -300
##BP= -300
##MW= 231
##$RETENTION INDEX=0
##$CONDENSED SPECTRUM=NO
##NPOINTS= 19
##XYDATA=(XY..XY) 1 
    43        999
    44        190
    45        280
    65         50
    71        410
    72        180
    90         50
    91         50
    94         40
   114         90
   116         50
   117         30
   118        200
   147         50
   188        180
   216        540
   217         90
   231        440
   232         70