##TITLE=Library Entry 24048
##JCAMP-DX=Revision 4.10 
##DATA TYPE=MASS SPECTRUM
##SAMPLE DESCRIPTION=M.C. HAMMING CONTINENTAL OIL CO., PONCA CITY, OKLA, USA
##NAMES=HP
##CAS NAME=1-Pentanol, 4-methyl-2-propyl-
##MOLFORM=C9H20O
##CAS REGISTRY NO=54004-41-0
##MP= -300
##BP= -300
##MW= 144
##$RETENTION INDEX=0
##$CONDENSED SPECTRUM=NO
##NPOINTS= 79
##XYDATA=(XY..XY) 1 
    13          1
    14          6
    15         45
    16          2
    17          2
    18          7
    19          4
    24          0
    25          1
    26         15
    27        292
    28         37
    29        295
    30         11
    31        162
    32          1
    33          2
    37          4
    38          9
    39        187
    40         36
    41        576
    42        123
    43        694
    44         34
    45         28
    46          1
    50          4
    51         13
    52          6
    53         44
    54         16
    55        344
    56        475
    57        999
    58         48
    59         16
    60          0
    61          0
    62          1
    63          3
    64          1
    65          8
    66          4
    67         27
    68         33
    69        328
    70        153
    71        576
    72         33
    73          8
    74          1
    77          4
    78          1
    79          4
    80          1
    81          6
    82         15
    83        197
    84         94
    85         17
    86          6
    87          3
    91          1
    93          0
    95          1
    96          1
    97         15
    98         26
    99          3
   100          1
   101          0
   111         33
   112         17
   113         23
   114          1
   126         16
   127          1
   129          1