##TITLE=Library Entry 3431
##JCAMP-DX=Revision 4.10 
##DATA TYPE=MASS SPECTRUM
##SAMPLE DESCRIPTION=Exported from NIST MS Search
##NAMES=HP
##CAS NAME=4-Hexenoic acid, 3-methyl-, methyl ester
##MOLFORM=C8H14O2
##CAS REGISTRY NO=54004-27-2
##MP= -300
##BP= -300
##MW= 142
##$RETENTION INDEX=0
##$CONDENSED SPECTRUM=NO
##NPOINTS= 61
##XYDATA=(XY..XY) 1 
    16         10
    17          3
    18         12
    26         30
    27        278
    28         43
    29        197
    30         16
    31         34
    32          6
    33          6
    37         12
    38         38
    39        405
    40         85
    41        999
    42        127
    43        241
    44         19
    45         28
    50         19
    51         36
    52         16
    53        121
    54         34
    55        375
    56         28
    57         12
    58          4
    59        259
    60          7
    65         27
    66         14
    67        270
    68        126
    69        944
    70         55
    71         20
    72         12
    73          7
    74        271
    75         15
    81         59
    82        508
    83        214
    84         14
    85        218
    86         16
    95         47
    99         18
   101         14
   109          8
   110        111
   111        123
   112         10
   113          8
   114          6
   127         37
   141          4
   142         65
   143          6