##TITLE=Library Entry 6571
##JCAMP-DX=Revision 4.10 
##DATA TYPE=MASS SPECTRUM
##SAMPLE DESCRIPTION=Chemical Concepts
##NAMES=HP
##CAS NAME=2-Ethoxy-1-methyl-1,2-azaphospholidine 2-oxide
##MOLFORM=C6H14NO2P
##CAS REGISTRY NO=54008-32-1
##MP= -300
##BP= -300
##MW= 163
##$RETENTION INDEX=0
##$CONDENSED SPECTRUM=NO
##NPOINTS= 17
##XYDATA=(XY..XY) 1 
    41        130
    42        422
    43        999
    44        121
    56         80
    68         60
    70        250
    71        171
    90         68
    91         79
   106         50
   107         81
   118        109
   119        108
   144        168
   145        169
   163        109