##TITLE=Library Entry 13963
##JCAMP-DX=Revision 4.10 
##DATA TYPE=MASS SPECTRUM
##SAMPLE DESCRIPTION=V.A.Korolev, Moscow, Russia
##NAMES=HP
##CAS NAME=1-[2-(4-Chlorophenyl)-4-methyl-1,3-thiazol-5-yl]ethanone
##MOLFORM=C12H10ClNOS
##CAS REGISTRY NO=54001-07-9
##MP= -300
##BP= -300
##MW= 251
##$RETENTION INDEX=0
##$CONDENSED SPECTRUM=NO
##NPOINTS= 101
##XYDATA=(XY..XY) 1 
    36          4
    37          4
    38         18
    39         75
    40         10
    41         13
    43        999
    44         34
    45        583
    46         15
    47         27
    49          2
    50         54
    51         51
    52         14
    53          8
    55          1
    57          4
    58          9
    59         17
    60          2
    61          9
    62         16
    63         17
    64          4
    65          1
    66          3
    67         14
    69        122
    70        104
    71        703
    72        213
    73         55
    74         32
    75        101
    76         41
    77          5
    81          4
    82          5
    83          4
    84          6
    85         27
    86         19
    87         15
    88          7
    89          2
    93          7
    94          2
    96          2
    97          4
    98          1
    99          7
   100          8
   101          8
   102         72
   103         12
   104         30
   105         13
   110          4
   111         49
   112          4
   113         19
   114        146
   115          9
   116          5
   118          5
   119          5
   120          7
   123          8
   125          6
   132          3
   137         38
   138         94
   139         21
   140         29
   141          2
   155         12
   157          3
   167         49
   168          4
   169         16
   172          2
   173          6
   174          6
   208        222
   209         28
   210         84
   211         10
   212          2
   216          3
   222          4
   236        725
   237         99
   238        275
   239         37
   240         11
   251        512
   252         76
   253        197
   254         29
   255          8