##TITLE=Library Entry 49708
##JCAMP-DX=Revision 4.10 
##DATA TYPE=MASS SPECTRUM
##SAMPLE DESCRIPTION=Chemical Concepts
##NAMES=HP
##CAS NAME=Cyclohexane, 1,2-dibromo-
##MOLFORM=C6H10Br2
##CAS REGISTRY NO=5401-62-7
##MP= -300
##BP= -300
##MW= 240
##$RETENTION INDEX=0
##$CONDENSED SPECTRUM=NO
##NPOINTS= 55
##XYDATA=(XY..XY) 1 
    26         32
    27        429
    28         75
    29         71
    30          1
    37         23
    39        534
    40         86
    41        379
    42         19
    43          2
    45          1
    50         85
    51        113
    52         59
    53        263
    54        115
    55         81
    56          3
    61          1
    62          4
    63         11
    65         53
    66         31
    67         89
    68          4
    73          1
    74          4
    75          1
    77         66
    79        253
    81        999
    82         90
    83          4
    93          3
    95          3
   105          2
   106          2
   107          6
   108          1
   109          3
   117          1
   119         22
   121         20
   133          3
   134          1
   135          2
   160          1
   161        164
   162         12
   163        156
   164          9
   240          3
   242          8
   244          2