##TITLE=Library Entry 54880
##JCAMP-DX=Revision 4.10 
##DATA TYPE=MASS SPECTRUM
##SAMPLE DESCRIPTION=Exported from NIST MS Search
##NAMES=HP
##CAS NAME=4-Pentenoic acid, 2-methoxy-, methyl ester
##MOLFORM=C7H12O3
##CAS REGISTRY NO=54020-52-9
##MP= -300
##BP= -300
##MW= 144
##$RETENTION INDEX=0
##$CONDENSED SPECTRUM=NO
##NPOINTS= 108
##XYDATA=(XY..XY) 1 
    14          5
    15         76
    16          2
    17          4
    18         13
    25          1
    26          9
    27         62
    28         44
    29         91
    30          6
    31         25
    32          7
    33         14
    36          1
    37          3
    38          9
    39         92
    40         11
    41         77
    42         17
    43         22
    44          5
    45        117
    46          4
    47         42
    48          1
    49          1
    50          7
    51         15
    52         10
    53        111
    54         20
    55        340
    56         19
    57        100
    58         17
    59         26
    60          3
    61          1
    63          1
    64          1
    65          2
    66          2
    67          3
    68          3
    69         20
    70          9
    71         11
    72          4
    73          1
    74          3
    75        104
    76          5
    77          2
    79          1
    80          1
    81         15
    82         10
    83          6
    84         19
    85        999
    86         66
    87          7
    88          2
    89          1
    91          2
    92          1
    95          1
    96          1
    97          5
    98          2
    99          2
   100          1
   101          1
   102          1
   103        136
   104          6
   105          1
   106          1
   107          1
   109          2
   110          1
   111          8
   112        133
   113         15
   114         29
   115          3
   116          1
   117          1
   119          3
   121          1
   123          1
   124          1
   125          1
   126          1
   127          1
   128          1
   129          2
   130          2
   131          1
   133          1
   134          1
   135          1
   136          1
   137          1
   140          1
   144          2