##TITLE=Library Entry 70483
##JCAMP-DX=Revision 4.10 
##DATA TYPE=MASS SPECTRUM
##SAMPLE DESCRIPTION=Japan AIST/NIMC Database- Spectrum MS-NW-5586
##NAMES=HP
##CAS NAME=2-Thiopheneethanol
##MOLFORM=C6H8OS
##CAS REGISTRY NO=5402-55-1
##MP= -300
##BP= -300
##MW= 128
##$RETENTION INDEX=0
##$CONDENSED SPECTRUM=NO
##NPOINTS= 72
##XYDATA=(XY..XY) 1 
    15          1
    17          1
    18          4
    26          4
    27         19
    28          6
    29          9
    30          1
    31         32
    32          1
    34          1
    37          5
    38         10
    39         51
    40          4
    41          5
    42          1
    43          4
    44          3
    45        121
    46          4
    47          9
    49          2
    50          9
    51         16
    52          5
    53         80
    54          4
    55          3
    57          9
    58         20
    59         10
    60          2
    61          3
    62          5
    63         13
    64          2
    65         21
    66          6
    67          2
    68          1
    69         24
    70          9
    71         13
    72          1
    73          1
    74          1
    77          3
    78          1
    81          3
    82          4
    83          2
    84          9
    85          5
    93          2
    95          6
    96          3
    97        999
    98        151
    99         56
   100          7
   108          1
   109          5
   110         10
   111          3
   112          1
   126          1
   127          1
   128        320
   129         23
   130         14
   131          1