##TITLE=Library Entry 24659
##JCAMP-DX=Revision 4.10 
##DATA TYPE=MASS SPECTRUM
##SAMPLE DESCRIPTION=ASES Database, Dalian Institute, P.R. China
##NAMES=HP
##CAS NAME=Chloromethyl propanoate
##MOLFORM=C4H7ClO2
##CAS REGISTRY NO=5402-53-9
##MP= -300
##BP= -300
##MW= 122
##$RETENTION INDEX=0
##$CONDENSED SPECTRUM=NO
##NPOINTS= 15
##XYDATA=(XY..XY) 1 
    41          6
    42         40
    43          7
    44         33
    45         32
    49        386
    50          7
    51        126
    55         26
    56         66
    57        999
    58        267
    59          7
    86         33
    87          6