##TITLE=Library Entry 44606
##JCAMP-DX=Revision 4.10 
##DATA TYPE=MASS SPECTRUM
##SAMPLE DESCRIPTION=Chemical Concepts
##NAMES=HP
##CAS NAME=Heptanoic acid, 7-bromo-, methyl ester
##MOLFORM=C8H15BrO2
##CAS REGISTRY NO=54049-24-0
##MP= -300
##BP= -300
##MW= 222
##$RETENTION INDEX=0
##$CONDENSED SPECTRUM=NO
##NPOINTS= 80
##XYDATA=(XY..XY) 1 
    26          7
    27         87
    28         14
    29         62
    31         10
    38          3
    39         66
    40         17
    41        187
    42         31
    43        137
    44          8
    45         12
    50          2
    51          6
    52          3
    53         21
    54         14
    55        210
    56         24
    57         23
    58          2
    59         98
    60          4
    65          3
    66          2
    67         21
    68         11
    69         69
    70          4
    71          4
    72          2
    73         14
    74        999
    75         47
    76          5
    77          2
    79          3
    80          2
    81         15
    82          7
    83        177
    84         18
    85          4
    86          3
    87        110
    88         19
    93          5
    95          4
    97          3
    99          2
   101         18
   107         13
   109         12
   110          2
   111         78
   112          7
   115          7
   121          8
   123          7
   129          2
   135          3
   137          3
   141          3
   143         57
   144          5
   149          1
   151          1
   162          3
   163          5
   164          3
   165          4
   191         41
   192          3
   193         39
   194          3
   221          0
   222          0
   223          0
   224          0