##TITLE=Library Entry 24020
##JCAMP-DX=Revision 4.10 
##DATA TYPE=MASS SPECTRUM
##SAMPLE DESCRIPTION=CONTINENTAL OIL CO., PONCA CITY, OKLA, USA
##NAMES=HP
##CAS NAME=3-Hexanone, 2,2-dimethyl-
##MOLFORM=C8H16O
##CAS REGISTRY NO=5405-79-8
##MP= -300
##BP= -300
##MW= 128
##$RETENTION INDEX=0
##$CONDENSED SPECTRUM=NO
##NPOINTS= 68
##XYDATA=(XY..XY) 1 
    14         14
    15         82
    16          2
    17          0
    18          1
    19          0
    25          1
    26         24
    27        281
    28         65
    29        309
    30          7
    31          4
    36          0
    37          6
    38         16
    39        203
    40         32
    41        492
    42         74
    43        536
    44         19
    45          2
    49          0
    50          4
    51          8
    52          2
    53         14
    54          3
    55         51
    56         64
    57        999
    58         45
    59          2
    62          0
    63          1
    65          1
    66          1
    67          6
    68          1
    69          8
    70         48
    71        492
    72         23
    73          3
    74          0
    77          1
    79          1
    81          1
    83          6
    84          0
    85         38
    86          5
    87          0
    91          0
    95          2
    96          0
    97          1
    98          0
    99          1
   100          0
   111          0
   113          6
   114          0
   126          0
   128         87
   129          8
   130          0