##TITLE=Library Entry 54774
##JCAMP-DX=Revision 4.10 
##DATA TYPE=MASS SPECTRUM
##SAMPLE DESCRIPTION=Exported from NIST MS Search
##NAMES=HP
##CAS NAME=Hexane, 1,1'-[ethylidenebis(oxy)]bis-
##MOLFORM=C14H30O2
##CAS REGISTRY NO=5405-58-3
##MP= -300
##BP= -300
##MW= 230
##$RETENTION INDEX=0
##$CONDENSED SPECTRUM=NO
##NPOINTS= 44
##XYDATA=(XY..XY) 1 
    14          4
    15         13
    16          3
    17          1
    18         17
    27        121
    28         14
    29        182
    31         57
    32         19
    39         64
    40         20
    41        301
    42        172
    43        979
    44         82
    45        137
    53         16
    54         16
    55        245
    56        245
    57        207
    58         17
    59         15
    61         13
    67         20
    69        150
    70         14
    71         22
    82         38
    83         26
    84        100
    85        999
    86         68
    99          9
   111          9
   113         61
   129        838
   131         82
   143          5
   145          7
   159          6
   215        209
   229          4