##TITLE=Library Entry 7345
##JCAMP-DX=Revision 4.10 
##DATA TYPE=MASS SPECTRUM
##SAMPLE DESCRIPTION=LAC, NIDDK, NIH, Bethesda, MD 20892
##NAMES=HP
##CAS NAME=5,6-Dihydrostigmasterol, acetate
##MOLFORM=C31H52O2
##CAS REGISTRY NO=5405-37-8
##MP= -300
##BP= -300
##MW= 456
##$RETENTION INDEX=0
##$CONDENSED SPECTRUM=NO
##NPOINTS= 173
##XYDATA=(XY..XY) 1 
    41        190
    43        999
    44         16
    49          2
    53         26
    55        519
    57         74
    58          1
    61         66
    65         11
    67        182
    69        377
    71         61
    77         39
    79        169
    81        406
    83        337
    84         48
    85         28
    86          1
    91        120
    93        263
    95        308
    96         59
    97        188
    98         15
    99          2
   101          1
   103          4
   105        112
   107        316
   108         26
   109        182
   110         57
   111         32
   112          4
   113          1
   115          8
   117         24
   119         88
   120         13
   121        156
   122         81
   123        176
   124         41
   125          9
   127          1
   128          8
   129          8
   130          1
   131         38
   133        110
   134         41
   135        133
   137        120
   138         20
   139         35
   140          4
   141          1
   142          5
   143          8
   144          2
   145         49
   146          8
   147        151
   149        135
   150          6
   151         38
   152          5
   155          1
   156          1
   157          9
   158          1
   159         41
   160          9
   161        137
   162         24
   163         97
   164         11
   165         21
   166         61
   167          6
   169          1
   171          5
   173         26
   174          9
   175         46
   176         23
   177         25
   179          7
   180         23
   181          3
   185          7
   187         28
   188          3
   189         40
   190          3
   191         28
   192          3
   199          9
   201         48
   202         12
   203         22
   204          3
   205          6
   207          0
   213         12
   214          6
   215         60
   216         18
   217         25
   218          3
   219          3
   227          7
   228          2
   229         30
   230          9
   231         10
   233          5
   234          4
   241         16
   242          7
   243         17
   244          1
   245         10
   247          2
   255         34
   257        224
   258         34
   259         28
   260          5
   261          2
   269         21
   270          4
   271          7
   273          4
   274         10
   275          9
   276          4
   283         11
   284          8
   285         25
   286          5
   287          3
   288          4
   297          3
   301          1
   302         26
   303          5
   311          1
   314         25
   315         88
   316         52
   317         12
   318          1
   329         17
   330          5
   343         15
   344         77
   345         15
   346          1
   353         54
   354         14
   358         14
   359          3
   367          2
   381          1
   397          4
   413          3
   441          3
   456         74
   457         23
   458          4