##TITLE=Library Entry 58776
##JCAMP-DX=Revision 4.10 
##DATA TYPE=MASS SPECTRUM
##SAMPLE DESCRIPTION=Humboldt-Universitat zu Berlin, Department of Chemistry
, Analytical Group
##NAMES=HP
##CAS NAME=4-Azidobenzamide, N-(4-carboxyphenyl)-
##MOLFORM=C14H10N4O3
##CAS REGISTRY NO=54057-54-4
##MP= -300
##BP= -300
##MW= 282
##$RETENTION INDEX=0
##$CONDENSED SPECTRUM=NO
##NPOINTS= 176
##XYDATA=(XY..XY) 1 
    12          3
    14         42
    15          3
    16          5
    17          8
    18         20
    26          9
    27         44
    28        343
    29         16
    30          2
    31          3
    32          3
    36          3
    37         46
    38         89
    39        345
    40         32
    41         31
    42          9
    43         11
    44         41
    45         81
    49          2
    50         90
    51         79
    52         60
    53         52
    54         10
    55         13
    56          4
    57          5
    59          2
    60          3
    61         20
    62         99
    63        740
    64        292
    65        186
    66         28
    67          6
    68          5
    69          5
    70          3
    71          3
    73          4
    74         21
    75         34
    76         56
    77         36
    78         20
    79         17
    80         11
    81         41
    82          5
    83          3
    84          3
    85          2
    86          2
    87          6
    88         19
    89         36
    90        999
    91        133
    92         74
    93         23
    94          3
    96          1
    97          2
    98          2
    99          2
   100          2
   101          4
   102          6
   103          8
   104         21
   105         19
   106          5
   107          5
   108         36
   109          5
   111          2
   113          2
   114          1
   115          4
   116          4
   117         11
   118        705
   119         89
   120        170
   121         30
   122          4
   125          2
   126          4
   127         13
   128         10
   129          5
   130          5
   131          2
   135          1
   136         12
   137         41
   138          5
   139          4
   140          3
   141          3
   142          2
   143          3
   144          2
   146        197
   147         18
   148          4
   150          3
   152          4
   153          7
   154         30
   155         13
   156          9
   157          4
   158          1
   163          3
   164          2
   165          6
   166          7
   167         17
   168         10
   169          3
   170         10
   171          1
   172          1
   173          1
   174          1
   179          7
   180          9
   181         43
   182         25
   183         24
   184         44
   185          6
   191          2
   192          1
   193          3
   194          2
   195          1
   197          0
   198         13
   199          9
   200          1
   207          2
   208          9
   209         27
   210         46
   211          7
   212          1
   214          2
   225         19
   226          9
   227         22
   228         20
   229          3
   235          2
   236         14
   237          6
   238          1
   241          0
   253         13
   254        128
   255         18
   256          9
   257          1
   262          0
   265          1
   282        154
   283         24
   284          3
   286          0