##TITLE=Library Entry 6870
##JCAMP-DX=Revision 4.10 
##DATA TYPE=MASS SPECTRUM
##SAMPLE DESCRIPTION=NIST Mass Spectrometry Data Center, 1998.
##NAMES=HP
##CAS NAME=Butanoic acid, 3-hydroxy-, ethyl ester
##MOLFORM=C6H12O3
##CAS REGISTRY NO=5405-41-4
##MP= -300
##BP= -300
##MW= 132
##$RETENTION INDEX=944
##$CONDENSED SPECTRUM=NO
##NPOINTS= 69
##XYDATA=(XY..XY) 1 
    14          5
    15         27
    16          2
    25          1
    26         24
    27        157
    28          1
    29        296
    30         12
    31         78
    32          1
    33          1
    37          3
    38          9
    39         75
    40         13
    41         87
    42        374
    43        999
    44         79
    45        961
    46         23
    47         58
    48          1
    53          4
    54          1
    55         26
    56          3
    57         17
    58         60
    59         14
    60        554
    61        235
    62          7
    63          4
    67          1
    68          8
    69         40
    70        157
    71        477
    72         17
    73         33
    74          2
    75         78
    76          3
    84          1
    85        123
    86         24
    87        498
    88        473
    89        184
    90          8
    91          1
    96          1
    99         15
   100          1
   103         52
   104          3
   105          6
   113          1
   114         26
   115          4
   116          1
   117        381
   118         21
   119          3
   131         10
   132          1
   133          3