##TITLE=Library Entry 19381
##JCAMP-DX=Revision 4.10 
##DATA TYPE=MASS SPECTRUM
##SAMPLE DESCRIPTION=Div. of Experiment Therapeutics WRAIR, WRAMC, Washingto
n DC 20307
##NAMES=HP
##CAS NAME=Methyl isolithocholate
##MOLFORM=C25H42O3
##CAS REGISTRY NO=5405-42-5
##MP= -300
##BP= -300
##MW= 390
##$RETENTION INDEX=0
##$CONDENSED SPECTRUM=NO
##NPOINTS= 130
##XYDATA=(XY..XY) 1 
    41        625
    43        575
    44         71
    45         33
    53        169
    55        999
    57        256
    59        284
    60          6
    65         46
    67        470
    68        140
    69        242
    70         42
    71         30
    73        159
    74        183
    75          3
    77        136
    79        498
    81        598
    83        212
    85         55
    87        103
    88         21
    91        271
    93        400
    94         35
    95        375
    96         52
    97         54
    99         37
   101         14
   103          7
   105        222
   106         89
   107        317
   108        189
   109        176
   110         37
   111         34
   115         51
   117         51
   119        124
   120         57
   121        146
   122         86
   123         66
   124         83
   125         21
   127          3
   128         14
   129         17
   131         55
   133        125
   134         56
   135        115
   136         34
   137         24
   138          7
   141         15
   143         13
   145         84
   147        121
   148         65
   149        143
   150         20
   151          7
   154         26
   156          7
   157          8
   159         51
   160         18
   161         78
   162         29
   163         34
   165         45
   166         36
   167         29
   171          3
   173         35
   174          4
   175         48
   176          7
   177         21
   178         19
   179          3
   185          6
   187         26
   188          6
   189         18
   190         18
   191         15
   199         11
   201         33
   203         11
   206          3
   213         11
   215        178
   216         74
   217         55
   218         14
   219         14
   229         12
   230         17
   231         10
   233        126
   234         53
   248         45
   249         12
   257         11
   258          6
   264         20
   265          4
   278          3
   290         15
   320         10
   325         13
   332          3
   333         17
   341         18
   343          7
   357         54
   358         14
   359          3
   372         90
   373         26
   375         37
   390         66
   391         21