##TITLE=Library Entry 63427
##JCAMP-DX=Revision 4.10 
##DATA TYPE=MASS SPECTRUM
##SAMPLE DESCRIPTION=Chemical Concepts
##NAMES=HP
##CAS NAME=Benzenemethanamine, N-(4-methylphenyl)-
##MOLFORM=C14H15N
##CAS REGISTRY NO=5405-15-2
##MP= -300
##BP= -300
##MW= 197
##$RETENTION INDEX=1777
##$CONDENSED SPECTRUM=NO
##NPOINTS= 113
##XYDATA=(XY..XY) 1 
    26          8
    27         46
    28         35
    29          8
    30          4
    37          3
    38         17
    39        140
    40         14
    41         47
    42          7
    43          6
    44          1
    45          4
    49          2
    50         45
    51        119
    52         57
    53         32
    54          6
    55          3
    56          2
    57          4
    61          4
    62         18
    63         69
    64         25
    65        247
    66         18
    67          2
    69          2
    70          2
    71          3
    73          4
    74          9
    75         15
    76         17
    77        146
    78         66
    79         74
    80          8
    82          1
    83          1
    84          6
    85          1
    86          3
    87          3
    88          4
    89         50
    90         34
    91        999
    92        104
    93          8
    96          1
    97          3
    98          1
    99          3
   100          1
   101          1
   102          4
   103          4
   104         25
   105         14
   106         83
   107         12
   115          7
   116          6
   117          5
   118         41
   119         21
   120        184
   121         18
   122          1
   126          1
   127          2
   128          3
   129          2
   131          1
   132          1
   136          3
   139          3
   140          1
   141          4
   142          2
   152          6
   153          4
   154          4
   155          2
   162          1
   163          1
   164          1
   165          8
   166          2
   167          4
   168          3
   169          1
   176          1
   177          1
   178          6
   179          8
   180         22
   181          6
   182          8
   183          1
   191          1
   192          2
   193          3
   194         17
   195         28
   196        157
   197        464
   198         80
   199          6