##TITLE=Library Entry 21216
##JCAMP-DX=Revision 4.10 
##DATA TYPE=MASS SPECTRUM
##SAMPLE DESCRIPTION=V.A.Korolev, Moscow, Russia
##NAMES=HP
##CAS NAME=Ethyl 5-(chloromethyl)-2-oxooxolane-3-carboxylate
##MOLFORM=C8H11ClO4
##CAS REGISTRY NO=5406-65-5
##MP= -300
##BP= -300
##MW= 206
##$RETENTION INDEX=0
##$CONDENSED SPECTRUM=NO
##NPOINTS= 126
##XYDATA=(XY..XY) 1 
    35          7
    36         11
    37          9
    38         30
    39        225
    40         52
    41        177
    42        105
    43        260
    44         76
    45        116
    46          3
    47          8
    48          8
    49        156
    50         45
    51        111
    52         37
    53        521
    54        150
    55        999
    56         61
    57        107
    58         10
    59          5
    60          4
    61         13
    62         86
    63         20
    64         28
    65         17
    66          5
    67         57
    68         32
    69         70
    70         51
    71         61
    72         29
    73         82
    74          3
    75         32
    76          5
    77         50
    78          5
    79         47
    80          9
    81        146
    82         29
    83        194
    84         62
    85        169
    86         19
    87         14
    88         27
    89         97
    90         13
    91         45
    92          4
    93         13
    94          2
    95         17
    96         14
    97        174
    98         65
    99        661
   100         72
   101         43
   102          3
   103          4
   105          4
   107         11
   108          7
   109          8
   111        455
   112         29
   113         20
   114          4
   115          9
   117        248
   118         15
   119         84
   120          4
   123          6
   124         14
   125         62
   126          8
   127        228
   128         28
   129        311
   130         17
   131         10
   132          4
   133         14
   134        192
   135         37
   136         61
   137         17
   139          4
   140          2
   141         13
   142          5
   143         25
   147          8
   149          3
   157        446
   158         34
   159         16
   160         18
   161        150
   162         14
   163         50
   164          3
   167          6
   170         23
   171         25
   173         22
   174          3
   175          9
   177         22
   178         93
   179         12
   180         31
   206         28
   207          6
   208         11
   209          3