##TITLE=Library Entry 10706
##JCAMP-DX=Revision 4.10 
##DATA TYPE=MASS SPECTRUM
##SAMPLE DESCRIPTION=Exported from NIST MS Search
##NAMES=HP
##CAS NAME=1,3-Dioxane-4-methanol, 4,5-dimethyl-
##MOLFORM=C7H14O3
##CAS REGISTRY NO=54063-16-0
##MP= -300
##BP= -300
##MW= 146
##$RETENTION INDEX=0
##$CONDENSED SPECTRUM=NO
##NPOINTS= 82
##XYDATA=(XY..XY) 1 
    26         37
    27        216
    28          3
    29        416
    30         48
    31        255
    33          2
    34          3
    35          1
    36          1
    37          6
    38         15
    39        153
    40         96
    41        238
    42        121
    43        999
    44         57
    45         37
    46          1
    47          6
    48          1
    49          1
    50         11
    51         13
    52          6
    53         54
    54         13
    55        263
    56         42
    57         63
    58         37
    59         16
    60          1
    61          9
    62          1
    63          1
    64          1
    65          5
    66          7
    67         54
    68         60
    69         42
    70         63
    71        286
    72         22
    73         32
    74          6
    75          1
    77          4
    78          2
    79         12
    80          5
    81        126
    82         53
    83         73
    84          6
    85          3
    86         10
    87          4
    88         16
    89          2
    91          1
    92          1
    93          2
    94          1
    95          2
    96          2
    97          6
    98         25
    99         27
   101        436
   102         25
   103          3
   105          1
   110          1
   113         79
   114          6
   115          1
   116         37
   117          4
   119          1