##TITLE=Library Entry 40064
##JCAMP-DX=Revision 4.10 
##DATA TYPE=MASS SPECTRUM
##SAMPLE DESCRIPTION=AAFS Toxicology Section MS DB Committee, U. Alberta, Ca
nada
##NAMES=HP
##CAS NAME=Propafenone
##MOLFORM=C21H27NO3
##CAS REGISTRY NO=54063-53-5
##MP= -300
##BP= -300
##MW= 341
##$RETENTION INDEX=0
##$CONDENSED SPECTRUM=NO
##NPOINTS= 111
##XYDATA=(XY..XY) 1 
    38          1
    39          6
    40          1
    41         15
    42         14
    43         34
    44         21
    45          1
    51          5
    52          1
    55          3
    56         14
    57          4
    58          4
    59          1
    60          5
    61          1
    63          4
    64          4
    65         23
    66          2
    67          1
    68          6
    69          1
    70         15
    72        999
    73         47
    74          3
    75          1
    76          5
    77         35
    78         15
    79         15
    80          1
    86         33
    87          2
    88          1
    89          5
    90          2
    91        129
    92         31
    93         12
    94          4
    95          2
    96          2
    97          1
    98         77
    99          4
   100          2
   101          1
   102         32
   103         21
   104         37
   105         28
   106          2
   107         10
   108          1
   114          9
   115          5
   116          4
   117          2
   118          3
   119          4
   120         10
   121         79
   122          6
   123          3
   124          1
   129          2
   130          1
   131          9
   132          2
   133          3
   134          5
   135         16
   136          2
   137          1
   143          2
   144          1
   145          2
   146          1
   147          6
   148          1
   152          3
   153          1
   163          3
   164          1
   165          5
   166          1
   177          1
   178          3
   179          2
   180          1
   206          1
   207         10
   208          9
   209          4
   210          2
   211          1
   227          2
   228          1
   294          2
   295          1
   297         50
   298         10
   299          1
   312         15
   313          4
   314          1
   340          1
   341          1