##TITLE=Library Entry 97187
##JCAMP-DX=Revision 4.10 
##DATA TYPE=MASS SPECTRUM
##SAMPLE DESCRIPTION=Japan AIST/NIMC Database- Spectrum MS-IW- 881
##NAMES=HP
##CAS NAME=m-Aminophenylacetylene
##MOLFORM=C8H7N
##CAS REGISTRY NO=54060-30-9
##MP= -300
##BP= -300
##MW= 117
##$RETENTION INDEX=0
##$CONDENSED SPECTRUM=NO
##NPOINTS= 54
##XYDATA=(XY..XY) 1 
    27          2
    28          9
    37          3
    38          6
    39         18
    40          5
    41          9
    42          2
    43          2
    44          1
    45          5
    49          1
    50         10
    51         12
    52          9
    53          2
    54          4
    56          1
    57          5
    58         30
    59          2
    61          5
    62         13
    63         35
    64         15
    65          9
    66          5
    67          4
    73          1
    74          9
    75          8
    76          7
    77          5
    78          5
    82          1
    85          1
    86          3
    87          4
    88          5
    89        182
    90        153
    91         18
    92          2
    98          2
    99          1
   100          2
   101          1
   102          1
   114          2
   115          3
   116         54
   117        999
   118         92
   119          4