##TITLE=Library Entry 1674
##JCAMP-DX=Revision 4.10 
##DATA TYPE=MASS SPECTRUM
##SAMPLE DESCRIPTION=James Little,Eastman Chem.Co.,Kingsport,TN
##NAMES=HP
##CAS NAME=N-(2-Methylacryloyl)imidazola
##MOLFORM=C7H8N2O
##CAS REGISTRY NO=54060-80-9
##MP= -300
##BP= -300
##MW= 136
##$RETENTION INDEX=0
##$CONDENSED SPECTRUM=NO
##NPOINTS= 18
##XYDATA=(XY..XY) 1 
    27         97
    37         90
    38        151
    39        999
    40        736
    41        964
    43         64
    51         35
    52         42
    53         49
    54         15
    66         15
    67         30
    68         57
    69        148
    70          9
   108         37
   136         15