##TITLE=Library Entry 5535
##JCAMP-DX=Revision 4.10 
##DATA TYPE=MASS SPECTRUM
##SAMPLE DESCRIPTION=Exported from NIST MS Search
##NAMES=HP
##CAS NAME=1,3-Dioxane-5-methanol, 4,5-dimethyl-
##MOLFORM=C7H14O3
##CAS REGISTRY NO=54063-15-9
##MP= -300
##BP= -300
##MW= 146
##$RETENTION INDEX=0
##$CONDENSED SPECTRUM=NO
##NPOINTS= 80
##XYDATA=(XY..XY) 1 
    26         33
    27        202
    28        494
    29        403
    30         44
    31        268
    33          1
    34          2
    37          5
    38         14
    39        142
    40         86
    41        216
    42         89
    43        999
    44         72
    45         42
    46          1
    47          4
    48          1
    49          1
    50          9
    51         11
    52          6
    53         51
    54         14
    55        244
    56         34
    57         43
    58         36
    59         14
    60          1
    61         14
    62          1
    63          1
    64          1
    65          4
    66          8
    67         54
    68         59
    69         44
    70         59
    71        292
    72         21
    73         39
    74          7
    75          1
    77          2
    78          1
    79         14
    80          6
    81        123
    82         53
    83         72
    84          7
    85          2
    86          6
    87          5
    88         16
    89          1
    91          1
    92          1
    93          1
    94          1
    95          2
    96          2
    97          5
    98         24
    99         37
   100          1
   101        459
   102         26
   103          2
   110          1
   112          1
   113         75
   114          6
   115          1
   116         36
   117          2