##TITLE=Library Entry 12382
##JCAMP-DX=Revision 4.10 
##DATA TYPE=MASS SPECTRUM
##SAMPLE DESCRIPTION=Japan AIST/NIMC Database- Spectrum MS-IW-4407
##NAMES=HP
##CAS NAME=2-Furanmethanol, 5-nitro-, acetate
##MOLFORM=C7H7NO5
##CAS REGISTRY NO=5407-68-1
##MP= -300
##BP= -300
##MW= 185
##$RETENTION INDEX=0
##$CONDENSED SPECTRUM=NO
##NPOINTS= 84
##XYDATA=(XY..XY) 1 
    13          1
    14          9
    15         63
    16          1
    25          1
    26         34
    27         15
    28         36
    29          7
    30        220
    31          5
    34          1
    37         11
    38         43
    39         73
    40         42
    41         34
    42         68
    43        999
    44         54
    45         14
    46          2
    49          3
    50         44
    51        153
    52        190
    53         16
    54         34
    55         13
    56          3
    57          6
    58          1
    60          9
    61          1
    64          1
    65          1
    66          8
    67          9
    68        126
    69         26
    70          3
    73          6
    77          1
    78          1
    79        198
    80         82
    81          9
    82          6
    83          2
    84          8
    85          6
    87          1
    93          1
    94          1
    95          6
    96        474
    97         44
    98         24
    99          2
   109          2
   110          9
   111          6
   112          5
   113         78
   114         28
   115          2
   123          3
   124          1
   125        515
   126        452
   127         72
   128          6
   129          1
   139          1
   141          1
   142          7
   143        970
   144         59
   145          9
   156          1
   157          3
   169          2
   185          6
   186          3