##TITLE=Library Entry 78799
##JCAMP-DX=Revision 4.10 
##DATA TYPE=MASS SPECTRUM
##SAMPLE DESCRIPTION=NIST Mass Spectrometry Data Center, 1992
##NAMES=HP
##CAS NAME=Cyclobutyl phenyl ketone
##MOLFORM=C11H12O
##CAS REGISTRY NO=5407-98-7
##MP= -300
##BP= -300
##MW= 160
##$RETENTION INDEX=0
##$CONDENSED SPECTRUM=NO
##NPOINTS= 86
##XYDATA=(XY..XY) 1 
    14          0
    15          1
    16          0
    17          0
    18          6
    26         13
    27         77
    28         28
    29         26
    30          0
    32          1
    37          2
    38          6
    39         32
    40          2
    41          1
    42          0
    43          1
    50         47
    51        133
    52         12
    53         18
    54          6
    55         57
    56          2
    58          1
    61          1
    62          4
    63          7
    64          2
    65          3
    66          1
    69          0
    70          0
    71          0
    73          2
    74         12
    75         10
    76          0
    77        359
    78         32
    79          3
    81          1
    82          1
    83          2
    85          0
    86          1
    87          1
    88          0
    89          3
    90          1
    91          7
    92          1
    98          0
    99          0
   101          0
   102          3
   103          7
   104          0
   105        999
   106         80
   107          4
   113          0
   115          7
   116          3
   117          3
   118          0
   126          0
   127          3
   128          2
   129          3
   130          1
   131         12
   132          6
   133          1
   139          0
   141          2
   142          3
   143          2
   144          2
   145         16
   146          1
   157          0
   159          8
   160         14
   161          1