##TITLE=Library Entry 78024
##JCAMP-DX=Revision 4.10 
##DATA TYPE=MASS SPECTRUM
##SAMPLE DESCRIPTION=OGDEN BioServices Corp., NCI, Rockville, MD 20852
##NAMES=HP
##CAS NAME=Zorubicin
##MOLFORM=C34H35N3O10
##CAS REGISTRY NO=54083-22-6
##MP= -300
##BP= -300
##MW= 645
##$RETENTION INDEX=0
##$CONDENSED SPECTRUM=NO
##NPOINTS= 84
##XYDATA=(XY..XY) 1 
    41        286
    42        253
    43        679
    44        385
    45        332
    50        123
    51        264
    52         33
    53         69
    54         64
    55        169
    56        105
    57        324
    58        208
    59        134
    63         18
    65         83
    66         55
    67        152
    68        287
    69        181
    70        170
    71         99
    72        559
    73         23
    74         20
    75         18
    76         21
    77        664
    78         80
    79         20
    80         66
    81         86
    82         30
    83         54
    84         57
    85         20
    86         92
    90        103
    91         22
    92         24
    93        107
    94        231
    95        253
    96         92
    97         98
    98         21
   104         29
   105        999
   106        127
   108         23
   109         18
   110         25
   111         19
   112         36
   113         63
   117         21
   118         82
   119         23
   120         81
   121         89
   122         58
   131         18
   134         55
   136        134
   139         22
   144         24
   161         48
   162         25
   166         19
   179         29
   180         86
   190         42
   197         23
   198        121
   205        121
   223         66
   310         19
   324         28
   349         56
   350         19
   352         60
   375         45
   480         20