##TITLE=Library Entry 89952
##JCAMP-DX=Revision 4.10 
##DATA TYPE=MASS SPECTRUM
##SAMPLE DESCRIPTION=NIST Mass Spectrometry Data Center
##NAMES=HP
##CAS NAME=Cyano-3,4-epithiobutane
##MOLFORM=C5H7NS
##CAS REGISTRY NO=54096-45-6
##MP= -300
##BP= -300
##MW= 113
##$RETENTION INDEX=1123
##$CONDENSED SPECTRUM=NO
##NPOINTS= 63
##XYDATA=(XY..XY) 1 
    25          2
    26         22
    27         63
    28         17
    29          3
    33          5
    34          3
    36          2
    37         26
    38         43
    39        184
    40         50
    41        177
    42         12
    44          9
    45        464
    46        143
    47        170
    48         12
    49         17
    50         32
    51         55
    52         82
    53        193
    54        166
    55         15
    56          5
    57         40
    58        129
    59        158
    60        338
    61         24
    62         16
    64         17
    66         16
    67        219
    68         50
    69         25
    70         10
    71         85
    72         29
    73        414
    74         19
    75         31
    76          9
    78          7
    79         41
    80        138
    83          5
    84          7
    85        129
    86        174
    87         16
    88          9
    96          3
    97          3
    98         39
    99          3
   100          3
   112         42
   113        999
   114         67
   115         50