##TITLE=Library Entry 71556
##JCAMP-DX=Revision 4.10 
##DATA TYPE=MASS SPECTRUM
##SAMPLE DESCRIPTION=Chemical Concepts
##NAMES=HP
##CAS NAME=1-(7,7,9,9-Tetramethyl-1,4-dioxa-8-aza-spiro[4.5]dec-8-yl)-ethano
ne
##MOLFORM=C13H23NO3
##CAS REGISTRY NO=54097-95-9
##MP= -300
##BP= -300
##MW= 241
##$RETENTION INDEX=0
##$CONDENSED SPECTRUM=NO
##NPOINTS= 101
##XYDATA=(XY..XY) 1 
    27         28
    28          2
    29         52
    30          9
    31          5
    39         45
    40         17
    41        132
    42        247
    43        367
    44         21
    45         14
    51          2
    52          6
    53         32
    54         18
    55        176
    56         93
    57         41
    58        184
    59         12
    60          6
    65          8
    66          6
    67         29
    68         11
    69         17
    70         53
    71         12
    72         11
    73          8
    77          6
    79         14
    80          6
    81         32
    82         47
    83        102
    84         73
    85          7
    86        185
    87        235
    88         14
    89          2
    91          6
    94          5
    95          8
    96         14
    97         40
    98        999
    99         92
   100        132
   101          8
   107          4
   108          7
   109          3
   110          6
   111          9
   112         55
   113         25
   114          7
   122          7
   123          9
   124         13
   125          5
   126         14
   127        957
   128        126
   129         47
   130          5
   137          4
   138          7
   139          3
   140         75
   141         10
   142          9
   145          3
   149          4
   152          3
   154          5
   155          3
   156          3
   167         19
   168          6
   169          4
   170        127
   171         12
   179          3
   182          7
   183          4
   184        617
   185         88
   186         14
   211          4
   212          4
   226        878
   227        136
   228         16
   229          3
   241         29
   242          7
   243          2