##TITLE=Library Entry 6370
##JCAMP-DX=Revision 4.10 
##DATA TYPE=MASS SPECTRUM
##SAMPLE DESCRIPTION=ASES Database, Dalian Institute, P.R. China
##NAMES=HP
##CAS NAME=Trifluoroacetyl-diisopropylarsine
##MOLFORM=C8H14AsF3O
##CAS REGISTRY NO=54096-55-8
##MP= -300
##BP= -300
##MW= 258
##$RETENTION INDEX=0
##$CONDENSED SPECTRUM=NO
##NPOINTS= 25
##XYDATA=(XY..XY) 1 
    39         29
    40         10
    41        161
    42         30
    43        999
    44         40
    45          9
    59         30
    69         30
    89         20
    90         40
    91         39
   105         40
   109         19
   117         39
   118         79
   119        140
   130         20
   140         19
   141         19
   161         40
   196         19
   198         10
   216         69
   258         80