##TITLE=Library Entry 31501
##JCAMP-DX=Revision 4.10 
##DATA TYPE=MASS SPECTRUM
##SAMPLE DESCRIPTION=Chemical Concepts
##NAMES=HP
##CAS NAME=Ethane, 2-chloro-1,1-bis(2-chloroethoxy)-
##MOLFORM=C6H11Cl3O2
##CAS REGISTRY NO=5409-75-6
##MP= -300
##BP= -300
##MW= 220
##$RETENTION INDEX=0
##$CONDENSED SPECTRUM=NO
##NPOINTS= 90
##XYDATA=(XY..XY) 1 
    24          1
    25          4
    26         39
    27        508
    28         27
    29         61
    30         11
    31         87
    35          5
    36         24
    37          2
    38          9
    39          3
    40          1
    41          5
    42         23
    43         61
    44         18
    45         40
    46          1
    47         24
    48          7
    49         71
    50         22
    51         21
    52          6
    53          1
    56          0
    57          7
    58          0
    59          2
    60          1
    61         13
    62         26
    63        999
    64         34
    65        322
    66          4
    67          0
    69          0
    71          0
    72          1
    73        293
    74         11
    75          3
    76          1
    77          6
    78          7
    79         55
    80          4
    81         15
    82          1
    83          1
    87          0
    92          3
    93          3
    94          0
    98          0
   100          0
   103          0
   106          2
   107          0
   108          1
   109         33
   110          1
   111          9
   116          0
   117          0
   120          0
   121          1
   123          1
   135          1
   139          0
   140          4
   141        280
   142         14
   143        175
   144         10
   145         33
   146          1
   147          0
   153          2
   155          1
   169          0
   170          1
   171         78
   172          4
   173         54
   174          3
   175          8