##TITLE=Library Entry 25019
##JCAMP-DX=Revision 4.10 
##DATA TYPE=MASS SPECTRUM
##SAMPLE DESCRIPTION=NIST Mass Spectrometry Data Center, 1994
##NAMES=HP
##CAS NAME=di-tert-Butyl malonate
##MOLFORM=C11H20O4
##CAS REGISTRY NO=541-16-2
##MP= -300
##BP= -300
##MW= 216
##$RETENTION INDEX=0
##$CONDENSED SPECTRUM=NO
##NPOINTS= 58
##XYDATA=(XY..XY) 1 
     4          4
    12          0
    13          0
    14          4
    15         18
    16          0
    18          0
    27         34
    28         18
    29        100
    30          2
    31         15
    32          0
    37          1
    39         58
    41        231
    42         77
    43        106
    44          6
    45          3
    50          1
    51          2
    52          0
    53          5
    55         21
    57        999
    58         57
    59        269
    60         10
    61          1
    69         17
    70          0
    71          0
    72          3
    73          3
    83          1
    87         17
    88          0
    97          0
   100          1
   103          4
   105        153
   106          4
   107          1
   112          1
   115         26
   116          7
   117          1
   125          0
   127          0
   143          8
   145         97
   146          7
   147          1
   161         18
   162          1
   201          1
   202          0