##TITLE=Library Entry 8572
##JCAMP-DX=Revision 4.10 
##DATA TYPE=MASS SPECTRUM
##SAMPLE DESCRIPTION=M.Lounasmaa, Acta Chem.Scand., 25,3441(1971)
##NAMES=HP
##CAS NAME=6-Methyl-2,3-dihydropyran-2,4-dione
##MOLFORM=C6H6O3
##CAS REGISTRY NO=541-98-0
##MP= -300
##BP= -300
##MW= 126
##$RETENTION INDEX=0
##$CONDENSED SPECTRUM=NO
##NPOINTS= 27
##XYDATA=(XY..XY) 1 
    25         23
    26         84
    27        143
    28         92
    29         84
    38         51
    39        113
    40         41
    41        172
    42        354
    43        999
    53         46
    54         12
    55        156
    56         33
    68         28
    69        748
    70         64
    84         64
    85        295
    86         33
    98        416
    99         48
   111        167
   112         28
   126        357
   127         56