##TITLE=Library Entry 501
##JCAMP-DX=Revision 4.10 
##DATA TYPE=MASS SPECTRUM
##SAMPLE DESCRIPTION=CONTINENTAL OIL CO., PONCA CITY, OKLA, USA
##NAMES=HP
##CAS NAME=3-Heptanone, 5-methyl-
##MOLFORM=C8H16O
##CAS REGISTRY NO=541-85-5
##MP= -300
##BP= -300
##MW= 128
##$RETENTION INDEX=944
##$CONDENSED SPECTRUM=NO
##NPOINTS= 81
##XYDATA=(XY..XY) 1 
    14         23
    15         91
    16          3
    17          2
    18          4
    24          0
    25          3
    26         67
    27        590
    28        136
    29        999
    30         24
    31         11
    32          1
    33          0
    36          1
    37          7
    38         19
    39        230
    40         38
    41        375
    42        162
    43        954
    44         36
    45          7
    49          1
    50         11
    51         20
    52          8
    53         41
    54         15
    55        140
    56         70
    57        947
    58         37
    59          5
    61          1
    62          1
    63          3
    64          1
    65          3
    66          2
    67          8
    68          3
    69         23
    70         19
    71        562
    72        477
    73        115
    74          6
    75          1
    77          4
    79          3
    80          1
    81          9
    82          1
    83         14
    84          2
    85         11
    86          4
    91          1
    93          1
    95          3
    96          0
    97          7
    98          2
    99        328
   100         22
   101          1
   109          1
   110          1
   111          1
   112          5
   113          3
   114          2
   124          0
   126          1
   127          1
   128        100
   129         10
   130          0