##TITLE=Library Entry 5056
##JCAMP-DX=Revision 4.10 
##DATA TYPE=MASS SPECTRUM
##SAMPLE DESCRIPTION=V.A.Korolev, Moscow, Russia
##NAMES=HP
##CAS NAME=4-Hydroxy-2(5H)-furanone
##MOLFORM=C4H4O3
##CAS REGISTRY NO=541-57-1
##MP= -300
##BP= -300
##MW= 100
##$RETENTION INDEX=0
##$CONDENSED SPECTRUM=NO
##NPOINTS= 29
##XYDATA=(XY..XY) 1 
    34          1
    35          7
    36          7
    37         20
    38         22
    39         19
    40         36
    41        131
    42        999
    43        427
    44         50
    45          7
    52          4
    53          9
    55          3
    56          6
    57          1
    58          2
    68          4
    69         60
    70          9
    71         23
    72        123
    73          4
    79          1
    99          4
   100        602
   101         30
   102          3