##TITLE=Library Entry 72773
##JCAMP-DX=Revision 4.10 
##DATA TYPE=MASS SPECTRUM
##SAMPLE DESCRIPTION=Japan AIST/NIMC Database- Spectrum MS-NW-4630
##NAMES=HP
##CAS NAME=2-Butenoic acid, 3-methyl-
##MOLFORM=C5H8O2
##CAS REGISTRY NO=541-47-9
##MP= -300
##BP= -300
##MW= 100
##$RETENTION INDEX=953
##$CONDENSED SPECTRUM=NO
##NPOINTS= 71
##XYDATA=(XY..XY) 1 
    12          2
    13          3
    14          7
    15         28
    16          2
    17          9
    18         29
    19          1
    25          6
    26         49
    27        332
    28         84
    29        360
    30          9
    31         24
    32          3
    36          6
    37         45
    38         86
    39        641
    40         69
    41        313
    42         67
    43        176
    44         20
    45        117
    46          3
    47          1
    48          4
    49         21
    50         75
    51         73
    52         29
    53        187
    54        294
    55        486
    56         31
    57         90
    58         31
    59         83
    60         51
    61          2
    62          1
    63          1
    64          1
    65          1
    66          7
    67         54
    68          8
    69         10
    70          1
    71         10
    72          8
    73          6
    74          1
    77          1
    79          1
    81          7
    82        484
    83        472
    84         28
    85        353
    86         16
    87          2
    95          1
    97          2
    98          1
    99          5
   100        999
   101         58
   102          6