##TITLE=Library Entry 29838
##JCAMP-DX=Revision 4.10 
##DATA TYPE=MASS SPECTRUM
##SAMPLE DESCRIPTION=NIST Mass Spectrometry Data Center, 1994
##NAMES=HP
##CAS NAME=Butanamide, 3-methyl-
##MOLFORM=C5H11NO
##CAS REGISTRY NO=541-46-8
##MP= -300
##BP= -300
##MW= 101
##$RETENTION INDEX=1019
##$CONDENSED SPECTRUM=NO
##NPOINTS= 45
##XYDATA=(XY..XY) 1 
    13          4
    14         12
    15         56
    16         24
    17         14
    18         33
    26         18
    27        161
    28         52
    29         95
    30         40
    37         15
    38         36
    39        234
    40         45
    41        344
    42        149
    43        264
    44        525
    45          3
    46          7
    49          2
    50         11
    51         12
    52          6
    53         11
    54          4
    55         20
    56         19
    57        117
    58          2
    59        999
    60         32
    67          2
    68          6
    69         65
    70          4
    83         10
    84          2
    85         17
    86        135
    87          6
   100          9
   101         13
   102          2