##TITLE=Library Entry 19581
##JCAMP-DX=Revision 4.10 
##DATA TYPE=MASS SPECTRUM
##SAMPLE DESCRIPTION=Exported from NIST MS Search
##NAMES=HP
##CAS NAME=Butane, 1,1-dichloro-
##MOLFORM=C4H8Cl2
##CAS REGISTRY NO=541-33-3
##MP= -300
##BP= -300
##MW= 126
##$RETENTION INDEX=787
##$CONDENSED SPECTRUM=NO
##NPOINTS= 88
##XYDATA=(XY..XY) 1 
     2          4
    12          5
    13          8
    14         17
    15         70
    16          2
    24          2
    25         12
    26        122
    27        584
    28         74
    29        210
    30          5
    31          1
    32          1
    35         20
    36         22
    37         31
    38         43
    39        217
    40         22
    41        329
    42         38
    43        771
    44         28
    45          2
    46          1
    47         12
    48         13
    49         63
    50         33
    51         49
    52          8
    53         65
    54        147
    55        999
    56         45
    57          2
    58          1
    59          1
    60          9
    61         51
    62        204
    63         65
    64         65
    65         16
    66          1
    69          1
    70          1
    71          1
    72          2
    73          9
    74          1
    75         88
    76          9
    77         40
    78          4
    79          4
    80          1
    82          1
    83         33
    84          2
    85         22
    86          1
    87          5
    88          1
    89         11
    90         53
    91         85
    92         20
    93         26
    94          1
    95          1
    96          5
    97          8
    98          4
    99          5
   100          1
   101          1
   110          1
   111          2
   112          1
   113          1
   124          1
   125          1
   126          1
   127          1
   128          1