##TITLE=Library Entry 9085
##JCAMP-DX=Revision 4.10 
##DATA TYPE=MASS SPECTRUM
##SAMPLE DESCRIPTION=Exported from NIST MS Search
##NAMES=HP
##CAS NAME=Butane, 1-iodo-3-methyl-
##MOLFORM=C5H11I
##CAS REGISTRY NO=541-28-6
##MP= -300
##BP= -300
##MW= 198
##$RETENTION INDEX=881
##$CONDENSED SPECTRUM=NO
##NPOINTS= 53
##XYDATA=(XY..XY) 1 
    15          6
    26         12
    27        170
    28         27
    29        131
    30          3
    37          3
    38          9
    39         96
    40         14
    41        257
    42         41
    43        999
    44         35
    45          2
    50          6
    51          8
    52          3
    53         20
    54          5
    55        183
    56         18
    57          8
    58          1
    59          1
    67          2
    68          1
    69         14
    70         12
    71        734
    72         41
    91          4
    92          4
   102          1
   111          1
   127         42
   128         11
   129          2
   139          1
   140          1
   141         17
   142          3
   152          1
   153          2
   154          7
   155         67
   156          3
   168          7
   183          8
   184          3
   185          1
   198        377
   199         21