##TITLE=Library Entry 2886
##JCAMP-DX=Revision 4.10 
##DATA TYPE=MASS SPECTRUM
##SAMPLE DESCRIPTION=R RYHAGE MS-LAB KAROLINSKA INSTITUTET STOCKHOLM SWEDEN
##NAMES=HP
##CAS NAME=Muscone
##MOLFORM=C16H30O
##CAS REGISTRY NO=541-91-3
##MP= -300
##BP= -300
##MW= 238
##$RETENTION INDEX=1831
##$CONDENSED SPECTRUM=NO
##NPOINTS= 154
##XYDATA=(XY..XY) 1 
    12          2
    13          2
    14          6
    15         17
    16          3
    17          2
    18          8
    25          4
    26         25
    27        220
    28        132
    29        380
    30         10
    31          8
    32          6
    37          6
    38         10
    39        225
    40         58
    41        999
    42        338
    43        516
    44         20
    45         15
    50          5
    51         12
    52          8
    53         96
    54        106
    55        901
    56        263
    57        206
    58        305
    59        183
    60          8
    65         18
    66         19
    67        188
    68        178
    69        507
    70        138
    71        385
    72         37
    73          8
    74          4
    77         19
    78         11
    79         55
    80         51
    81        211
    82        239
    83        258
    84        272
    85        610
    86         54
    87         12
    91         14
    92          8
    93         51
    94        110
    95        188
    96        249
    97        366
    98        165
    99         58
   100         23
   101          7
   102          2
   105          4
   106          3
   107         47
   108         69
   109        104
   110        134
   111        170
   112        103
   113         37
   114         20
   115          4
   119          3
   120          3
   121         61
   122         44
   123         56
   124         89
   125        244
   126         61
   127         30
   128         16
   129          5
   133          2
   134          3
   135         77
   136         37
   137         34
   138         70
   139         61
   140         17
   141         21
   142         41
   143          6
   147          2
   148          2
   149         59
   150         26
   151         23
   152         39
   153         32
   154         12
   155         17
   156         42
   157          6
   163         31
   164         18
   165         10
   166          7
   167         16
   168         11
   169         11
   170         22
   171          4
   177         20
   178         46
   179         11
   180         96
   181         28
   182          9
   183         18
   184          3
   187          3
   191         17
   192          6
   193          3
   194          7
   195         47
   196         11
   197         20
   198          3
   205         14
   206          3
   207          2
   208          3
   209        104
   210         20
   211          3
   220         69
   221         14
   222          2
   223         99
   224         18
   225          2
   237          8
   238        220
   239         49