##TITLE=Library Entry 20334
##JCAMP-DX=Revision 4.10 
##DATA TYPE=MASS SPECTRUM
##SAMPLE DESCRIPTION=Exported from NIST MS Search
##NAMES=HP
##CAS NAME=1-Butanethiol, 3-methyl-
##MOLFORM=C5H12S
##CAS REGISTRY NO=541-31-1
##MP= -300
##BP= -300
##MW= 104
##$RETENTION INDEX=794
##$CONDENSED SPECTRUM=NO
##NPOINTS= 80
##XYDATA=(XY..XY) 1 
     2          3
    12          1
    13          1
    14          5
    15         42
    16          1
    24          1
    25          1
    26         25
    27        328
    28         51
    29        244
    30          5
    31          1
    32          4
    33          9
    34         15
    35         68
    36          2
    37         13
    38         29
    39        287
    40         36
    41        523
    42        403
    43        460
    44         15
    45        129
    46         58
    47        400
    48         21
    49         21
    50         17
    51         23
    52          7
    53         42
    54         22
    55        999
    56         68
    57         84
    58         34
    59         43
    60         52
    61        346
    62         29
    63         17
    64          1
    65          2
    66          1
    67          5
    68          2
    69         33
    70        863
    71         59
    72          3
    73          5
    74          1
    75          1
    76          5
    77          1
    78          1
    79          1
    80          1
    81          1
    82          1
    83          1
    84          1
    85          2
    86          1
    87          3
    88          1
    89          6
    90          1
   101          1
   102          1
   103          2
   104        288
   105         19
   106         13
   107          1