##TITLE=Library Entry 20713
##JCAMP-DX=Revision 4.10 
##DATA TYPE=MASS SPECTRUM
##SAMPLE DESCRIPTION=NIST Mass Spectrometry Data Center, 1990.
##NAMES=HP
##CAS NAME=(2-Methylbutyl)cyclohexane
##MOLFORM=C11H22
##CAS REGISTRY NO=54105-77-0
##MP= -300
##BP= -300
##MW= 154
##$RETENTION INDEX=0
##$CONDENSED SPECTRUM=NO
##NPOINTS= 40
##XYDATA=(XY..XY) 1 
    14         16
    27        134
    28        113
    29        244
    32         31
    39        233
    41        595
    42         94
    43        115
    51         23
    52         17
    53        115
    54        145
    55        999
    56        180
    57        220
    58         11
    65         32
    67        285
    68         72
    69        504
    70        150
    71         57
    77         37
    79         41
    80         12
    81         96
    82        354
    83        833
    84         62
    91         11
    95         12
    96         73
    97        177
    98         16
   124         80
   125        375
   126         44
   154        102
   155         13