##TITLE=Library Entry 76885
##JCAMP-DX=Revision 4.10 
##DATA TYPE=MASS SPECTRUM
##SAMPLE DESCRIPTION=A.A.Kutin, Moscow, Russia
##NAMES=HP
##CAS NAME=Spiro[isobenzofuran-1(3H)-one-3,2'-tetrahydrofuran-5'-one]
##MOLFORM=C11H8O4
##CAS REGISTRY NO=54103-04-7
##MP= -300
##BP= -300
##MW= 204
##$RETENTION INDEX=0
##$CONDENSED SPECTRUM=NO
##NPOINTS= 103
##XYDATA=(XY..XY) 1 
    33          0
    34          0
    37         16
    38         42
    39         39
    40         13
    41          2
    42         19
    43          6
    44         12
    45          5
    46          1
    50        402
    51        112
    52         55
    53         24
    54          7
    55         85
    56        160
    57          7
    58          0
    59          0
    60          2
    61         12
    62         27
    63         53
    64         20
    65         38
    66         90
    68          0
    69          1
    70          0
    71          0
    73         27
    74        172
    75        176
    76        784
    77        316
    78         54
    79          3
    80          1
    81          0
    82          3
    83          0
    84          1
    85          4
    86          9
    87          8
    88          4
    89         23
    90         11
    91          5
    92         11
    93         15
    94          0
    95          0
    97          0
    98          2
    99          0
   101          6
   102         25
   104        999
   105        408
   106         29
   107          1
   108          0
   109          0
   110          0
   111          0
   113          1
   114          2
   115          9
   116          2
   117          0
   118          5
   119          0
   120          1
   121          8
   122          0
   129          0
   131        112
   132        125
   133         20
   134          2
   140          0
   142          0
   144          0
   146          0
   147          0
   149         79
   150          6
   151          0
   154          0
   157          0
   159         43
   160        375
   161         40
   162          3
   163          0
   173          0
   176          0
   186          0
   204          0