##TITLE=Library Entry 65748
##JCAMP-DX=Revision 4.10 
##DATA TYPE=MASS SPECTRUM
##SAMPLE DESCRIPTION=A.A.Kutin, Moscow, Russia
##NAMES=HP
##CAS NAME=4-Imidazolidinone, 1-phenyl-2-thioxo-
##MOLFORM=C9H8N2OS
##CAS REGISTRY NO=54107-52-7
##MP= -300
##BP= -300
##MW= 192
##$RETENTION INDEX=0
##$CONDENSED SPECTRUM=NO
##NPOINTS= 124
##XYDATA=(XY..XY) 1 
    33         24
    34         37
    36         51
    37         90
    38        247
    39        774
    40        375
    41        139
    42        271
    43        100
    44        124
    45        365
    46        356
    47         48
    48         21
    50        195
    51        375
    52        135
    53         33
    54         23
    55         26
    56         13
    58        123
    59         58
    60         15
    61         42
    62         77
    63        263
    64        259
    65        717
    66        159
    67         17
    68          4
    69         17
    70         17
    72        350
    73        155
    74         64
    75         35
    77        615
    78         72
    79         58
    80         17
    81          5
    82          9
    83          7
    84          4
    85          3
    86          3
    87          7
    88          7
    89         13
    91        272
    92        456
    93        999
    94         87
    95          8
    96          4
    97         15
    98          3
   100         17
   101          2
   102          3
   103          9
   104         77
   105         37
   106        158
   107         19
   109          8
   110          2
   111          5
   112          3
   113          1
   114          0
   115          1
   117         10
   118        176
   119        167
   120        351
   121         26
   122          9
   123         54
   124         34
   125          7
   126          2
   128          0
   130          1
   131          4
   132         13
   133         10
   134          9
   135         11
   136          6
   137          7
   138          2
   139          0
   145         10
   146          2
   148          6
   149         17
   150          7
   151          2
   152          0
   159          3
   161          0
   162          0
   163         16
   164          2
   165         11
   166          1
   167          0
   171          2
   176          0
   179          0
   180          0
   181          0
   187          0
   188          1
   189         12
   191        250
   192        498
   193         60
   194         29
   195          2