##TITLE=Library Entry 52781
##JCAMP-DX=Revision 4.10 
##DATA TYPE=MASS SPECTRUM
##SAMPLE DESCRIPTION=Japan AIST/NIMC Database- Spectrum MS-NW-1014
##NAMES=HP
##CAS NAME=Cyclohexane, undecyl-
##MOLFORM=C17H34
##CAS REGISTRY NO=54105-66-7
##MP= -300
##BP= -300
##MW= 238
##$RETENTION INDEX=1760
##$CONDENSED SPECTRUM=NO
##NPOINTS= 71
##XYDATA=(XY..XY) 1 
    15          1
    17          4
    18         18
    26          1
    27         31
    28          2
    29         72
    30          2
    39         27
    40          6
    41        195
    42         36
    43        146
    44          6
    51          2
    52          1
    53         14
    54         32
    55        364
    56         61
    57         93
    58          4
    65          2
    66          3
    67        111
    68         34
    69         94
    70         40
    71         34
    72          3
    77          3
    78          1
    79          5
    80          2
    81         22
    82        834
    83        999
    84         86
    85         20
    86          2
    91          1
    95          5
    96         20
    97         79
    98         18
    99          5
   101          1
   109          2
   110          4
   111         27
   112         11
   113          3
   124          2
   125         13
   126         11
   127          1
   138          1
   139          7
   140          4
   141          1
   152          1
   153          3
   154         20
   155          7
   167          2
   168          2
   181          1
   182          1
   210          2
   238         39
   239          8