##TITLE=Library Entry 37238
##JCAMP-DX=Revision 4.10 
##DATA TYPE=MASS SPECTRUM
##SAMPLE DESCRIPTION=V.G.Zaikin,TIPS,Russian Acad.Sci.Moscow
##NAMES=HP
##CAS NAME=Acetic acid, chloro-, pentyl ester
##MOLFORM=C7H13ClO2
##CAS REGISTRY NO=5411-55-2
##MP= -300
##BP= -300
##MW= 164
##$RETENTION INDEX=1097
##$CONDENSED SPECTRUM=NO
##NPOINTS= 59
##XYDATA=(XY..XY) 1 
    27          9
    28          2
    29         43
    30          5
    31          9
    37         18
    38          5
    39         65
    40         29
    41        229
    42        478
    43        613
    44        107
    45         36
    47          9
    48         11
    49        186
    50         99
    51         99
    52         63
    53         15
    54         18
    55        449
    56         93
    57        101
    58         17
    59         16
    60          6
    67          7
    68          9
    69        101
    70        999
    71        321
    72         11
    73          9
    76         23
    77        495
    78         34
    79        219
    80         15
    83         18
    85         19
    91         16
    92          5
    93          9
    94         17
    95        196
    96         22
    97         52
    98         12
    99          5
   100          5
   105          9
   107         56
   108          9
   109         17
   110          8
   115         15
   121         15