##TITLE=Library Entry 73179
##JCAMP-DX=Revision 4.10 
##DATA TYPE=MASS SPECTRUM
##SAMPLE DESCRIPTION=NIST Mass Spectrometry Data Center
##NAMES=HP
##CAS NAME=Ethyl N,N-diethyloxamate
##MOLFORM=C8H15NO3
##CAS REGISTRY NO=5411-58-5
##MP= -300
##BP= -300
##MW= 173
##$RETENTION INDEX=0
##$CONDENSED SPECTRUM=NO
##NPOINTS= 47
##XYDATA=(XY..XY) 1 
    14          5
    15         45
    18         20
    19          1
    25          1
    26         26
    27        219
    28        129
    29        588
    30         66
    31          7
    39          3
    40          8
    41         24
    42        123
    43         27
    44        358
    45         20
    46          1
    47          1
    52          1
    54          5
    55          7
    56         95
    57         15
    58         53
    59          3
    69          1
    70         24
    72        891
    73         39
    74          4
    84          5
    86         12
    98          7
   100        999
   101         59
   102          6
   116          6
   130         69
   131          4
   144         97
   145          7
   158          1
   173        203
   174         19
   175          2