##TITLE=Library Entry 79804
##JCAMP-DX=Revision 4.10 
##DATA TYPE=MASS SPECTRUM
##SAMPLE DESCRIPTION=A.A.Kutin, Moscow, Russia
##NAMES=HP
##CAS NAME=N-(4-Acetyl-phenyl)-benzamide
##MOLFORM=C15H13NO2
##CAS REGISTRY NO=5411-13-2
##MP= -300
##BP= -300
##MW= 239
##$RETENTION INDEX=0
##$CONDENSED SPECTRUM=NO
##NPOINTS= 52
##XYDATA=(XY..XY) 1 
    33         22
    34          0
    37          1
    38          9
    39         34
    40         15
    41          7
    43         75
    44          4
    45          2
    51        184
    52         14
    53          2
    60          0
    61          1
    62         22
    64         46
    65         13
    71          0
    74         17
    77        524
    78         25
    79          9
    87          0
    89          3
    90          8
    91         28
    92          7
   103          5
   105        999
   107          1
   118          6
   119          8
   120          3
   121          4
   122          0
   134          2
   139          0
   140          0
   151          0
   164          0
   166          1
   167          1
   168          0
   193          5
   195          0
   196          5
   224         13
   225          0
   239        253
   240         25
   241          2