##TITLE=Library Entry 63407
##JCAMP-DX=Revision 4.10 
##DATA TYPE=MASS SPECTRUM
##SAMPLE DESCRIPTION=LAC, NIDDK, NIH, Bethesda, MD 20892
##NAMES=HP
##CAS NAME=Pentanoic acid, 2-benzenmethaniminyl-5-guanidinyl-
##MOLFORM=C13H18N4O2
##CAS REGISTRY NO=5411-76-7
##MP= -300
##BP= -300
##MW= 262
##$RETENTION INDEX=0
##$CONDENSED SPECTRUM=NO
##NPOINTS= 191
##XYDATA=(XY..XY) 1 
    41         92
    42         63
    43         69
    44        232
    45         20
    46         11
    47          0
    48         27
    49          6
    50         69
    51        144
    52         56
    53         24
    54         16
    55         21
    56         39
    57         11
    58          6
    59         13
    60          4
    61          6
    62         22
    63         72
    64         76
    65        187
    66         17
    67         11
    68         30
    69         41
    70         31
    71          5
    72          9
    73          8
    74         21
    75         20
    76         32
    77        180
    78         88
    79        131
    80         23
    81          6
    82          9
    83         17
    84         10
    85         15
    86         11
    87         14
    88          4
    89        126
    90         86
    91        999
    92        308
    93         21
    94          4
    95          6
    96          7
    97          4
    98         13
    99          6
   100          5
   101          2
   102          5
   103         13
   104         76
   105         22
   106        384
   107        256
   108         20
   109          3
   110         10
   111         27
   112          9
   113          7
   114          5
   115         14
   116         28
   117         99
   118         54
   119          6
   120          8
   121          2
   122          5
   123          2
   124          4
   125          8
   126          3
   127          7
   128         15
   129         13
   130          9
   131          6
   132         11
   133          4
   134          1
   135          2
   136          3
   137          3
   138          2
   139          4
   140          2
   141          3
   142          2
   143          2
   144          3
   145          1
   146          5
   147          2
   148          2
   149          3
   150          6
   151          5
   152         28
   153          7
   154          5
   155          3
   156         18
   157         26
   158         19
   159         26
   160          7
   161          1
   162          2
   163          3
   164          6
   165         32
   166         17
   167         15
   168          3
   169          1
   170          0
   171          2
   172          2
   173          3
   174          2
   175          4
   176          2
   177          3
   178          6
   179          3
   180          5
   181          1
   182          1
   183          3
   184          1
   185          1
   186          1
   187          2
   188          2
   189          2
   190          3
   191          4
   192          6
   193         13
   194        361
   195        467
   196         71
   197          7
   198          3
   199          3
   200          2
   201          8
   202          5
   203         12
   204          8
   205          2
   206          1
   208          0
   209          0
   210          0
   211          0
   212          0
   213          0
   215          0
   216          1
   217          3
   218          1
   219          0
   221          0
   223          0
   224          0
   225          0
   244          0
   245          1
   246          0
   247          3
   248          1
   249          0
   261          1
   262          4
   263          1
   264          0