##TITLE=Library Entry 79727
##JCAMP-DX=Revision 4.10 
##DATA TYPE=MASS SPECTRUM
##SAMPLE DESCRIPTION=Japan AIST/NIMC Database- Spectrum MS-IW-4889
##NAMES=HP
##CAS NAME=1,3-Diphenyl-2,3-epoxy-1-propanone
##MOLFORM=C15H12O2
##CAS REGISTRY NO=5411-12-1
##MP= -300
##BP= -300
##MW= 224
##$RETENTION INDEX=0
##$CONDENSED SPECTRUM=NO
##NPOINTS= 83
##XYDATA=(XY..XY) 1 
    18          2
    27          7
    28          3
    29          2
    37          1
    38          7
    39         35
    40          5
    41          4
    49          1
    50         34
    51        128
    52         11
    53          2
    61          2
    62         12
    63         49
    64         23
    65         37
    66          2
    69          9
    73          1
    74         10
    75         12
    76         21
    77        547
    78         40
    79          4
    82          2
    83          3
    84          1
    86          2
    87          3
    88          3
    89        166
    90        182
    91        130
    92          9
    97          1
    98          2
   101          1
   102          9
   103          9
   104          3
   105        999
   106         97
   107          7
   112          2
   115          2
   118         15
   119          9
   120          1
   128          1
   131          2
   139          1
   146          5
   147          8
   151          1
   152         10
   153          1
   165         14
   166          7
   167         24
   168          3
   176          1
   177          5
   178          8
   179          6
   180          1
   181          1
   194          4
   195         26
   196          8
   197          1
   205          2
   206          2
   207          9
   208          9
   209          1
   223         31
   224        398
   225         67
   226          6