##TITLE=Library Entry 42420
##JCAMP-DX=Revision 4.10 
##DATA TYPE=MASS SPECTRUM
##SAMPLE DESCRIPTION=Chemical Concepts
##NAMES=HP
##CAS NAME=Silane, [(3-methoxy-1-methylene-2-propenyl)oxy]trimethyl-, (E)-
##MOLFORM=C8H16O2Si
##CAS REGISTRY NO=54125-02-9
##MP= -300
##BP= -300
##MW= 172
##$RETENTION INDEX=0
##$CONDENSED SPECTRUM=NO
##NPOINTS= 94
##XYDATA=(XY..XY) 1 
    26         25
    27        155
    28         30
    29        116
    30          9
    31         26
    33          6
    36          3
    37          7
    38         18
    39        162
    40         38
    41         76
    42         74
    43        219
    44         90
    45        235
    46         16
    47        116
    48          3
    49          4
    50         13
    51         36
    52         13
    53        113
    54          8
    55         78
    56         10
    57         37
    58         48
    59        155
    60         24
    61        103
    62          7
    63         10
    65         14
    66         22
    67         21
    68         33
    69         11
    70         10
    71         20
    72         35
    73        999
    74         75
    75        579
    76         36
    77         22
    82         15
    83         65
    84         11
    85        149
    86          8
    87          7
    88          5
    89        334
    90         28
    91         24
    96          4
    97         32
    98         12
    99        104
   100         13
   101         28
   109         15
   111         16
   112          5
   113         41
   114         11
   115        100
   116         22
   117          7
   123          7
   125         33
   126         14
   127        105
   128          7
   129         13
   133          8
   139         12
   140          8
   141        595
   142        476
   143         78
   144         14
   145          4
   151          3
   157        546
   158         81
   159         18
   171         55
   172        165
   173         20
   174          5