##TITLE=Library Entry 47417
##JCAMP-DX=Revision 4.10 
##DATA TYPE=MASS SPECTRUM
##SAMPLE DESCRIPTION=Japan AIST/NIMC Database- Spectrum MS-IW-4503
##NAMES=HP
##CAS NAME=3'-Chlorobenzenesulfonanilide
##MOLFORM=C12H10ClNO2S
##CAS REGISTRY NO=54129-19-0
##MP= -300
##BP= -300
##MW= 267
##$RETENTION INDEX=0
##$CONDENSED SPECTRUM=NO
##NPOINTS= 112
##XYDATA=(XY..XY) 1 
    26          1
    27          9
    28          1
    36          3
    37          4
    38         17
    39         35
    40          4
    41          7
    44          2
    45          4
    47          1
    48          2
    49          5
    50         41
    51        175
    52         20
    53          4
    54          1
    61          5
    62         18
    63         76
    64         52
    65         33
    66          7
    69          4
    70          1
    71          1
    72          2
    73         38
    74         14
    75         24
    76         15
    77        999
    78         93
    79          4
    81          2
    82          1
    84          1
    85          1
    86          1
    87          2
    88          3
    89          7
    90         58
    91         91
    92         15
    93          1
    94          4
    95          1
    97         15
    98          4
    99        204
   100         16
   101         67
   102          5
   108          1
   109          6
   110          7
   111          5
   112          1
   113          2
   114          2
   115          9
   116          1
   124          2
   125         53
   126        301
   127         72
   128         96
   129         20
   130          1
   138          3
   139         10
   140          8
   141        679
   142         52
   143         34
   144          2
   149          1
   151          1
   152          1
   153          1
   154          1
   162          1
   164          1
   165          1
   166         15
   167         75
   168        199
   169         25
   170          1
   173          1
   175          1
   176         18
   177          3
   178          6
   179          1
   188          1
   201          5
   202        101
   203        110
   204         45
   205         35
   206          4
   266          1
   267        657
   268         94
   269        248
   270         34
   271         11
   272          1