##TITLE=Library Entry 36344
##JCAMP-DX=Revision 4.10 
##DATA TYPE=MASS SPECTRUM
##SAMPLE DESCRIPTION=ASES Database, Dalian Institute, P.R. China
##NAMES=HP
##CAS NAME=2,5-Pyrrolidinedione, 3-(1-chloroethyl)-4-methyl-
##MOLFORM=C7H10ClNO2
##CAS REGISTRY NO=54124-15-1
##MP= -300
##BP= -300
##MW= 175
##$RETENTION INDEX=0
##$CONDENSED SPECTRUM=NO
##NPOINTS= 19
##XYDATA=(XY..XY) 1 
    39        150
    41        297
    53         59
    67        100
    68         99
    69        999
    70         40
    89         44
    96         30
    97         60
   104         13
   112         19
   113         30
   137         25
   138         11
   139         20
   140        589
   141         45
   175          9