##TITLE=Library Entry 23196
##JCAMP-DX=Revision 4.10 
##DATA TYPE=MASS SPECTRUM
##SAMPLE DESCRIPTION=Exported from NIST MS Search
##NAMES=HP
##CAS NAME=1,4-Dioxane-2,6-dimethanol
##MOLFORM=C6H12O4
##CAS REGISTRY NO=54120-69-3
##MP= -300
##BP= -300
##MW= 148
##$RETENTION INDEX=0
##$CONDENSED SPECTRUM=NO
##NPOINTS= 65
##XYDATA=(XY..XY) 1 
    16          3
    17          2
    18          8
    19         46
    26         17
    27        119
    28        152
    29        318
    30        120
    31        406
    32         27
    33         10
    36          2
    37          2
    38          5
    39         44
    40         48
    41        106
    42         45
    43        306
    44         80
    45        204
    46          6
    47          4
    53          4
    54          1
    55         26
    56         10
    57        999
    58        177
    59         47
    60         21
    61        166
    62          5
    69         22
    70         11
    71         79
    72          5
    73        129
    74         56
    75         41
    76          2
    84          2
    85          2
    86          5
    87         37
    88          3
    89          3
    91          1
    94          1
    99         19
   100          4
   101          1
   102          1
   103          3
   105          1
   112          1
   116         25
   117        323
   118         88
   119          7
   130         16
   131          1
   148          4
   149          1