##TITLE=Library Entry 7530
##JCAMP-DX=Revision 4.10 
##DATA TYPE=MASS SPECTRUM
##SAMPLE DESCRIPTION=D.A. GEORGE, US AGRIC. RES. LAB., YAKIMA, WASH.,
##NAMES=HP
##CAS NAME=trans-2,3-Epoxydecane
##MOLFORM=C10H20O
##CAS REGISTRY NO=54125-39-2
##MP= -300
##BP= -300
##MW= 156
##$RETENTION INDEX=1147
##$CONDENSED SPECTRUM=NO
##NPOINTS= 63
##XYDATA=(XY..XY) 1 
    26         80
    27        820
    28        520
    29        890
    30         30
    31         70
    32         40
    39        470
    40        100
    41        910
    42        860
    43        999
    44        310
    45        920
    46         40
    47         10
    51         20
    52         10
    53        150
    54        290
    55        870
    56        950
    57        850
    58        430
    59        160
    65         20
    66         50
    67        300
    68        780
    69        890
    70        830
    71        740
    72        360
    73         50
    77         20
    79        130
    80         10
    81        250
    82        340
    83        670
    84        470
    85        770
    86         50
    87         10
    95        100
    96         70
    97         70
    98         20
    99         60
   100         20
   109         30
   110        380
   111        290
   112        170
   113        100
   114         20
   127         70
   128         10
   138         40
   140         20
   141         70
   142         10
   156         40