##TITLE=Library Entry 56015
##JCAMP-DX=Revision 4.10 
##DATA TYPE=MASS SPECTRUM
##SAMPLE DESCRIPTION=Japan AIST/NIMC Database- Spectrum MS-NW-5887
##NAMES=HP
##CAS NAME=5-Diethylamino-2-pentanol
##MOLFORM=C9H21NO
##CAS REGISTRY NO=5412-69-1
##MP= -300
##BP= -300
##MW= 159
##$RETENTION INDEX=0
##$CONDENSED SPECTRUM=NO
##NPOINTS= 68
##XYDATA=(XY..XY) 1 
    15          8
    17          1
    18          3
    26          2
    27         28
    28         29
    29         41
    30         84
    31          6
    32          1
    39          9
    40          2
    41         41
    42         38
    43         37
    44         22
    45         42
    46          2
    51          1
    53          2
    54          4
    55          8
    56         28
    57         13
    58        175
    59          9
    60          6
    64          7
    65          1
    67          3
    68          2
    69         54
    70         10
    71         20
    72         34
    73         10
    74         13
    80          1
    81          1
    82          2
    83          2
    84         13
    85         26
    86        999
    87         57
    88          2
    96          2
    97          1
    98          7
    99          3
   100          5
   101          1
   102          1
   105          1
   110          2
   111          1
   112          4
   114          4
   126          2
   128          1
   130          2
   140          2
   142          5
   144         42
   145          4
   158          6
   159         36
   160          4