##TITLE=Library Entry 81515
##JCAMP-DX=Revision 4.10 
##DATA TYPE=MASS SPECTRUM
##SAMPLE DESCRIPTION=D.HENNEBERG, MAX-PLANCK INSTITUTE, MULHEIM, WEST GERMAN
Y
##NAMES=HP
##CAS NAME=1,3-Dioxolane, 2,4,5-trimethyl-2-phenyl-
##MOLFORM=C12H16O2
##CAS REGISTRY NO=5413-61-6
##MP= -300
##BP= -300
##MW= 192
##$RETENTION INDEX=0
##$CONDENSED SPECTRUM=NO
##NPOINTS= 85
##XYDATA=(XY..XY) 1 
    27         32
    28         89
    29         34
    30          0
    31          2
    32          0
    38          1
    39         22
    40          3
    41         46
    42          7
    43        661
    44         26
    45          9
    49          1
    50          7
    51         39
    52          9
    53          6
    54          4
    55        143
    56         27
    57          9
    58          1
    59          1
    61         10
    63          6
    64          1
    65          8
    66          1
    69          1
    70          1
    71          5
    72         16
    73        156
    74          7
    75          2
    76         10
    77        239
    78        104
    79         24
    80          1
    86          0
    89          5
    90          1
    91         28
    92          3
    93          0
   101          1
   102         15
   103         99
   104        269
   105        999
   106         75
   107          5
   114          4
   115        336
   116         22
   117          2
   119          1
   120         20
   121         28
   122          4
   123         53
   124          4
   125          0
   129          2
   131          1
   132          0
   133         13
   134          2
   141          1
   145          0
   146          4
   147        192
   148         50
   149          5
   161          0
   163          0
   176          2
   177        833
   178        103
   179          8
   180          0
   191          0