##TITLE=Library Entry 44146
##JCAMP-DX=Revision 4.10 
##DATA TYPE=MASS SPECTRUM
##SAMPLE DESCRIPTION=F.A.J.MUSKIET, LAB. CLIN. CHEM., UNIV. HOSP., GRONINGEN
, NET
##NAMES=HP
##CAS NAME=N-(Trifluoracetyl)-O,O',O''-tris(trimethylsilyl)epinephrine
##MOLFORM=C20H36F3NO4Si3
##CAS REGISTRY NO=54135-51-2
##MP= -300
##BP= -300
##MW= 495
##$RETENTION INDEX=1987
##$CONDENSED SPECTRUM=NO
##NPOINTS= 72
##XYDATA=(XY..XY) 1 
    40          7
    42         21
    43         15
    44         32
    45        115
    46          5
    47          6
    56          3
    57          4
    58          4
    59         10
    60          4
    61          2
    64          6
    69         13
    72         10
    73        999
    74         84
    75         63
    76          4
    77         42
    78          8
    91          6
   110          7
   117          5
   121          3
   131          5
   133          8
   134         31
   135          6
   140         35
   147         15
   148          4
   161          2
   163          2
   177          4
   179         15
   180          2
   184         26
   185          3
   191          7
   192          7
   193         13
   194          3
   205          2
   207          5
   220          2
   221          4
   237          6
   251         10
   265         20
   266          3
   267         18
   268          4
   279          6
   280          4
   281         35
   282         10
   324          2
   339          4
   341          3
   353          6
   354          2
   355        688
   356        206
   357        103
   358         24
   359          6
   368          4
   480         17
   481          6
   495          8