##TITLE=Library Entry 65864
##JCAMP-DX=Revision 4.10 
##DATA TYPE=MASS SPECTRUM
##SAMPLE DESCRIPTION=NIST Mass Spectrometry Data Center
##NAMES=HP
##CAS NAME=Glutaranilic acid
##MOLFORM=C11H13NO3
##CAS REGISTRY NO=5414-99-3
##MP= -300
##BP= -300
##MW= 207
##$RETENTION INDEX=0
##$CONDENSED SPECTRUM=NO
##NPOINTS= 106
##XYDATA=(XY..XY) 1 
    15          2
    17          1
    18          4
    26          4
    27         37
    28         18
    29          8
    30          4
    31          6
    37          4
    38         12
    39         66
    40         10
    41         65
    42         40
    43         73
    44         10
    45         85
    46          2
    50         12
    51         34
    52         16
    53          8
    54          6
    55         50
    56          4
    57          2
    59          2
    60          6
    61          2
    62          5
    63         21
    64         23
    65         80
    66         46
    67          6
    68          4
    69          8
    70          2
    73          3
    74          4
    75          3
    76          6
    77         67
    78         13
    79          8
    80          5
    81          2
    82          2
    87         58
    88          3
    89          2
    90          3
    91         26
    92         51
    93        999
    94         75
    95          5
    96          6
    97          7
   103          2
   104          6
   105          5
   106         17
   107          5
   108          3
   109          2
   113          5
   115         22
   116          2
   117         10
   118          6
   119         18
   120         26
   121         12
   122          4
   124         11
   130          2
   132          9
   133          4
   134          7
   135          8
   136          4
   137          4
   138          9
   139          3
   141          7
   146          4
   148          4
   149          7
   150          4
   151         19
   152         25
   153          4
   158          5
   160         17
   161         22
   162          6
   163          2
   167         21
   168          3
   189         14
   190          4
   207         76
   208          9
   210          4