##TITLE=Library Entry 5174
##JCAMP-DX=Revision 4.10 
##DATA TYPE=MASS SPECTRUM
##SAMPLE DESCRIPTION=A.A.Kutin, Moscow, Russia
##NAMES=HP
##CAS NAME=Imidazole-4-carboxylic acid, 5-amino-1-methyl-, ethyl ester
##MOLFORM=C7H11N3O2
##CAS REGISTRY NO=54147-04-5
##MP= -300
##BP= -300
##MW= 169
##$RETENTION INDEX=0
##$CONDENSED SPECTRUM=NO
##NPOINTS= 35
##XYDATA=(XY..XY) 1 
    33         33
    38         13
    40         93
    42        999
    44         44
    45         11
    51          1
    53         22
    54         47
    55        106
    56        161
    57         71
    65          0
    67         18
    68        115
    69         18
    70          5
    72          3
    80          5
    81          6
    82          3
    95        160
    97        288
   110          2
   111          1
   123        545
   124        245
   125         72
   126          7
   139          0
   141         24
   167          1
   169        448
   170         34
   171          2