##TITLE=Library Entry 15619
##JCAMP-DX=Revision 4.10 
##DATA TYPE=MASS SPECTRUM
##SAMPLE DESCRIPTION=Div. of Experiment Therapeutics WRAIR, WRAMC, Washingto
n DC 20307
##NAMES=HP
##CAS NAME=4-t-Butyl-.alpha.,.alpha.'-bis[dimethylamino]-2,6-xylenol
##MOLFORM=C16H28N2O
##CAS REGISTRY NO=5414-79-9
##MP= -300
##BP= -300
##MW= 264
##$RETENTION INDEX=0
##$CONDENSED SPECTRUM=NO
##NPOINTS= 132
##XYDATA=(XY..XY) 1 
    41        137
    42        306
    43         85
    44        999
    45        221
    46        240
    47         11
    48          1
    49         19
    50          5
    51         35
    52         11
    53         36
    54          5
    55         44
    56         16
    57         78
    58        594
    59         26
    60          3
    62          2
    63         11
    64          5
    65         36
    66         10
    67         18
    68          7
    69         10
    70          3
    71          2
    72          4
    73          8
    75          5
    76          6
    77         81
    78         28
    79         53
    80         30
    82         32
    84         14
    86         14
    88         15
    89         22
    91        194
    92         20
    93         26
    94         15
    95         11
    96          6
    98          2
   101          2
   102         10
   103         34
   104         16
   105         69
   106         12
   107         18
   108         11
   109          2
   110          1
   111          1
   115         44
   116         21
   117         88
   118         24
   119         53
   120         16
   121         16
   122          9
   123          5
   124          4
   127          4
   128         10
   129         10
   130          7
   131         29
   132         23
   133         54
   134         20
   135          8
   136          2
   141          2
   142          2
   143          4
   144          6
   145         18
   146         18
   147         63
   148         20
   149         10
   150          2
   157          1
   158          3
   159         10
   160         21
   161        174
   162        288
   163         47
   164          6
   172          2
   173          3
   174         13
   175         77
   176         36
   177          8
   178          0
   186          2
   187          1
   188          9
   189          6
   190          5
   192         41
   193          4
   202         24
   203         11
   204        222
   205         30
   206         20
   207         36
   208          9
   217          1
   218         65
   219        132
   220         80
   221         14
   222          2
   249         17
   250          2
   263         13
   264         41
   265          8
   266          1