##TITLE=Library Entry 18669
##JCAMP-DX=Revision 4.10 
##DATA TYPE=MASS SPECTRUM
##SAMPLE DESCRIPTION=NIST Mass Spectrometry Data Center, 1992
##NAMES=HP
##CAS NAME=5-Bromovaleronitrile
##MOLFORM=C5H8BrN
##CAS REGISTRY NO=5414-21-1
##MP= -300
##BP= -300
##MW= 161
##$RETENTION INDEX=0
##$CONDENSED SPECTRUM=NO
##NPOINTS= 82
##XYDATA=(XY..XY) 1 
    12          2
    13          4
    14         12
    15         25
    16          0
    24          1
    25         12
    26        112
    27        344
    28        196
    29        140
    30          6
    32          2
    36          2
    37         26
    38         57
    39        320
    40         79
    41        498
    42         34
    43          0
    48          1
    49          8
    50         29
    51         50
    52         57
    53        114
    54        999
    55        743
    56         31
    57          0
    59          0
    60          0
    61          1
    62          2
    63          3
    64          9
    65          6
    66         19
    67          9
    68         16
    69          1
    74          1
    75          3
    76          3
    77          1
    78          2
    79         15
    80         35
    81         29
    82        405
    83         21
    84          0
    91          1
    92          3
    93         28
    94          4
    95         29
    96          1
   104          1
   105          5
   106          6
   107         30
   108          7
   109         24
   117          0
   119          6
   120          1
   121         11
   122          1
   123          6
   132          4
   133         29
   134          7
   135         27
   136          2
   146          0
   148          0
   161         40
   162          6
   163         36
   164          2