##TITLE=Library Entry 17096
##JCAMP-DX=Revision 4.10 
##DATA TYPE=MASS SPECTRUM
##SAMPLE DESCRIPTION=Chuck Anderson, Aldrich Chemical Co.
##NAMES=HP
##CAS NAME=1-Bromo-2-(2-methoxyethoxy)ethane
##MOLFORM=C5H11BrO2
##CAS REGISTRY NO=54149-17-6
##MP= -300
##BP= -300
##MW= 182
##$RETENTION INDEX=0
##$CONDENSED SPECTRUM=NO
##NPOINTS= 75
##XYDATA=(XY..XY) 1 
    13          0
    14          5
    15         81
    16          2
    17          1
    19          1
    25          0
    26         20
    27        202
    28         71
    29        183
    30         15
    31        122
    32          1
    33          6
    35          0
    36          0
    38          0
    39          3
    40          0
    41         12
    42         21
    43         93
    44         34
    45        999
    46         22
    47          3
    51          0
    55          0
    57          3
    58        544
    59        576
    60         21
    61          2
    69          0
    70          0
    71          1
    72          7
    73          1
    74          0
    75          4
    76          4
    79          2
    80          2
    81          3
    82          2
    83          0
    87         47
    88          1
    89         83
    90          3
    91          1
    92          1
    93         12
    94          3
    95         12
    96          2
    97          0
   102          7
   103          7
   104          0
   105          2
   107        385
   109        376
   110          6
   121          0
   122          0
   123          2
   124          0
   125          1
   137         80
   139         75
   140          2
   151          0
   153          0