##TITLE=Library Entry 2863
##JCAMP-DX=Revision 4.10 
##DATA TYPE=MASS SPECTRUM
##SAMPLE DESCRIPTION=CARL DJERASSI DEPT OF CHEM STANFORD UNIV STANFORD CALIF
 94305
##NAMES=HP
##CAS NAME=Androstan-6-one, oxime, (5.alpha.)-
##MOLFORM=C19H31NO
##CAS REGISTRY NO=54156-19-3
##MP= -300
##BP= -300
##MW= 289
##$RETENTION INDEX=0
##$CONDENSED SPECTRUM=NO
##NPOINTS= 155
##XYDATA=(XY..XY) 1 
    25         30
    26        140
    27        260
    28         90
    29        380
    30         50
    31         50
    32         20
    35         20
    37         50
    38         50
    39        310
    40         70
    41        999
    42        140
    43        170
    44         20
    45         40
    46         20
    49         70
    50        250
    51        280
    52        340
    53        420
    54        150
    55        720
    56        100
    57         50
    63         20
    65        140
    66         80
    67        590
    68        130
    69        150
    70         40
    71         20
    72         20
    73         20
    75         20
    77        270
    78        100
    79        630
    80        170
    81        460
    82         70
    83         60
    84         20
    86         20
    91        320
    92         80
    93        350
    94        130
    95        410
    96         80
    97         50
    98         40
   103         30
   104         40
   105        180
   106         90
   107        200
   108        100
   109        110
   110         50
   111         40
   112         30
   113         30
   115         40
   116         30
   117         70
   118         40
   119         90
   120         70
   121        110
   122         90
   123         40
   124         40
   125         20
   126         30
   128         30
   129         30
   130         40
   131         70
   132         40
   133         90
   134         70
   135        150
   136         90
   137         30
   138         60
   139         20
   140         20
   143         30
   144         20
   145         60
   146         40
   147         60
   148         50
   149         70
   150         30
   152         60
   153         30
   154         20
   157         20
   158         20
   159         40
   160         40
   161         60
   162         50
   163         30
   164         30
   166         20
   172         10
   173         30
   174         30
   175         20
   176         50
   177         30
   178         20
   179         20
   187         10
   188         20
   189         20
   190         30
   192         40
   193         30
   202         20
   204         20
   206         20
   214         20
   215         20
   216         20
   218         40
   219         20
   220         30
   221         20
   230         40
   231         20
   232         20
   234        350
   235         70
   243         30
   244         20
   246         20
   255         40
   256         40
   257         90
   258         70
   259         20
   272        240
   273         70
   274        150
   275         40
   289        290
   290         70