##TITLE=Library Entry 51853
##JCAMP-DX=Revision 4.10 
##DATA TYPE=MASS SPECTRUM
##SAMPLE DESCRIPTION=A.A.Kutin, Moscow, Russia
##NAMES=HP
##CAS NAME=1,3,7-Trimethyluric acid
##MOLFORM=C8H10N4O3
##CAS REGISTRY NO=5415-44-1
##MP= -300
##BP= -300
##MW= 210
##$RETENTION INDEX=0
##$CONDENSED SPECTRUM=NO
##NPOINTS= 146
##XYDATA=(XY..XY) 1 
    33          2
    34          6
    35          0
    36          6
    37          2
    38         13
    39         27
    40        163
    41         73
    42        227
    43         36
    44         38
    45          5
    48          0
    49          2
    50          8
    51         14
    52         18
    53         61
    54         64
    55        102
    56        155
    57         67
    58         42
    59          3
    60          3
    61          1
    62          3
    63          4
    64          4
    66         48
    67        445
    68         52
    69         61
    70         66
    71         12
    72          2
    73          4
    74          4
    75          4
    76          7
    77         22
    78          6
    79          8
    80         17
    82        999
    83        220
    84         22
    85          5
    86          1
    87          1
    88          1
    89          0
    90          3
    91          4
    93          2
    94          4
    95          6
    96         15
    97         25
    98         29
    99          2
   100          0
   101          0
   102          0
   103          0
   104          3
   105         68
   106          1
   107          1
   108          2
   109         12
   110         12
   111          8
   112          5
   113          3
   114          0
   115          0
   117          0
   119          1
   120          0
   121          1
   122          3
   123          7
   124         68
   125        176
   126         25
   127          6
   128          2
   129          2
   130          0
   131          0
   132          0
   134          0
   135          0
   136          2
   137          1
   138          5
   139          2
   140          1
   141          2
   142          3
   143          2
   144          1
   146          2
   147          1
   149          4
   151          8
   152         53
   153        193
   154         16
   155          6
   156          0
   157          3
   164          0
   165          2
   166          3
   167          4
   168          3
   169          2
   170          0
   171          5
   172          0
   179          0
   180          5
   181         14
   182          6
   183         11
   184          1
   185          5
   193          0
   195          2
   196          0
   197          1
   198          1
   199          2
   200          3
   201          2
   202          1
   206          0
   207          7
   209         44
   210        744
   211         79
   212          9
   213          0