##TITLE=Library Entry 56341
##JCAMP-DX=Revision 4.10 
##DATA TYPE=MASS SPECTRUM
##SAMPLE DESCRIPTION=A.Mazepa, Phys.-Chem.Institute, Odessa, Ukraine
##NAMES=HP
##CAS NAME=2-(2-Diethylamino-ethoxy)-fluoren-9-one
##MOLFORM=C19H21NO2
##CAS REGISTRY NO=54153-31-0
##MP= -300
##BP= -300
##MW= 295
##$RETENTION INDEX=0
##$CONDENSED SPECTRUM=NO
##NPOINTS= 73
##XYDATA=(XY..XY) 1 
    39          6
    40          3
    41         26
    42         41
    43         44
    44         57
    45         16
    46          1
    53          1
    54          5
    55         28
    56         48
    57         44
    58         58
    59          4
    60         14
    61          4
    66         10
    67          8
    68         12
    69         21
    70         16
    71         22
    72         12
    73         16
    74          2
    75          2
    79          2
    80          1
    81          9
    82          6
    83         13
    84         17
    85         20
    86        999
    87         60
    88          1
    89          1
    95          8
    96          9
    97          8
    98          6
    99          6
   100         19
   101          4
   107          1
   109          3
   110          3
   111          5
   112          3
   113          2
   115          2
   116          1
   123          2
   124          1
   125          2
   129          5
   137          2
   138          2
   139         14
   140          6
   141          1
   149          4
   150          5
   151         11
   152          3
   167          2
   179          2
   195          2
   196          2
   280          3
   295          9
   296          2