##TITLE=Library Entry 35385
##JCAMP-DX=Revision 4.10 
##DATA TYPE=MASS SPECTRUM
##SAMPLE DESCRIPTION=Chemical Concepts
##NAMES=HP
##CAS NAME=1,6,10,14,18,22-Tetracosahexaen-3-ol, 2,6,10,15,19,23-hexamethyl-
, (all-E)-
##MOLFORM=C30H50O
##CAS REGISTRY NO=54159-46-5
##MP= -300
##BP= -300
##MW= 426
##$RETENTION INDEX=0
##$CONDENSED SPECTRUM=NO
##NPOINTS= 276
##XYDATA=(XY..XY) 1 
    26          1
    27         26
    29         52
    30          1
    31          4
    38          0
    39         27
    41        393
    42         20
    43        153
    44          4
    45          9
    50          0
    51          3
    52          1
    53         57
    54          8
    55        233
    56         15
    57         49
    58          1
    59          6
    60          1
    61          1
    64          0
    65         11
    66          7
    67        178
    68        185
    69        999
    70         58
    71         86
    72          8
    73          3
    74          0
    77         40
    78          6
    79        126
    80         42
    81        621
    82         90
    83         57
    84         16
    85          9
    86          0
    87          0
    89          0
    91         59
    92         25
    93        386
    94         87
    95        231
    96         26
    97         54
    98          6
    99          2
   100          0
   103          2
   104          1
   105         57
   106         18
   107        271
   108         50
   109        177
   110         20
   111         28
   112          4
   113          2
   115          1
   116          0
   117          3
   118          2
   119         60
   120         24
   121        133
   122         44
   123         98
   124         20
   125         50
   126          5
   127          8
   128          1
   129          1
   130          0
   131          7
   132          6
   133         42
   134         44
   135        181
   136        127
   137        124
   138         14
   139          4
   140          1
   141          0
   143          1
   144          0
   145         16
   146          6
   147         68
   148         26
   149         85
   150         18
   151         13
   152          4
   153         14
   154          2
   155          0
   157          2
   158          1
   159         16
   160          7
   161         40
   162         14
   163         27
   164          5
   165          4
   166          3
   167          0
   171          2
   172          0
   173         13
   174          5
   175         32
   176         13
   177         21
   178          4
   179          3
   180          0
   181          0
   185          2
   186          0
   187         14
   188          5
   189         30
   190         11
   191         26
   192         21
   193          5
   194          1
   195          1
   196          0
   197          0
   199          3
   200          0
   201         18
   202          7
   203         37
   204         12
   205         16
   206          4
   207          4
   208          2
   209          0
   211          0
   213          3
   214          1
   215          9
   216         11
   217         12
   218          9
   219          5
   220          2
   221          2
   222          0
   223          0
   224          0
   227          2
   228          1
   229          9
   230          3
   231         12
   232          3
   233          1
   234          2
   235          0
   236          0
   237          0
   239          0
   241          1
   242          0
   243          4
   244          1
   245          2
   246          1
   247          2
   248          0
   251          0
   253          0
   255          2
   256          1
   257          6
   258          3
   259          3
   260          2
   261          1
   262          0
   263          0
   269          1
   270          1
   271         12
   272          4
   273          7
   274          2
   275          1
   276          1
   277          0
   283          1
   284          1
   285          1
   286          1
   287          1
   288          0
   289          2
   290          0
   295          0
   297          4
   298          1
   299         12
   300          4
   301          2
   302          1
   303          0
   305          0
   311          0
   313          2
   314          0
   315          4
   316          1
   317          1
   318          0
   323          1
   324          0
   325          2
   326          2
   327          4
   328          1
   329          1
   330          0
   337          0
   338          0
   339         10
   340          5
   341          6
   342          3
   343          2
   344          5
   345          1
   351          0
   352          0
   354          0
   355          1
   356          1
   357         18
   358          4
   359          0
   365          2
   366          1
   368          0
   369          0
   370          0
   380          0
   383          7
   384          2
   385          0
   393          2
   394          0
   408         10
   409          3
   410          0
   411          2
   412          1
   424          0
   426         30
   427         10
   428          2