##TITLE=Library Entry 59218
##JCAMP-DX=Revision 4.10 
##DATA TYPE=MASS SPECTRUM
##SAMPLE DESCRIPTION=Japan AIST/NIMC Database- Spectrum MS-IW-7756
##NAMES=HP
##CAS NAME=Guanidine, N-nitro-N'-(phenylmethyl)-
##MOLFORM=C8H10N4O2
##CAS REGISTRY NO=5415-72-5
##MP= -300
##BP= -300
##MW= 194
##$RETENTION INDEX=0
##$CONDENSED SPECTRUM=NO
##NPOINTS= 78
##XYDATA=(XY..XY) 1 
    13          1
    14          2
    16          2
    17         18
    18         94
    26          4
    27         21
    28         69
    29          3
    30         25
    37          4
    38          8
    39         38
    40          3
    41         11
    42         34
    43         20
    44        178
    45          2
    46          9
    49          2
    50         29
    51         61
    52         16
    53         10
    54          1
    55          5
    57          1
    61          3
    62         10
    63         25
    64          9
    65        107
    66          8
    73          1
    74          9
    75          9
    76         31
    77         96
    78         30
    79         30
    80          2
    85          1
    86          2
    87          1
    88          1
    89         24
    90         11
    91        999
    92         95
    93          5
   101          1
   102          7
   103         82
   104         70
   105         46
   106         73
   107         23
   108          2
   116          2
   117          4
   118          2
   119         45
   120          4
   128          7
   129         24
   130         45
   131         18
   132        169
   133         23
   134          1
   145          1
   146         12
   147          5
   148          8
   149          2
   150          8
   179          1