##TITLE=Library Entry 15042
##JCAMP-DX=Revision 4.10 
##DATA TYPE=MASS SPECTRUM
##SAMPLE DESCRIPTION=Chemical Concepts
##NAMES=HP
##CAS NAME=Lanosta-8,24-diene-3,22-diol, diacetate, (3.beta.,22R)-
##MOLFORM=C34H54O4
##CAS REGISTRY NO=54155-21-4
##MP= -300
##BP= -300
##MW= 526
##$RETENTION INDEX=0
##$CONDENSED SPECTRUM=NO
##NPOINTS= 380
##XYDATA=(XY..XY) 1 
    26          3
    27         19
    28         15
    29         54
    30          5
    31          5
    36          3
    38          3
    39         23
    40         11
    41        289
    42         26
    43        999
    44        109
    45         31
    46          5
    50          5
    51          9
    52          2
    53         36
    54          9
    55        264
    56         30
    57        107
    58          8
    59          7
    60         23
    61          8
    62          2
    63          5
    64          6
    65         18
    66          7
    67        143
    68         25
    69        739
    70         67
    71         61
    72         10
    73         11
    74          7
    75          4
    76          6
    77         47
    78         10
    79        105
    80         22
    81        234
    82         41
    83        124
    84         19
    85         37
    86          4
    87          6
    89          5
    91        109
    92         28
    93        215
    94         36
    95        267
    96         36
    97         72
    98         19
    99         31
   100          4
   101          6
   102          2
   103          8
   104         11
   105        167
   106         31
   107        231
   108         39
   109        578
   110         68
   111         43
   112         13
   113         11
   114          3
   115         20
   116         11
   117         42
   118         15
   119        201
   120         39
   121        214
   122         41
   123        127
   124         19
   125         17
   126          5
   127         18
   128         24
   129         47
   130         20
   131         88
   132         27
   133        143
   134         39
   135        170
   136         44
   137         46
   138          8
   139         11
   140          5
   141         35
   142         23
   143         64
   144         28
   145        130
   146         35
   147        130
   148         36
   149        125
   150         18
   151         26
   152          8
   153         15
   154         10
   155         40
   156         24
   157         76
   158         36
   159        148
   160         64
   161        150
   162         47
   163        139
   164         22
   165         15
   166          6
   167         20
   168         13
   169         40
   170         22
   171         81
   172         33
   173        109
   174         35
   175        117
   176         22
   177         49
   178         10
   179         12
   180          6
   181         15
   182          9
   183         39
   184         20
   185         89
   186         32
   187        128
   188         39
   189        106
   190         20
   191         24
   192          6
   193          8
   194          6
   195         16
   196         23
   197         36
   198         17
   199         80
   200         27
   201         91
   202         25
   203         69
   204         18
   205         14
   206          5
   207          6
   208          4
   209         14
   210         13
   211         39
   212         19
   213         80
   214         46
   215        141
   216         29
   217         21
   218          6
   219          8
   220          4
   221         11
   222          5
   223         15
   224          9
   225         43
   226         19
   227         94
   228         30
   229        136
   230         28
   231         13
   232          5
   233         13
   234          3
   235          5
   236          5
   237         17
   238          9
   239         49
   240         23
   241         72
   242         19
   243         31
   244          9
   245         12
   247          7
   249          6
   250          3
   251         13
   252         18
   253         62
   254         21
   255        113
   256         32
   257         28
   258          9
   259          7
   262          3
   263          5
   264          4
   265         14
   266         10
   267         42
   268         16
   269         65
   270         36
   271         40
   272         14
   273         13
   274          5
   275         25
   276          7
   277          5
   278          5
   279         19
   280         11
   281         92
   282         39
   283         31
   284         12
   285         11
   286          5
   287         31
   288         25
   289        113
   290         25
   291          7
   292          3
   293         16
   294         10
   295         81
   296         30
   297         97
   298         27
   299         17
   300          8
   301         45
   302         18
   303         11
   304          3
   305          3
   307         17
   308          7
   309        132
   310         38
   311         20
   312         39
   313         34
   314         23
   315         60
   316         36
   317         11
   318          2
   319          3
   320          3
   321         28
   322         17
   323         66
   324         23
   325         16
   326          7
   327         13
   328          9
   329         20
   330         17
   331          5
   333          3
   335         25
   336         10
   337         39
   338         11
   339         34
   340         13
   341         60
   342         26
   343          8
   348          8
   349          2
   350          6
   351          6
   353         78
   354         32
   355         53
   356         80
   357         87
   358         23
   359          5
   363          5
   365          5
   366          3
   367         18
   368          9
   369        134
   370         42
   371          9
   375          2
   376          5
   377          2
   379          4
   380          4
   381         27
   382         48
   383         42
   384         55
   385         19
   386          6
   389         23
   390         11
   391        328
   392        106
   393         22
   394          5
   395         35
   396         12
   397         22
   398         22
   399         21
   400          3
   404          3
   405          8
   406         20
   407         18
   408          7
   409         14
   410          7
   421          4
   423         11
   424          4
   435          4
   436          4
   437          3
   449         18
   450         11
   451        838
   452        368
   453         68
   454          9
   455          4
   457          7
   464         35
   465         20
   466        116
   467         46
   468         10
   469          5
   483          2
   511         55
   512         22
   513          5
   524         39
   525         17
   526        218
   527         85
   528         18
   529          2