##TITLE=Library Entry 676
##JCAMP-DX=Revision 4.10 
##DATA TYPE=MASS SPECTRUM
##SAMPLE DESCRIPTION=H.J. MOECKEL & J. WEISS, HAHN-MEITNER-INST. BERLIN, W.
 G
##NAMES=HP
##CAS NAME=Disulfide, ethyl 1-methylpropyl
##MOLFORM=C6H14S2
##CAS REGISTRY NO=54166-53-9
##MP= -300
##BP= -300
##MW= 150
##$RETENTION INDEX=1081
##$CONDENSED SPECTRUM=NO
##NPOINTS= 86
##XYDATA=(XY..XY) 1 
    15          8
    19          0
    22          0
    24          0
    25          0
    26         25
    27        294
    29        999
    30         27
    31          0
    33          3
    34          4
    35         35
    36          0
    37          2
    38          6
    39        103
    40         16
    41        653
    42         26
    43          3
    44          6
    45         62
    46         15
    47         23
    48          1
    49          2
    50          3
    51          5
    52          1
    53         19
    54         11
    55         73
    56         32
    57        500
    58         42
    59         88
    60         34
    61         39
    62          4
    63          2
    64         21
    65         20
    66        298
    67         10
    68         26
    69          1
    70          0
    71          3
    72          1
    73          8
    74          1
    75          1
    76          1
    77          0
    78          1
    79          9
    80          1
    81          0
    82          0
    85          1
    86          0
    87          7
    88         12
    89          5
    90          1
    91          1
    92          2
    93         48
    94        805
    95         37
    96         68
    97          2
    98          1
   103          0
   107          0
   117          0
   121          4
   123          0
   148          0
   149          5
   150        243
   151         20
   152         20
   153          1
   154          0