##TITLE=Library Entry 57341
##JCAMP-DX=Revision 4.10 
##DATA TYPE=MASS SPECTRUM
##SAMPLE DESCRIPTION=P. Vainiotalo, Dep. Chem., Univ. Joensuu, Joensuu, Finl
and
##NAMES=HP
##CAS NAME=3-Cyclohexene-1-carboxylic acid, 6-amino-, cis-
##MOLFORM=C7H11NO2
##CAS REGISTRY NO=54162-90-2
##MP= -300
##BP= -300
##MW= 141
##$RETENTION INDEX=0
##$CONDENSED SPECTRUM=NO
##NPOINTS= 58
##XYDATA=(XY..XY) 1 
    15         14
    16          4
    17         24
    26          6
    27         44
    29         17
    30         76
    38          7
    39         60
    41         63
    42         53
    43        102
    44         18
    45         10
    46          6
    47          6
    50          9
    51         22
    52         15
    53         29
    54         40
    55         31
    56         37
    57          6
    61          7
    63          6
    65         24
    66         12
    67         57
    68         57
    69        538
    70         77
    71          5
    77         67
    78         26
    79        155
    80         62
    81         42
    82        381
    83         24
    87        999
    88         42
    89          5
    93         10
    94         39
    95         33
    96         43
    97          6
   100          4
   105          4
   122          6
   123         15
   124         23
   125          2
   140          4
   141        282
   142         32
   143          5