##TITLE=Library Entry 68360
##JCAMP-DX=Revision 4.10 
##DATA TYPE=MASS SPECTRUM
##SAMPLE DESCRIPTION=Japan AIST/NIMC Database- Spectrum MS-NW-7587
##NAMES=HP
##CAS NAME=Isopilocarpine
##MOLFORM=C11H16N2O2
##CAS REGISTRY NO=54163-69-8
##MP= -300
##BP= -300
##MW= 208
##$RETENTION INDEX=0
##$CONDENSED SPECTRUM=NO
##NPOINTS= 80
##XYDATA=(XY..XY) 1 
    15          7
    16          1
    26          2
    27         22
    28         22
    29          9
    37          1
    38          3
    39         30
    40          8
    41         53
    42         68
    43          4
    44          2
    50          3
    51          6
    52          9
    53         20
    54         37
    55         22
    56          4
    57          3
    63          4
    64          1
    65          7
    66         11
    67         15
    68         28
    69          5
    70          1
    77          5
    78          3
    79          5
    80          9
    81         16
    82         16
    83         24
    84          2
    85          3
    91          2
    92          4
    93          4
    94         14
    95        999
    96        514
    97         34
    98          1
   105          1
   106          3
   107          5
   108          4
   109         10
   110          2
   111          2
   112          2
   113          2
   119          2
   120          2
   121         11
   122          4
   123          6
   124          2
   133          6
   134          1
   135          3
   138          1
   147          1
   149          5
   150          4
   151          4
   163          1
   164          1
   179          1
   180          5
   193          7
   194          1
   207          1
   208        112
   209         15
   210          2