##TITLE=Library Entry 59643
##JCAMP-DX=Revision 4.10 
##DATA TYPE=MASS SPECTRUM
##SAMPLE DESCRIPTION=V.A.Korolev, Moscow, Russia
##NAMES=HP
##CAS NAME=Azoxytoluene
##MOLFORM=C14H14N2O
##CAS REGISTRY NO=54168-22-8
##MP= -300
##BP= -300
##MW= 226
##$RETENTION INDEX=0
##$CONDENSED SPECTRUM=NO
##NPOINTS= 82
##XYDATA=(XY..XY) 1 
    30         64
    35          1
    36          9
    37          3
    38         14
    39         83
    40         14
    41         28
    42          8
    43         27
    44         21
    45          5
    50         29
    51         70
    52         20
    53          2
    55          5
    56          1
    57          7
    62          8
    63         37
    65        184
    66         10
    67          2
    69          2
    70          1
    71          4
    73          1
    74          4
    75          5
    76         14
    77         62
    78         16
    79         17
    83          2
    85          2
    89         42
    90        158
    91        999
    92         87
    93          2
    95          6
    97          1
   103         22
   104         20
   105         23
   106         12
   107          7
   108          1
   118         40
   119          8
   121          3
   122          7
   123          6
   131          4
   135          6
   146          3
   147          5
   149          5
   150          4
   151          9
   165          5
   166          5
   175          6
   176          2
   178          3
   179          4
   180          4
   181        100
   182         15
   183          1
   193          4
   194          5
   195          2
   196          7
   207          4
   208          3
   209          2
   210         12
   211          1
   226         42
   227          5