##TITLE=Library Entry 48746
##JCAMP-DX=Revision 4.10 
##DATA TYPE=MASS SPECTRUM
##SAMPLE DESCRIPTION=Chemical Concepts
##NAMES=HP
##CAS NAME=2,4-Cyclohexadiene-1-carboxylic acid, methyl ester
##MOLFORM=C8H10O2
##CAS REGISTRY NO=54162-19-5
##MP= -300
##BP= -300
##MW= 138
##$RETENTION INDEX=0
##$CONDENSED SPECTRUM=NO
##NPOINTS= 69
##XYDATA=(XY..XY) 1 
    26          7
    27         48
    28          2
    29          7
    30          1
    31          2
    33          0
    37          3
    38         10
    39         48
    40          3
    41          6
    42          0
    43          1
    44          1
    45         16
    46          0
    49          3
    50         34
    51         85
    52         45
    53         25
    54          1
    55          2
    58          0
    59         27
    60          9
    61          3
    62          2
    63          8
    64          1
    65          4
    66          2
    67          5
    68          0
    69          0
    71          0
    73          1
    74          5
    75         12
    76          7
    77        372
    78        278
    79        999
    80         65
    81          2
    83          0
    91          7
    92          1
    93          5
    94          1
    95          2
    96          0
   105         27
   106         10
   107         31
   108          2
   109          1
   110          2
   111          0
   115          0
   116          0
   121          1
   123          1
   136          4
   137         30
   138        191
   139         18
   140          1