##TITLE=Library Entry 4436
##JCAMP-DX=Revision 4.10 
##DATA TYPE=MASS SPECTRUM
##SAMPLE DESCRIPTION=Exported from NIST MS Search
##NAMES=HP
##CAS NAME=1,3-Dioxepin, 4,7-dihydro-
##MOLFORM=C5H8O2
##CAS REGISTRY NO=5417-32-3
##MP= -300
##BP= -300
##MW= 100
##$RETENTION INDEX=0
##$CONDENSED SPECTRUM=NO
##NPOINTS= 36
##XYDATA=(XY..XY) 1 
    26         66
    27        222
    28         53
    29        313
    30         40
    31        305
    32          6
    39        616
    40        197
    41        699
    42        999
    43        205
    44         66
    45          7
    50         18
    51         16
    52          7
    53         21
    54         14
    55         17
    56          1
    57         18
    58          1
    59         31
    69        151
    70        333
    71         89
    72         42
    73          3
    74          3
    77          1
    78          1
    82          1
    83          1
   100         19
   102          6