##TITLE=Library Entry 76061
##JCAMP-DX=Revision 4.10 
##DATA TYPE=MASS SPECTRUM
##SAMPLE DESCRIPTION=Chemical Concepts
##NAMES=HP
##CAS NAME=Benzene, [(2-phenylethenyl)sulfonyl]-
##MOLFORM=C14H12O2S
##CAS REGISTRY NO=5418-11-1
##MP= -300
##BP= -300
##MW= 244
##$RETENTION INDEX=0
##$CONDENSED SPECTRUM=NO
##NPOINTS= 103
##XYDATA=(XY..XY) 1 
    26          3
    27         34
    28          6
    30          2
    36          1
    37          1
    38          6
    39         54
    40          3
    41          7
    45         41
    47          1
    49          1
    50         87
    51        373
    52         45
    53         20
    58          4
    61          1
    62         11
    63         48
    64          9
    65         72
    66         10
    69          6
    70          3
    71          1
    73          2
    74         30
    75         44
    76         98
    77        718
    78        115
    79         17
    81          7
    82          2
    83          1
    86          5
    87          4
    88          3
    89         63
    90         43
    91        879
    92         67
    93          3
    94         12
    95          1
    97         51
    98          6
    99          3
   100          1
   101         19
   102        999
   103        682
   104         57
   105         31
   106          2
   107         12
   108          3
   109          9
   110          4
   115          4
   118         23
   119        693
   120         61
   121          8
   122          5
   123         14
   124          1
   125        202
   126         38
   127         11
   128          3
   133          9
   134         13
   135          3
   139          3
   141          2
   142          7
   150          3
   151          9
   152         13
   153          5
   154          3
   163          1
   164          1
   165         33
   166          5
   167          3
   176          9
   177         10
   178         65
   179        142
   180         42
   181          5
   196          7
   197          4
   198          1
   199          2
   244        569
   245         97
   246         34
   247          5