##TITLE=Library Entry 57531
##JCAMP-DX=Revision 4.10 
##DATA TYPE=MASS SPECTRUM
##SAMPLE DESCRIPTION=Japan AIST/NIMC Database- Spectrum MS-NW-3802
##NAMES=HP
##CAS NAME=Boric acid (H3BO3), tris(1-methylethyl) ester
##MOLFORM=C9H21BO3
##CAS REGISTRY NO=5419-55-6
##MP= -300
##BP= -300
##MW= 188
##$RETENTION INDEX=0
##$CONDENSED SPECTRUM=NO
##NPOINTS= 94
##XYDATA=(XY..XY) 1 
    15         28
    18          3
    26          7
    27        115
    28         25
    29         18
    31         27
    32          7
    37          3
    38          6
    39         61
    40         16
    41        172
    42         65
    43        584
    44        104
    45        600
    46          9
    47          2
    51          1
    53          1
    54          1
    55          8
    56          2
    57          6
    58         12
    59        243
    60          9
    62          2
    63          7
    67          2
    68          1
    69         20
    70          8
    71         36
    72         25
    73         54
    74          2
    75          2
    77          2
    78          3
    79          1
    83          4
    84          5
    85         12
    86        246
    87        999
    88         54
    89         83
    90          6
    91         17
    92          2
    93          3
    97          1
    98          1
    99          4
   100          2
   101          7
   102         26
   103         99
   104          6
   105          8
   106          2
   111          1
   112          2
   113          7
   114         30
   115        120
   116          9
   117          7
   118          1
   128         96
   129        393
   130         93
   131        274
   132         20
   133         17
   143          1
   144         10
   145         40
   146          7
   147          1
   156          2
   157          9
   158          4
   159          5
   171          1
   172        158
   173        647
   174         59
   175          8
   186          5
   187         20
   188          2