##TITLE=Library Entry 44953
##JCAMP-DX=Revision 4.10 
##DATA TYPE=MASS SPECTRUM
##SAMPLE DESCRIPTION=Japan AIST/NIMC Database- Spectrum MS-NW-4375
##NAMES=HP
##CAS NAME=1-Propene, 1,3-dichloro-
##MOLFORM=C3H4Cl2
##CAS REGISTRY NO=542-75-6
##MP= -300
##BP= -300
##MW= 110
##$RETENTION INDEX=0
##$CONDENSED SPECTRUM=NO
##NPOINTS= 70
##XYDATA=(XY..XY) 1 
    12          3
    13          3
    14          4
    15          7
    24          2
    25          8
    26         28
    27        101
    28          5
    29          6
    31          3
    32          1
    35         15
    36         24
    37         58
    38         88
    39        497
    40         36
    41         90
    42         11
    43          9
    44          1
    45          1
    47         20
    48         21
    49        193
    50          9
    51         62
    52          1
    53          6
    54          4
    55         14
    56          7
    57          9
    59          1
    60          7
    61         30
    62         96
    63        146
    64         27
    65         45
    66          1
    67         17
    68          1
    69         10
    71          2
    72          7
    73         40
    74          9
    75        999
    76         68
    77        339
    78         21
    79         16
    80          3
    81         13
    82          5
    83         20
    84          2
    85         13
    87          2
    95          1
   109         27
   110        205
   111         24
   112        135
   113          9
   114         26
   115          1
   116          1