##TITLE=Library Entry 19382
##JCAMP-DX=Revision 4.10 
##DATA TYPE=MASS SPECTRUM
##SAMPLE DESCRIPTION=Exported from NIST MS Search
##NAMES=HP
##CAS NAME=9-Cycloheptadecen-1-one, (Z)-
##MOLFORM=C17H30O
##CAS REGISTRY NO=542-46-1
##MP= -300
##BP= -300
##MW= 250
##$RETENTION INDEX=0
##$CONDENSED SPECTRUM=NO
##NPOINTS= 183
##XYDATA=(XY..XY) 1 
    14          1
    15          3
    26          7
    27        102
    28         59
    29        197
    30          3
    31          6
    32          2
    37          1
    38          1
    39        147
    40         31
    41        895
    42        119
    43        298
    44          5
    45          6
    47          1
    48          1
    49          1
    50          4
    51          8
    52          8
    53         11
    54        319
    55        999
    56         99
    57        109
    58        152
    59         48
    60          2
    61          1
    62          2
    63          3
    64          2
    65         29
    66         46
    67        290
    68        249
    69        359
    70         98
    71        225
    72         24
    73         14
    74          3
    75          2
    76          2
    77         40
    78         30
    79        218
    80        442
    81        594
    82        356
    83        291
    84        166
    85         54
    86          9
    87          2
    89          1
    90          1
    91         51
    92         62
    93        179
    94        169
    95        401
    96        349
    97        230
    98        183
    99         35
   100          5
   101          2
   103          1
   104          2
   105         26
   106         25
   107         97
   108        116
   109        190
   110         81
   111        134
   112         46
   113         17
   114          3
   115          2
   116          1
   117          2
   118          2
   119         44
   120         26
   121        127
   122         67
   123         66
   124         52
   125         66
   126         16
   127          8
   128          3
   129          1
   131          2
   132          1
   133         41
   134         29
   135         86
   136         50
   137         57
   138         29
   139         23
   140          7
   141          5
   142          1
   143          1
   145          1
   146          1
   147         34
   148         17
   149         39
   150         24
   151         33
   152         29
   153         14
   154         11
   155          8
   156          1
   158          1
   159          1
   160          1
   161         24
   162         76
   163         17
   164         10
   165         20
   166          9
   167          7
   168          6
   169          6
   170          1
   175         20
   176          7
   177          6
   178          7
   179          9
   180          3
   181          5
   182          3
   183          1
   184          1
   189         16
   190          6
   191          5
   192         10
   193          9
   194          4
   195         13
   196          2
   197          1
   203          8
   204          4
   205          1
   206          1
   207         13
   208          4
   209          8
   210          2
   215          1
   217          2
   220          1
   222         11
   223          5
   224          1
   231          1
   232          1
   233         25
   234          5
   235          2
   236          6
   237          1
   248          2
   249          3
   250        473
   251         75
   252         11
   253          2