##TITLE=Library Entry 7679
##JCAMP-DX=Revision 4.10 
##DATA TYPE=MASS SPECTRUM
##SAMPLE DESCRIPTION=Exported from NIST MS Search
##NAMES=HP
##CAS NAME=Glycerol 1-palmitate
##MOLFORM=C19H38O4
##CAS REGISTRY NO=542-44-9
##MP= -300
##BP= -300
##MW= 330
##$RETENTION INDEX=0
##$CONDENSED SPECTRUM=NO
##NPOINTS= 139
##XYDATA=(XY..XY) 1 
    26         20
    27        190
    28         80
    29        440
    30         20
    31        100
    32         10
    36         10
    38         10
    39        100
    40         20
    41        670
    42        180
    43        999
    44        120
    45        100
    46         10
    47         10
    53         40
    54         50
    55        620
    56        210
    57        690
    58         60
    59         50
    60        280
    61        140
    62         10
    65         10
    66         10
    67         80
    68         40
    69        310
    70         90
    71        290
    72         30
    73        320
    74        350
    75        120
    76         10
    77         10
    79         20
    80         10
    81         70
    82         50
    83        210
    84        300
    85        180
    86         20
    87        120
    88         20
    89         10
    91         10
    93         30
    94         10
    95         70
    96         40
    97        150
    98        440
    99         70
   100         20
   101         80
   102         10
   103         10
   107         10
   108         10
   109         40
   110         20
   111         80
   112        140
   113         30
   114         10
   115         50
   116        100
   117         10
   118         10
   121         20
   122         10
   123         20
   124         10
   125         30
   126         30
   127         20
   129        140
   130         20
   134        210
   135         30
   136         10
   137         10
   138         10
   139         20
   140         20
   141         10
   143         30
   147         30
   149         10
   152         10
   153         10
   154         30
   155         10
   157         20
   158         10
   167         10
   168         20
   169         10
   171         30
   172         10
   176         10
   181         10
   182         20
   183         10
   185         30
   186         10
   194         10
   195         10
   196         10
   197         10
   199         10
   209         10
   213         50
   214         10
   220         10
   227         20
   228         10
   237         10
   238         40
   239        310
   240         50
   241         10
   256        110
   257        100
   258         20
   269         10
   270         40
   271         10
   299         60
   300         10
   312         10
   313         10