##TITLE=Library Entry 5806
##JCAMP-DX=Revision 4.10 
##DATA TYPE=MASS SPECTRUM
##SAMPLE DESCRIPTION=Patti Price, Georgia Bureau of Investigation, Decatur,
 Georgia
##NAMES=HP
##CAS NAME=Isobutyl nitrite
##MOLFORM=C4H9NO2
##CAS REGISTRY NO=542-56-3
##MP= -300
##BP= -300
##MW= 103
##$RETENTION INDEX=576
##$CONDENSED SPECTRUM=NO
##NPOINTS= 58
##XYDATA=(XY..XY) 1 
    12          1
    13          1
    14          6
    15         20
    16          3
    17          1
    18          1
    19          1
    22          1
    25          1
    26         25
    27        172
    28         30
    29        158
    30        439
    31         26
    32          1
    33          1
    36          1
    37         16
    38         41
    39        292
    40         37
    41        747
    42         60
    43        999
    44         33
    45          8
    46          5
    47          1
    48          1
    49          1
    50          4
    51          4
    52          1
    53          6
    54          1
    55         12
    56          4
    57        162
    58          9
    59          1
    60         87
    61          2
    62          1
    66          1
    69          1
    71          7
    72          2
    73          8
    74          1
    86          1
    87          1
    88          1
    93          1
   102          1
   103          1
   104          1