##TITLE=Library Entry 32925
##JCAMP-DX=Revision 4.10 
##DATA TYPE=MASS SPECTRUM
##SAMPLE DESCRIPTION=Japan AIST/NIMC Database- Spectrum MS-NW-1285
##NAMES=HP
##CAS NAME=Cyclohexane, chloro-
##MOLFORM=C6H11Cl
##CAS REGISTRY NO=542-18-7
##MP= -300
##BP= -300
##MW= 118
##$RETENTION INDEX=918
##$CONDENSED SPECTRUM=NO
##NPOINTS= 59
##XYDATA=(XY..XY) 1 
    14          6
    15         10
    16          1
    26         19
    27        156
    28         25
    29         65
    30          1
    35          1
    36          8
    37          5
    38         15
    39        190
    40         39
    41        436
    42         62
    43         34
    44          2
    47          2
    49         12
    50         18
    51         32
    52         14
    53         77
    54        334
    55        415
    56         97
    57          6
    61          5
    62         24
    63          7
    64          7
    65         13
    66         14
    67        999
    68         60
    69         49
    70          3
    73          3
    74          2
    75         25
    76          7
    77         16
    78          5
    79         24
    80          9
    81         90
    82        710
    83        292
    84         16
    88          6
    89          3
    90          3
    91          1
    98          1
   103          1
   118         19
   119          1
   120          6