##TITLE=Library Entry 32066
##JCAMP-DX=Revision 4.10 
##DATA TYPE=MASS SPECTRUM
##SAMPLE DESCRIPTION=Exported from NIST MS Search
##NAMES=HP
##CAS NAME=1,3-Cyclopentadiene
##MOLFORM=C5H6
##CAS REGISTRY NO=542-92-7
##MP= -300
##BP= -300
##MW= 66
##$RETENTION INDEX=523
##$CONDENSED SPECTRUM=NO
##NPOINTS= 38
##XYDATA=(XY..XY) 1 
    12          1
    13          1
    14          1
    15          2
    24          1
    25          3
    26         13
    27         27
    28         17
    29          1
    31         49
    32         22
    33         21
    36          5
    37         44
    38         82
    39        316
    40        273
    41         11
    42          2
    43          3
    48          2
    49          8
    50         17
    51         25
    52          2
    53          5
    58          1
    60         10
    61         45
    62         58
    63         82
    64         18
    65        473
    66        999
    67         63
    68          6
    69          1