##TITLE=Library Entry 31337
##JCAMP-DX=Revision 4.10 
##DATA TYPE=MASS SPECTRUM
##SAMPLE DESCRIPTION=Japan AIST/NIMC Database- Spectrum MS-NW-4006
##NAMES=HP
##CAS NAME=2-Chloroethyl methyl sulfide
##MOLFORM=C3H7ClS
##CAS REGISTRY NO=542-81-4
##MP= -300
##BP= -300
##MW= 110
##$RETENTION INDEX=0
##$CONDENSED SPECTRUM=NO
##NPOINTS= 64
##XYDATA=(XY..XY) 1 
    13          1
    14          4
    15         12
    25          3
    26         27
    27        192
    28         20
    29          8
    32          6
    33          3
    34          3
    35         95
    36          7
    37          5
    38          2
    39          6
    41         64
    42          2
    43          5
    44          8
    45        126
    46         63
    47        157
    48         96
    49         55
    50          9
    51          5
    52          1
    56          1
    57         11
    58         30
    59         61
    60         20
    61        999
    62         36
    63        104
    64          4
    65         18
    69          1
    73          9
    74         12
    75         79
    76          5
    77          4
    79          3
    80          1
    81          3
    82          9
    83          2
    84          3
    91          6
    92          4
    93          5
    94          5
    95          4
    96          1
    97          1
   108          1
   109          6
   110        294
   111         14
   112        110
   113          4
   114          4