##TITLE=Library Entry 9274
##JCAMP-DX=Revision 4.10 
##DATA TYPE=MASS SPECTRUM
##SAMPLE DESCRIPTION=NIST Mass Spectrometry Data Center, 1998.
##NAMES=HP
##CAS NAME=1,2-Ethanediol, monoacetate
##MOLFORM=C4H8O3
##CAS REGISTRY NO=542-59-6
##MP= -300
##BP= -300
##MW= 104
##$RETENTION INDEX=863
##$CONDENSED SPECTRUM=NO
##NPOINTS= 31
##XYDATA=(XY..XY) 1 
    13          1
    14          4
    15         22
    16          1
    19          4
    25          1
    26          5
    27         21
    28          1
    29         44
    30          7
    31         66
    32          3
    33          1
    41          5
    42         47
    43        999
    44         72
    45         52
    46          1
    58          1
    59          1
    60          1
    61         70
    62          2
    73        112
    74        168
    75          6
    76          1
    86         10
    87          1