##TITLE=Library Entry 23110
##JCAMP-DX=Revision 4.10 
##DATA TYPE=MASS SPECTRUM
##SAMPLE DESCRIPTION=Japan AIST/NIMC Database- Spectrum MS-NW-8348
##NAMES=HP
##CAS NAME=Butane, 1-iodo-
##MOLFORM=C4H9I
##CAS REGISTRY NO=542-69-8
##MP= -300
##BP= -300
##MW= 184
##$RETENTION INDEX=819
##$CONDENSED SPECTRUM=NO
##NPOINTS= 35
##XYDATA=(XY..XY) 1 
    14          1
    15          6
    26         19
    27        181
    28         67
    29        616
    30         13
    37          3
    38          7
    39         86
    40          9
    41        503
    42         21
    43         15
    49          1
    50          6
    51          6
    52          2
    53          9
    54          3
    55         45
    56         13
    57        999
    58         45
    70          1
    71          5
    85          3
   127         36
   128          9
   129          1
   141          7
   154          1
   155         20
   184        150
   185          6