##TITLE=Library Entry 18658
##JCAMP-DX=Revision 4.10 
##DATA TYPE=MASS SPECTRUM
##SAMPLE DESCRIPTION=Japan AIST/NIMC Database- Spectrum MS-NW-4911
##NAMES=HP
##CAS NAME=Propanenitrile, 3-chloro-
##MOLFORM=C3H4ClN
##CAS REGISTRY NO=542-76-7
##MP= -300
##BP= -300
##MW= 89
##$RETENTION INDEX=754
##$CONDENSED SPECTRUM=NO
##NPOINTS= 50
##XYDATA=(XY..XY) 1 
    12          9
    13          7
    14          9
    15          5
    16          1
    24          7
    25         24
    26        177
    27        170
    28        136
    29          2
    35         14
    36         27
    37         12
    38         19
    39         17
    40         18
    41          6
    42          2
    43          1
    44         11
    45          2
    47         11
    48         15
    49        966
    50         23
    51        317
    52        178
    53        155
    54        999
    55         41
    56          1
    59          1
    60          7
    61         25
    62         12
    63         10
    64          4
    65          1
    71          2
    72          8
    73          9
    85          2
    86          4
    87          4
    88          4
    89        165
    90          8
    91         50
    92          2