##TITLE=Library Entry 4459
##JCAMP-DX=Revision 4.10 
##DATA TYPE=MASS SPECTRUM
##SAMPLE DESCRIPTION=Chemical Concepts
##NAMES=HP
##CAS NAME=2H-Pyran-2-one, tetrahydro-
##MOLFORM=C5H8O2
##CAS REGISTRY NO=542-28-9
##MP= -300
##BP= -300
##MW= 100
##$RETENTION INDEX=961
##$CONDENSED SPECTRUM=NO
##NPOINTS= 55
##XYDATA=(XY..XY) 1 
    24          0
    26         84
    27        315
    28         29
    29         73
    30          7
    31         15
    33          0
    34          3
    35          1
    36          1
    37         17
    38         29
    39        227
    40         74
    41        965
    42        999
    43         64
    44         42
    45          4
    48          0
    49          4
    50         14
    51         12
    52          4
    53         18
    54         19
    55        143
    56        609
    57         27
    58          0
    59          0
    60          0
    61          0
    63          0
    65          0
    66          1
    67          0
    68          4
    69          2
    70        121
    71         26
    72          3
    73          2
    74          0
    81          2
    82          1
    83          1
    84          0
    85          0
    97          0
    99          4
   100        220
   101         18
   102          1