##TITLE=Library Entry 53175
##JCAMP-DX=Revision 4.10 
##DATA TYPE=MASS SPECTRUM
##SAMPLE DESCRIPTION=V.G.Zaikin, TIPS RAS, Moscow, Russia
##NAMES=HP
##CAS NAME=Cyclohexanecarboxylic acid, cyclopentyl ester
##MOLFORM=C12H20O2
##CAS REGISTRY NO=5420-91-7
##MP= -300
##BP= -300
##MW= 196
##$RETENTION INDEX=0
##$CONDENSED SPECTRUM=NO
##NPOINTS= 55
##XYDATA=(XY..XY) 1 
    26          9
    27         85
    28          8
    29         97
    31          7
    38          7
    39        148
    40         38
    41        491
    42         55
    43         65
    44         68
    45          8
    50          6
    51         18
    52          6
    53         65
    54         59
    55        499
    56         78
    57         49
    60         12
    61          8
    65         16
    66         15
    67        169
    68        231
    69        471
    70         31
    71          8
    73         88
    77          8
    79         18
    80          8
    81         75
    82         59
    83        999
    84         89
    85         67
    86         17
    87         11
   109          8
   110         39
   111        371
   112         38
   113         28
   114          7
   126         31
   127          5
   128        168
   129        575
   130         49
   139          7
   168          8
   196          7