##TITLE=Library Entry 60009
##JCAMP-DX=Revision 4.10 
##DATA TYPE=MASS SPECTRUM
##SAMPLE DESCRIPTION=V.Zaikin,Topchiev Inst.Petrochem.Synth.,Moscow
##NAMES=HP
##CAS NAME=Benzeneacetic acid, cyclopentyl ester
##MOLFORM=C13H16O2
##CAS REGISTRY NO=5420-99-5
##MP= -300
##BP= -300
##MW= 204
##$RETENTION INDEX=0
##$CONDENSED SPECTRUM=NO
##NPOINTS= 75
##XYDATA=(XY..XY) 1 
    26          5
    27         20
    28          5
    29         18
    31          2
    36          4
    37          2
    38          6
    39         72
    40         12
    41        211
    42         16
    43          6
    44          5
    45          2
    50          8
    51         21
    52          7
    53         15
    54          2
    55          6
    56          1
    57          5
    61          2
    62          7
    63         28
    64         10
    65        110
    66         12
    67         73
    68         43
    69        758
    70         41
    71          1
    74          2
    75          2
    76          2
    77         15
    78          4
    79          6
    85         12
    86          1
    87          1
    89         44
    90         36
    91        999
    92        372
    93         30
    94          2
    95          5
   104          2
   105          4
   106          2
   107          2
   113         23
   114          2
   115          1
   117          3
   118         24
   119         36
   120          3
   129          1
   130          2
   131          1
   133          1
   135          4
   136         32
   137        220
   138         20
   139          2
   145          3
   160          1
   193          4
   204         49
   205          7