##TITLE=Library Entry 53025
##JCAMP-DX=Revision 4.10 
##DATA TYPE=MASS SPECTRUM
##SAMPLE DESCRIPTION=Chemical Concepts
##NAMES=HP
##CAS NAME=4,7,7-Trimethyl-3-oxo-2-oxabicyclo[2.2.1]heptane-1-carboxylic aci
d, methyl ester
##MOLFORM=C11H16O4
##CAS REGISTRY NO=54200-35-0
##MP= -300
##BP= -300
##MW= 212
##$RETENTION INDEX=0
##$CONDENSED SPECTRUM=NO
##NPOINTS= 155
##XYDATA=(XY..XY) 1 
    25          0
    26         18
    27        216
    28        113
    29        138
    30          6
    31         14
    32          5
    33          5
    36          1
    37          7
    38         10
    39        270
    40         56
    41        653
    42         71
    43        261
    44         15
    45         22
    46          3
    47          2
    48          0
    49          2
    50         13
    51         38
    52         21
    53        142
    54         52
    55        562
    56         33
    57         23
    58          4
    59        112
    60          5
    61          3
    62          2
    63         11
    64          3
    65         47
    66         17
    67        276
    68         37
    69        207
    70         42
    71          8
    72          2
    73         23
    74         17
    75          3
    76          2
    77         85
    78         15
    79         81
    80         10
    81         88
    82        211
    83        999
    84         70
    85          8
    86          1
    87          5
    88          1
    89          3
    90          1
    91         76
    92         15
    93        420
    94         51
    95         43
    96         49
    97        335
    98         26
    99          6
   100          1
   101          5
   102         32
   103          4
   104          1
   105         14
   106         69
   107        232
   108         36
   109        808
   110         76
   111         20
   112          4
   113          4
   114          2
   115          1
   116          1
   117          0
   118          0
   119          6
   120          2
   121        113
   122         16
   123         13
   124         92
   125        348
   126         42
   127         14
   128          5
   129          1
   133          3
   134         13
   135         11
   136          8
   137         13
   138         14
   139          7
   140          3
   141         72
   142          7
   143          1
   144          0
   145          0
   147          0
   149          4
   150          4
   151        123
   152         39
   153        450
   154         46
   155          5
   156          4
   157          2
   158          0
   159          0
   160          0
   162          1
   163          0
   164          3
   165         17
   166        290
   167         35
   168         54
   169         13
   170          3
   171          0
   176          0
   179          0
   180          2
   181         16
   182          2
   183          0
   184        181
   185         20
   186          2
   189          0
   191          0
   195          2
   197          0
   212          8
   213          3
   214          0