##TITLE=Library Entry 59072
##JCAMP-DX=Revision 4.10 
##DATA TYPE=MASS SPECTRUM
##SAMPLE DESCRIPTION=V.Zaikin,Topchiev Inst.Petrochem.Synth.,Moscow
##NAMES=HP
##CAS NAME=Benzeneacetic acid, hexyl ester
##MOLFORM=C14H20O2
##CAS REGISTRY NO=5421-17-0
##MP= -300
##BP= -300
##MW= 220
##$RETENTION INDEX=1630
##$CONDENSED SPECTRUM=NO
##NPOINTS= 72
##XYDATA=(XY..XY) 1 
    27         38
    28         18
    29         80
    30          6
    31          2
    36          5
    37          4
    38         25
    39        128
    40         21
    41        247
    42         60
    43        744
    44         33
    45          8
    49          4
    50         38
    51         40
    52         19
    53         18
    54          8
    55         83
    56         35
    57        110
    58          3
    61          9
    62         26
    63         70
    64         22
    65        202
    66         14
    67          7
    68          6
    69         22
    70          6
    71          8
    74         10
    75          7
    77         16
    78          5
    79          5
    81          3
    82          4
    83          9
    84         25
    85         50
    86          5
    87          2
    88          5
    89         70
    90         69
    91        999
    92        245
    93         12
    97          6
    99          4
   103          2
   105         12
   106          2
   107          3
   115          6
   118         16
   119         29
   123          3
   129         62
   130          4
   136        218
   137         84
   138          5
   149          5
   192          4
   220         16