##TITLE=Library Entry 114705
##JCAMP-DX=Revision 4.10 
##DATA TYPE=MASS SPECTRUM
##SAMPLE DESCRIPTION=V.Zaikin,Inst.Petrochem.Synth.,RAS,Moscow
##NAMES=HP
##CAS NAME=4-Cyanobenzoic acid, cyclopentyl ester
##MOLFORM=C13H13NO2
##CAS REGISTRY NO=54210-50-3
##MP= -300
##BP= -300
##MW= 215
##$RETENTION INDEX=0
##$CONDENSED SPECTRUM=NO
##NPOINTS= 87
##XYDATA=(XY..XY) 1 
    26         28
    27        106
    28         12
    29         79
    30          3
    39        149
    40         47
    41        245
    42         36
    43         24
    44          2
    50        101
    51        109
    52         34
    53         36
    54          4
    55         29
    56          7
    57         14
    58          2
    60          4
    61         10
    62         12
    63         18
    64         10
    65         19
    66         18
    67        127
    68        797
    69         98
    70         14
    71          5
    72          3
    73          9
    74         28
    75        122
    76         95
    77         20
    78          5
    79          7
    80         13
    81          5
    83          5
    84          8
    85         63
    86          6
    87          3
    88          2
    90          2
    91          6
    92          5
    93          2
    95          3
    96          3
    97          2
    99         12
   100          8
   101         18
   102        542
   103         85
   104         10
   105          6
   107          4
   109          3
   119         13
   120          2
   128          3
   129         18
   130        999
   131        172
   132         11
   133          2
   135         32
   136          4
   137          7
   139          2
   141          3
   145         63
   146         10
   147         94
   148        261
   149         25
   151          4
   152         29
   153          2
   215          6
   216          4