##TITLE=Library Entry 83653
##JCAMP-DX=Revision 4.10 
##DATA TYPE=MASS SPECTRUM
##SAMPLE DESCRIPTION=Japan AIST/NIMC Database- Spectrum MS-NW-5244
##NAMES=HP
##CAS NAME=Isoamyl mandelate
##MOLFORM=C13H18O3
##CAS REGISTRY NO=5421-04-5
##MP= -300
##BP= -300
##MW= 222
##$RETENTION INDEX=0
##$CONDENSED SPECTRUM=NO
##NPOINTS= 88
##XYDATA=(XY..XY) 1 
    15          3
    17          2
    18          7
    26          3
    27         52
    28         17
    29         50
    30          1
    31         10
    32          1
    37          2
    38          5
    39         41
    40          6
    41         82
    42         34
    43        187
    44         10
    45          7
    46          2
    49          1
    50         17
    51         56
    52         12
    53         13
    54          2
    55         78
    56          7
    57          9
    58          1
    59          1
    60          1
    61          1
    62          4
    63          8
    64          2
    65          3
    66          1
    67          1
    69         15
    70         51
    71         23
    72          1
    73          2
    74          4
    75          3
    76          5
    77        180
    78         29
    79        255
    80         18
    89         11
    90         14
    91         13
    92          2
   104          1
   105        198
   106         36
   107        999
   108         78
   109          4
   115          1
   117          1
   118         16
   119          2
   122          3
   123          1
   131          3
   133          1
   135         13
   136          6
   137          2
   145          1
   149          2
   153          9
   154          1
   155          1
   161         13
   162          3
   163          1
   173          1
   175          2
   176         33
   177          8
   178          1
   206          1
   207          1
   222          3