##TITLE=Library Entry 1047
##JCAMP-DX=Revision 4.10 
##DATA TYPE=MASS SPECTRUM
##SAMPLE DESCRIPTION=Japan AIST/NIMC Database- Spectrum MS-NW-2101
##NAMES=HP
##CAS NAME=N-(2-Hydroxyethyl)lactamide
##MOLFORM=C5H11NO3
##CAS REGISTRY NO=5422-34-4
##MP= -300
##BP= -300
##MW= 133
##$RETENTION INDEX=0
##$CONDENSED SPECTRUM=NO
##NPOINTS= 95
##XYDATA=(XY..XY) 1 
    12          1
    13          3
    14         15
    15        101
    16          7
    17          2
    18          7
    25          3
    26         25
    27        150
    28        286
    29        121
    30        999
    31         68
    32         77
    36          1
    37          1
    38          3
    39         10
    40         12
    41        201
    42        123
    43        268
    44        150
    45        932
    46         93
    47          4
    50          1
    51          3
    52          4
    53          5
    54         11
    55         46
    56         32
    57         50
    58         59
    59         60
    60         55
    61         41
    62         19
    63          3
    65          2
    66          2
    67          9
    68          6
    69          9
    70        475
    71         38
    72         58
    73          9
    74        194
    75         10
    76          1
    77          3
    78          2
    79          2
    81          3
    82          3
    83          3
    84          9
    85         37
    86          9
    87          9
    88        280
    89         28
    90        347
    91         17
    92          2
    93          1
    95          2
    96          1
    97          8
    98         86
    99         11
   100         89
   101          6
   102        100
   103         57
   104          4
   105          6
   106          2
   107          2
   112          1
   113          8
   114         24
   115        103
   116          9
   117          4
   118         17
   119          3
   120          1
   131          1
   132          2
   133          4
   134          1