##TITLE=Library Entry 71422
##JCAMP-DX=Revision 4.10 
##DATA TYPE=MASS SPECTRUM
##SAMPLE DESCRIPTION=Chemical Concepts
##NAMES=HP
##CAS NAME=3-Piperidinopropyl 2-ethoxy-2,2-diphenylacetate
##MOLFORM=C24H31NO3
##CAS REGISTRY NO=54233-79-3
##MP= -300
##BP= -300
##MW= 381
##$RETENTION INDEX=0
##$CONDENSED SPECTRUM=NO
##NPOINTS= 108
##XYDATA=(XY..XY) 1 
    33          6
    39         18
    40          8
    41        126
    42         60
    43        102
    44         40
    45         32
    46          2
    50          2
    51         18
    52          9
    53         10
    54         72
    55         39
    56         29
    57         11
    58          4
    59          1
    62          1
    63          5
    65          2
    66          1
    67          8
    69         60
    70         22
    71          2
    72          1
    74          2
    77        171
    78          6
    79          2
    80          2
    81          7
    82         14
    83         11
    84         25
    85          3
    86          1
    87          1
    88          1
    89          2
    91          3
    94          2
    95          1
    96         32
    98        999
    99         28
   101          1
   102          1
   103          1
   104        112
   105        204
   106         12
   107          1
   123          1
   124         16
   125         11
   126          8
   127         11
   128          1
   129          2
   133          1
   135          1
   139          6
   140          2
   141         13
   142          1
   143          8
   150          1
   151          2
   152          9
   153          4
   154          2
   163          6
   165         38
   166         40
   167         10
   168          2
   169          2
   170          2
   179          1
   181          2
   182          3
   183         70
   184          9
   185          1
   193          1
   194          3
   195          2
   197          2
   202          1
   203          1
   209          1
   211        172
   212         26
   213          2
   253          1
   274          1
   336          5
   337         30
   338          7
   339          1
   352          9
   353          2
   380          3
   381          8
   382          2