##TITLE=Library Entry 79769
##JCAMP-DX=Revision 4.10 
##DATA TYPE=MASS SPECTRUM
##SAMPLE DESCRIPTION=A.A.Kutin, Moscow, Russia
##NAMES=HP
##CAS NAME=1,3-Diazocin-2-one, perhydro-1,3-dibenzoyl-
##MOLFORM=C20H20N2O3
##CAS REGISTRY NO=54236-76-9
##MP= -300
##BP= -300
##MW= 336
##$RETENTION INDEX=0
##$CONDENSED SPECTRUM=NO
##NPOINTS= 159
##XYDATA=(XY..XY) 1 
    37          1
    38          0
    39         21
    40          4
    41         41
    42         14
    43         21
    44         29
    45          2
    46          5
    47          0
    49          2
    50         26
    51        126
    52          9
    53          5
    54          5
    55         17
    56         19
    57         11
    58          1
    59          0
    60          5
    61          1
    62          1
    63          3
    64          2
    65          5
    66          0
    67          4
    68          6
    69         16
    70         14
    71          5
    72          1
    73          9
    74          5
    75          7
    76         21
    77        516
    78         38
    79          5
    80          2
    81          4
    82          8
    83          8
    84         43
    85          5
    86          1
    87          1
    89          2
    91          4
    92          2
    93          2
    94          1
    95          3
    96          3
    97          4
    98          3
    99          1
   100          1
   101          0
   102          2
   103          5
   105        999
   106         82
   107          5
   108          0
   109          2
   110          2
   111          5
   112          4
   113          1
   114          1
   115          3
   116          4
   117          3
   118          4
   119          2
   120          7
   121          3
   122          4
   123          1
   124          1
   125          2
   126          1
   127          1
   128         37
   129          4
   130          3
   131          1
   133          1
   134          9
   135          3
   136          2
   137          1
   138          2
   139          0
   141          4
   143          4
   145          1
   147          3
   148          3
   149          1
   151          1
   152          1
   153          1
   155          0
   157          2
   158          5
   159          5
   160          2
   161          1
   162          2
   163          1
   164          1
   165          1
   166          4
   171          2
   172          2
   176          2
   177          3
   178          2
   179          0
   180          3
   181          2
   183          0
   184          0
   185          4
   186          3
   187          6
   188          8
   189          6
   191          3
   192          0
   193          1
   194          2
   195          5
   197          4
   203          7
   207         15
   208          3
   209          1
   211          1
   213          7
   214          5
   215          4
   217          3
   221          2
   231        132
   232         20
   256          1
   267          1
   281          5
   282          1
   283          1
   335          8
   336         15
   337          3