##TITLE=Library Entry 2964
##JCAMP-DX=Revision 4.10 
##DATA TYPE=MASS SPECTRUM
##SAMPLE DESCRIPTION=M. VANDEWALLE
##NAMES=HP
##CAS NAME=1,3-Cyclopentanedione, 4-butyl-
##MOLFORM=C9H14O2
##CAS REGISTRY NO=54244-72-3
##MP= -300
##BP= -300
##MW= 154
##$RETENTION INDEX=1129
##$CONDENSED SPECTRUM=NO
##NPOINTS= 23
##XYDATA=(XY..XY) 1 
    41        999
    42        480
    43        450
    53        170
    55        190
    56        780
    57         60
    67         80
    68         70
    69        220
    71         70
    83        120
    84        160
    95         50
    96         40
    97        140
    99         40
   112         60
   125         20
   126         20
   139          5
   154         70
   155          5