##TITLE=Library Entry 84871
##JCAMP-DX=Revision 4.10 
##DATA TYPE=MASS SPECTRUM
##SAMPLE DESCRIPTION=S.OHKI TOKYO COLLEGE OF PHARMACY, TOKYO, JAPAN.
##NAMES=HP
##CAS NAME=2-Butenoic acid, 2-(cyanomethyl)-, ethyl ester
##MOLFORM=C8H11NO2
##CAS REGISTRY NO=54244-77-8
##MP= -300
##BP= -300
##MW= 153
##$RETENTION INDEX=0
##$CONDENSED SPECTRUM=NO
##NPOINTS= 20
##XYDATA=(XY..XY) 1 
    27        320
    28         36
    29        240
    31          9
    44        250
    45        450
    46        210
    51         60
    52        100
    53        300
    79        100
    80        670
    81        340
   106         60
   107        100
   108        999
   109         60
   124        530
   125         60
   153        550