##TITLE=Library Entry 109879
##JCAMP-DX=Revision 4.10 
##DATA TYPE=MASS SPECTRUM
##SAMPLE DESCRIPTION=Exported from NIST MS Search
##NAMES=HP
##CAS NAME=Thiophene, 2-ethyl-5-propyl-
##MOLFORM=C9H14S
##CAS REGISTRY NO=54244-74-5
##MP= -300
##BP= -300
##MW= 154
##$RETENTION INDEX=1120
##$CONDENSED SPECTRUM=NO
##NPOINTS= 109
##XYDATA=(XY..XY) 1 
    37          4
    38         12
    39         79
    40          8
    41         39
    42          3
    43          3
    44          1
    45         85
    46          4
    47         13
    48          1
    49          2
    50         17
    51         36
    52         11
    53         24
    54          2
    55          4
    56          1
    57          7
    58         20
    59         25
    60          3
    61          6
    62          8
    63         19
    64          4
    65         30
    66         19
    67         11
    68          3
    69         27
    70         10
    71         28
    72          3
    73          9
    74          4
    75          4
    76          3
    77         37
    78         11
    79         23
    80          2
    81         13
    82          6
    83          4
    84         10
    85         14
    86          2
    87          3
    88          1
    89          5
    90          3
    91        108
    92         25
    93          7
    94          1
    95         11
    96          5
    97         85
    98          7
    99          6
   100          1
   101          1
   102          2
   103          3
   104          2
   105          5
   106          2
   107          1
   108          3
   109         14
   110         91
   111         43
   112          7
   113          2
   114          1
   115          1
   116          1
   117          1
   118          1
   119          1
   120          1
   121          6
   122          4
   123         54
   124         19
   125        999
   126         91
   127         49
   128          3
   133          1
   134          2
   135          3
   136          1
   137          8
   138          4
   139        122
   140         12
   141          5
   142          1
   151          1
   152          1
   153         11
   154        333
   155         32
   156         13
   157          1