##TITLE=Library Entry 8525
##JCAMP-DX=Revision 4.10 
##DATA TYPE=MASS SPECTRUM
##SAMPLE DESCRIPTION=D.D.FAULK CENTRAL MISSOURI STATE COLLEGE, WARRENSBURG,
 USA
##NAMES=HP
##CAS NAME=3-Hepten-2-one, 3-ethyl-4-methyl-
##MOLFORM=C10H18O
##CAS REGISTRY NO=54244-90-5
##MP= -300
##BP= -300
##MW= 154
##$RETENTION INDEX=0
##$CONDENSED SPECTRUM=NO
##NPOINTS= 108
##XYDATA=(XY..XY) 1 
    12          1
    13          2
    14         20
    15        159
    16          4
    17          2
    18          7
    19          1
    24          1
    25          1
    26         16
    27        235
    28         63
    29        158
    30          4
    31          3
    32          4
    37          4
    38         14
    39        209
    40         37
    41        425
    42         40
    43        999
    44         25
    45         11
    46          1
    49          1
    50         13
    51         38
    52         18
    53         92
    54         18
    55        472
    56         26
    57         57
    58         11
    59          4
    61          1
    62          5
    63         12
    64          4
    65         28
    66         13
    67         86
    68         17
    69        744
    70         48
    71         22
    72         17
    73          2
    74          1
    75          2
    77         26
    78          7
    79         30
    80          6
    81         38
    82         17
    83         49
    84         11
    85         10
    86         10
    87          1
    89          1
    91         15
    92          3
    93         16
    94          3
    95         38
    96          8
    97         40
    98          6
    99          2
   103          1
   105          7
   106          3
   107         14
   108          3
   109         13
   110          9
   111         73
   112          9
   113          2
   119          2
   120          1
   121         27
   122          3
   123          6
   124          4
   125        112
   126         14
   127          2
   135          2
   136          2
   137          8
   138          3
   139        350
   140         35
   141          3
   143          1
   147          1
   151          1
   152          1
   153          4
   154        253
   155         28
   156          2