##TITLE=Library Entry 35757
##JCAMP-DX=Revision 4.10 
##DATA TYPE=MASS SPECTRUM
##SAMPLE DESCRIPTION=P.E. BUTLER ESSO R. & E. CO., LINDEN, NEW JERSEY, USA
##NAMES=HP
##CAS NAME=1-Hexyne, 3-ethoxy-3,4-dimethyl-
##MOLFORM=C10H18O
##CAS REGISTRY NO=54244-91-6
##MP= -300
##BP= -300
##MW= 154
##$RETENTION INDEX=0
##$CONDENSED SPECTRUM=NO
##NPOINTS= 26
##XYDATA=(XY..XY) 1 
    39        236
    41        253
    44          5
    51         79
    52         28
    53        113
    55         72
    57         52
    59         18
    63         18
    65         44
    67         69
    69        999
    77         60
    79         20
    81         24
    83         26
    91         39
    95         16
    97        868
   111         82
   112         23
   125          5
   139         80
   140         10
   153          0