##TITLE=Library Entry 52240
##JCAMP-DX=Revision 4.10 
##DATA TYPE=MASS SPECTRUM
##SAMPLE DESCRIPTION=Exported from NIST MS Search
##NAMES=HP
##CAS NAME=Cyclohexanol, 2-methyl-3-(1-methylethenyl)-, (1.alpha.,2.alpha.,3
.alpha.)-
##MOLFORM=C10H18O
##CAS REGISTRY NO=54244-81-4
##MP= -300
##BP= -300
##MW= 154
##$RETENTION INDEX=0
##$CONDENSED SPECTRUM=NO
##NPOINTS= 56
##XYDATA=(XY..XY) 1 
    41        563
    42         82
    43        690
    44         60
    45         14
    51         40
    52         20
    53        139
    54         46
    55        720
    56        177
    57        304
    58         24
    59         20
    65         42
    66         20
    67        282
    68         78
    69        270
    70        221
    71         76
    72         26
    77         91
    78         20
    79        191
    80        115
    81        402
    82        147
    83        999
    84        125
    85        105
    91         78
    92         40
    93        302
    94        141
    95        386
    96        103
    97        241
    98        221
    99         28
   105         30
   107        181
   108         60
   109        105
   110        161
   111        147
   112         44
   119         14
   121        247
   122         20
   123         42
   136        229
   137         26
   139        133
   140         14
   154         46