##TITLE=Library Entry 81565
##JCAMP-DX=Revision 4.10 
##DATA TYPE=MASS SPECTRUM
##SAMPLE DESCRIPTION=Japan AIST/NIMC Database- Spectrum MS-NW-1744
##NAMES=HP
##CAS NAME=Phenyl 3-pyridyl ketone
##MOLFORM=C12H9NO
##CAS REGISTRY NO=5424-19-1
##MP= -300
##BP= -300
##MW= 183
##$RETENTION INDEX=0
##$CONDENSED SPECTRUM=NO
##NPOINTS= 78
##XYDATA=(XY..XY) 1 
    14          2
    16          1
    18          1
    26          9
    27         31
    28          9
    29          1
    37          5
    38         11
    39         23
    40          1
    41          2
    43          1
    44          6
    49          8
    50        122
    51        436
    52         45
    53         15
    55          2
    57          1
    61          5
    62         11
    63         19
    64          6
    65          2
    69          1
    73          4
    74         33
    75         27
    76         42
    77        718
    78        328
    79         19
    85          2
    86          5
    87          6
    88          2
    89          4
    90          1
    91          2
    92          1
    97          1
    98          4
    99          2
   100          2
   101          8
   102         10
   103          3
   104          4
   105        999
   106        260
   107         16
   108          1
   110          1
   113          2
   114          1
   115          2
   125          2
   126         10
   127         30
   128         12
   129          2
   139          2
   140          1
   152          3
   153          8
   154         48
   155         37
   156          5
   166          6
   167          1
   181          3
   182        256
   183        889
   184        115
   185          9
   186          1