##TITLE=Library Entry 68237
##JCAMP-DX=Revision 4.10 
##DATA TYPE=MASS SPECTRUM
##SAMPLE DESCRIPTION=Exported from NIST MS Search
##NAMES=HP
##CAS NAME=Cyclohexanol, 2-methylene-3-(1-methylethyl)-, cis-
##MOLFORM=C10H18O
##CAS REGISTRY NO=54244-87-0
##MP= -300
##BP= -300
##MW= 154
##$RETENTION INDEX=0
##$CONDENSED SPECTRUM=NO
##NPOINTS= 53
##XYDATA=(XY..XY) 1 
    41        802
    42         72
    43        445
    44        106
    45         10
    51         60
    52         26
    53        200
    54         70
    55        902
    56        321
    57        421
    58         36
    65         70
    66         46
    67        327
    68        128
    69        341
    70        106
    71         52
    77        160
    78         42
    79        381
    80        160
    81        297
    82        128
    83        922
    84        100
    85         20
    91        104
    92         20
    93        443
    94        281
    95        999
    96        122
    97        415
    98        289
    99          8
   105         22
   107        172
   108         66
   109         42
   110        226
   111        148
   112         26
   121        747
   122         62
   123          8
   136        319
   137         38
   139        120
   140          6
   154         58