##TITLE=Library Entry 20171
##JCAMP-DX=Revision 4.10 
##DATA TYPE=MASS SPECTRUM
##SAMPLE DESCRIPTION=Exported from NIST MS Search
##NAMES=HP
##CAS NAME=1-Decene, 5-methyl-
##MOLFORM=C11H22
##CAS REGISTRY NO=54244-79-0
##MP= -300
##BP= -300
##MW= 154
##$RETENTION INDEX=0
##$CONDENSED SPECTRUM=NO
##NPOINTS= 95
##XYDATA=(XY..XY) 1 
    25          1
    26         26
    27        415
    28         56
    29        389
    30          9
    31          3
    37          4
    38         11
    39        247
    40         49
    41        563
    42         71
    43        195
    44          9
    45          2
    46          1
    49          1
    50         10
    51         27
    52         16
    53        119
    54         33
    55        999
    56        627
    57        262
    58         19
    59          2
    62          1
    63          7
    64          2
    65         22
    66         17
    67        110
    68         78
    69        629
    70        206
    71         36
    72          3
    73          1
    74          1
    75          1
    76          1
    77         24
    78          7
    79         27
    80          7
    81         56
    82         20
    83        246
    84         84
    85         15
    86          1
    87          1
    89          1
    91          8
    92          1
    93          5
    94          2
    95         17
    96         15
    97        159
    98         52
    99         13
   100          2
   101          1
   103          1
   104          1
   105          1
   106          1
   107          1
   108          1
   109          7
   110          4
   111         36
   112         37
   113          6
   114          2
   115          1
   121          1
   123          3
   124          1
   125         11
   126          4
   127          2
   128          1
   137          1
   139          4
   140          1
   141          1
   152          2
   153          1
   154        151
   155         19
   156          1