##TITLE=Library Entry 33246
##JCAMP-DX=Revision 4.10 
##DATA TYPE=MASS SPECTRUM
##SAMPLE DESCRIPTION=Japan AIST/NIMC Database- Spectrum MS-NW-7871
##NAMES=HP
##CAS NAME=7-Oxabicyclo[2.2.1]hept-5-ene-2,3-dicarboxylic anhydride
##MOLFORM=C8H6O4
##CAS REGISTRY NO=5426-09-5
##MP= -300
##BP= -300
##MW= 166
##$RETENTION INDEX=0
##$CONDENSED SPECTRUM=NO
##NPOINTS= 55
##XYDATA=(XY..XY) 1 
    13          2
    14          4
    18          1
    24          1
    25         13
    26        129
    27         17
    28         17
    29         42
    34          3
    36          2
    37         19
    38         47
    39        300
    40         86
    41          7
    42         28
    43          1
    44          5
    45          4
    47          1
    49          1
    50          9
    51         11
    52          4
    53         16
    54        107
    55          9
    61          1
    62          5
    63         14
    64          6
    65         63
    66        108
    67          7
    68        999
    69         45
    70          3
    72          1
    77          1
    78          1
    79          1
    81          9
    82          3
    92          1
    93          7
    94         50
    95          4
    98         45
    99          4
   109          1
   110          2
   121         39
   122          3
   148          3