##TITLE=Library Entry 56520
##JCAMP-DX=Revision 4.10 
##DATA TYPE=MASS SPECTRUM
##SAMPLE DESCRIPTION=NIST Mass Spectrometry Data Center, 1994
##NAMES=HP
##CAS NAME=N,N'-Bis(diethylaminoethyl)aniline
##MOLFORM=C18H33N3
##CAS REGISTRY NO=5427-46-3
##MP= -300
##BP= -300
##MW= 291
##$RETENTION INDEX=0
##$CONDENSED SPECTRUM=NO
##NPOINTS= 97
##XYDATA=(XY..XY) 1 
     4          0
    13          0
    15         10
    17          1
    18         17
    26          1
    27         28
    28         86
    29        110
    30        268
    37          0
    38          1
    39          4
    40          2
    41         14
    42         95
    43         18
    44        106
    50          1
    51         10
    52          2
    53          1
    54          8
    55          6
    56         79
    57         24
    58        137
    59          0
    63          1
    65          5
    66          1
    67          0
    68          3
    69          2
    70         21
    71         13
    72         44
    73          3
    76          1
    77         35
    78          5
    79          3
    82          1
    83          0
    84         16
    85          0
    86        999
    87         58
    88          1
    89          1
    91         26
    92          3
    93          1
    95          1
    96          2
    98          9
   100        315
   101         23
   102          1
   104         25
   105         14
   106          6
   107          1
   115          0
   117          4
   118          4
   119          5
   120         14
   121          1
   130          2
   131          2
   132         18
   133          1
   134        202
   135         20
   136          1
   144          2
   145          2
   146          2
   147          8
   148          3
   159          0
   160          0
   161          1
   173          1
   175          5
   176          1
   189          2
   190          1
   192         62
   193         10
   203          3
   205         44
   206          6
   218         10
   219          2
   289          0