##TITLE=Library Entry 66690
##JCAMP-DX=Revision 4.10 
##DATA TYPE=MASS SPECTRUM
##SAMPLE DESCRIPTION=J. Little, Eastman chemical company.
##NAMES=HP
##CAS NAME=Carbamothioic acid, S-[2-oxo-2-(phenylamino)ethyl] ester
##MOLFORM=C9H10N2O2S
##CAS REGISTRY NO=5428-95-5
##MP= -300
##BP= -300
##MW= 210
##$RETENTION INDEX=0
##$CONDENSED SPECTRUM=NO
##NPOINTS= 35
##XYDATA=(XY..XY) 1 
    29         83
    39        114
    42        102
    43        359
    44        118
    47        170
    51         85
    62         24
    63         64
    64         63
    65        188
    66        114
    67         20
    76         17
    77        210
    78         33
    79         26
    91         70
    92        181
    93        999
    94        117
    97         17
   104         16
   106         54
   107         15
   119        156
   120        120
   121         20
   123         14
   124         52
   134         40
   135         49
   167        574
   168         81
   169         38