##TITLE=Library Entry 40946
##JCAMP-DX=Revision 4.10 
##DATA TYPE=MASS SPECTRUM
##SAMPLE DESCRIPTION=O A MAMER, MCGILL UNIVERSITY, MONTRE
##NAMES=HP
##CAS NAME=1-Monooleoylglycerol, 2TMS derivative
##MOLFORM=C27H56O4Si2
##CAS REGISTRY NO=54284-47-8
##MP= -300
##BP= -300
##MW= 500
##$RETENTION INDEX=2784
##$CONDENSED SPECTRUM=NO
##NPOINTS= 201
##XYDATA=(XY..XY) 1 
    14          6
    16          2
    18         22
    26          9
    27         57
    28         14
    29        152
    30          5
    31          5
    39         44
    40         11
    41        414
    42         81
    43        375
    44         15
    45         65
    46          4
    47         10
    51          4
    52          4
    53         27
    54        122
    55        540
    56        116
    57        188
    58         17
    59         59
    60          8
    61         17
    65          7
    66          8
    67        209
    68         69
    69        308
    70         72
    71         53
    72         37
    73        999
    74         92
    75        210
    76         17
    77         18
    78          4
    79         39
    80         20
    81        152
    82         45
    83        187
    84         33
    85         24
    86          3
    87          8
    88          7
    89         24
    90          3
    91         12
    92          5
    93         33
    94         13
    95        102
    96         32
    97         94
    98         54
    99         13
   101        109
   102         13
   103        339
   104         36
   105         25
   106          5
   107         20
   108          8
   109         48
   110         14
   111         41
   112         13
   113          8
   115         13
   116         74
   117         93
   118         12
   119         16
   120          4
   121         29
   122          6
   123         24
   124          8
   125         12
   126          4
   127          5
   128          4
   129        500
   130         87
   131         98
   132         50
   133         79
   134         15
   135         36
   136          7
   137         15
   138          6
   139          6
   143          5
   145         35
   146         22
   147        318
   148         52
   149         51
   150          8
   151         13
   152          9
   153          6
   155          4
   157          3
   159          5
   161         11
   163          9
   165          8
   166          4
   167          3
   171          4
   173          4
   174          3
   175         21
   176          3
   177          4
   179          4
   181          3
   185          4
   187         16
   188         13
   189         11
   190          3
   191          9
   199          3
   201         81
   202         18
   203        105
   204         28
   205        101
   206         19
   208          0
   209          5
   215          7
   217         13
   218         13
   219         45
   220         17
   221          9
   222          0
   223          1
   227          3
   237         23
   238          5
   239          3
   243          6
   244          4
   246          7
   247          9
   255          3
   257         34
   258          6
   259          3
   264         18
   265         87
   266         21
   267          3
   271          4
   275          3
   283          4
   285          3
   295          3
   297          3
   299          3
   307         12
   311          5
   313          3
   314          4
   325          3
   339         24
   340          9
   341          4
   353          3
   354          3
   355          3
   367         10
   368          4
   397        212
   398         73
   399         29
   400          6
   410         60
   411         31
   412         16
   413          3
   429          0
   485         31
   486         22
   487          6
   500         20
   501         10