##TITLE=Library Entry 10046
##JCAMP-DX=Revision 4.10 
##DATA TYPE=MASS SPECTRUM
##SAMPLE DESCRIPTION=Japan AIST/NIMC Database- Spectrum MS-NW-6214
##NAMES=HP
##CAS NAME=2-Propenoic acid, 2-(acetylamino)-
##MOLFORM=C5H7NO3
##CAS REGISTRY NO=5429-56-1
##MP= -300
##BP= -300
##MW= 129
##$RETENTION INDEX=0
##$CONDENSED SPECTRUM=NO
##NPOINTS= 93
##XYDATA=(XY..XY) 1 
    12          6
    13          5
    14         31
    15        143
    16         16
    18          1
    24          1
    25          4
    26         17
    27         30
    28         18
    29         17
    30          6
    31          7
    32          2
    36          6
    37          3
    38          9
    39         15
    40         52
    41        220
    42        336
    43        999
    44        321
    45         50
    46          3
    50          1
    51          4
    52          5
    53          8
    54          9
    55          8
    56          5
    57          9
    58          3
    59         89
    60         19
    61          2
    62          1
    63          2
    64          1
    65          2
    66          1
    67          3
    68         11
    69         17
    70          4
    71          4
    72          1
    73          4
    74          3
    75          2
    76          1
    77          3
    78          1
    79          1
    80          1
    81          2
    82          3
    83         14
    84          8
    85         71
    86         17
    87        412
    88         19
    89          4
    91          2
    92          1
    93          1
    94          1
    95          2
    96          4
    97          2
    98          1
    99          1
   101         17
   102          3
   103          1
   104          1
   105          2
   109          1
   110          5
   111        126
   112         13
   113          3
   114          2
   115          1
   126          1
   127          2
   128          1
   129        120
   130          8
   131          2