##TITLE=Library Entry 18509
##JCAMP-DX=Revision 4.10 
##DATA TYPE=MASS SPECTRUM
##SAMPLE DESCRIPTION=Chemical Concepts
##NAMES=HP
##CAS NAME=Acetylene dicarboxamide
##MOLFORM=C4H4N2O2
##CAS REGISTRY NO=543-21-5
##MP= -300
##BP= -300
##MW= 112
##$RETENTION INDEX=0
##$CONDENSED SPECTRUM=NO
##NPOINTS= 49
##XYDATA=(XY..XY) 1 
    25         13
    26          6
    27         12
    28         47
    29          8
    30          1
    31          3
    36          6
    37          4
    38         32
    39         49
    40         72
    41         40
    42         10
    43         33
    44        273
    45          6
    50         18
    51         67
    52        150
    53        999
    54         39
    55          5
    56          5
    65          5
    66         41
    68         29
    69          4
    76          1
    77          5
    78         10
    79          3
    80         72
    81          3
    83          2
    84        846
    85         49
    86          7
    94          2
    96        316
    97         15
    98          2
    99          1
   100          6
   101          3
   112        354
   113         32
   114          5
   115          1