##TITLE=Library Entry 55675
##JCAMP-DX=Revision 4.10 
##DATA TYPE=MASS SPECTRUM
##SAMPLE DESCRIPTION=Japan AIST/NIMC Database- Spectrum MS-IW-2803
##NAMES=HP
##CAS NAME=1,4-Dioxin, 2,3-dihydro-
##MOLFORM=C4H6O2
##CAS REGISTRY NO=543-75-9
##MP= -300
##BP= -300
##MW= 86
##$RETENTION INDEX=0
##$CONDENSED SPECTRUM=NO
##NPOINTS= 37
##XYDATA=(XY..XY) 1 
    13          3
    14         15
    15         15
    25          3
    26         58
    27        150
    28        246
    29        453
    30        668
    31         83
    32          1
    39          3
    40          2
    41          9
    42         40
    43         24
    44          5
    45          3
    53          1
    54          1
    55         24
    56          6
    57         96
    58        506
    59         25
    60         17
    69          3
    70          4
    71         37
    72          1
    73          2
    83          3
    84          1
    85          6
    86        999
    87         45
    88          5