##TITLE=Library Entry 5884
##JCAMP-DX=Revision 4.10 
##DATA TYPE=MASS SPECTRUM
##SAMPLE DESCRIPTION=MINISTRY OF TECH., E.R.D.E., WALTHAM ABBEY, UK
##NAMES=HP
##CAS NAME=Nitric acid, 2-methylpropyl ester
##MOLFORM=C4H9NO3
##CAS REGISTRY NO=543-29-3
##MP= -300
##BP= -300
##MW= 119
##$RETENTION INDEX=739
##$CONDENSED SPECTRUM=NO
##NPOINTS= 29
##XYDATA=(XY..XY) 1 
    12          3
    13          2
    14          4
    15         32
    25          3
    26         19
    27        301
    28         92
    29        209
    30        101
    31         32
    37          8
    38         12
    39        119
    40         21
    41        412
    42         39
    43        999
    44         41
    45          4
    46        352
    55         11
    56         21
    57        159
    58         13
    76         92
    77          1
    90          1
   104          1