##TITLE=Library Entry 19567
##JCAMP-DX=Revision 4.10 
##DATA TYPE=MASS SPECTRUM
##SAMPLE DESCRIPTION=Chuck Anderson, Aldrich Chemical Co.
##NAMES=HP
##CAS NAME=Pentane, 1-chloro-
##MOLFORM=C5H11Cl
##CAS REGISTRY NO=543-59-9
##MP= -300
##BP= -300
##MW= 106
##$RETENTION INDEX=742
##$CONDENSED SPECTRUM=NO
##NPOINTS= 76
##XYDATA=(XY..XY) 1 
    13          0
    14          0
    15         11
    16          0
    24          0
    25          1
    26         54
    27        521
    28        129
    29        607
    30         13
    31          4
    32          4
    33          2
    34          0
    35          2
    36          3
    37         17
    38         39
    39        330
    40         64
    41        851
    42        918
    43        310
    44         10
    45          0
    47          1
    48          2
    49         62
    50         15
    51         39
    52          5
    53         41
    54         20
    55        999
    56         64
    57        177
    58          7
    59          0
    60          1
    61         11
    62         17
    63         50
    64          5
    65         18
    66          1
    67          6
    68          2
    69         28
    70        889
    71         47
    72          1
    73          2
    74          0
    75          8
    76          9
    77         11
    78          3
    79          2
    80          0
    84          0
    85          0
    86          0
    87          0
    88          0
    89          0
    90          0
    91         37
    92          1
    93         12
    94          0
   104          0
   106         16
   107          1
   108          5
   109          0