##TITLE=Library Entry 7517
##JCAMP-DX=Revision 4.10 
##DATA TYPE=MASS SPECTRUM
##SAMPLE DESCRIPTION=NIST Mass Spectrometry Data Center, 2010
##NAMES=HP
##CAS NAME=Isobutyl chloroformate
##MOLFORM=C5H9ClO2
##CAS REGISTRY NO=543-27-1
##MP= -300
##BP= -300
##MW= 136
##$RETENTION INDEX=808
##$CONDENSED SPECTRUM=NO
##NPOINTS= 53
##XYDATA=(XY..XY) 1 
    14          2
    15         10
    16          1
    25          1
    26         15
    27        125
    28         36
    29        139
    30         11
    31         19
    35         12
    36          5
    37         13
    38         24
    39        190
    40         34
    41        597
    42        117
    43        999
    44         82
    45         10
    47          1
    49          4
    50          9
    51         10
    52          3
    53         15
    54          5
    55         80
    56        673
    57        370
    58         19
    59         10
    63        366
    64          6
    65        118
    66          2
    72          1
    73          5
    75          1
    76          1
    77          4
    78          1
    79          1
    81          3
    83          1
    91          1
    93         17
    94         80
    95         43
    96         26
    97         12
   121          1