##TITLE=Library Entry 16656
##JCAMP-DX=Revision 4.10 
##DATA TYPE=MASS SPECTRUM
##SAMPLE DESCRIPTION=M.C. HAMMING CONTINENTAL OIL CO., PONCA CITY, OKLA, USA
##NAMES=HP
##CAS NAME=2-Heptanol
##MOLFORM=C7H16O
##CAS REGISTRY NO=543-49-7
##MP= -300
##BP= -300
##MW= 116
##$RETENTION INDEX=901
##$CONDENSED SPECTRUM=NO
##NPOINTS= 78
##XYDATA=(XY..XY) 1 
    12          0
    13          0
    14          4
    15         26
    16          1
    17          0
    18          1
    19         10
    25          0
    26         18
    27        171
    28         36
    29        129
    30          4
    31         31
    32          1
    33          0
    35          0
    36          0
    37          1
    38          6
    39         68
    40         12
    41        126
    42         49
    43        139
    44         83
    45        999
    46         22
    47          3
    48          0
    49          0
    50          2
    51          4
    52          1
    53          8
    54          5
    55        127
    56         49
    57         37
    58         10
    59          6
    60          0
    61          0
    62          0
    63          0
    64          0
    65          1
    66          0
    67          2
    68          2
    69         20
    70         35
    71          8
    72          1
    73          1
    74          0
    77          0
    78          0
    79          0
    81          1
    82          0
    83         67
    84          4
    85          0
    87          0
    91          0
    96          0
    97          1
    98         31
    99          2
   100          0
   101         32
   102          2
   112          0
   114          0
   115          3
   116          0