##TITLE=Library Entry 3009
##JCAMP-DX=Revision 4.10 
##DATA TYPE=MASS SPECTRUM
##SAMPLE DESCRIPTION=Japan AIST/NIMC Database- Spectrum MS-NW-1309
##NAMES=HP
##CAS NAME=1-Butanol, 3-methyl-, nitrate
##MOLFORM=C5H11NO3
##CAS REGISTRY NO=543-87-3
##MP= -300
##BP= -300
##MW= 133
##$RETENTION INDEX=862
##$CONDENSED SPECTRUM=NO
##NPOINTS= 75
##XYDATA=(XY..XY) 1 
    12          4
    13          5
    14         12
    15         53
    16          3
    25          1
    26         27
    27        294
    28        142
    29        593
    30        430
    31        104
    32          3
    33          1
    36          1
    37         11
    38         26
    39        238
    40         43
    41        999
    42        219
    43        495
    44        102
    45         59
    46        331
    47          5
    48          1
    49          1
    50          9
    51         11
    52          7
    53         30
    54         26
    55        170
    56        100
    57        650
    58         42
    59         13
    60         11
    61          3
    62          5
    64          1
    65          1
    66          1
    67         10
    68         21
    69        106
    70         95
    71         65
    72         29
    73         15
    74          1
    76        326
    77          6
    78          2
    80          9
    81          5
    82          5
    83          7
    84          9
    85         13
    86         16
    87          6
    88          1
    96          3
    97          7
    98          4
    99         28
   100          9
   101          1
   102          2
   103          6
   112          1
   113          2
   115          2