##TITLE=Library Entry 34715
##JCAMP-DX=Revision 4.10 
##DATA TYPE=MASS SPECTRUM
##SAMPLE DESCRIPTION=A.N.KARAVANOV, INST. PETROCHEM. SYNTH., ACAD. SCI. USSR
, USSR
##NAMES=HP
##CAS NAME=3-Methylnon-1-yn-3-ol
##MOLFORM=C10H18O
##CAS REGISTRY NO=5430-01-3
##MP= -300
##BP= -300
##MW= 154
##$RETENTION INDEX=0
##$CONDENSED SPECTRUM=NO
##NPOINTS= 9
##XYDATA=(XY..XY) 1 
    41        140
    43        270
    55         60
    68         50
    69        999
    70         70
    84        120
    97         41
   139         44