##TITLE=Library Entry 53277
##JCAMP-DX=Revision 4.10 
##DATA TYPE=MASS SPECTRUM
##SAMPLE DESCRIPTION=Exported from NIST MS Search
##NAMES=HP
##CAS NAME=2H-Quinolizin-3-ol, octahydro-
##MOLFORM=C9H17NO
##CAS REGISTRY NO=54308-61-1
##MP= -300
##BP= -300
##MW= 155
##$RETENTION INDEX=0
##$CONDENSED SPECTRUM=NO
##NPOINTS= 38
##XYDATA=(XY..XY) 1 
    53         50
    54        120
    55        500
    56        140
    57         80
    68        100
    69        120
    70        130
    71         80
    72         10
    82        140
    83        999
    84        450
    85         60
    96        150
    97        700
    98        450
    99        120
   100         50
   108         60
   109         20
   110        120
   111         70
   112         50
   113        140
   114         80
   124         70
   126        320
   127        240
   128         30
   136         50
   137         20
   138        190
   139         20
   140         60
   154        950
   155        750
   156        130