##TITLE=Library Entry 83416
##JCAMP-DX=Revision 4.10 
##DATA TYPE=MASS SPECTRUM
##SAMPLE DESCRIPTION=Japan AIST/NIMC Database- Spectrum MS-NW-9883
##NAMES=HP
##CAS NAME=2,6-Pyridinedicarboxaldehyde
##MOLFORM=C7H5NO2
##CAS REGISTRY NO=5431-44-7
##MP= -300
##BP= -300
##MW= 135
##$RETENTION INDEX=0
##$CONDENSED SPECTRUM=NO
##NPOINTS= 54
##XYDATA=(XY..XY) 1 
    24          1
    25          4
    26         31
    27         53
    28         45
    29         90
    30          1
    31          7
    36          3
    37         22
    38         26
    39         33
    40          4
    41          2
    43          1
    45          2
    48          3
    49         24
    50        127
    51        357
    52        505
    53         68
    54          4
    55          3
    59          3
    60          2
    61          9
    62         12
    63         12
    64          6
    65          1
    66          2
    74          4
    75         26
    76         36
    77         25
    78        365
    79        303
    80         19
    81          1
    86          1
    87          2
    88          1
    89          3
   104          1
   105          2
   106        126
   107        999
   108         70
   109          4
   134          3
   135        224
   136         29
   137          3