##TITLE=Library Entry 4922
##JCAMP-DX=Revision 4.10 
##DATA TYPE=MASS SPECTRUM
##SAMPLE DESCRIPTION=W.T.RAINEY OAK RIDGE NATIONAL LABORATORY,OAK RIDGE,TN.U
SA
##NAMES=HP
##CAS NAME=Cyclohexanamine, N-methyl-N-nitroso-
##MOLFORM=C7H14N2O
##CAS REGISTRY NO=5432-28-0
##MP= -300
##BP= -300
##MW= 142
##$RETENTION INDEX=0
##$CONDENSED SPECTRUM=NO
##NPOINTS= 71
##XYDATA=(XY..XY) 1 
    30        113
    31          6
    32         62
    36         12
    37          6
    38         18
    39        182
    40         37
    41        440
    42        999
    43        308
    44        119
    45         12
    50         18
    51         31
    52         25
    53         44
    54        144
    55        949
    56        138
    57        333
    58        138
    59         12
    60         12
    61        484
    62         18
    63         12
    64          6
    65         18
    66         18
    67        226
    68        176
    69         44
    70        301
    71         56
    72          6
    73          6
    74          6
    75          6
    76          6
    77         31
    78         18
    79         31
    80         18
    81        182
    82        364
    83        999
    84        119
    85         12
    86          6
    94         12
    95          6
    96         44
    97         18
    98         12
    99          6
   106         18
   107         12
   108         12
   109          6
   110         25
   111         25
   112         88
   113         37
   114          6
   125        132
   126         18
   141         12
   142        798
   143         81
   144         12