##TITLE=Library Entry 34118
##JCAMP-DX=Revision 4.10 
##DATA TYPE=MASS SPECTRUM
##SAMPLE DESCRIPTION=NIST Mass Spectrometry Data Center, 1994
##NAMES=HP
##CAS NAME=4-Isopropylcyclohexanone
##MOLFORM=C9H16O
##CAS REGISTRY NO=5432-85-9
##MP= -300
##BP= -300
##MW= 140
##$RETENTION INDEX=1182
##$CONDENSED SPECTRUM=NO
##NPOINTS= 69
##XYDATA=(XY..XY) 1 
     4          1
    14         12
    15         47
    26         37
    27        377
    28        188
    29        190
    31          4
    32          5
    37          6
    39        462
    40        114
    41        991
    42        231
    43        949
    44         41
    45          4
    50         18
    51         52
    52         29
    53        158
    54        160
    55        919
    56        286
    57        218
    58         16
    62          4
    63         14
    64          5
    65         45
    66         24
    67        137
    68        122
    69        999
    70        243
    71         49
    72         11
    77         28
    78         25
    79         93
    80         34
    81        106
    82         32
    83        241
    84        543
    85        208
    86         17
    91         12
    92         28
    93        160
    94         39
    95         25
    96        148
    97        369
    98        158
    99         15
   107        309
   108         31
   109          8
   110          8
   111         91
   112         89
   113          6
   122        135
   123         19
   125        103
   126         13
   140        499
   141         50