##TITLE=Library Entry 19488
##JCAMP-DX=Revision 4.10 
##DATA TYPE=MASS SPECTRUM
##SAMPLE DESCRIPTION=R.J.C.KLEIPOOL CENTRAL INST. FOR NUTRITION, ZEIST, NETH
ERLANDS
##NAMES=HP
##CAS NAME=2-Heptenoic acid, ethyl ester, (E)-
##MOLFORM=C9H16O2
##CAS REGISTRY NO=54340-72-6
##MP= -300
##BP= -300
##MW= 156
##$RETENTION INDEX=0
##$CONDENSED SPECTRUM=NO
##NPOINTS= 51
##XYDATA=(XY..XY) 1 
    39        260
    40         80
    41        520
    42        130
    43        280
    44        130
    45         81
    51         23
    52         16
    53         98
    54         53
    55        999
    56        190
    57         59
    60         43
    61         41
    67         54
    68        240
    69        130
    70         58
    71         40
    72          5
    73        400
    74         27
    79         18
    80          5
    81        110
    82        100
    83         73
    84         13
    85         46
    86        140
    87         39
    88        120
    89          7
    95         10
    99        390
   100         31
   101        190
   109         14
   110         96
   111        520
   112         54
   113         28
   114         21
   115         59
   127        110
   128         44
   141          5
   156         46
   157          6