##TITLE=Library Entry 83745
##JCAMP-DX=Revision 4.10 
##DATA TYPE=MASS SPECTRUM
##SAMPLE DESCRIPTION=Exported from NIST MS Search
##NAMES=HP
##CAS NAME=6-Oxabicyclo[3.2.1]oct-2-ene-8-carboxylic acid, 1,8-dimethyl-7-ox
o-, methyl ester, anti-(.+/-.)-
##MOLFORM=C11H14O4
##CAS REGISTRY NO=54345-93-6
##MP= -300
##BP= -300
##MW= 210
##$RETENTION INDEX=0
##$CONDENSED SPECTRUM=NO
##NPOINTS= 17
##XYDATA=(XY..XY) 1 
    41        120
    53         60
    55         50
    59        120
    65         90
    67         50
    77        100
    79        120
    91        529
    92         90
    95        100
   105        140
   106        150
   107        999
   108        110
   151        110
   166        100