##TITLE=Library Entry 17998
##JCAMP-DX=Revision 4.10 
##DATA TYPE=MASS SPECTRUM
##SAMPLE DESCRIPTION=Exported from NIST MS Search
##NAMES=HP
##CAS NAME=1-Butene, 4,4-diethoxy-2-methyl-
##MOLFORM=C9H18O2
##CAS REGISTRY NO=54340-95-3
##MP= -300
##BP= -300
##MW= 158
##$RETENTION INDEX=0
##$CONDENSED SPECTRUM=NO
##NPOINTS= 58
##XYDATA=(XY..XY) 1 
    12          3
    13          4
    14         18
    15         68
    16          9
    17         12
    18         10
    19         81
    26         38
    27        334
    28        181
    29        710
    30         46
    31        143
    37          5
    38         20
    39        205
    40         67
    41        381
    42         37
    43        156
    44        113
    45        134
    46         33
    47        999
    48         28
    49         10
    50         13
    51         26
    52         14
    53         71
    54         26
    55        173
    56        142
    57        323
    58         43
    59         44
    65         15
    66          8
    67         40
    68         35
    69         81
    70         29
    71         39
    72         25
    73         11
    75        493
    83        127
    84         46
    85         15
    95         16
    97         27
    99         35
   103        855
   104         81
   112         27
   113        348
   114         46