##TITLE=Library Entry 3251
##JCAMP-DX=Revision 4.10 
##DATA TYPE=MASS SPECTRUM
##SAMPLE DESCRIPTION=R.J.C.KLEIPOOL CENTRAL INST. FOR NUTRITION, ZEIST, NETH
ERLANDS
##NAMES=HP
##CAS NAME=4-Heptenoic acid, ethyl ester, (E)-
##MOLFORM=C9H16O2
##CAS REGISTRY NO=54340-70-4
##MP= -300
##BP= -300
##MW= 156
##$RETENTION INDEX=1090
##$CONDENSED SPECTRUM=NO
##NPOINTS= 51
##XYDATA=(XY..XY) 1 
    39        370
    40         76
    41        999
    42        180
    43        310
    44         17
    45        160
    51         23
    52         17
    53        170
    54        105
    55        710
    56         87
    57          9
    60        500
    61        350
    67        530
    68        870
    69        710
    70        320
    71        110
    72          2
    73         81
    74         11
    79         35
    80          5
    81        360
    82        480
    83        420
    84         29
    85        230
    86         10
    87         11
    88        700
    89         22
    95         11
    99         70
   100          6
   101         23
   109         70
   110        460
   111         25
   112         11
   113         11
   114          5
   115          6
   127         46
   128         11
   141          5
   156        190
   157         20