##TITLE=Library Entry 87309
##JCAMP-DX=Revision 4.10 
##DATA TYPE=MASS SPECTRUM
##SAMPLE DESCRIPTION=Exported from NIST MS Search
##NAMES=HP
##CAS NAME=1H-Isoindole-1,3(2H)-dione, 3a,4,5,7a-tetrahydro-4-hydroxy-3a-met
hyl-2-phenyl-, [3aR-(3a.alpha.,4.beta.,7a.alpha.)]-
##MOLFORM=C15H15NO3
##CAS REGISTRY NO=54346-13-3
##MP= -300
##BP= -300
##MW= 257
##$RETENTION INDEX=0
##$CONDENSED SPECTRUM=NO
##NPOINTS= 20
##XYDATA=(XY..XY) 1 
    43        100
    51        110
    53        160
    55         60
    64         60
    65        100
    66        100
    67        170
    77        210
    79         90
    81        290
    91        140
    92         90
    93        120
    95        539
   109        100
   110        999
   111         80
   119         70
   257        499