##TITLE=Library Entry 78763
##JCAMP-DX=Revision 4.10 
##DATA TYPE=MASS SPECTRUM
##SAMPLE DESCRIPTION=A.A.Kutin, Moscow, Russia
##NAMES=HP
##CAS NAME=S-Triazine, 1,3,5-tribenzoylhexahydro-
##MOLFORM=C24H21N3O3
##CAS REGISTRY NO=5434-82-2
##MP= -300
##BP= -300
##MW= 399
##$RETENTION INDEX=0
##$CONDENSED SPECTRUM=NO
##NPOINTS= 161
##XYDATA=(XY..XY) 1 
    33          0
    34          0
    36          0
    37          1
    38          2
    39          7
    40          5
    42         73
    44          6
    45          0
    46          0
    51        143
    52          7
    53          3
    55          1
    56          6
    57          2
    58          0
    59          0
    60          0
    61          0
    62          1
    63          2
    64          1
    65          1
    66          0
    67          0
    68          0
    69          1
    70          0
    71          0
    74          3
    75         11
    77        513
    78         28
    79          1
    81          0
    82          0
    83          1
    84          1
    85          0
    89          1
    90          0
    91          4
    92          1
    94          0
    95          0
    97          0
    99          0
   101          0
   102          1
   105        999
   106         67
   107          3
   109          0
   112          0
   113          0
   115          0
   116          0
   117          2
   118          1
   120          2
   121          0
   122          2
   123          0
   127          0
   128          0
   130          0
   131          0
   132          3
   133          4
   134          8
   135          0
   138          0
   142          0
   144         17
   145          8
   147         81
   148          7
   149          2
   150          0
   151          1
   152          1
   153          0
   154          0
   156          0
   157          0
   158          0
   159          1
   161         72
   162          9
   163          0
   164          0
   165          0
   166          0
   168          0
   170          0
   171          0
   172          1
   173          1
   174          0
   180          0
   181          0
   182          0
   187          0
   188          2
   189          0
   191          0
   192          0
   194          0
   195          0
   196          0
   208          1
   209          0
   210          0
   211          0
   216          0
   222          0
   224          3
   225          1
   226          1
   227          0
   232          0
   235          4
   237          2
   238          1
   239          0
   240          0
   248          0
   250          0
   251          2
   253         85
   254         13
   255          1
   256          0
   262          0
   264          0
   265         19
   266         13
   267          2
   268          0
   275          0
   278         29
   279          5
   280          1
   292          0
   294          6
   295          1
   296          0
   314          0
   315          0
   337          0
   356          0
   357          2
   358          0
   395          0
   397          0
   398          8
   399         25
   400          6
   401          1