##TITLE=Library Entry 3497
##JCAMP-DX=Revision 4.10 
##DATA TYPE=MASS SPECTRUM
##SAMPLE DESCRIPTION=Exported from NIST MS Search
##NAMES=HP
##CAS NAME=4(1H)-Isobenzofuranone, hexahydro-3a,7a-dimethyl-, cis-(.+/-.)-
##MOLFORM=C10H16O2
##CAS REGISTRY NO=54346-05-3
##MP= -300
##BP= -300
##MW= 168
##$RETENTION INDEX=0
##$CONDENSED SPECTRUM=NO
##NPOINTS= 53
##XYDATA=(XY..XY) 1 
    41        999
    42        240
    43        410
    44        130
    50         60
    51        110
    52         70
    53        260
    54        110
    55        499
    56        100
    57         80
    65         80
    67        460
    68        210
    69        629
    70         90
    71         80
    77         90
    79        140
    80         50
    81        330
    82        350
    83        310
    84         90
    85        390
    91         70
    93        120
    94         70
    95        340
    96        200
    97        549
    98        130
   100        529
   101         50
   107        110
   108        150
   109        250
   110        380
   111        240
   112        190
   113        110
   122         60
   123        300
   125        340
   126        230
   135         80
   138        260
   139         70
   151         60
   153        529
   154         50
   168        619