##TITLE=Library Entry 534
##JCAMP-DX=Revision 4.10 
##DATA TYPE=MASS SPECTRUM
##SAMPLE DESCRIPTION=J.VOTH UNIV. OF CALIFORNIA, DAVIS, CALIFORNIA, 95616, U
SA
##NAMES=HP
##CAS NAME=3-Heptenoic acid, ethyl ester, (E)-
##MOLFORM=C9H16O2
##CAS REGISTRY NO=54340-71-5
##MP= -300
##BP= -300
##MW= 156
##$RETENTION INDEX=0
##$CONDENSED SPECTRUM=NO
##NPOINTS= 97
##XYDATA=(XY..XY) 1 
    12          2
    13          3
    14         20
    15         94
    16          4
    17          7
    18         22
    19         11
    25          2
    26         52
    27        473
    28        101
    29        999
    30         28
    31         29
    32          1
    33          0
    34          0
    36          0
    37          5
    38         18
    39        233
    40         31
    41        546
    42         84
    43        156
    44         42
    45        349
    46          8
    47          2
    48          0
    49          1
    50         12
    51         25
    52         15
    53         79
    54        237
    55        791
    56         70
    57         54
    58          8
    59          5
    60         55
    61         38
    62          5
    63          9
    64          2
    65         17
    66         10
    67        104
    68        176
    69        124
    70         37
    71         32
    72          3
    73         59
    74          6
    75          1
    76          0
    77          8
    78          2
    79         12
    80          3
    81         95
    82        157
    83        338
    84         28
    85         66
    86         10
    87         10
    88        231
    89         12
    90          1
    91          0
    95          3
    96          3
    97          3
    98          1
    99         45
   100          5
   101         13
   102          3
   109         14
   110        113
   111         56
   112          4
   113          6
   114          3
   115          3
   127         31
   128          8
   129          1
   141          4
   155          1
   156         81
   157          8
   158          0