##TITLE=Library Entry 14535
##JCAMP-DX=Revision 4.10 
##DATA TYPE=MASS SPECTRUM
##SAMPLE DESCRIPTION=Exported from NIST MS Search
##NAMES=HP
##CAS NAME=1H-Isoindole-1,3(2H)-dione, 4-(acetyloxy)hexahydro-3a-methyl-2-ph
enyl-, [3aR-(3a.alpha.,4.beta.,7a.alpha.)]-
##MOLFORM=C17H19NO4
##CAS REGISTRY NO=54346-15-5
##MP= -300
##BP= -300
##MW= 301
##$RETENTION INDEX=0
##$CONDENSED SPECTRUM=NO
##NPOINTS= 22
##XYDATA=(XY..XY) 1 
    43        999
    47         50
    49        100
    51        100
    53        150
    64         50
    65         50
    67        100
    77        210
    79        210
    91        150
    93        170
    94        280
    95        150
   111         80
   119        140
   188        400
   189        240
   202        170
   231        280
   259        190
   301        559