##TITLE=Library Entry 71863
##JCAMP-DX=Revision 4.10 
##DATA TYPE=MASS SPECTRUM
##SAMPLE DESCRIPTION=Exported from NIST MS Search
##NAMES=HP
##CAS NAME=Cyclohexanol, 1-ethyl-2,2-dimethyl-6-methylene-
##MOLFORM=C11H20O
##CAS REGISTRY NO=54345-64-1
##MP= -300
##BP= -300
##MW= 168
##$RETENTION INDEX=0
##$CONDENSED SPECTRUM=NO
##NPOINTS= 15
##XYDATA=(XY..XY) 1 
    41        310
    43        619
    55        270
    57        400
    69        320
    70        230
    71        100
    81        170
    83        120
    95        280
    96        130
    99        999
   111        150
   139        220
   168        180