##TITLE=Library Entry 4015
##JCAMP-DX=Revision 4.10 
##DATA TYPE=MASS SPECTRUM
##SAMPLE DESCRIPTION=Chemical Concepts
##NAMES=HP
##CAS NAME=1-Cyclohexene-1-butanol, 2,6,6-trimethyl-
##MOLFORM=C13H24O
##CAS REGISTRY NO=54344-91-1
##MP= -300
##BP= -300
##MW= 196
##$RETENTION INDEX=0
##$CONDENSED SPECTRUM=NO
##NPOINTS= 90
##XYDATA=(XY..XY) 1 
    26          6
    27        260
    28         20
    29        348
    30         14
    31        487
    38          5
    39        300
    40         55
    41        999
    42         50
    43        388
    44         20
    45         19
    50         10
    51         61
    52         37
    53        254
    54         30
    55        640
    56         53
    57        169
    58         12
    59          8
    63         21
    64          9
    65        113
    66         43
    67        389
    68         75
    69        406
    70         93
    71        355
    72         17
    73          5
    75          6
    77        227
    78         50
    79        386
    80         69
    81        843
    82        114
    83        145
    84         24
    85        168
    86         10
    90          7
    91        264
    92         42
    93        435
    94        107
    95        799
    96        286
    97        111
    98         11
    99         28
   103         17
   104         10
   105        107
   106         23
   107        491
   108         63
   109        217
   110         24
   111         73
   112         43
   113          7
   114         11
   116         11
   119        215
   121        133
   123        976
   124        104
   125         26
   133         12
   135         81
   136         11
   137        100
   138         13
   140         28
   147         14
   153          2
   161          9
   163        265
   164         35
   179          8
   181        455
   182         57
   196        234
   197         33