##TITLE=Library Entry 21517
##JCAMP-DX=Revision 4.10 
##DATA TYPE=MASS SPECTRUM
##SAMPLE DESCRIPTION=RADIAN CORP
##NAMES=HP
##CAS NAME=Propane, 1,3-dibromo-2,2-dimethyl-
##MOLFORM=C5H10Br2
##CAS REGISTRY NO=5434-27-5
##MP= -300
##BP= -300
##MW= 228
##$RETENTION INDEX=0
##$CONDENSED SPECTRUM=NO
##NPOINTS= 61
##XYDATA=(XY..XY) 1 
    15          7
    26         11
    27        129
    28         33
    29        127
    32          6
    37          9
    38         30
    39        260
    40         34
    41        367
    42         19
    43         50
    44          5
    49          2
    50         41
    51         55
    52         16
    53        260
    54         22
    55        999
    56        307
    57         11
    65         11
    67         26
    69        631
    70         33
    79         37
    80         28
    81         44
    82         28
    83          1
    91          6
    92          7
    93        149
    94         10
    95        138
   105          9
   107        153
   109        148
   117          4
   119         15
   121         15
   133        127
   134         40
   135        907
   136         72
   137        762
   138         33
   149        625
   150         36
   151        632
   152         33
   184          6
   215         13
   216          9
   217          3
   228         73
   230        151
   231          2
   232         72