##TITLE=Library Entry 5794
##JCAMP-DX=Revision 4.10 
##DATA TYPE=MASS SPECTRUM
##SAMPLE DESCRIPTION=Exported from NIST MS Search
##NAMES=HP
##CAS NAME=4H,5H-Pyrano[4,3-d]-1,3-dioxin, tetrahydro-8a-methyl-
##MOLFORM=C8H14O3
##CAS REGISTRY NO=54340-98-6
##MP= -300
##BP= -300
##MW= 158
##$RETENTION INDEX=0
##$CONDENSED SPECTRUM=NO
##NPOINTS= 128
##XYDATA=(XY..XY) 1 
    12         11
    13          7
    14         57
    15        192
    16         16
    17         29
    18         96
    19          9
    20          4
    25          3
    26         85
    27        531
    28        430
    29        579
    30        156
    31        369
    33          2
    34          3
    35          6
    36          3
    37          9
    38         29
    39        353
    40        168
    41        583
    42        547
    43        999
    44        145
    45        120
    46          4
    47          6
    48          1
    49          3
    50         24
    51         40
    52         26
    53        188
    54         55
    55        450
    56        155
    57        223
    58        249
    59         64
    60          6
    61          7
    62          3
    63          6
    64          2
    65         20
    66         26
    67        130
    68        103
    69         81
    70        170
    71        350
    72        417
    73        285
    74         13
    75          7
    76          2
    77         16
    78          9
    79         45
    80         13
    81        130
    82         68
    83        204
    84        126
    85         59
    86         22
    87        116
    88          9
    89          7
    90          1
    91          8
    92          3
    93         32
    94          6
    95         22
    96         13
    97         26
    98         19
    99        155
   100        193
   101         15
   102         13
   103         23
   104          3
   105          3
   106          2
   107          1
   108          3
   109         12
   110        126
   111         46
   112         45
   113        113
   114        175
   115         26
   116          3
   117          1
   119          3
   120          1
   121          1
   122          1
   123          1
   124          1
   125          2
   126          4
   127         46
   128        148
   129         24
   130          7
   131          3
   132          1
   133          1
   134          1
   138          6
   139         13
   140        138
   141         16
   142          4
   143         65
   144          6
   145          1
   147          1
   157         10
   158         27