##TITLE=Library Entry 57072
##JCAMP-DX=Revision 4.10 
##DATA TYPE=MASS SPECTRUM
##SAMPLE DESCRIPTION=Exported from NIST MS Search
##NAMES=HP
##CAS NAME=4-Octanol, 4,5-dimethyl-
##MOLFORM=C10H22O
##CAS REGISTRY NO=54340-92-0
##MP= -300
##BP= -300
##MW= 158
##$RETENTION INDEX=0
##$CONDENSED SPECTRUM=NO
##NPOINTS= 101
##XYDATA=(XY..XY) 1 
    12          2
    13          2
    14          9
    15         87
    16          4
    17          6
    18         21
    19          8
    24          2
    25          2
    26         31
    27        410
    28         60
    29        265
    30          7
    31         38
    32          2
    37          5
    38         13
    39        199
    40         35
    41        402
    42         62
    43        561
    44         22
    45        549
    46         13
    47          2
    50          7
    51         17
    52          9
    53         60
    54         19
    55        382
    56         31
    57         83
    58         41
    59         98
    60          4
    61          1
    62          2
    63          5
    64          2
    65         12
    66          6
    67         36
    68         13
    69        289
    70         49
    71        196
    72         23
    73         35
    74          2
    75          1
    77         12
    78          3
    79         12
    80          3
    81         18
    82         21
    83         43
    84          6
    85         20
    86         26
    87        999
    88         53
    89          4
    91          6
    92          1
    93          7
    94          2
    95         13
    96          4
    97        113
    98         57
    99          8
   100          1
   101          4
   103          1
   105          2
   106          1
   107          3
   108          1
   109          6
   111        457
   112         35
   113          9
   114          2
   115        318
   116         23
   117          2
   121          2
   123          1
   125          3
   126          4
   127          1
   129          2
   141          3
   143         62
   144          6
   153          1