##TITLE=Library Entry 67292
##JCAMP-DX=Revision 4.10 
##DATA TYPE=MASS SPECTRUM
##SAMPLE DESCRIPTION=P.J. BERESFORD, SCHOOL OF PHARM., LEICESTER POLY, LEICE
STER
##NAMES=HP
##CAS NAME=2-Butenoic acid, 2-methyl-,8-methyl-6-(1-oxopropoxy)-8-azabicyclo
[3.2.1]oct-3-yl ester, [1R-[1.alpha.,3.beta.(E),5.alpha.,6.alpha.]]-
##MOLFORM=C16H25NO4
##CAS REGISTRY NO=54354-59-5
##MP= -300
##BP= -300
##MW= 295
##$RETENTION INDEX=1901
##$CONDENSED SPECTRUM=NO
##NPOINTS= 14
##XYDATA=(XY..XY) 1 
    42        230
    55        260
    57        160
    81        130
    82        100
    83        200
    94        999
    95        950
    96        140
   122        390
   138        190
   195         80
   196        110
   295         60