##TITLE=Library Entry 23665
##JCAMP-DX=Revision 4.10 
##DATA TYPE=MASS SPECTRUM
##SAMPLE DESCRIPTION=KONINKLIJKE SHELL LABORATORIUM AMSTERDAM
##NAMES=HP
##CAS NAME=Hexanal, 3,5,5-trimethyl-
##MOLFORM=C9H18O
##CAS REGISTRY NO=5435-64-3
##MP= -300
##BP= -300
##MW= 142
##$RETENTION INDEX=963
##$CONDENSED SPECTRUM=NO
##NPOINTS= 105
##XYDATA=(XY..XY) 1 
    12          2
    13          2
    14         14
    15         97
    16          3
    17          4
    18         14
    24          0
    25          0
    26         13
    27        288
    28         70
    29        449
    30          9
    31          7
    32          1
    33          0
    36          0
    37          4
    38         12
    39        245
    40         40
    41        627
    42         59
    43        270
    44         66
    45         13
    46          1
    47          0
    48          1
    49          0
    50          6
    51         15
    52          5
    53         43
    54          9
    55        190
    56        229
    57        999
    58         82
    59          5
    60          0
    61          0
    62          1
    63          2
    64          0
    65          5
    66          4
    67         40
    68         12
    69         43
    70         14
    71         61
    72         12
    73          0
    74          0
    75          0
    76          0
    77          4
    78          1
    79          4
    80          1
    81         12
    82          7
    83        550
    84         51
    85        100
    86         13
    87          7
    88          0
    89          0
    90          0
    91          1
    92          0
    93          1
    94          1
    95          1
    96          1
    97          3
    98        248
    99         28
   100        112
   101          7
   102          0
   103          0
   104          0
   105          0
   106          0
   107          1
   108          1
   109        186
   110         16
   111          2
   112          0
   113          0
   114          2
   115          0
   123          0
   124          1
   125          0
   126          0
   127          5
   128          0
   142          5
   143          0