##TITLE=Library Entry 13917
##JCAMP-DX=Revision 4.10 
##DATA TYPE=MASS SPECTRUM
##SAMPLE DESCRIPTION=NIST Mass Spectrometry Data Center
##NAMES=HP
##CAS NAME=2,3,4,6-Tetrachlorophenyl acetate
##MOLFORM=C8H4Cl4O2
##CAS REGISTRY NO=5435-60-9
##MP= -300
##BP= -300
##MW= 272
##$RETENTION INDEX=1617
##$CONDENSED SPECTRUM=NO
##NPOINTS= 87
##XYDATA=(XY..XY) 1 
    14          7
    15         37
    17         11
    28         21
    32         11
    37          7
    42         25
    43        999
    44         18
    45          7
    47          4
    48          4
    49          6
    53          6
    60         13
    61         44
    62          5
    65          4
    66          3
    71         15
    72          9
    73         10
    83         18
    84          8
    85         10
    86          2
    87          4
    89          3
    95         18
    96         56
    97         17
    98         17
    99          6
   106         11
   107         22
   108         22
   109         16
   110          6
   111          2
   118          5
   119          5
   120          3
   130          7
   131         86
   132         15
   133         52
   134          6
   135         12
   141         19
   143         17
   145         11
   165          3
   166         33
   167         12
   168         37
   169          9
   170         11
   171          3
   178          3
   179          2
   180          5
   194         23
   195          6
   196         26
   197          2
   198         11
   201         41
   203         47
   204          2
   205         29
   207          4
   213          4
   215          9
   217          2
   229         10
   230        358
   231         40
   232        463
   233         33
   234        221
   235         15
   236         54
   237          5
   272         35
   274         51
   276         24
   278          2