##TITLE=Library Entry 97449
##JCAMP-DX=Revision 4.10 
##DATA TYPE=MASS SPECTRUM
##SAMPLE DESCRIPTION=Exported from NIST MS Search
##NAMES=HP
##CAS NAME=1,3,5,7-Cyclooctatetraene-1-propanol
##MOLFORM=C11H14O
##CAS REGISTRY NO=54365-73-0
##MP= -300
##BP= -300
##MW= 162
##$RETENTION INDEX=0
##$CONDENSED SPECTRUM=NO
##NPOINTS= 30
##XYDATA=(XY..XY) 1 
    39        152
    40         21
    41         54
    50         54
    51        155
    52         49
    53         70
    74         21
    75         32
    76         49
    77        223
    78        288
    79         27
    89         46
    90         10
    91        501
    92         70
   115        506
   116        299
   117        999
   118        790
   119         87
   127         59
   128         98
   129        136
   130         24
   131        218
   132         19
   162        280
   163         27