##TITLE=Library Entry 59383
##JCAMP-DX=Revision 4.10 
##DATA TYPE=MASS SPECTRUM
##SAMPLE DESCRIPTION=V.Zaikin,Topchiev Inst.Petrochem.Synth.,Moscow
##NAMES=HP
##CAS NAME=Benzeneacetic acid, 2-butyl ester
##MOLFORM=C12H16O2
##CAS REGISTRY NO=5436-58-8
##MP= -300
##BP= -300
##MW= 192
##$RETENTION INDEX=0
##$CONDENSED SPECTRUM=NO
##NPOINTS= 65
##XYDATA=(XY..XY) 1 
    26          7
    27         36
    28         14
    29        137
    30          3
    31          2
    36          6
    37          2
    38          7
    39         73
    40          8
    41        193
    42          8
    43         16
    44          6
    45          7
    50         12
    51         25
    52         10
    53          6
    54          1
    55         16
    56         21
    57        650
    58         29
    59          1
    61          2
    62          9
    63         37
    64         12
    65        138
    66          8
    73          5
    74          2
    75          3
    76          2
    77         20
    78          5
    79          8
    86          1
    87          2
    89         51
    90         42
    91        999
    92        351
    93         24
    94          2
   105          3
   106          2
   107          3
   117          1
   118         15
   119        132
   120         11
   133          2
   135          1
   136         42
   137         94
   138          8
   148          2
   163         10
   164          1
   177          2
   192         56
   193          8