##TITLE=Library Entry 9326
##JCAMP-DX=Revision 4.10 
##DATA TYPE=MASS SPECTRUM
##SAMPLE DESCRIPTION=Japan AIST/NIMC Database- Spectrum MS-NW-1041
##NAMES=HP
##CAS NAME=2-Butanone, 4,4-dimethoxy-
##MOLFORM=C6H12O3
##CAS REGISTRY NO=5436-21-5
##MP= -300
##BP= -300
##MW= 132
##$RETENTION INDEX=861
##$CONDENSED SPECTRUM=NO
##NPOINTS= 65
##XYDATA=(XY..XY) 1 
    13          1
    14         11
    15        106
    16          1
    17          2
    18          7
    25          1
    26         11
    27         49
    28         15
    29         64
    30          7
    31        116
    32         22
    33         13
    37          3
    38          4
    39         14
    40          2
    41         12
    42         43
    43        999
    44         24
    45         12
    47        113
    48          2
    50          2
    51          1
    53          9
    54          4
    55          6
    56          3
    57         15
    58         69
    59         63
    60          2
    69          7
    70          4
    71         14
    72          2
    73          1
    74          3
    75        524
    76         18
    77          3
    83          2
    84          1
    85        241
    86         11
    87          3
    88          2
    89         10
    98          1
    99          1
   100         32
   101        121
   102          8
   114          1
   115          2
   117         93
   118          6
   119          1
   131          6
   132         13
   133          1