##TITLE=Library Entry 51566
##JCAMP-DX=Revision 4.10 
##DATA TYPE=MASS SPECTRUM
##SAMPLE DESCRIPTION=T. ANDO,FAC. AGRIC.,TOKYO UNIV. AGRIC. TECHNOL.,TOKYO,J
APAN
##NAMES=HP
##CAS NAME=(7E,9E)-Dodecadien-1-ol
##MOLFORM=C12H22O
##CAS REGISTRY NO=54364-61-3
##MP= -300
##BP= -300
##MW= 182
##$RETENTION INDEX=0
##$CONDENSED SPECTRUM=NO
##NPOINTS= 31
##XYDATA=(XY..XY) 1 
    54         80
    55        150
    67        780
    68        310
    69        120
    70        600
    71        500
    79        360
    80        170
    81        410
    82        999
    83        170
    93        200
    94        100
    95        840
    96        270
    97         70
    98        100
   107        130
   108        150
   109        200
   110         60
   111         70
   121        200
   122         70
   123         50
   135        140
   164         80
   165         20
   182        690
   183         90