##TITLE=Library Entry 7295
##JCAMP-DX=Revision 4.10 
##DATA TYPE=MASS SPECTRUM
##SAMPLE DESCRIPTION=V.Zaikin,Topchiev Inst.Petrochem.Synth.,Moscow
##NAMES=HP
##CAS NAME=Bromoacetic acid, decyl ester
##MOLFORM=C12H23BrO2
##CAS REGISTRY NO=5436-93-1
##MP= -300
##BP= -300
##MW= 278
##$RETENTION INDEX=1687
##$CONDENSED SPECTRUM=NO
##NPOINTS= 93
##XYDATA=(XY..XY) 1 
    27        140
    28         43
    29        298
    30          8
    31         18
    35          3
    36         10
    37          3
    38          8
    39        159
    40         39
    41        766
    42        507
    43        999
    44         73
    45         15
    48          2
    49          2
    50          6
    51         13
    52          3
    53         45
    54        112
    55        947
    56        832
    57        605
    58         35
    59          5
    60         14
    61         14
    62          2
    63          4
    65          6
    66          9
    67        104
    68        298
    69        736
    70        853
    71        239
    72         15
    73          8
    77          7
    79         13
    80          3
    81         50
    82        264
    83        736
    84        446
    85        127
    86          5
    87          3
    88          4
    89          2
    91          2
    92          3
    93         73
    94          7
    95         95
    96         66
    97        359
    98        221
    99         26
   100          3
   101          4
   105          3
   107          3
   109         12
   110         39
   111        176
   112        319
   113         36
   115          2
   120          7
   121        158
   122         13
   123        169
   124          3
   125          5
   126          2
   137          2
   138         10
   139         97
   140        150
   141         92
   142          4
   151          7
   153          5
   165          3
   167          3
   179          4
   181          4
   185         16
   186          3