##TITLE=Library Entry 83773
##JCAMP-DX=Revision 4.10 
##DATA TYPE=MASS SPECTRUM
##SAMPLE DESCRIPTION=NIST Mass Spectrometry Data Center
##NAMES=HP
##CAS NAME=Benzyl 2-bromoacetate
##MOLFORM=C9H9BrO2
##CAS REGISTRY NO=5437-45-6
##MP= -300
##BP= -300
##MW= 228
##$RETENTION INDEX=0
##$CONDENSED SPECTRUM=NO
##NPOINTS= 75
##XYDATA=(XY..XY) 1 
    12          3
    13         11
    14         58
    15         13
    16          1
    18          2
    21          1
    25          2
    26         13
    27         35
    28         14
    29         40
    30          7
    31          3
    36          1
    37         10
    38         35
    39        171
    40         16
    41         42
    42         81
    43         61
    44          6
    46          7
    50         99
    51        218
    52         57
    53         15
    54          1
    55          1
    61         10
    62         36
    63         96
    64         36
    65        256
    66         14
    74         24
    75         17
    77        258
    78         73
    79        299
    80         28
    81         15
    82          4
    85          2
    86          4
    87          3
    89        117
    90        166
    91        889
    92         81
    93         96
    95         87
    96          1
   103          7
   105         98
   107        999
   108        153
   109         11
   119          1
   121         39
   122          5
   123         33
   124          1
   149        404
   150         40
   151          3
   169         13
   170          1
   171         12
   172          1
   228         21
   229          2
   230         22
   231          1