##TITLE=Library Entry 77702
##JCAMP-DX=Revision 4.10 
##DATA TYPE=MASS SPECTRUM
##SAMPLE DESCRIPTION=Exported from NIST MS Search
##NAMES=HP
##CAS NAME=Cyclohexanol, 4-phenyl-
##MOLFORM=C12H16O
##CAS REGISTRY NO=5437-46-7
##MP= -300
##BP= -300
##MW= 176
##$RETENTION INDEX=0
##$CONDENSED SPECTRUM=NO
##NPOINTS= 122
##XYDATA=(XY..XY) 1 
    38          6
    39        123
    40         15
    41        192
    42         16
    43         66
    44         14
    45         13
    46          2
    47          1
    50         28
    51        100
    52         32
    53         51
    54         52
    55        160
    56         17
    57        135
    58         22
    59        132
    60          6
    61          2
    62         11
    63         48
    64         20
    65         95
    66         29
    67        190
    68         27
    69         44
    70         20
    71          9
    72         10
    73          3
    74         50
    75         14
    76         20
    77        164
    78        159
    79        125
    80        157
    81        191
    82        214
    83        134
    84          9
    85          3
    86          2
    87          4
    88          3
    89         33
    90          9
    91        637
    92         91
    93         17
    94         16
    95         18
    96         39
    97         41
    98         13
    99          4
   100          1
   101          6
   102         35
   103        157
   104        999
   105        141
   106         14
   107         70
   108         20
   109         17
   110          3
   113          2
   114          1
   115        222
   116         70
   117        563
   118        483
   119        114
   120         49
   121         23
   122         22
   123          8
   124          2
   125          3
   126          3
   127         23
   129        351
   130        452
   131         71
   132         36
   133         16
   134          3
   135         19
   136          7
   137          1
   138          1
   139          2
   141         14
   142         19
   143        627
   144         75
   145          8
   146          2
   147          7
   148          3
   149         12
   150          2
   151          1
   152          2
   153          3
   154          3
   155          3
   156          2
   157        103
   158        820
   159        113
   160          8
   174          2
   175          4
   176        709
   177         95
   178          8