##TITLE=Library Entry 67960
##JCAMP-DX=Revision 4.10 
##DATA TYPE=MASS SPECTRUM
##SAMPLE DESCRIPTION=D.HENNEBERG, MAX-PLANCK INSTITUTE, MULHEIM, WEST GERMAN
Y
##NAMES=HP
##CAS NAME=Cyclopropane, tetramethylmethylene-
##MOLFORM=C8H14
##CAS REGISTRY NO=54376-39-5
##MP= -300
##BP= -300
##MW= 110
##$RETENTION INDEX=0
##$CONDENSED SPECTRUM=NO
##NPOINTS= 73
##XYDATA=(XY..XY) 1 
    25          4
    26         13
    27        229
    28         76
    29        113
    30          1
    32         22
    33          2
    35          5
    36          2
    37         11
    38         28
    39        370
    40        108
    41        626
    42         44
    43         69
    45         11
    46          5
    47          6
    48          2
    49          7
    50         25
    51         84
    52         47
    53        294
    54         43
    55        492
    56        151
    57         54
    58          4
    59          3
    60          1
    61          3
    62          7
    63         29
    64         10
    65         88
    66         44
    67        821
    68        161
    69         60
    70         14
    72          1
    74          2
    75          4
    76          2
    77        132
    78         26
    79        107
    80         58
    81        106
    82         86
    83          5
    87          1
    89          9
    90          2
    91         88
    92         10
    93        140
    94         19
    95        999
    96         82
    97          3
   100          2
   105          8
   106          4
   107          8
   108         26
   109         12
   110        517
   111         46
   112          3