##TITLE=Library Entry 17311
##JCAMP-DX=Revision 4.10 
##DATA TYPE=MASS SPECTRUM
##SAMPLE DESCRIPTION=Institute of Organic Chemistry, Novosibirsk, USSR 1988
##NAMES=HP
##CAS NAME=cis-syn-cis-dicyclohexyl-18-crown-6
##MOLFORM=C20H36O6
##CAS REGISTRY NO=54383-26-5
##MP= -300
##BP= -300
##MW= 372
##$RETENTION INDEX=0
##$CONDENSED SPECTRUM=NO
##NPOINTS= 114
##XYDATA=(XY..XY) 1 
    39          3
    40          8
    41        408
    42        149
    43        335
    44        180
    45        999
    46         19
    53         80
    54        121
    55        217
    56         18
    57        249
    58         80
    59        149
    63          4
    64         14
    65          7
    66         11
    67        253
    68         53
    69        253
    70        153
    71        108
    72        203
    73        417
    74         10
    75         19
    77         16
    79         22
    80         99
    81        862
    82        180
    83        112
    84         44
    85         21
    86         58
    87        249
    88         94
    89        562
    90         14
    91          9
    93         12
    94         13
    95         26
    96         89
    97        230
    98        303
    99        544
   100         39
   101         76
   102          3
   103          7
   104         30
   105         17
   106          8
   107         80
   108          9
   109          8
   110          7
   111         18
   112         30
   113         44
   114         44
   115         19
   116          3
   117         14
   119          6
   123         12
   124         39
   125         29
   126         38
   127         76
   128          8
   129         12
   131          9
   133         21
   134          4
   139          5
   140         89
   141         20
   142        126
   143        362
   144         36
   145          3
   151          8
   154          6
   155         85
   156         17
   157         11
   158         28
   159         10
   160          5
   161         30
   168         30
   169         44
   170         37
   171         30
   172          7
   184         13
   185         89
   186         49
   187        139
   188         11
   199          1
   202          2
   203          5
   212          1
   213          3
   229          4
   230          1
   231         14
   266          3
   310          3