##TITLE=Library Entry 83121
##JCAMP-DX=Revision 4.10 
##DATA TYPE=MASS SPECTRUM
##SAMPLE DESCRIPTION=Japan AIST/NIMC Database- Spectrum MS-IW-5652
##NAMES=HP
##CAS NAME=4-Aminophenylacetic acid ethyl ester
##MOLFORM=C10H13NO2
##CAS REGISTRY NO=5438-70-0
##MP= -300
##BP= -300
##MW= 179
##$RETENTION INDEX=0
##$CONDENSED SPECTRUM=NO
##NPOINTS= 55
##XYDATA=(XY..XY) 1 
    26          1
    27          9
    28         12
    29         19
    30          5
    31          1
    38          1
    39          8
    40          1
    41          4
    42          2
    43          3
    44          1
    45          7
    49          2
    50          3
    51         11
    52         12
    53         42
    54          4
    56          1
    62          1
    63          4
    64          1
    65          4
    66          3
    67          6
    75          1
    76          2
    77         45
    78         23
    79         25
    80          6
    84          1
    87          1
    89          3
    90          1
    91          1
    92          1
    93          3
    94          1
   104         17
   105          9
   106        999
   107         83
   108          3
   119          1
   120          1
   122          1
   133          3
   134          1
   150          1
   179        217
   180         24
   181          2