##TITLE=Library Entry 78698
##JCAMP-DX=Revision 4.10 
##DATA TYPE=MASS SPECTRUM
##SAMPLE DESCRIPTION=Chemical Concepts
##NAMES=HP
##CAS NAME=4-Cinnamylidene-2-phenyl-5(4H)-oxazolone
##MOLFORM=C18H13NO2
##CAS REGISTRY NO=5438-08-4
##MP= -300
##BP= -300
##MW= 275
##$RETENTION INDEX=0
##$CONDENSED SPECTRUM=NO
##NPOINTS= 46
##XYDATA=(XY..XY) 1 
    34         32
    35          8
    36         22
    37         17
    38         36
    40         63
    41         57
    42         27
    43         59
    44        101
    50         61
    51        210
    53         22
    54          8
    55         40
    56         19
    57         25
    62         13
    63         38
    64         12
    65         13
    69         21
    70         14
    71          9
    73          8
    74         21
    77        604
    84          9
    87          8
    88          8
    89         16
    91          9
   102         21
   105        999
   112          8
   113          9
   114         26
   115         62
   116         15
   127          9
   140         21
   141         12
   142         14
   247          9
   275         91
   276         12