##TITLE=Library Entry 46202
##JCAMP-DX=Revision 4.10 
##DATA TYPE=MASS SPECTRUM
##SAMPLE DESCRIPTION=Chemical Concepts
##NAMES=HP
##CAS NAME=1H-Isoindole-1,3(2H)-dione, 5,5'-[(1-methylethylidene)bis(4,1-phe
nyleneoxy)]bis[2-methyl-
##MOLFORM=C33H26N2O6
##CAS REGISTRY NO=54395-52-7
##MP= -300
##BP= -300
##MW= 546
##$RETENTION INDEX=0
##$CONDENSED SPECTRUM=NO
##NPOINTS= 219
##XYDATA=(XY..XY) 1 
    33          7
    36         22
    37          3
    38         44
    39        398
    40         20
    41        491
    42        151
    43        288
    44         44
    45         30
    50         82
    51        149
    53        111
    55        180
    56        156
    57        243
    58         16
    60         40
    62         75
    63        300
    64         77
    65        143
    66         42
    67         41
    68         67
    69         91
    70         58
    71         81
    72         18
    73         83
    75        999
    76        255
    77        149
    78         74
    79         49
    80         28
    81         28
    82         44
    83         71
    84         54
    85         18
    87         30
    88         72
    89         60
    91        172
    92         94
    93         57
    94         25
    95         29
    96         22
    97         33
    98         27
    99         13
   100         27
   102        165
   103        410
   104         98
   105         47
   106         44
   107         23
   108         18
   109         18
   110         24
   112         67
   113         34
   114         21
   115        153
   116        191
   117        147
   118         88
   119        151
   120         81
   121         23
   122         18
   124          9
   125         26
   126         20
   127         38
   128         59
   129         30
   131         74
   132         77
   133         22
   134          4
   135         15
   137         32
   139        181
   141         71
   142         29
   143         16
   144         22
   145          5
   147         19
   148         20
   149         58
   150         20
   151         54
   152        217
   153         51
   154         19
   155         23
   156          8
   157         22
   158          4
   159         72
   161         78
   162         42
   164         58
   165        319
   166        139
   167        142
   168         47
   169         16
   170         11
   171         68
   172         12
   173          9
   174         10
   175         26
   176         52
   177         95
   178        302
   179        376
   181         59
   182         16
   183          8
   185         23
   186          9
   188          5
   189         25
   190          4
   191         26
   192         22
   193         50
   194         58
   195         75
   196         17
   197         25
   198          4
   199          5
   200          9
   201         20
   202         27
   203         10
   205          7
   207         13
   208         15
   209         30
   210         39
   211          7
   213          8
   214          9
   215         23
   216          7
   219          9
   221         58
   222         19
   223         32
   224         42
   225         18
   226         27
   227         17
   228         13
   229          9
   235          8
   236         27
   237         38
   238         19
   239         22
   241         26
   242         17
   243         57
   244         61
   245         16
   249         25
   250          8
   251         19
   252         34
   253         32
   254         36
   255         18
   256          7
   263          5
   265        209
   266         30
   267         13
   268         15
   269          5
   270         11
   271         18
   273        191
   276          6
   277         38
   278        333
   279         75
   280         18
   281          4
   283         14
   284          4
   292          5
   294         97
   295         15
   301          4
   328          5
   340         20
   354          7
   355         14
   356          7
   370         15
   371          5
   372          4
   531        623
   532        193
   533         51
   534          6
   546        163
   547         56
   548          9