##TITLE=Library Entry 65904
##JCAMP-DX=Revision 4.10 
##DATA TYPE=MASS SPECTRUM
##SAMPLE DESCRIPTION=Japan AIST/NIMC Database- Spectrum MS-IW-4466
##NAMES=HP
##CAS NAME=Butanamide, 2-methyl-N-phenyl-
##MOLFORM=C11H15NO
##CAS REGISTRY NO=54394-78-4
##MP= -300
##BP= -300
##MW= 177
##$RETENTION INDEX=0
##$CONDENSED SPECTRUM=NO
##NPOINTS= 73
##XYDATA=(XY..XY) 1 
    26          1
    27         16
    28          4
    29         58
    30          1
    37          1
    38          4
    39         29
    40          5
    41         82
    42          5
    43         29
    44          2
    50          5
    51         22
    52          5
    53          3
    54          3
    55         15
    56          4
    57        340
    58         14
    62          1
    63          8
    64          9
    65         44
    66         51
    67          5
    69         15
    70          1
    71         16
    72          1
    73          4
    74          1
    75          1
    76          3
    77         57
    78          6
    79          1
    83          2
    84          6
    85         28
    86          1
    91         10
    92         32
    93        999
    94         94
    95          3
    99          1
   103          2
   104          3
   105          4
   106          5
   117          1
   118          3
   119         10
   120         37
   121          3
   130          1
   132          1
   134          3
   135          1
   144          1
   146          2
   147          1
   148          4
   149         23
   150          2
   162          5
   176          1
   177        189
   178         27
   179          2