##TITLE=Library Entry 53796
##JCAMP-DX=Revision 4.10 
##DATA TYPE=MASS SPECTRUM
##SAMPLE DESCRIPTION=Exported from NIST MS Search
##NAMES=HP
##CAS NAME=Cyclohexanone, 4-methyl-, semicarbazone
##MOLFORM=C8H15N3O
##CAS REGISTRY NO=5439-97-4
##MP= -300
##BP= -300
##MW= 169
##$RETENTION INDEX=0
##$CONDENSED SPECTRUM=NO
##NPOINTS= 73
##XYDATA=(XY..XY) 1 
    39        307
    40         84
    41        736
    42        170
    43        324
    44        210
    45        124
    46         18
    50         23
    51         58
    52         47
    53        218
    54        375
    55        347
    56        778
    57        124
    58        191
    59         86
    60         28
    61        178
    65         52
    66         40
    67        538
    68        231
    69        736
    70         91
    71        107
    72         31
    74        107
    77         75
    78         21
    79        113
    80         94
    81        397
    82        200
    83        711
    84        999
    85        109
    87        238
    88         27
    91         40
    92         18
    93         69
    94        273
    95        189
    96         94
    97        145
    98         58
    99         97
   100         40
   105         18
   106         21
   107        157
   108         88
   109        263
   110        178
   111        652
   112         45
   125        136
   126        391
   127        313
   128         21
   140         67
   141         16
   151         13
   152         66
   153         25
   154        126
   155         10
   168         29
   169        736
   170        105
   171          7