##TITLE=Library Entry 24656
##JCAMP-DX=Revision 4.10 
##DATA TYPE=MASS SPECTRUM
##SAMPLE DESCRIPTION=V.A.Korolev, Moscow, Russia
##NAMES=HP
##CAS NAME=5-Bromo-1,2-thiazole
##MOLFORM=C3H2BrNS
##CAS REGISTRY NO=54390-97-5
##MP= -300
##BP= -300
##MW= 163
##$RETENTION INDEX=0
##$CONDENSED SPECTRUM=NO
##NPOINTS= 66
##XYDATA=(XY..XY) 1 
    33         14
    34         13
    36         47
    37        126
    38        178
    39         73
    40         41
    41         13
    42         17
    43          2
    44        177
    45        170
    46        247
    47          4
    48          3
    50         55
    51         84
    52         25
    53          1
    56        140
    57        999
    58        132
    59        211
    60          4
    61          1
    63          1
    64          7
    68         15
    69         33
    70          5
    71          1
    74          2
    75          1
    76         13
    77          2
    79        201
    80          1
    81        191
    82         40
    83         35
    84        221
    85         12
    86         11
    89          2
    91          6
    93         10
   104         37
   105          3
   106         35
   107          3
   117         56
   118          5
   119         56
   120          5
   125          2
   127          1
   136         97
   137          8
   138         99
   139          8
   140          4
   163        240
   164         18
   165        241
   166         18
   167         12