##TITLE=Library Entry 52755
##JCAMP-DX=Revision 4.10 
##DATA TYPE=MASS SPECTRUM
##SAMPLE DESCRIPTION=E.P.SEREBRYAKOV, ZELINSKI INST., ACAD. SCI., MOSCOW, US
SR
##NAMES=HP
##CAS NAME=7-Propyl-cis-bicyclo[3.2.0]hept-6-en-2-one
##MOLFORM=C10H14O
##CAS REGISTRY NO=54396-45-1
##MP= -300
##BP= -300
##MW= 150
##$RETENTION INDEX=0
##$CONDENSED SPECTRUM=NO
##NPOINTS= 11
##XYDATA=(XY..XY) 1 
    77        340
    79        670
    83        999
    91        280
    93        400
    94        120
   107        390
   108         45
   121         70
   122         60
   150        350