##TITLE=Library Entry 2613
##JCAMP-DX=Revision 4.10 
##DATA TYPE=MASS SPECTRUM
##SAMPLE DESCRIPTION=Japan AIST/NIMC Database- Spectrum MS-NW-4216
##NAMES=HP
##CAS NAME=Pentanedinitrile
##MOLFORM=C5H6N2
##CAS REGISTRY NO=544-13-8
##MP= -300
##BP= -300
##MW= 94
##$RETENTION INDEX=1343
##$CONDENSED SPECTRUM=NO
##NPOINTS= 38
##XYDATA=(XY..XY) 1 
    12          4
    13          5
    14          9
    15         14
    24          2
    25          7
    26         67
    27        193
    28        222
    29          4
    36          5
    37         33
    38         45
    39         80
    40        107
    41        999
    42         34
    48          1
    49          3
    50          7
    51         40
    52         98
    53         19
    54        971
    55         33
    62          7
    63         13
    64         23
    65         10
    66         47
    67          8
    68          2
    75          1
    77          1
    89          1
    91          2
    93          9
    95          2