##TITLE=Library Entry 25350
##JCAMP-DX=Revision 4.10 
##DATA TYPE=MASS SPECTRUM
##SAMPLE DESCRIPTION=Japan AIST/NIMC Database- Spectrum MS-NW- 413
##NAMES=HP
##CAS NAME=Dotriacontane
##MOLFORM=C32H66
##CAS REGISTRY NO=544-85-4
##MP= -300
##BP= -300
##MW= 450
##$RETENTION INDEX=3200
##$CONDENSED SPECTRUM=NO
##NPOINTS= 148
##XYDATA=(XY..XY) 1 
    26          2
    27         14
    28          9
    29         64
    30          1
    39         11
    40          2
    41        161
    42         48
    43        610
    44         19
    53          6
    54         22
    55        235
    56        133
    57        999
    58         44
    66          2
    67         26
    68         33
    69        179
    70        113
    71        703
    72         38
    77          1
    79          3
    80          1
    81         15
    82         40
    83        163
    84         78
    85        513
    86         34
    91          1
    95          9
    96         25
    97        136
    98         61
    99        181
   100         14
   105          2
   109          4
   110         12
   111         73
   112         54
   113        137
   114         10
   123          2
   124          8
   125         39
   126         47
   127        110
   128         10
   137          1
   138          7
   139         19
   140         44
   141         92
   142          9
   152          5
   153         12
   154         37
   155         79
   156          9
   166          4
   167          9
   168         35
   169         71
   170          9
   180          3
   181          7
   182         31
   183         62
   184          9
   194          2
   195          5
   196         28
   197         57
   198          9
   208          2
   209          4
   210         26
   211         54
   212          8
   222          2
   223          3
   224         24
   225         50
   226          9
   236          2
   237          3
   238         20
   239         47
   240          8
   250          1
   251          2
   252         19
   253         43
   254          9
   264          1
   265          2
   266         17
   267         40
   268          8
   279          1
   280         16
   281         40
   282          9
   294         15
   295         40
   296          8
   308         13
   309         36
   310          9
   311          1
   322         13
   323         33
   324          9
   325          1
   336         11
   337         34
   338          8
   339          1
   350         11
   351         32
   352          9
   353          1
   364          9
   365         29
   366          8
   378          8
   379         27
   380          9
   381          1
   392          7
   393         23
   394          8
   395          1
   406          4
   407         14
   408          5
   420          2
   421          9
   422          3
   449          2
   450         81
   451         32
   452          6