##TITLE=Library Entry 3159
##JCAMP-DX=Revision 4.10 
##DATA TYPE=MASS SPECTRUM
##SAMPLE DESCRIPTION=NIST Mass Spectrometry Data Center, 1990.
##NAMES=HP
##CAS NAME=3-Hexen-1-ol
##MOLFORM=C6H12O
##CAS REGISTRY NO=544-12-7
##MP= -300
##BP= -300
##MW= 100
##$RETENTION INDEX=856
##$CONDENSED SPECTRUM=NO
##NPOINTS= 43
##XYDATA=(XY..XY) 1 
    15         29
    16          1
    17          8
    18         13
    26         34
    27        241
    28         44
    29        193
    30         17
    31        215
    37         13
    38         42
    39        390
    40         87
    41        999
    42        201
    43         82
    44         56
    45         17
    50         31
    51         49
    52         19
    53        117
    54        111
    55        343
    56         50
    57        110
    58         12
    63         15
    65         38
    67        599
    68         77
    69        278
    70         94
    71         20
    72         29
    77         10
    79         16
    80          7
    81         43
    82        282
    83         21
   100         16