##TITLE=Library Entry 32779
##JCAMP-DX=Revision 4.10 
##DATA TYPE=MASS SPECTRUM
##SAMPLE DESCRIPTION=Chemical Concepts
##NAMES=HP
##CAS NAME=Linoleic acid ethyl ester
##MOLFORM=C20H36O2
##CAS REGISTRY NO=544-35-4
##MP= -300
##BP= -300
##MW= 308
##$RETENTION INDEX=2162
##$CONDENSED SPECTRUM=NO
##NPOINTS= 145
##XYDATA=(XY..XY) 1 
    26         98
    27        154
    30         28
    31         54
    33         13
    34         11
    36         11
    37         19
    38         13
    39        129
    40         26
    41        604
    42         52
    43        139
    44         84
    45        421
    46         13
    47         26
    50         20
    51         18
    52         22
    53        102
    54        424
    55        587
    56         44
    57         80
    58         88
    59        125
    60         83
    61         19
    62         19
    63         23
    65         44
    66         61
    67        999
    68        367
    69        346
    70         55
    71         57
    72         17
    73        174
    74         29
    75         17
    76          0
    77        102
    78         25
    79        281
    80        189
    81        748
    82        356
    83        214
    84         48
    85         21
    86         13
    87         38
    88         98
    89         32
    90          2
    91         95
    92         37
    93        161
    94        100
    95        511
    96        315
    97        105
    98         40
    99         33
   100         19
   101        107
   102         10
   103         44
   104         18
   105         18
   106         34
   107         88
   108         67
   109        218
   110        152
   111         56
   112         19
   113         17
   114         27
   115         31
   116         27
   117         31
   118         19
   119         21
   120         37
   121         79
   122         81
   123        102
   124         74
   125         29
   127         15
   128         25
   129         32
   130         12
   131         20
   133         70
   134         30
   135        100
   136         71
   137         52
   138         47
   139         19
   143         25
   144         15
   145         29
   147         38
   149         53
   150         71
   151         39
   152         29
   153         25
   155         28
   157         27
   159         26
   160         16
   161         16
   163         52
   164         68
   165         42
   166         22
   173         13
   174         16
   175         22
   177         24
   178         49
   179         24
   191         13
   192         11
   193         11
   195         12
   207         12
   209         15
   213         17
   215         11
   219         15
   220         19
   237         11
   262         52
   263         70
   264         13
   308         62
   309         12