##TITLE=Library Entry 7644
##JCAMP-DX=Revision 4.10 
##DATA TYPE=MASS SPECTRUM
##SAMPLE DESCRIPTION=Japan AIST/NIMC Database- Spectrum MS-NW-6293
##NAMES=HP
##CAS NAME=Batilol
##MOLFORM=C21H44O3
##CAS REGISTRY NO=544-62-7
##MP= -300
##BP= -300
##MW= 344
##$RETENTION INDEX=2609
##$CONDENSED SPECTRUM=NO
##NPOINTS= 188
##XYDATA=(XY..XY) 1 
    12          1
    14          2
    15         36
    16          1
    17          2
    18          8
    25          1
    26         10
    27        159
    28         51
    29        425
    30         12
    31        123
    32          8
    33          2
    37          1
    38          2
    39         98
    40         25
    41        783
    42        180
    43        999
    44        195
    45        181
    46          6
    47          8
    49          1
    50          1
    51          4
    52          4
    53         45
    54         60
    55        667
    56        182
    57        868
    58         58
    59         11
    60         28
    61        204
    62          9
    63          6
    65          7
    66         11
    67         97
    68         86
    69        375
    70        120
    71        493
    72         29
    73         13
    74        114
    75        118
    76          6
    77         28
    78          2
    79         13
    80          9
    81         61
    82        136
    83        305
    84         63
    85        336
    86         24
    87         18
    88          4
    89          3
    90          1
    91          8
    92          1
    93        241
    94         10
    95         39
    96         75
    97        235
    98         49
    99        132
   100         11
   101          2
   102          1
   103          1
   105          9
   106          1
   107          1
   108          2
   109         20
   110         31
   111        118
   112         33
   113         96
   114          9
   115          3
   117          1
   121          1
   122          3
   123         14
   124         21
   125         67
   126         21
   127         68
   128          8
   129          1
   135          1
   136          2
   137          9
   138         14
   139         33
   140         14
   141         51
   142          5
   143          1
   147          1
   151          5
   152          9
   153         22
   154         12
   155         45
   156          6
   157          2
   165          2
   166          8
   167         14
   168         12
   169         36
   170          5
   171          1
   179          2
   180          6
   181         11
   182         10
   183         26
   184          4
   185          1
   193          3
   194          6
   195          8
   196          6
   197         16
   198          3
   199          1
   207          2
   208          4
   209          4
   210          3
   211          9
   212          2
   213          1
   221          3
   222          5
   223          3
   224         12
   225          3
   227          1
   235          3
   236          3
   237          1
   238          1
   239          1
   241          1
   250         29
   251          9
   252         65
   253        104
   254         19
   255          3
   264         10
   265          3
   267          3
   268          2
   269          9
   270          6
   271          2
   278          1
   280          1
   281         19
   282          9
   283         86
   284         19
   285          3
   295          1
   296          2
   299          1
   308          1
   313         20
   314          5
   326          3
   344          3
   345          4
   346          1