##TITLE=Library Entry 41107
##JCAMP-DX=Revision 4.10 
##DATA TYPE=MASS SPECTRUM
##SAMPLE DESCRIPTION=NIST Mass Spectrometry Data Center, 1998.
##NAMES=HP
##CAS NAME=Tetradecanoic acid
##MOLFORM=C14H28O2
##CAS REGISTRY NO=544-63-8
##MP= -300
##BP= -300
##MW= 228
##$RETENTION INDEX=1768
##$CONDENSED SPECTRUM=NO
##NPOINTS= 143
##XYDATA=(XY..XY) 1 
    15          1
    26          4
    27        101
    28          5
    29        208
    30          6
    31         10
    37          1
    38          2
    39        120
    40         25
    41        677
    42        153
    43        721
    44         26
    45        114
    46          3
    47          3
    50          2
    51          7
    52          5
    53         56
    54         53
    55        707
    56        159
    57        652
    58         33
    59         49
    60        904
    61        193
    62          8
    63          2
    65         11
    66          6
    67         71
    68         51
    69        353
    70         98
    71        336
    72         21
    73        999
    74         92
    75          7
    76          1
    77          8
    78          3
    79         22
    80          8
    81         48
    82         48
    83        234
    84        112
    85        229
    86         23
    87        201
    88         21
    89          3
    91          4
    92          1
    93         13
    94          6
    95         29
    96         41
    97        164
    98        103
    99         85
   100         11
   101         81
   102         24
   103          3
   104          1
   105          2
   106          1
   107         10
   108          3
   109         14
   110         25
   111         73
   112         32
   113         51
   114          6
   115        147
   116         43
   117          4
   119          1
   121         11
   122          2
   123          6
   124         13
   125         33
   126         13
   127         20
   128          1
   129        512
   130         51
   131          5
   132          1
   133          2
   135          7
   136          2
   137          4
   138         12
   139         12
   140         14
   141          1
   142          1
   143        121
   144         13
   145          1
   149          4
   150          1
   151          2
   152          1
   153          3
   154          1
   157         48
   158          7
   163          2
   164          1
   165          1
   166         32
   167          6
   168         16
   169          6
   170          1
   171        114
   172         15
   173          1
   185        292
   186         37
   187          3
   191          1
   192          4
   193          1
   199         50
   200          8
   209          1
   211          6
   212          1
   213          1
   228        150
   229         26
   230          2