##TITLE=Library Entry 31216
##JCAMP-DX=Revision 4.10 
##DATA TYPE=MASS SPECTRUM
##SAMPLE DESCRIPTION=Exported from NIST MS Search
##NAMES=HP
##CAS NAME=Butyl sulfide
##MOLFORM=C8H18S
##CAS REGISTRY NO=544-40-1
##MP= -300
##BP= -300
##MW= 146
##$RETENTION INDEX=1064
##$CONDENSED SPECTRUM=NO
##NPOINTS= 77
##XYDATA=(XY..XY) 1 
    25          1
    26         30
    27        376
    28         72
    29        544
    30         16
    31          1
    33          2
    34          4
    35         23
    36          4
    37          4
    38          8
    39        151
    40         19
    41        431
    42         31
    43         51
    44          3
    45        118
    46         80
    47        202
    48         25
    49         22
    50          6
    51          9
    52          3
    53         24
    54         15
    55        231
    56        896
    57        310
    58         30
    59         38
    60         46
    61        999
    62         44
    63         45
    64          2
    65          1
    67          1
    68          1
    69          6
    70          4
    71          6
    72          1
    73         11
    74          4
    75         38
    76          5
    77          3
    83          1
    84          1
    85          4
    86          1
    87          6
    88         18
    89        108
    90        202
    91         96
    92         14
    93          4
    94          1
   101          2
   103        131
   104         15
   105          8
   106          2
   117         53
   118          4
   119          3
   131          4
   132          1
   146        298
   147         30
   148         15
   149          1