##TITLE=Library Entry 19277
##JCAMP-DX=Revision 4.10 
##DATA TYPE=MASS SPECTRUM
##SAMPLE DESCRIPTION=J. Klune, Insect Chem. Ecol. Lab., USDA, Beltsville, MD
 20705
##NAMES=HP
##CAS NAME=Myristoleic acid
##MOLFORM=C14H26O2
##CAS REGISTRY NO=544-64-9
##MP= -300
##BP= -300
##MW= 226
##$RETENTION INDEX=1783
##$CONDENSED SPECTRUM=NO
##NPOINTS= 142
##XYDATA=(XY..XY) 1 
    41        771
    42        165
    43        353
    44         16
    45        117
    46          3
    47          2
    50          2
    51         11
    52          9
    53         96
    54        192
    55        999
    56        251
    57        135
    58         13
    59         29
    60        131
    61         14
    62          1
    63          2
    65         25
    66         17
    67        214
    68        175
    69        481
    70        177
    71         66
    73        148
    74         11
    75          1
    77         18
    78          5
    79         45
    80         22
    81        159
    82        150
    83        256
    84        225
    85         48
    86          8
    87         47
    88          5
    89          0
    91         14
    92          3
    93         17
    94         27
    95         96
    96        173
    97        206
    98        174
    99         34
   100         37
   101         50
   102          5
   103          0
   105          7
   106          3
   107         13
   108         19
   109         58
   110        102
   111         95
   112         47
   113         33
   114         64
   115         23
   116          5
   117          0
   118          1
   119         15
   120          5
   121         13
   122         11
   123         62
   124         77
   125         49
   126         17
   127         34
   128          9
   129         15
   130          7
   131          1
   133         15
   134         14
   135          9
   136          4
   137         41
   138         35
   139         19
   140          4
   141          8
   142          2
   143          7
   144          4
   145          0
   147         12
   148          8
   149          4
   150          2
   151         28
   152         16
   153          7
   154          4
   155          4
   156          1
   157          3
   158          2
   161          8
   162          2
   163          1
   164         40
   165         25
   166         46
   167          9
   168          1
   169          3
   171          2
   175          0
   177          0
   179         11
   180          5
   181          2
   183          4
   185          3
   189          1
   190          8
   191          2
   193          2
   194          1
   197          2
   199          0
   200          0
   207          1
   208         51
   209         14
   210          2
   224          1
   226         45
   227          9
   228          4