##TITLE=Library Entry 60556
##JCAMP-DX=Revision 4.10 
##DATA TYPE=MASS SPECTRUM
##SAMPLE DESCRIPTION=Japan AIST/NIMC Database- Spectrum MS-NW- 968
##NAMES=HP
##CAS NAME=1,3,5-Cycloheptatriene
##MOLFORM=C7H8
##CAS REGISTRY NO=544-25-2
##MP= -300
##BP= -300
##MW= 92
##$RETENTION INDEX=772
##$CONDENSED SPECTRUM=NO
##NPOINTS= 45
##XYDATA=(XY..XY) 1 
    15          1
    26          9
    27         34
    36          1
    37         17
    38         39
    39        170
    40         26
    41         17
    42          1
    43         12
    44          4
    45         28
    46         14
    49          6
    50         39
    51         65
    52         22
    53         16
    54          1
    60          3
    61         18
    62         36
    63         82
    64         18
    65        196
    66         32
    67          2
    73          1
    74          5
    75          3
    76          3
    77         18
    78          3
    79          4
    84          2
    85          5
    86          7
    87          4
    89         35
    90         10
    91        999
    92        474
    93         34
    94          5