##TITLE=Library Entry 25505
##JCAMP-DX=Revision 4.10 
##DATA TYPE=MASS SPECTRUM
##SAMPLE DESCRIPTION=Japan AIST/NIMC Database- Spectrum MS-IW-1296
##NAMES=HP
##CAS NAME=Hexadecane, 1-iodo-
##MOLFORM=C16H33I
##CAS REGISTRY NO=544-77-4
##MP= -300
##BP= -300
##MW= 352
##$RETENTION INDEX=2038
##$CONDENSED SPECTRUM=NO
##NPOINTS= 87
##XYDATA=(XY..XY) 1 
    26          1
    27         30
    28          5
    29         82
    30          2
    36          5
    38          2
    39         23
    40          5
    41        226
    42         49
    43        569
    44         16
    53         10
    54         16
    55        240
    56         79
    57        999
    58         49
    65          2
    66          1
    67         19
    68         12
    69        138
    70         57
    71        821
    72         45
    73          1
    77          2
    79          3
    81          8
    82         13
    83         86
    84         30
    85        571
    86         38
    91          9
    93          3
    95          3
    96          7
    97         57
    98         16
    99        196
   100         14
   105          3
   107          1
   109          1
   110          3
   111         25
   112         10
   113        124
   114         10
   119          1
   124          2
   125          9
   126          7
   127         91
   128          9
   133          1
   135         12
   137         11
   138          1
   139          4
   140          4
   141         73
   142          8
   149          3
   151          2
   153          2
   154          3
   155         58
   156          7
   167          1
   168          2
   169         39
   170          5
   182          1
   183         17
   184          2
   196          2
   197          2
   211          1
   224          9
   225        175
   226         31
   227          3
   352          3