##TITLE=Library Entry 37217
##JCAMP-DX=Revision 4.10 
##DATA TYPE=MASS SPECTRUM
##SAMPLE DESCRIPTION=Exported from NIST MS Search
##NAMES=HP
##CAS NAME=Butane, 1,1'-thiobis[3-methyl-
##MOLFORM=C10H22S
##CAS REGISTRY NO=544-02-5
##MP= -300
##BP= -300
##MW= 174
##$RETENTION INDEX=1197
##$CONDENSED SPECTRUM=NO
##NPOINTS= 79
##XYDATA=(XY..XY) 1 
    37          3
    38          7
    39        149
    40         21
    41        365
    42        125
    43        450
    44         15
    45         80
    46         59
    47         86
    48          7
    49          5
    50          4
    51          7
    52          3
    53         31
    54         14
    55        349
    56         44
    57         51
    58         10
    59         29
    60         32
    61        373
    62         17
    63         18
    64          1
    65          2
    66          1
    67          6
    68          4
    69         91
    70        999
    71        158
    72          7
    73          9
    74          5
    75         22
    76          2
    77          1
    81          1
    83          2
    84          1
    85          5
    86          1
    87          7
    88          2
    89          7
    90          1
    91          1
    97          1
    98          1
    99          1
   101          2
   102          5
   103         41
   104         14
   105         12
   106          1
   107          1
   113          1
   115          1
   117         19
   118          7
   119          2
   131         42
   132          4
   133          2
   145          4
   146          2
   159          2
   160          4
   161          1
   173          1
   174        150
   175         17
   176          7
   177          1