##TITLE=Library Entry 72901
##JCAMP-DX=Revision 4.10 
##DATA TYPE=MASS SPECTRUM
##SAMPLE DESCRIPTION=Japan AIST/NIMC Database- Spectrum MS-NW-6384
##NAMES=HP
##CAS NAME=Di(3-Methylbutyl)amine
##MOLFORM=C10H23N
##CAS REGISTRY NO=544-00-3
##MP= -300
##BP= -300
##MW= 157
##$RETENTION INDEX=1054
##$CONDENSED SPECTRUM=NO
##NPOINTS= 63
##XYDATA=(XY..XY) 1 
    15          7
    26          4
    27         64
    28         36
    29        108
    30        457
    31          7
    32          1
    38          2
    39         39
    40          6
    41        128
    42         53
    43        344
    44        617
    45         18
    50          1
    51          2
    52          2
    53          9
    54          6
    55         38
    56         33
    57         19
    58         22
    59          1
    65          1
    67          3
    68          6
    69         19
    70         38
    71         79
    72         14
    73          1
    80          1
    81          1
    82          3
    83          1
    84         10
    85          2
    86         16
    87          4
    88          1
    96          2
    98         29
    99          3
   100        999
   101         67
   102          2
   112          3
   113          2
   114          5
   126          4
   127          2
   128         14
   129          2
   140          2
   142          8
   143          1
   154          1
   156          9
   157         34
   158          4