##TITLE=Library Entry 54020
##JCAMP-DX=Revision 4.10 
##DATA TYPE=MASS SPECTRUM
##SAMPLE DESCRIPTION=VERN REINHOLD,A.D.LITTLE INC.,CAMBRIDGE,MASS.
##NAMES=HP
##CAS NAME=.alpha.-L-Galactopyranose, 6-deoxy-, cyclic 1,2:3,4-bis(methylbor
onate)
##MOLFORM=C8H14B2O5
##CAS REGISTRY NO=54400-95-2
##MP= -300
##BP= -300
##MW= 212
##$RETENTION INDEX=0
##$CONDENSED SPECTRUM=NO
##NPOINTS= 118
##XYDATA=(XY..XY) 1 
    30         14
    31         27
    35         12
    36         30
    37         12
    38         30
    39        137
    40         40
    41        156
    42        319
    43        504
    44        234
    45         77
    46         14
    47         54
    48          8
    50         16
    51         15
    52         17
    53         70
    54         50
    55        122
    56         79
    57         97
    58         43
    59         18
    60         22
    62         15
    63         15
    64         11
    65          7
    66         17
    67         22
    68         29
    69         65
    70         23
    71         52
    72          9
    73         30
    74         17
    75        372
    76         27
    77         35
    78          9
    79         13
    80          9
    81         20
    82         44
    83        747
    84        999
    85        210
    86         29
    87          8
    91         10
    92          5
    93         20
    94         19
    95         20
    96         51
    97        150
    98         33
    99         75
   100         14
   101         13
   103         13
   104          7
   108          7
   109         17
   110         30
   111         57
   112         27
   113         85
   114         15
   115          5
   116          6
   117         16
   119          5
   120          5
   121         13
   123         23
   124         27
   125         35
   126         25
   127        144
   128        575
   129         34
   130         15
   131         11
   133          6
   134          7
   135         21
   136          8
   137         20
   138         28
   139         29
   140         14
   141         16
   143          8
   145          4
   146          7
   147         44
   148         12
   149         11
   152          7
   153          6
   154          8
   155         12
   166          5
   167         28
   168         52
   169          7
   174          4
   178          7
   189         15
   193          7
   207          6
   211         19
   212         29