##TITLE=Library Entry 42380
##JCAMP-DX=Revision 4.10 
##DATA TYPE=MASS SPECTRUM
##SAMPLE DESCRIPTION=VERN REINHOLD,A.D.LITTLE INC.,CAMBRIDGE,MASS.
##NAMES=HP
##CAS NAME=.alpha.-D-Galactopyranoside, methyl 2,3-bis-O-(trimethylsilyl)-,
 cyclic methylboronate
##MOLFORM=C14H31BO6Si2
##CAS REGISTRY NO=54400-88-3
##MP= -300
##BP= -300
##MW= 362
##$RETENTION INDEX=0
##$CONDENSED SPECTRUM=NO
##NPOINTS= 222
##XYDATA=(XY..XY) 1 
    30         16
    31         38
    36         27
    37         12
    38         19
    39         52
    40         45
    41         88
    42         48
    43        148
    44        101
    45        367
    46         36
    47         77
    49         24
    50         44
    51         51
    52         96
    53         45
    54         35
    55         84
    56         44
    57         72
    58         35
    59        207
    60         36
    61         73
    63         12
    65         21
    66         28
    67         29
    68         39
    69        109
    70         36
    71         50
    72         55
    73        999
    74        183
    75        477
    76         47
    77         58
    78         20
    79        115
    80         15
    81         67
    82         20
    83         38
    84         47
    85        128
    86         18
    87         44
    88         21
    89        197
    90         33
    91         31
    93         21
    94          7
    95         14
    96         43
    97        133
    98         52
    99         62
   100         27
   101        122
   102         30
   103        119
   104         19
   105         41
   109         43
   110         47
   111         71
   112         36
   113         48
   114         39
   115        134
   116        307
   117        186
   118         40
   119         53
   120         10
   122         22
   123         46
   124         37
   125         38
   126         32
   127         45
   128         20
   129        288
   130         51
   131        207
   132         52
   133        958
   134        147
   135         67
   136          8
   137         15
   138         21
   139         49
   140          9
   141         40
   142         47
   143        131
   144         36
   145         52
   146        127
   147        671
   148        115
   149         92
   150         31
   151         37
   152          6
   153         31
   154         18
   155        129
   156         35
   157         52
   158         25
   159         64
   160         12
   161         30
   162         19
   163         53
   164         16
   165         12
   168         12
   169         68
   170         51
   171        148
   172         36
   173        102
   174         25
   175         41
   176         14
   177         51
   178         19
   179         12
   180          6
   181          7
   182         37
   183        134
   184         44
   185         50
   186         20
   187         20
   188         31
   189        353
   190         88
   191         80
   192         28
   193         13
   196         12
   197         40
   198         28
   199         51
   200         35
   201         60
   202         20
   203         39
   204        921
   205        208
   206        108
   207         72
   208         26
   209          9
   210          8
   211         48
   212         68
   213         62
   214         22
   215         37
   216         15
   217        201
   218         57
   219         32
   220          8
   221        220
   222         50
   223         31
   224         17
   225         43
   226         17
   227         23
   230         13
   231         31
   233         50
   234         21
   235          8
   240         27
   241         71
   242         29
   243         54
   244         20
   245         40
   246         27
   247         20
   256         18
   257         47
   258         32
   259         51
   260         23
   263          7
   272         13
   273         38
   274         10
   277         25
   278          8
   286         34
   287         55
   288         25
   289         11
   299          7
   300         31
   301         17
   314          7
   315         39
   316         13
   317          9
   318          6
   331         32
   332         13
   333          8
   362          6