##TITLE=Library Entry 64944
##JCAMP-DX=Revision 4.10 
##DATA TYPE=MASS SPECTRUM
##SAMPLE DESCRIPTION=NIST Mass Spectrometry Data Center
##NAMES=HP
##CAS NAME=Ethyl 4-pyridylacetate
##MOLFORM=C9H11NO2
##CAS REGISTRY NO=54401-85-3
##MP= -300
##BP= -300
##MW= 165
##$RETENTION INDEX=0
##$CONDENSED SPECTRUM=NO
##NPOINTS= 68
##XYDATA=(XY..XY) 1 
    15         11
    16          1
    19          1
    25          1
    26         36
    27        139
    29        879
    30         26
    31         15
    37         19
    38         68
    39        425
    40         31
    41         41
    42         20
    43         19
    44          8
    45         25
    46         22
    49          4
    50         51
    51         74
    52         72
    53         30
    54         15
    55          4
    60          6
    61         11
    62         34
    63        141
    64         98
    65        420
    66         81
    67         35
    68          2
    73          4
    74          1
    75          3
    76          4
    77         14
    78         14
    79         21
    80         18
    81          2
    87          1
    88          1
    90          5
    91         62
    92        999
    93        822
    94         59
    95          2
   104          1
   106        332
   107         27
   108          5
   118          2
   119         31
   120        263
   121        124
   122         10
   136          1
   137         66
   138          5
   150          2
   165        809
   166         84
   167          7