##TITLE=Library Entry 2404
##JCAMP-DX=Revision 4.10 
##DATA TYPE=MASS SPECTRUM
##SAMPLE DESCRIPTION=Japan AIST/NIMC Database- Spectrum MS-NW-5365
##NAMES=HP
##CAS NAME=2,5-Furandione, dihydro-3-(2-tetradecenyl)-
##MOLFORM=C18H30O3
##CAS REGISTRY NO=54405-64-0
##MP= -300
##BP= -300
##MW= 294
##$RETENTION INDEX=0
##$CONDENSED SPECTRUM=NO
##NPOINTS= 230
##XYDATA=(XY..XY) 1 
    15          7
    17          1
    18          3
    26         10
    27        258
    28         52
    29        441
    30          9
    31          1
    37          1
    38          4
    39        224
    40         49
    41        999
    42        145
    43        726
    44         25
    45          7
    47          2
    50          5
    51         22
    52         23
    53        178
    54        296
    55        563
    56        139
    57        306
    58         17
    59          3
    60          8
    61          3
    62          1
    63          5
    64          2
    65         59
    66         60
    67        438
    68        241
    69        246
    70         96
    71        110
    72         14
    73         11
    74          3
    75          1
    76          1
    77         78
    78         27
    79        309
    80        140
    81        361
    82        224
    83        337
    84         70
    85         58
    86          9
    87          3
    88          1
    89          1
    90          1
    91         56
    92         26
    93        107
    94         91
    95        233
    96        202
    97        170
    98         56
    99         74
   100        101
   101          9
   102          3
   103          4
   104          5
   105         28
   106         13
   107         75
   108         66
   109        124
   110         72
   111         74
   112         30
   113         17
   114          4
   115          3
   116          5
   117         29
   118          9
   119         30
   120         13
   121         70
   122         37
   123         92
   124         57
   125         30
   126         19
   127         23
   128        176
   129         19
   130          4
   131         24
   132         10
   133         23
   134         10
   135         45
   136         43
   137         86
   138         55
   139         24
   140         54
   141        201
   142         85
   143          9
   144          2
   145         18
   146          6
   147         12
   148          5
   149         41
   150         39
   151         32
   152         33
   153         21
   154        128
   155         61
   156         15
   157          3
   158          1
   159         10
   160          3
   161          6
   162          5
   163         36
   164         72
   165         30
   166        108
   167        208
   168         47
   169         11
   170          6
   171          2
   173          7
   174          2
   175          4
   176          2
   177         33
   178         43
   179         14
   180         12
   181         39
   182         17
   183          5
   184          3
   185          2
   187          4
   188          2
   189          4
   190          3
   191         26
   192         29
   193         11
   194         20
   195         22
   196         11
   197          3
   198          2
   199          6
   200          2
   201          2
   202          1
   203          3
   204          4
   205         17
   206         13
   207          9
   208          9
   209         11
   210          5
   211          2
   212          2
   213          8
   214          2
   215          2
   216          3
   217          6
   218          1
   219         10
   220          7
   221         21
   222         23
   223          7
   224          3
   225          1
   229          2
   230          4
   231         16
   232          5
   233          5
   234         10
   235          6
   236          1
   237          2
   238          1
   239          3
   240          1
   247          4
   248         19
   249         37
   250         12
   251          4
   252          6
   253          5
   254          1
   258          1
   259          2
   261          1
   265          2
   266          6
   267          2
   275          4
   276         67
   277         14
   278          2
   279          1
   292          1
   293          1
   294        445
   295         92
   296         12
   297          1