##TITLE=Library Entry 56591
##JCAMP-DX=Revision 4.10 
##DATA TYPE=MASS SPECTRUM
##SAMPLE DESCRIPTION=Japan AIST/NIMC Database- Spectrum MS-IW-7435
##NAMES=HP
##CAS NAME=Diisopropylacetamide
##MOLFORM=C8H17NO
##CAS REGISTRY NO=5440-65-3
##MP= -300
##BP= -300
##MW= 143
##$RETENTION INDEX=0
##$CONDENSED SPECTRUM=NO
##NPOINTS= 61
##XYDATA=(XY..XY) 1 
    15          2
    26          1
    27         50
    28          9
    29         42
    30          3
    38          2
    39         51
    40          9
    41        157
    42         16
    43        213
    44         88
    45          3
    46          3
    50          1
    51          3
    52          2
    53         12
    54          4
    55         48
    56         14
    57        220
    58         21
    59         31
    60          2
    65          2
    66          1
    67          7
    68         44
    69        102
    70          6
    71          2
    72          7
    73          1
    77          1
    79          1
    81          2
    82          5
    83         92
    84         10
    85         19
    86        999
    87         53
    88          3
    98          2
    99          9
   100        132
   101        800
   102         49
   103          3
   110          1
   111          2
   112          1
   126          1
   127          6
   128         10
   142          2
   143          8
   144         33
   145          3