##TITLE=Library Entry 45443
##JCAMP-DX=Revision 4.10 
##DATA TYPE=MASS SPECTRUM
##SAMPLE DESCRIPTION=Exported from NIST MS Search
##NAMES=HP
##CAS NAME=Benzene, [(3-chloro-2-propenyl)oxy]-
##MOLFORM=C9H9ClO
##CAS REGISTRY NO=54410-95-6
##MP= -300
##BP= -300
##MW= 168
##$RETENTION INDEX=0
##$CONDENSED SPECTRUM=NO
##NPOINTS= 150
##XYDATA=(XY..XY) 1 
    14          1
    15          1
    17          1
    18          3
    25          1
    26         10
    27         33
    28         24
    29          8
    31          6
    32          6
    33          1
    35          3
    36         27
    37         17
    38         47
    39        275
    40         40
    41          6
    42          3
    43          3
    44          1
    45          1
    46          3
    47         19
    48          2
    49         55
    50         48
    51        137
    52         20
    53         20
    54         18
    55         38
    56          2
    57          2
    58          1
    59          1
    60          2
    61         12
    62         19
    63         47
    64         18
    65        127
    66         92
    67         16
    68          4
    69          2
    70          1
    71          1
    72          2
    73         11
    74         18
    75        999
    76         45
    77        459
    78         42
    79         43
    80          4
    81          2
    82          1
    83          1
    84          2
    85          2
    86          2
    87          3
    88          6
    89         11
    90          6
    91         16
    92          5
    93         12
    94        383
    95         27
    96          2
    97          1
    98          1
    99          2
   100          1
   101          6
   102         11
   103         41
   104         13
   105         83
   106          9
   107         19
   108          2
   109          1
   110          1
   111          1
   112          5
   113          2
   114          5
   115         21
   116          4
   117          4
   118          9
   119         31
   120          4
   121          3
   122          2
   123          1
   124          1
   125          1
   126          1
   127          1
   128          2
   129          1
   130          1
   131        216
   132        111
   133        365
   134         38
   135          3
   136          1
   137          1
   138          1
   139          5
   140          1
   141          5
   142          2
   143          1
   144          1
   145          2
   146          1
   147          1
   148          1
   149          1
   150          3
   151          1
   152          3
   153          1
   154          1
   155          1
   156          1
   157          1
   158          1
   159          1
   160          1
   161          1
   162          1
   163          1
   164          1
   165          2
   166         12
   167          2
   168        187
   169         28
   170         67
   171          9
   172          1