##TITLE=Library Entry 69804
##JCAMP-DX=Revision 4.10 
##DATA TYPE=MASS SPECTRUM
##SAMPLE DESCRIPTION=Exported from NIST MS Search
##NAMES=HP
##CAS NAME=Cyclohexane, 1-methyl-2-pentyl-
##MOLFORM=C12H24
##CAS REGISTRY NO=54411-01-7
##MP= -300
##BP= -300
##MW= 168
##$RETENTION INDEX=0
##$CONDENSED SPECTRUM=NO
##NPOINTS= 85
##XYDATA=(XY..XY) 1 
    25          1
    26         14
    27        243
    28         47
    29        310
    30          7
    37          2
    38          5
    39        166
    40         29
    41        420
    42         68
    43        156
    44          5
    45          1
    50          3
    51         12
    52          8
    53         63
    54         63
    55        886
    56        102
    57         52
    58          3
    62          1
    63          3
    64          1
    65         12
    66         10
    67         84
    68         50
    69        174
    70         67
    71         19
    72          1
    75          1
    77         14
    78          4
    79         16
    80          6
    81        124
    82         24
    83         66
    84         13
    85          5
    86          1
    91          5
    92          1
    93          3
    94          2
    95         30
    96        365
    97        999
    98         80
    99          3
   103          1
   105          1
   107          1
   108          1
   109          4
   110          8
   111         24
   112          5
   113          1
   115          1
   119          1
   123          2
   124          1
   125          3
   126          1
   137          1
   138          1
   139          4
   140          4
   141          1
   151          1
   152          1
   153          2
   154          1
   166          3
   167          1
   168        107
   169         15
   170          1
   175          1