##TITLE=Library Entry 30845
##JCAMP-DX=Revision 4.10 
##DATA TYPE=MASS SPECTRUM
##SAMPLE DESCRIPTION=CARL DJERASSI DEPT OF CHEM STANFORD UNIV STANFORD CALIF
 94305
##NAMES=HP
##CAS NAME=Acetamide, N-[(3.alpha.,5.alpha.)-androstan-3-yl]-
##MOLFORM=C21H35NO
##CAS REGISTRY NO=54411-43-7
##MP= -300
##BP= -300
##MW= 317
##$RETENTION INDEX=0
##$CONDENSED SPECTRUM=NO
##NPOINTS= 139
##XYDATA=(XY..XY) 1 
    41        112
    42         26
    43        192
    44         32
    45          2
    50          2
    51          5
    52          3
    53         34
    54         12
    55         88
    56         60
    57         24
    58         13
    59          4
    60        999
    61         26
    62          3
    63          2
    64          1
    65          9
    66          7
    67         87
    68         20
    69         38
    70         13
    71          5
    72          3
    73          7
    74          1
    77         30
    78          8
    79         72
    80         20
    81         90
    82         23
    83         17
    84          6
    85          3
    86          4
    91         54
    92          9
    93         70
    94         30
    95         89
    96         13
    97          5
    98          4
    99          7
   100          3
   101          1
   102          2
   103          3
   104          3
   105         30
   106         15
   107         50
   108         87
   109         37
   110          7
   111          6
   112          2
   113          3
   115          3
   116          2
   117          7
   118          3
   119         17
   120         10
   121         29
   122         15
   123         12
   124          4
   125          2
   128          1
   129          2
   130          2
   131          7
   132          2
   133         20
   134         10
   135         24
   136          6
   137          5
   145          6
   146          3
   147         21
   148         26
   149         28
   150          6
   151          2
   159          4
   160          3
   161         17
   162         15
   163         12
   164          2
   173          3
   174          2
   175         17
   176          7
   177          2
   178          1
   187          5
   188          4
   189         33
   190          6
   191          1
   201          8
   202          8
   203          8
   204         29
   205          5
   215          6
   216          4
   217          9
   218          2
   219          1
   229          4
   230          3
   241          2
   242          2
   243         64
   244         13
   245          2
   255          1
   256          1
   257          2
   258         57
   259         11
   260          2
   269          4
   270          2
   274          3
   302          5
   303          2
   317         37
   318         11
   319          1