##TITLE=Library Entry 31255
##JCAMP-DX=Revision 4.10 
##DATA TYPE=MASS SPECTRUM
##SAMPLE DESCRIPTION=Exported from NIST MS Search
##NAMES=HP
##CAS NAME=Pentane, 1,5-bis(methylthio)-
##MOLFORM=C7H16S2
##CAS REGISTRY NO=54410-63-8
##MP= -300
##BP= -300
##MW= 164
##$RETENTION INDEX=1339
##$CONDENSED SPECTRUM=NO
##NPOINTS= 88
##XYDATA=(XY..XY) 1 
    14          9
    15         15
    16         17
    19          5
    20          3
    26          6
    29         34
    32         43
    33          5
    34         13
    35         65
    37          4
    38          4
    39         62
    40         16
    41        364
    42         31
    43         13
    44        126
    45        128
    46         53
    47        109
    48         35
    49         43
    50          4
    51          5
    53         26
    54          9
    55         72
    56          6
    57          6
    58         15
    59         54
    60         20
    61        999
    62         53
    63         47
    64          4
    65          2
    66          7
    67        144
    68        421
    69        349
    70         23
    71         21
    72          7
    73         46
    74         72
    75         86
    76         17
    77          5
    79          6
    81          2
    82          8
    83          3
    85          8
    87         46
    88         50
    89          8
    90          3
    93          8
    94          6
    95          2
    97          2
    99          4
   100          3
   101        129
   102         17
   103         43
   104          3
   105          3
   107         11
   108          3
   109          1
   115          4
   116        263
   117        130
   118         21
   119          7
   148          6
   149         36
   150          4
   151          4
   164        337
   165         32
   166         31
   167          3
   168          1