##TITLE=Library Entry 45133
##JCAMP-DX=Revision 4.10 
##DATA TYPE=MASS SPECTRUM
##SAMPLE DESCRIPTION=Exported from NIST MS Search
##NAMES=HP
##CAS NAME=Ethane, 1,1'-[oxybis(methylenethio)]bis-
##MOLFORM=C6H14OS2
##CAS REGISTRY NO=54411-14-2
##MP= -300
##BP= -300
##MW= 166
##$RETENTION INDEX=0
##$CONDENSED SPECTRUM=NO
##NPOINTS= 55
##XYDATA=(XY..XY) 1 
    15          5
    26         11
    27         74
    29        134
    30         13
    31         14
    32          5
    33          4
    34          9
    35         21
    41         70
    42          3
    43          2
    44         37
    45        106
    46         80
    47        323
    48         14
    49         16
    58          9
    59         23
    60          9
    61         21
    62          9
    63          5
    74         97
    75        999
    76         56
    77         47
    78          6
    79         31
    81          3
    89         38
    90          2
    91          3
   104         58
   105         14
   106          5
   107         24
   108          3
   109          2
   119          1
   120          1
   121          1
   122          1
   136         54
   137        106
   138         12
   139         10
   148          2
   166         99
   167          9
   168         10
   169          1
   170          1