##TITLE=Library Entry 65137
##JCAMP-DX=Revision 4.10 
##DATA TYPE=MASS SPECTRUM
##SAMPLE DESCRIPTION=Exported from NIST MS Search
##NAMES=HP
##CAS NAME=Benzene, (3-methylpentyl)-
##MOLFORM=C12H18
##CAS REGISTRY NO=54410-69-4
##MP= -300
##BP= -300
##MW= 162
##$RETENTION INDEX=1205
##$CONDENSED SPECTRUM=NO
##NPOINTS= 66
##XYDATA=(XY..XY) 1 
    14          4
    16          6
    26          4
    27         43
    29         76
    32         16
    39         50
    40          7
    41         75
    42         11
    43        211
    44         72
    50          9
    51         31
    52          9
    53         10
    55         35
    56          7
    57         28
    58          2
    62          3
    63         15
    64          6
    65         84
    66          6
    69         11
    70         27
    71         56
    72          3
    74          2
    75          3
    76          4
    77         43
    78         28
    79         25
    80          2
    85          4
    89         13
    90         10
    91        574
    92        999
    93         79
    94          3
    97          2
    98          2
   102          4
   103         19
   104         19
   105        106
   106         14
   107          4
   115         11
   116          4
   117         10
   118          1
   119          6
   120          5
   127          1
   128          4
   129          2
   131          4
   133          5
   147          3
   162        157
   163         21
   164          1