##TITLE=Library Entry 33391
##JCAMP-DX=Revision 4.10 
##DATA TYPE=MASS SPECTRUM
##SAMPLE DESCRIPTION=Exported from NIST MS Search
##NAMES=HP
##CAS NAME=Butanoic acid, 3-methyl-, 3-methyl-3-butenyl ester
##MOLFORM=C10H18O2
##CAS REGISTRY NO=54410-94-5
##MP= -300
##BP= -300
##MW= 170
##$RETENTION INDEX=1116
##$CONDENSED SPECTRUM=NO
##NPOINTS= 32
##XYDATA=(XY..XY) 1 
    15         30
    17          6
    18         14
    26          9
    27        151
    28         39
    29        175
    38          7
    39        141
    40         51
    41        393
    42         74
    43        114
    44          7
    45          7
    51          7
    53         55
    54         10
    55         33
    56         26
    57        436
    58         20
    59         14
    60          6
    67        160
    68        999
    69        218
    70         22
    83          6
    85        325
    86         19
   103         17