##TITLE=Library Entry 81098
##JCAMP-DX=Revision 4.10 
##DATA TYPE=MASS SPECTRUM
##SAMPLE DESCRIPTION=Exported from NIST MS Search
##NAMES=HP
##CAS NAME=Benzene, 1-methyl-2-(1-ethylpropyl)-
##MOLFORM=C12H18
##CAS REGISTRY NO=54410-74-1
##MP= -300
##BP= -300
##MW= 162
##$RETENTION INDEX=1192
##$CONDENSED SPECTRUM=NO
##NPOINTS= 90
##XYDATA=(XY..XY) 1 
    50         22
    51         67
    52         23
    53         30
    54          3
    55         25
    56         42
    57         47
    58          6
    59          1
    61          1
    62          9
    63         38
    64         15
    65         62
    66          6
    67          4
    68          2
    69          9
    70          7
    71         12
    72          1
    73          1
    74          5
    75          9
    76          8
    77         88
    78         59
    79         34
    80          2
    81          1
    82          1
    83          3
    84          3
    85          2
    86          5
    87          3
    88          1
    89         18
    90          5
    91        282
    92         30
    93         34
    94          3
    95          1
    96          1
    97          1
    98          2
   100          1
   101          3
   102         15
   103         45
   104         55
   105        999
   106         85
   107          4
   112          1
   113          1
   114          2
   115         68
   116         26
   117         52
   118         11
   119        106
   120         27
   121          2
   126          1
   127          7
   128         16
   129         10
   130          3
   131         21
   132          5
   133        586
   134         62
   135          4
   139          1
   141          1
   142          1
   143          1
   145          1
   146          1
   147          3
   148          2
   152          1
   160          1
   161          1
   162        313
   163         34
   164          1