##TITLE=Library Entry 19740
##JCAMP-DX=Revision 4.10 
##DATA TYPE=MASS SPECTRUM
##SAMPLE DESCRIPTION=Japan AIST/NIMC Database- Spectrum MS-IW-1781
##NAMES=HP
##CAS NAME=Cyclohexanone, 4-ethyl-
##MOLFORM=C8H14O
##CAS REGISTRY NO=5441-51-0
##MP= -300
##BP= -300
##MW= 126
##$RETENTION INDEX=0
##$CONDENSED SPECTRUM=NO
##NPOINTS= 70
##XYDATA=(XY..XY) 1 
    14          1
    15          6
    26         13
    27        160
    28         77
    29        122
    30          3
    31          2
    32          1
    33          1
    34          4
    35          1
    37          2
    38         10
    39        177
    40         35
    41        455
    42        219
    43        517
    44         16
    45          1
    48          8
    49          1
    50          9
    51         18
    52          9
    53         60
    54         50
    55        999
    56        253
    57         75
    58          7
    62          3
    63          6
    64          1
    65         10
    66          6
    67         89
    68         27
    69        320
    70        334
    71        156
    72         16
    77          7
    78         43
    79        122
    80         15
    81         14
    82        108
    83         82
    84        230
    85         15
    91          2
    93         87
    94          7
    95          3
    96          2
    97        503
    98        176
    99         12
   107          2
   108         74
   109          8
   110          1
   111         41
   112          3
   125          6
   126        421
   127         38
   128          2