##TITLE=Library Entry 83671
##JCAMP-DX=Revision 4.10 
##DATA TYPE=MASS SPECTRUM
##SAMPLE DESCRIPTION=Chemical Concepts
##NAMES=HP
##CAS NAME=2-Oxazolidinone, 4-methyl-5-phenyl-
##MOLFORM=C10H11NO2
##CAS REGISTRY NO=54418-69-8
##MP= -300
##BP= -300
##MW= 177
##$RETENTION INDEX=0
##$CONDENSED SPECTRUM=NO
##NPOINTS= 86
##XYDATA=(XY..XY) 1 
    26          8
    27         54
    28        152
    29         15
    30          3
    31          2
    36          0
    37          4
    38         16
    39         65
    40         14
    41         25
    42        127
    43        141
    44         60
    45          4
    49          2
    50         55
    51        138
    52         35
    53          9
    54          3
    55          6
    56          9
    57          6
    58          9
    59         17
    61          5
    62         21
    63         57
    64         23
    65         43
    66          3
    67          0
    68          1
    69          1
    70         16
    71          3
    72          2
    73          5
    74         16
    75         14
    76         14
    77        218
    78         54
    79        511
    80         32
    81          4
    83          0
    85          1
    86          2
    87          3
    88          3
    89         77
    90         74
    91         95
    92          8
    97          0
   101          3
   102         11
   103         16
   105        157
   106         22
   107        999
   108        161
   109          9
   112          0
   113          0
   115         11
   116          5
   117         43
   118         45
   119          5
   120          1
   130          8
   131          3
   132         22
   133          5
   134          1
   149         10
   150          0
   161          0
   174          1
   177        273
   178         31
   179          2