##TITLE=Library Entry 21085
##JCAMP-DX=Revision 4.10 
##DATA TYPE=MASS SPECTRUM
##SAMPLE DESCRIPTION=Exported from NIST MS Search
##NAMES=HP
##CAS NAME=Cyclohexane, 1-methyl-4-(1-methylbutyl)-
##MOLFORM=C12H24
##CAS REGISTRY NO=54411-00-6
##MP= -300
##BP= -300
##MW= 168
##$RETENTION INDEX=0
##$CONDENSED SPECTRUM=NO
##NPOINTS= 103
##XYDATA=(XY..XY) 1 
    26         14
    27        293
    28         44
    29        328
    30          7
    31          1
    35          1
    37          3
    38          6
    39        194
    40         35
    41        515
    42        104
    43        300
    44         10
    45          1
    46          1
    47          1
    49          1
    50          4
    51         16
    52         10
    53         83
    54         68
    55        999
    56         98
    57         80
    58          4
    62          1
    63          4
    64          1
    65         16
    66         13
    67         96
    68         73
    69        364
    70        195
    71         51
    72          3
    73          1
    75          1
    76          1
    77         19
    78          6
    79         21
    80          8
    81        181
    82         28
    83        148
    84         18
    85          7
    86          1
    89          1
    91          8
    92          2
    93          5
    94          3
    95         37
    96        394
    97        790
    98         63
    99          3
   103          1
   104          1
   105          2
   106          1
   107          1
   108          1
   109          7
   110         15
   111         81
   112          9
   113          1
   115          1
   117          3
   119          4
   120          1
   121          2
   122          1
   123          4
   124         21
   125        110
   126         13
   127          1
   131          1
   133          1
   135          1
   137          2
   138          4
   139         20
   140          3
   141          1
   145          1
   147          1
   149          1
   151          1
   152          1
   153          6
   154          1
   167          1
   168         88
   169         12
   170          1