##TITLE=Library Entry 70034
##JCAMP-DX=Revision 4.10 
##DATA TYPE=MASS SPECTRUM
##SAMPLE DESCRIPTION=P.E. BUTLER ESSO R. & E. CO., LINDEN, NEW JERSEY, USA
##NAMES=HP
##CAS NAME=1-Heptyne, 3-ethoxy-3,4-dimethyl-
##MOLFORM=C11H20O
##CAS REGISTRY NO=54411-04-0
##MP= -300
##BP= -300
##MW= 168
##$RETENTION INDEX=0
##$CONDENSED SPECTRUM=NO
##NPOINTS= 27
##XYDATA=(XY..XY) 1 
    39        218
    41        272
    43        504
    51         73
    52         38
    53        113
    55         92
    57         71
    59         22
    63         18
    65         44
    67         51
    69        733
    77         51
    79         92
    81         68
    83         18
    91         60
    95         27
    97        999
   111          4
   112         28
   125         15
   126          2
   139          2
   153         61
   154          7