##TITLE=Library Entry 19370
##JCAMP-DX=Revision 4.10 
##DATA TYPE=MASS SPECTRUM
##SAMPLE DESCRIPTION=CARL DJERASSI DEPT OF CHEM STANFORD UNIV STANFORD CALIF
 94305
##NAMES=HP
##CAS NAME=Chol-23-ene, (5.beta.)-
##MOLFORM=C24H40
##CAS REGISTRY NO=54411-82-4
##MP= -300
##BP= -300
##MW= 328
##$RETENTION INDEX=0
##$CONDENSED SPECTRUM=NO
##NPOINTS= 128
##XYDATA=(XY..XY) 1 
    41        940
    42        110
    43        300
    44        180
    45         80
    47        200
    48         80
    49         80
    50         20
    51         30
    52         30
    53        200
    54         80
    55        999
    56         80
    57         90
    65         70
    66         50
    67        720
    68        200
    69        350
    70         40
    71         30
    74         20
    77        150
    78         50
    79        390
    80        110
    81        810
    82        120
    83        280
    84         30
    85        120
    87         50
    91        230
    92         50
    93        400
    94        160
    95        800
    96        100
    97        150
    98         20
   101         60
   105        160
   106         60
   107        320
   108        390
   109        750
   110        120
   111         60
   115         30
   117         40
   119         90
   120         50
   121        320
   122        120
   123        320
   124         30
   129         50
   131         30
   133         70
   134         40
   135        250
   136         90
   137        350
   138         50
   145         30
   147        100
   148         90
   149        370
   150        170
   151        360
   152         50
   156         20
   159         20
   161        100
   162         80
   163        250
   164         90
   165        220
   166         40
   175        110
   176         60
   177        230
   178         50
   187         10
   189         70
   190         40
   191        170
   192         30
   201         20
   202         10
   203        120
   204         30
   205         80
   206         10
   215         30
   216         30
   217        640
   218        230
   219        120
   220         30
   229         10
   230         20
   231         60
   232        110
   233         30
   241         10
   243         10
   244         10
   245         10
   257        170
   258         60
   259         30
   271         60
   272         20
   273         10
   285         20
   286         80
   287        710
   288        170
   289         20
   313        200
   314         50
   315         20
   328        140
   329         40
   330         10