##TITLE=Library Entry 69808
##JCAMP-DX=Revision 4.10 
##DATA TYPE=MASS SPECTRUM
##SAMPLE DESCRIPTION=Exported from NIST MS Search
##NAMES=HP
##CAS NAME=Cyclohexane, 1-methyl-3-pentyl-
##MOLFORM=C12H24
##CAS REGISTRY NO=54411-02-8
##MP= -300
##BP= -300
##MW= 168
##$RETENTION INDEX=0
##$CONDENSED SPECTRUM=NO
##NPOINTS= 72
##XYDATA=(XY..XY) 1 
    26         11
    27        213
    28         38
    29        270
    30          6
    37          2
    38          4
    39        148
    40         27
    41        379
    42         69
    43        145
    44          5
    50          3
    51         10
    52          7
    53         56
    54         50
    55        808
    56        100
    57         44
    58          2
    62          1
    63          2
    64          1
    65         10
    66          8
    67         67
    68         38
    69        148
    70         45
    71         15
    72          1
    77         11
    78          3
    79         13
    80          5
    81         97
    82         16
    83         50
    84         12
    85          6
    86          1
    91          4
    92          1
    93          2
    94          1
    95         17
    96        279
    97        999
    98         79
    99          3
   105          1
   107          1
   109          1
   110          2
   111         14
   112          3
   113          1
   123          1
   124          1
   125          3
   126          2
   127          1
   139          1
   140          2
   153          4
   154          1
   167          1
   168        100
   169         14
   170          1