##TITLE=Library Entry 1346
##JCAMP-DX=Revision 4.10 
##DATA TYPE=MASS SPECTRUM
##SAMPLE DESCRIPTION=Couch & Williams, University of Florida
##NAMES=HP
##CAS NAME=Phenol, 2-(2-aminoethyl)-5-methoxy-
##MOLFORM=C9H13NO2
##CAS REGISTRY NO=54410-97-8
##MP= -300
##BP= -300
##MW= 167
##$RETENTION INDEX=0
##$CONDENSED SPECTRUM=NO
##NPOINTS= 108
##XYDATA=(XY..XY) 1 
    12          1
    13          1
    14          5
    15         16
    16          5
    25          1
    26          5
    27         21
    29         23
    30        999
    31         32
    39         54
    40         17
    41         16
    42         11
    43         20
    44         17
    45         19
    46          1
    47          2
    48          1
    49          1
    50         15
    51         41
    52         19
    53         21
    54          5
    55         25
    56          2
    57          2
    58          1
    59          1
    60          5
    61          4
    62          6
    63         13
    64          6
    65         24
    66         36
    67         17
    68          4
    69          4
    70          1
    71          1
    73          1
    74          3
    75          3
    76          4
    77         47
    78         26
    79         17
    80          7
    81          7
    82          2
    83          3
    84          1
    85          1
    86          1
    87          1
    89          5
    90          4
    91         11
    92          3
    93          5
    94         79
    95         31
    96          3
    97          1
   103          1
   104          3
   105         13
   106         27
   107         16
   108          5
   109         12
   110          4
   113          2
   114          3
   115          2
   116          3
   117          2
   118          1
   119          2
   120          2
   121          9
   122        120
   123        230
   124         24
   125          2
   132          1
   133          2
   134         11
   135         14
   136          5
   137        355
   138        885
   139        100
   140          8
   148          2
   149          2
   150         12
   151         11
   152          1
   165          5
   166          7
   167        165
   168         21
   169          2