##TITLE=Library Entry 85654
##JCAMP-DX=Revision 4.10 
##DATA TYPE=MASS SPECTRUM
##SAMPLE DESCRIPTION=A.A.Kutin, Moscow, Russia
##NAMES=HP
##CAS NAME=2,6-Bis-(acetamido)-pyridine
##MOLFORM=C9H11N3O2
##CAS REGISTRY NO=5441-02-1
##MP= -300
##BP= -300
##MW= 193
##$RETENTION INDEX=0
##$CONDENSED SPECTRUM=NO
##NPOINTS= 56
##XYDATA=(XY..XY) 1 
    33          5
    37          6
    38         24
    39         45
    40         29
    41         24
    43        499
    44         13
    45          0
    50          2
    52         29
    53         24
    54         31
    55         16
    56          0
    60          1
    64         22
    65         34
    66         38
    67         10
    68          5
    69          1
    77          1
    78          3
    79          7
    80         16
    81        110
    82        190
    83          8
    91         10
    92         38
    93         36
    94          9
    95          1
   105          2
   107         10
   109        999
   110         54
   111          1
   119          1
   120          0
   121          0
   122          7
   123         10
   126          0
   135         16
   136         33
   137          1
   151        465
   152         31
   153          1
   160          4
   178          4
   193        327
   194         30
   195          2