##TITLE=Library Entry 109922
##JCAMP-DX=Revision 4.10 
##DATA TYPE=MASS SPECTRUM
##SAMPLE DESCRIPTION=Exported from NIST MS Search
##NAMES=HP
##CAS NAME=Thiophene, 2-ethyl-5-(2-methylpropyl)-
##MOLFORM=C10H16S
##CAS REGISTRY NO=54411-05-1
##MP= -300
##BP= -300
##MW= 168
##$RETENTION INDEX=0
##$CONDENSED SPECTRUM=NO
##NPOINTS= 117
##XYDATA=(XY..XY) 1 
    37          3
    38          9
    39         70
    40          8
    41         81
    42          5
    43         31
    44          1
    45         41
    46          2
    47          9
    48          1
    49          3
    50         10
    51         25
    52          8
    53         17
    54          1
    55          7
    56          1
    57          4
    58         13
    59         20
    60          2
    61          3
    62          5
    63         12
    64          3
    65         22
    66         13
    67          9
    68          3
    69         17
    70          7
    71         18
    72          2
    73          6
    74          3
    75          3
    76          2
    77         22
    78          9
    79         16
    80          2
    81          9
    82          4
    83          3
    84          6
    85          9
    86          2
    87          1
    88          1
    89          3
    90          3
    91         60
    92         19
    93          5
    94          1
    95          7
    96          3
    97         45
    98          4
    99          4
   100          1
   101          1
   102          1
   103          3
   104          2
   105          2
   106          1
   107          1
   108          2
   109         11
   110         63
   111         34
   112          6
   113          2
   114          1
   115          2
   116          1
   117          1
   118          1
   119          1
   120          1
   121          4
   122          3
   123         31
   124         11
   125        999
   126         85
   127         45
   128          3
   129          1
   130          1
   133          1
   134          2
   135          4
   136          1
   137         11
   138          2
   139          4
   140          1
   141          1
   147          1
   149          1
   151         17
   152          2
   153         19
   154          2
   155          1
   166          1
   167          5
   168        212
   169         27
   170         11
   171          1
   172          1