##TITLE=Library Entry 37770
##JCAMP-DX=Revision 4.10 
##DATA TYPE=MASS SPECTRUM
##SAMPLE DESCRIPTION=Exported from NIST MS Search
##NAMES=HP
##CAS NAME=Piperazine, 2,5-dimethyl-3-(2-methylpropyl)-
##MOLFORM=C10H22N2
##CAS REGISTRY NO=54410-92-3
##MP= -300
##BP= -300
##MW= 170
##$RETENTION INDEX=0
##$CONDENSED SPECTRUM=NO
##NPOINTS= 117
##XYDATA=(XY..XY) 1 
    14          6
    15        133
    16          5
    17          3
    18         60
    25          1
    26         15
    27        270
    28        462
    29        227
    30        308
    31          7
    32          4
    37          2
    38          6
    39        151
    40         31
    41        451
    42        370
    43        691
    44        703
    45         54
    46          2
    48          3
    49          7
    50          2
    51          8
    52          9
    53         42
    54         59
    55        131
    56        415
    57        194
    58        765
    59         32
    60         16
    61          1
    62          1
    63          2
    64          1
    65          7
    66          5
    67         34
    68         99
    69         66
    70        999
    71        101
    72         79
    73          4
    74          1
    75          1
    76          1
    77          9
    78          1
    79          5
    80         12
    81         13
    82         59
    83         55
    84        300
    85        153
    86        136
    87         23
    88          2
    91          1
    92          1
    93          3
    94          9
    95         13
    96         26
    97         39
    98        120
    99         15
   100         24
   101          2
   106          1
   107          2
   108          4
   109          8
   110         13
   111         28
   112        364
   113        627
   114        920
   115         72
   116          2
   121          1
   123          5
   124          5
   125          4
   126         21
   127         24
   128          3
   129          1
   135          1
   136          1
   137          2
   138          2
   139          2
   140          3
   141          2
   149          1
   151          2
   152          1
   153          3
   154          3
   155         90
   156         10
   157          1
   165          1
   166          1
   167          1
   168          5
   169         13
   170         83
   171         12
   172          1