##TITLE=Library Entry 8910
##JCAMP-DX=Revision 4.10 
##DATA TYPE=MASS SPECTRUM
##SAMPLE DESCRIPTION=Exported from NIST MS Search
##NAMES=HP
##CAS NAME=5-Decanone, 2-methyl-
##MOLFORM=C11H22O
##CAS REGISTRY NO=54410-89-8
##MP= -300
##BP= -300
##MW= 170
##$RETENTION INDEX=0
##$CONDENSED SPECTRUM=NO
##NPOINTS= 35
##XYDATA=(XY..XY) 1 
    27        383
    28        151
    29        424
    30          9
    31          9
    39        190
    41        401
    42        141
    43        999
    44         32
    45          8
    55        186
    56         60
    57        145
    58        546
    59        170
    69         32
    70         25
    71        599
    72         85
    73          5
    84          3
    85         50
    86         28
    87          2
    99        477
   100         40
   101         10
   113          2
   114         75
   127         34
   128          5
   141         27
   156          4
   170         55