##TITLE=Library Entry 58402
##JCAMP-DX=Revision 4.10 
##DATA TYPE=MASS SPECTRUM
##SAMPLE DESCRIPTION=Exported from NIST MS Search
##NAMES=HP
##CAS NAME=Propane, 1,2-bis(ethylthio)-
##MOLFORM=C7H16S2
##CAS REGISTRY NO=54410-62-7
##MP= -300
##BP= -300
##MW= 164
##$RETENTION INDEX=0
##$CONDENSED SPECTRUM=NO
##NPOINTS= 81
##XYDATA=(XY..XY) 1 
    15          4
    16          1
    26         13
    27        100
    29        145
    30          4
    32          8
    33          4
    34         11
    35         44
    37          4
    38          4
    39         44
    40          7
    41        211
    42         16
    43          9
    44         22
    45         98
    46         25
    47        131
    48          6
    49          7
    53          2
    55         22
    57          5
    58         19
    59         65
    60         95
    61        386
    62         35
    63         24
    64          8
    65          3
    66          9
    67          3
    69          4
    71          7
    72          6
    73         60
    74         30
    75        164
    76         22
    77          9
    78          3
    79          2
    87          7
    88         34
    89        999
    90         54
    91         46
    92          3
    93         29
    94          9
    95          3
   101          2
   102         31
   103        167
   104         13
   105          9
   106          2
   107          1
   119          1
   120          1
   121          3
   122          9
   123          1
   124          1
   135          7
   136          3
   137          1
   138          1
   149          1
   150         30
   151          3
   152          3
   164        324
   165         30
   166         30
   167          3
   168          1