##TITLE=Library Entry 84133
##JCAMP-DX=Revision 4.10 
##DATA TYPE=MASS SPECTRUM
##SAMPLE DESCRIPTION=Exported from NIST MS Search
##NAMES=HP
##CAS NAME=Ethanol, 2-(4-ethylphenoxy)-
##MOLFORM=C10H14O2
##CAS REGISTRY NO=54411-10-8
##MP= -300
##BP= -300
##MW= 166
##$RETENTION INDEX=0
##$CONDENSED SPECTRUM=NO
##NPOINTS= 106
##XYDATA=(XY..XY) 1 
    14          1
    15          5
    17          4
    18         17
    19         10
    26          2
    27         42
    28          9
    29         16
    30          1
    31          8
    32          2
    37          1
    38          6
    39         48
    40          7
    41         16
    42          2
    43         16
    44          3
    45         78
    46          2
    50         15
    51         40
    52         15
    53         22
    54          2
    55         11
    57          1
    58          1
    59          3
    60          3
    61          2
    62          7
    63         25
    64          9
    65         37
    66          9
    67          5
    68          1
    69          1
    72          1
    73          3
    74          5
    75          6
    76          6
    77        151
    78         35
    79         99
    80          8
    81          4
    86          1
    87          1
    88          1
    89         19
    90         16
    91         63
    92          9
    93         16
    94         49
    95         26
    96          2
    98          1
   101          2
   102          7
   103         53
   104         13
   105        100
   106         11
   107        999
   108         79
   109          6
   110          1
   115          4
   116          2
   117          5
   118          2
   119         10
   120         12
   121         75
   122        446
   123        146
   124         12
   125          1
   128          1
   129          1
   131          2
   132          1
   133          8
   134          2
   135        104
   136         16
   137          6
   138          1
   147          2
   148          1
   149          7
   150         29
   151         43
   152          5
   163          2
   164          2
   165          5
   166        386
   167         44
   168          4