##TITLE=Library Entry 53916
##JCAMP-DX=Revision 4.10 
##DATA TYPE=MASS SPECTRUM
##SAMPLE DESCRIPTION=CARL DJERASSI DEPT OF CHEM STANFORD UNIV STANFORD CALIF
 94305
##NAMES=HP
##CAS NAME=Lanostan-11-ol, (11.beta.)-
##MOLFORM=C30H54O
##CAS REGISTRY NO=54411-50-6
##MP= -300
##BP= -300
##MW= 430
##$RETENTION INDEX=0
##$CONDENSED SPECTRUM=NO
##NPOINTS= 105
##XYDATA=(XY..XY) 1 
    53         20
    60        280
    61         20
    62        200
    64         40
    67         90
    68         20
    69        390
    70         60
    71         70
    74         20
    77         20
    78         30
    79         50
    81        200
    82         50
    83        170
    84        999
    85         80
    91         40
    93         80
    94        130
    95        280
    96         30
    97        100
   105         60
   106         20
   107        110
   108         40
   109        180
   110         20
   111         40
   112         20
   119         70
   120         20
   121         80
   122         20
   123        150
   124         20
   125         50
   131         10
   133         50
   134         40
   135         90
   136         40
   137        110
   138         40
   139         30
   145         40
   146         10
   147         40
   148         10
   149         50
   150         10
   151         10
   152         10
   159         40
   161         40
   163         50
   164         20
   165         20
   173         30
   175         40
   177         50
   178         10
   179         10
   187         10
   189         30
   190         20
   191         10
   193         20
   203         10
   205         20
   206         90
   207        120
   208         50
   215         20
   219         10
   224        100
   225         10
   229         20
   230         20
   231         20
   243         20
   255         30
   257         60
   258         30
   259         30
   272         80
   273         30
   275         30
   290         40
   297         10
   303        110
   304         30
   395         90
   396         30
   397        200
   398         60
   410         90
   411         30
   412         60
   413         50
   428         90
   429         20