##TITLE=Library Entry 58328
##JCAMP-DX=Revision 4.10 
##DATA TYPE=MASS SPECTRUM
##SAMPLE DESCRIPTION=Exported from NIST MS Search
##NAMES=HP
##CAS NAME=2-Butene, 1-bromo-2-chloro-
##MOLFORM=C4H6BrCl
##CAS REGISTRY NO=54410-84-3
##MP= -300
##BP= -300
##MW= 168
##$RETENTION INDEX=0
##$CONDENSED SPECTRUM=NO
##NPOINTS= 101
##XYDATA=(XY..XY) 1 
    14          1
    15          1
    16          1
    17          2
    18          7
    25          3
    26         36
    27        157
    28         20
    29          6
    30          1
    31          1
    32          1
    35          3
    36          4
    37         10
    38         15
    39        103
    40          5
    41          7
    46          1
    47          2
    48          3
    49         33
    50         44
    51         74
    52         22
    53        438
    54        116
    55          7
    59          1
    60          3
    61         14
    62         46
    63         18
    64         15
    65          5
    66          3
    67          3
    69          1
    70          1
    71          2
    72          1
    73          5
    74          1
    75        187
    76          7
    77         61
    78          2
    79         10
    80          3
    81         10
    82          3
    83          2
    84          1
    85          2
    86          1
    87         10
    88         51
    89        999
    90         60
    91        323
    92         15
    93          8
    94          1
    95          6
    96          1
    98          1
    99          2
   104          1
   105          5
   106          7
   107          8
   108          5
   109          6
   111          2
   117          2
   119         15
   121         14
   122          1
   123          3
   124         36
   125          4
   126         23
   127          2
   128          4
   129          1
   131          2
   132          3
   133        270
   134         14
   135        264
   136         12
   137          1
   167          3
   168         31
   169          6
   170         40
   171          3
   172         10
   173          1