##TITLE=Library Entry 39169
##JCAMP-DX=Revision 4.10 
##DATA TYPE=MASS SPECTRUM
##SAMPLE DESCRIPTION=Japan AIST/NIMC Database- Spectrum MS-NW-2113
##NAMES=HP
##CAS NAME=Cyclohexanol, 3,5-dimethyl-
##MOLFORM=C8H16O
##CAS REGISTRY NO=5441-52-1
##MP= -300
##BP= -300
##MW= 128
##$RETENTION INDEX=973
##$CONDENSED SPECTRUM=NO
##NPOINTS= 76
##XYDATA=(XY..XY) 1 
    15         12
    17          6
    18         27
    19          2
    26          4
    27        105
    28         10
    29         91
    30          2
    31         27
    32          3
    36          1
    37          2
    38          7
    39        113
    40         23
    41        283
    42        112
    43        170
    44        118
    45         26
    46          1
    50          6
    51         12
    52          5
    53         55
    54         26
    55        228
    56        118
    57        124
    58         25
    59          5
    62          1
    63          3
    65         10
    66          7
    67        119
    68        182
    69        369
    70         31
    71        999
    72         66
    73          5
    77         11
    78          2
    79         14
    80         11
    81        161
    82        129
    83        157
    84         73
    85         27
    86         12
    87          3
    91          7
    92          1
    93          9
    94          3
    95        660
    96         53
    97          7
    98          2
    99          3
   100          1
   107          1
   108          1
   109         47
   110        289
   111         28
   112          1
   113         17
   114          1
   124          2
   126          2
   127         18
   128          5