##TITLE=Library Entry 84561
##JCAMP-DX=Revision 4.10 
##DATA TYPE=MASS SPECTRUM
##SAMPLE DESCRIPTION=CARL DJERASSI DEPT OF CHEM STANFORD UNIV STANFORD CALIF
 94305
##NAMES=HP
##CAS NAME=Cholestan-7-one, 8,14-epoxy-, (5.alpha.,8.alpha.)-
##MOLFORM=C27H44O2
##CAS REGISTRY NO=54411-78-8
##MP= -300
##BP= -300
##MW= 400
##$RETENTION INDEX=0
##$CONDENSED SPECTRUM=NO
##NPOINTS= 120
##XYDATA=(XY..XY) 1 
    41        400
    42         40
    43        480
    44         10
    53         80
    54         10
    55        500
    56         30
    57        180
    65         20
    66         10
    67        250
    68         50
    69        270
    70         10
    71         50
    77         60
    78         10
    79        190
    80         40
    81        290
    82         40
    83        100
    91        150
    92         10
    93        520
    94        110
    95        830
    96         80
    97         60
   105        100
   106        180
   107        999
   108        150
   109        200
   110         10
   111         30
   117         20
   118         10
   119         60
   120         20
   121        120
   122         30
   123        100
   124         30
   125         30
   131         70
   132         10
   133        280
   134         50
   135        100
   136         40
   137         80
   138         10
   143         20
   144         10
   145         60
   147         80
   148         10
   149         70
   150         10
   151         30
   155         30
   157         10
   159        290
   160         40
   161         50
   162         10
   163         40
   165         20
   173         30
   175         30
   177         50
   178         20
   179         20
   180         10
   181        200
   182         10
   187         10
   189         10
   191         40
   193        160
   194        250
   195         30
   205         10
   206         10
   207        410
   208         50
   209         10
   217         10
   218         20
   219        250
   220        310
   221         40
   241        100
   242         20
   245         20
   259        210
   260         70
   261         40
   262         30
   263         10
   269        930
   270        200
   271         40
   287        560
   288        120
   289         10
   367         10
   368         10
   372         10
   373         10
   382         50
   383         20
   384         40
   385         50
   386         10
   400        210
   401         60
   402         10