##TITLE=Library Entry 76688
##JCAMP-DX=Revision 4.10 
##DATA TYPE=MASS SPECTRUM
##SAMPLE DESCRIPTION=Japan AIST/NIMC Database- Spectrum MS-NW-8835
##NAMES=HP
##CAS NAME=2-Propenal, 2-bromo-3-phenyl-
##MOLFORM=C9H7BrO
##CAS REGISTRY NO=5443-49-2
##MP= -300
##BP= -300
##MW= 210
##$RETENTION INDEX=0
##$CONDENSED SPECTRUM=NO
##NPOINTS= 87
##XYDATA=(XY..XY) 1 
    26          7
    27         25
    28         10
    29         28
    31          1
    37          8
    38         23
    39         71
    40          3
    41          1
    44          2
    49          9
    50        188
    51        376
    52         93
    53         66
    54          2
    55          1
    57          1
    61         15
    62         56
    63        112
    64         10
    65         72
    66          8
    73         12
    74        130
    75        167
    76        222
    77        640
    78        388
    79         25
    80          9
    81          5
    82         10
    85          4
    86          9
    87         16
    88          5
    89          9
    90          3
    91         27
    92          3
    97          3
    98         19
    99          9
   100          5
   101         63
   102        659
   103        999
   104         89
   105         66
   106          6
   107          1
   110          1
   113          3
   114          2
   115          5
   116          1
   117          1
   119          1
   121          1
   128          1
   129         25
   130         84
   131        346
   132         38
   133          3
   138          1
   141          1
   156          1
   158          1
   180          1
   181         23
   182         57
   183         27
   184         54
   185          5
   193          1
   195          1
   208          3
   209        818
   210        700
   211        862
   212        682
   213         67
   214          4