##TITLE=Library Entry 76326
##JCAMP-DX=Revision 4.10 
##DATA TYPE=MASS SPECTRUM
##SAMPLE DESCRIPTION=Div. of Experiment Therapeutics WRAIR, WRAMC, Washingto
n DC 20307
##NAMES=HP
##CAS NAME=Acrolein, 3-ethoxy-, diethyl acetal
##MOLFORM=C9H18O3
##CAS REGISTRY NO=5444-80-4
##MP= -300
##BP= -300
##MW= 174
##$RETENTION INDEX=1102
##$CONDENSED SPECTRUM=NO
##NPOINTS= 63
##XYDATA=(XY..XY) 1 
    41         38
    42          8
    43        124
    44         20
    45         85
    47        363
    49          9
    51          9
    53         16
    55         46
    56          4
    57         44
    58         12
    59         76
    60         46
    61         54
    66          2
    67          5
    69         41
    71        113
    73        100
    75        352
    76          5
    77         12
    79          2
    81         11
    83         31
    84          4
    85         39
    86         40
    87         27
    88         41
    89         41
    95          9
    96          4
    97         26
    99        114
   101         84
   103        999
   105         54
   107          1
   109         11
   110          3
   111         12
   112         10
   113         19
   114          3
   115         21
   116         23
   117         35
   121          1
   123          7
   124          2
   125         19
   127         17
   129         88
   130          3
   144         19
   145         55
   146          5
   173          3
   174          7
   175          3