##TITLE=Library Entry 78249
##JCAMP-DX=Revision 4.10 
##DATA TYPE=MASS SPECTRUM
##SAMPLE DESCRIPTION=CARL DJERASSI DEPT OF CHEM STANFORD UNIV STANFORD CALIF
 94305
##NAMES=HP
##CAS NAME=Olean-12-en-28-al, cyclic 1,2-ethanediyl mercaptal
##MOLFORM=C32H52S2
##CAS REGISTRY NO=54446-81-0
##MP= -300
##BP= -300
##MW= 500
##$RETENTION INDEX=0
##$CONDENSED SPECTRUM=NO
##NPOINTS= 135
##XYDATA=(XY..XY) 1 
    40         19
    41        679
    42         79
    43        549
    44         49
    45        219
    46          9
    47         29
    51          9
    53         79
    54         29
    55        589
    56         59
    57        159
    59         29
    60         29
    61        179
    65         29
    66         19
    67        250
    68         59
    69        709
    70         49
    71         39
    73         29
    77         89
    78         19
    79        179
    80         29
    81        489
    82         49
    83        149
    84          9
    85         29
    87         19
    91        209
    92         39
    93        219
    94         29
    95        500
    96         39
    97        109
    99          9
   103          9
   104          9
   105        999
   106         79
   107        279
   108         29
   109        269
   110         19
   111         39
   115         19
   116          9
   117         69
   118         19
   119        169
   120         29
   121        139
   122         19
   123        159
   124          9
   125         19
   128         19
   129         49
   130         19
   131        139
   132         39
   133        130
   134         29
   135         99
   136          9
   137        149
   138          9
   141         19
   142          9
   143         59
   144          9
   145        119
   146         29
   147         79
   148          9
   149         79
   151          9
   155          9
   157         29
   158          9
   159         39
   160          9
   161         49
   163         89
   164          9
   165         39
   171          9
   173         29
   174          9
   175         59
   176          9
   177         59
   179          9
   185          9
   187         39
   188         19
   189        169
   190         49
   191        469
   192         69
   193         19
   198         19
   199          9
   201         39
   202         49
   203        319
   204         49
   205         59
   206         19
   213          9
   215         39
   216          9
   217         49
   229          9
   231         49
   243          9
   257         39
   271          9
   394         69
   395        229
   396         59
   407         12
   408          3
   473         12
   474          1
   485          1
   500          9
   501          3