##TITLE=Library Entry 326
##JCAMP-DX=Revision 4.10 
##DATA TYPE=MASS SPECTRUM
##SAMPLE DESCRIPTION=D.HENNEBERG, MAX-PLANCK INSTITUTE, MULHEIM, WEST GERMAN
Y
##NAMES=HP
##CAS NAME=Iron, tricarbonyl[N,N'-1,2-ethanediylidenebis[cyclohexanamine]-N,
N']-, (TB-5-12)-
##MOLFORM=C17H24FeN2O3
##CAS REGISTRY NO=54446-63-8
##MP= -300
##BP= -300
##MW= 360
##$RETENTION INDEX=0
##$CONDENSED SPECTRUM=NO
##NPOINTS= 225
##XYDATA=(XY..XY) 1 
    26         29
    27         48
    28        999
    29         48
    30         46
    36          0
    38          2
    39         35
    40          5
    41        255
    42         50
    43         90
    44         13
    45          1
    46         10
    48          0
    49          1
    50          4
    51          8
    52          8
    53         28
    54         69
    55        451
    56        205
    57         76
    58          8
    59          1
    63          2
    64          0
    65         11
    66         10
    67         83
    68         58
    69         78
    70         22
    71         17
    73          4
    74          0
    75          0
    76          2
    77         15
    78         13
    79         23
    80         36
    81         77
    82        513
    83        369
    84         34
    85          8
    86          7
    88          1
    89          1
    90          1
    91          7
    92          6
    93         64
    94         28
    95        387
    96        131
    97         35
    98         20
    99         18
   100          2
   101          0
   103          5
   104          1
   105          3
   106          5
   107         17
   108         28
   109        103
   110         69
   111         27
   112         28
   113         11
   114         19
   115          2
   116          1
   117          5
   118         13
   119          8
   120         19
   121         44
   122         48
   123         32
   124         17
   125         14
   126          4
   127          1
   128          1
   130          0
   131          1
   132          3
   133          2
   134         24
   135         35
   136         11
   137        133
   138         81
   139        103
   140         12
   141          2
   142          2
   143          1
   144          1
   145          1
   146          1
   149         63
   150         14
   151         29
   152         11
   153          7
   154          3
   155          1
   156          0
   157          1
   159          1
   160         11
   161          6
   162          6
   163         14
   164         93
   165         25
   166         24
   167          3
   168          9
   169          1
   170          0
   171          1
   172          1
   173          4
   174          4
   175         16
   176          4
   177        481
   178         84
   179         21
   180          3
   181          1
   183          1
   184          0
   186          1
   187          4
   188          7
   189          8
   190         26
   191         60
   192         74
   193         23
   194        156
   195         23
   196          8
   197          1
   199          1
   200          1
   201          3
   202          1
   203          3
   204          3
   205          5
   206          1
   213          2
   214          2
   215          6
   216          7
   217          5
   218         24
   219         22
   220         55
   221          8
   222          1
   223          0
   225          1
   226          0
   227          3
   228          1
   229          3
   230          2
   231          4
   232          3
   233          1
   234          1
   236          2
   241          0
   243          1
   244          1
   245          2
   246          3
   248          2
   249          0
   250          1
   252          1
   253          0
   257          1
   258          0
   259          4
   260          1
   261          0
   265          1
   267          0
   268          3
   269          4
   270         20
   271         15
   272         91
   273         19
   274        327
   275         71
   276        698
   277        131
   278         14
   302          8
   303          3
   304        134
   305         25
   306          3
   330          2
   332         32
   333          8
   334          0
   356          0
   357          0
   358          2
   360         32
   361          6