##TITLE=Library Entry 180
##JCAMP-DX=Revision 4.10 
##DATA TYPE=MASS SPECTRUM
##SAMPLE DESCRIPTION=D.HENNEBERG, MAX-PLANCK INSTITUTE, MULHEIM, WEST GERMAN
Y
##NAMES=HP
##CAS NAME=Iron, tricarbonyl[N,N'-1,2-ethanediylidenebis[2-propanamine]-N,N'
]-, (TB-5-12)-
##MOLFORM=C11H16FeN2O3
##CAS REGISTRY NO=54446-62-7
##MP= -300
##BP= -300
##MW= 280
##$RETENTION INDEX=0
##$CONDENSED SPECTRUM=NO
##NPOINTS= 131
##XYDATA=(XY..XY) 1 
    26         29
    27         86
    28        999
    29         13
    30         33
    31          0
    32          5
    37          1
    38          5
    39         27
    40         21
    41        147
    42        112
    43        428
    44         34
    45          0
    50          1
    51          2
    52          4
    53          6
    54         19
    55         42
    56        136
    57         13
    58         11
    59          1
    63          0
    65          2
    66          2
    67          4
    68         21
    69         18
    70         92
    71         32
    72          8
    73          0
    75          0
    78          1
    79          1
    80         13
    81         17
    82         41
    83        283
    84         28
    85          6
    86          0
    87          0
    93          2
    94          2
    95          6
    96          6
    97         33
    98         20
    99         10
   105          0
   106          0
   107          0
   108         15
   109          7
   110         15
   111          9
   112         29
   113         23
   114          3
   115          0
   121          3
   122          2
   123         10
   124         12
   125        255
   126         25
   127          8
   128          8
   129          0
   132          0
   133          0
   136          1
   137         10
   138         11
   139         32
   140         25
   141          3
   142          0
   148          0
   149          1
   150          2
   151          3
   152         12
   153         16
   154         91
   155          8
   156          1
   161          1
   162          0
   163          4
   164          3
   165         13
   166          5
   167          1
   168         15
   169          1
   170          1
   172          0
   177          4
   178          5
   179         29
   180         38
   181         41
   182          3
   183          0
   192         15
   193          4
   194        139
   195         22
   196        230
   197         24
   198          1
   209          0
   222          6
   223          2
   224         90
   225         11
   226          1
   250          2
   252         29
   253          1
   254          0
   278          1
   280         26
   281          4
   282          0