##TITLE=Library Entry 24629
##JCAMP-DX=Revision 4.10 
##DATA TYPE=MASS SPECTRUM
##SAMPLE DESCRIPTION=Exported from NIST MS Search
##NAMES=HP
##CAS NAME=Ethanol, 1-(2-butoxyethoxy)-
##MOLFORM=C8H18O3
##CAS REGISTRY NO=54446-78-5
##MP= -300
##BP= -300
##MW= 162
##$RETENTION INDEX=1187
##$CONDENSED SPECTRUM=NO
##NPOINTS= 68
##XYDATA=(XY..XY) 1 
    26          6
    27         86
    28         72
    29        245
    30         15
    31         81
    32          6
    33         16
    39         34
    40          5
    41        293
    42         24
    43         90
    44         77
    45        990
    46         29
    47          6
    51          1
    53          5
    54          3
    55         60
    56        178
    57        999
    58         57
    59        105
    60         79
    61         41
    62         43
    63         18
    67          1
    69         14
    70          3
    71         57
    72        104
    73         59
    74          6
    75        225
    76         14
    77         29
    78          1
    82          5
    83          7
    84          1
    85         62
    86          7
    87        155
    88         26
    89        122
    90         15
    91          2
    98          3
    99          6
   100         95
   101         89
   102          8
   103          5
   104          1
   105          2
   107          6
   115          4
   119         10
   129          4
   131         34
   132         47
   133          4
   144          8
   145          1
   163          8