##TITLE=Library Entry 11228
##JCAMP-DX=Revision 4.10 
##DATA TYPE=MASS SPECTRUM
##SAMPLE DESCRIPTION=NIST Mass Spectrometry Data Center, 1990.
##NAMES=HP
##CAS NAME=3-Nonanone, 2-methyl-
##MOLFORM=C10H20O
##CAS REGISTRY NO=5445-31-8
##MP= -300
##BP= -300
##MW= 156
##$RETENTION INDEX=1415
##$CONDENSED SPECTRUM=NO
##NPOINTS= 26
##XYDATA=(XY..XY) 1 
    27        165
    28         73
    29        107
    39        113
    41        337
    42        108
    43        999
    44         36
    53         20
    55         98
    56         38
    57        168
    58         16
    67         12
    68         21
    69         31
    71        250
    72         14
    85        298
    86        182
    87         24
    95         42
    99         15
   113        511
   114         41
   156         82