##TITLE=Library Entry 32992
##JCAMP-DX=Revision 4.10 
##DATA TYPE=MASS SPECTRUM
##SAMPLE DESCRIPTION=Chemical Concepts
##NAMES=HP
##CAS NAME=Cyclopentanol, 2,2'-thiobis-
##MOLFORM=C10H18O2S
##CAS REGISTRY NO=5445-02-3
##MP= -300
##BP= -300
##MW= 202
##$RETENTION INDEX=0
##$CONDENSED SPECTRUM=NO
##NPOINTS= 129
##XYDATA=(XY..XY) 1 
    26         10
    27        174
    28         41
    29        352
    30         14
    31        130
    34          2
    35          9
    38          5
    39        160
    40         27
    41        507
    42         32
    43        149
    44         26
    45        135
    46         13
    47         87
    48          3
    49          3
    51          8
    52          2
    53         63
    54         29
    55        312
    56        144
    57        323
    58         17
    59         41
    60        106
    61        111
    62          8
    63          6
    65         64
    66        117
    67        999
    68        187
    69         38
    70          6
    71         30
    72         17
    73        177
    74         29
    75         15
    76          4
    77          3
    78          0
    79         16
    80          8
    81         13
    82         11
    83        369
    84        874
    85        326
    86         23
    87        105
    88         97
    89        152
    90        116
    91         62
    92          9
    93         14
    94          0
    95          8
    96          0
    97         25
    98         36
    99        104
   100        172
   101        202
   102         23
   103         37
   104          5
   105          5
   106          2
   107          5
   108          3
   109          1
   111          2
   112          0
   113         12
   114          8
   115          8
   116         58
   117        205
   118         24
   119         10
   121          3
   122          1
   123          3
   125          1
   127          7
   128          1
   129          7
   131          6
   132          1
   133          8
   134          1
   135          2
   139          5
   140          2
   141          1
   143          3
   144          1
   145          6
   146         94
   147         11
   148          4
   149          1
   150          1
   151          4
   152          7
   153          2
   155          7
   156          4
   157          3
   166          2
   167          4
   168         20
   169         13
   174         11
   183          1
   184        194
   185         31
   186          9
   187          5
   202         71
   203          9
   204          2