##TITLE=Library Entry 56997
##JCAMP-DX=Revision 4.10 
##DATA TYPE=MASS SPECTRUM
##SAMPLE DESCRIPTION=Chuck Anderson, Aldrich Chemical Co.
##NAMES=HP
##CAS NAME=Propanoic acid, 2-bromo-, methyl ester
##MOLFORM=C4H7BrO2
##CAS REGISTRY NO=5445-17-0
##MP= -300
##BP= -300
##MW= 166
##$RETENTION INDEX=836
##$CONDENSED SPECTRUM=NO
##NPOINTS= 61
##XYDATA=(XY..XY) 1 
    13          2
    14         10
    15        274
    16          3
    25         12
    26        134
    27        792
    28        203
    29        116
    30         18
    31         62
    32          1
    33          2
    37          2
    38          2
    39          9
    41         37
    42          6
    43        126
    44          7
    45         11
    53          7
    54          3
    55         83
    56         31
    57          3
    59        419
    60          8
    79         12
    80          3
    81         12
    82          3
    87        999
    88         39
    89          3
    92          3
    93          4
    94          8
    95          8
    96          4
    97          4
   105          6
   106         44
   107        696
   108         54
   109        657
   110         12
   120          1
   122          1
   123          2
   125          2
   133          1
   134          4
   135         71
   136          5
   137         68
   138          1
   166         53
   167          1
   168         48
   169          1