##TITLE=Library Entry 759
##JCAMP-DX=Revision 4.10 
##DATA TYPE=MASS SPECTRUM
##SAMPLE DESCRIPTION=Japan AIST/NIMC Database- Spectrum MS-NW-3780
##NAMES=HP
##CAS NAME=Ethyl-4-nitrophenylacetate
##MOLFORM=C10H11NO4
##CAS REGISTRY NO=5445-26-1
##MP= -300
##BP= -300
##MW= 209
##$RETENTION INDEX=0
##$CONDENSED SPECTRUM=NO
##NPOINTS= 89
##XYDATA=(XY..XY) 1 
    14          1
    15          7
    18          1
    26          9
    27         69
    28         15
    29        999
    30        154
    31          3
    32          1
    37          3
    38         12
    39         52
    40          9
    41          6
    42          2
    43          9
    44          3
    45         14
    46          1
    49          1
    50         20
    51         37
    52         19
    53          5
    55          2
    59          1
    60          1
    61          4
    62         23
    63         77
    64         34
    65         10
    66          1
    68          2
    73         13
    74          5
    75          5
    76          4
    77         42
    78        158
    79         33
    80          2
    85          1
    86          4
    87          5
    88          4
    89        190
    90        229
    91         59
    92          5
    93          2
    94          1
   103          2
   104          3
   105          5
   106        109
   107        132
   108         10
   109          1
   115          1
   117          8
   118          4
   119         40
   120        100
   121         21
   122          4
   133          4
   134          1
   135         16
   136        326
   137        419
   138         33
   139          3
   148          8
   149          1
   150          5
   163          8
   164         39
   165         20
   166          2
   179          3
   181         20
   182          2
   193          9
   194          1
   209        104
   210         13
   211          2