##TITLE=Library Entry 18932
##JCAMP-DX=Revision 4.10 
##DATA TYPE=MASS SPECTRUM
##SAMPLE DESCRIPTION=NIST Mass Spectrometry Data Center
##NAMES=HP
##CAS NAME=Ethyl 2-bromooctanoate
##MOLFORM=C10H19BrO2
##CAS REGISTRY NO=5445-29-4
##MP= -300
##BP= -300
##MW= 250
##$RETENTION INDEX=1383
##$CONDENSED SPECTRUM=NO
##NPOINTS= 144
##XYDATA=(XY..XY) 1 
    15          8
    19          1
    26         19
    27        270
    29        569
    30         16
    31         12
    37          1
    38          6
    39        183
    40         34
    41        510
    42        153
    43        418
    44         19
    45         62
    46          2
    47          3
    50          4
    51         12
    52          7
    53         74
    54         32
    55        999
    56         86
    57        218
    58         12
    59         12
    60         20
    61         11
    62          1
    63          2
    65         11
    66          5
    67         64
    68         30
    69        122
    70         55
    71         44
    72          4
    73        324
    74         13
    75          2
    77          5
    78          1
    79         13
    80          5
    81         44
    82         36
    83         97
    84         21
    85         21
    86         15
    87         13
    88         44
    89          3
    91          2
    93          7
    94          1
    95         46
    96         17
    97        234
    98         48
    99         53
   100          7
   101        183
   102         12
   103          1
   105          4
   106         25
   107         24
   108         26
   109         18
   111          3
   113         15
   114          3
   115         27
   116          6
   119          8
   120         12
   121         27
   122         14
   123         24
   124          8
   125         94
   126          8
   127         20
   128          4
   129        120
   130          9
   131          1
   132          2
   133          9
   134          3
   135         43
   136          2
   137         34
   138        210
   139          6
   140        205
   141          8
   142          2
   143        297
   144         26
   145          2
   147          2
   149          3
   151         20
   152          1
   153         19
   162          1
   163          1
   164          1
   165          9
   166        511
   167         30
   168        490
   169         22
   170          3
   171        416
   172         45
   173          4
   175          1
   177          2
   179         21
   180          1
   181         20
   182          1
   193          8
   195          7
   205         11
   206          1
   207         11
   208          3
   209          1
   210          2
   221         32
   222          3
   223         31
   224          3
   235          1
   237          1
   250          1
   252          1