##TITLE=Library Entry 48272
##JCAMP-DX=Revision 4.10 
##DATA TYPE=MASS SPECTRUM
##SAMPLE DESCRIPTION=Div. of Experiment Therapeutics WRAIR, WRAMC, Washingto
n DC 20307
##NAMES=HP
##CAS NAME=4-Chloro-2-nitrophenylhydrazine
##MOLFORM=C6H6ClN3O2
##CAS REGISTRY NO=54454-57-8
##MP= -300
##BP= -300
##MW= 187
##$RETENTION INDEX=0
##$CONDENSED SPECTRUM=NO
##NPOINTS= 85
##XYDATA=(XY..XY) 1 
    41         13
    42          9
    43         16
    44         10
    45          9
    46          9
    47         10
    48          3
    49         42
    50        123
    51        269
    52        133
    53         31
    54         12
    55          9
    56          6
    57          5
    60         14
    61         54
    62         97
    63        203
    64         52
    65         20
    66          2
    67          4
    71          9
    72         18
    73         73
    74         89
    75        269
    76        128
    77        164
    78        999
    79        111
    80         13
    84         18
    85         33
    86         68
    87         57
    88         45
    89         28
    90         49
    91         10
    92          5
    94         17
    95          6
    97         28
    98         40
    99         48
   100         15
   101         13
   103         15
   105         28
   106          8
   108          4
   110         22
   111        432
   112         31
   113        179
   114         53
   115         10
   116         12
   124        166
   125        112
   126         78
   127         45
   128          9
   135          2
   139         29
   140          4
   141         27
   142         12
   143          7
   145          7
   147          2
   153         32
   155          8
   169         37
   170         23
   171         21
   172          7
   187        357
   188         19
   189        122
   190         12