##TITLE=Library Entry 97
##JCAMP-DX=Revision 4.10 
##DATA TYPE=MASS SPECTRUM
##SAMPLE DESCRIPTION=Japan AIST/NIMC Database- Spectrum MS-NW-7373
##NAMES=HP
##CAS NAME=1,1-Cyclobutanedicarboxylic acid
##MOLFORM=C6H8O4
##CAS REGISTRY NO=5445-51-2
##MP= -300
##BP= -300
##MW= 144
##$RETENTION INDEX=0
##$CONDENSED SPECTRUM=NO
##NPOINTS= 95
##XYDATA=(XY..XY) 1 
    12          2
    13          3
    14         11
    15         33
    16          5
    17         17
    18         58
    19          9
    24          2
    25         28
    26        352
    27        999
    28        478
    29        186
    30          6
    31         49
    34          1
    36          6
    37         40
    38         63
    39        463
    40         60
    41        212
    42         99
    43        249
    44         60
    45        617
    46         67
    47          7
    48          4
    49         31
    50        125
    51        149
    52        110
    53        584
    54        437
    55        475
    56         83
    57         49
    58         25
    59          2
    60         17
    61          3
    62          2
    63          3
    64          2
    65          1
    66          7
    67          9
    68         24
    69        110
    70        177
    71        114
    72        689
    73         49
    74          6
    77          4
    78          1
    79          9
    80        252
    81        134
    82        486
    83         45
    84          6
    85        171
    86         11
    87          3
    88          4
    89          1
    92          1
    93          1
    95          3
    96          8
    97         56
    98        230
    99        408
   100        317
   101         23
   102          3
   108        380
   109         29
   110          2
   111          9
   112          1
   115          1
   116          3
   117         82
   118          5
   119          1
   125          7
   126        286
   127         37
   128          5
   129          2
   145          2