##TITLE=Library Entry 114504
##JCAMP-DX=Revision 4.10 
##DATA TYPE=MASS SPECTRUM
##SAMPLE DESCRIPTION=NIST Mass Spectrometry Data Center, 1994
##NAMES=HP
##CAS NAME=5-Chloro-1,3-dimethylpyrazole
##MOLFORM=C5H7ClN2
##CAS REGISTRY NO=54454-10-3
##MP= -300
##BP= -300
##MW= 130
##$RETENTION INDEX=0
##$CONDENSED SPECTRUM=NO
##NPOINTS= 85
##XYDATA=(XY..XY) 1 
    12         14
    13         24
    14        111
    15        805
    16         10
    17          1
    24          5
    25         38
    26        157
    27        284
    28        327
    29          4
    30         11
    35         18
    36         23
    37         68
    38         87
    39        115
    40         94
    41        100
    42        343
    43        127
    44          3
    46          2
    47         30
    48         25
    49        110
    50        210
    51        476
    52        321
    53        142
    54        364
    55         89
    56          6
    60         73
    61         72
    62         84
    63         37
    64         36
    65         43
    66        119
    67         45
    68        211
    69         24
    70          4
    71          4
    72         11
    73         13
    74         36
    75         23
    76         61
    77         21
    78         26
    79         55
    80        108
    81          7
    84         13
    85         21
    86         37
    87         39
    88         75
    89         50
    90         22
    91         16
    92          7
    93         59
    94          7
    95        658
    96         42
   100         22
   101          6
   102         53
   103          6
   104         14
   112          3
   113          2
   115        332
   116         17
   117        107
   118          5
   129        546
   130        999
   131        235
   132        318
   133         19