##TITLE=Library Entry 33635
##JCAMP-DX=Revision 4.10 
##DATA TYPE=MASS SPECTRUM
##SAMPLE DESCRIPTION=R. SINNHUBER, DEP. FOOD SCI. TECHNOL., OREGON STATE UNI
V., U
##NAMES=HP
##CAS NAME=1,2-Dipentylcyclopropene
##MOLFORM=C13H24
##CAS REGISTRY NO=54467-84-4
##MP= -300
##BP= -300
##MW= 180
##$RETENTION INDEX=0
##$CONDENSED SPECTRUM=NO
##NPOINTS= 41
##XYDATA=(XY..XY) 1 
    27        330
    29        250
    32        130
    39        240
    40         70
    41        670
    42         70
    43        190
    44         30
    51         50
    52         30
    53        210
    54         80
    55        400
    56         80
    57         70
    65        130
    66         70
    67        570
    68        999
    69        270
    70         30
    77        190
    78         50
    79        300
    80         70
    81        990
    82        320
    83         70
    91         80
    93         80
    95        830
    96        110
   109        300
   110         50
   123        200
   124        480
   125         70
   137         30
   151         30
   180        110