##TITLE=Library Entry 92147
##JCAMP-DX=Revision 4.10 
##DATA TYPE=MASS SPECTRUM
##SAMPLE DESCRIPTION=Exported from NIST MS Search
##NAMES=HP
##CAS NAME=4-Heptanol, 4-ethyl-2,6-dimethyl-
##MOLFORM=C11H24O
##CAS REGISTRY NO=54460-99-0
##MP= -300
##BP= -300
##MW= 172
##$RETENTION INDEX=0
##$CONDENSED SPECTRUM=NO
##NPOINTS= 65
##XYDATA=(XY..XY) 1 
    15          4
    17          3
    18         14
    27         69
    28         29
    29        105
    30          3
    31         23
    32          7
    39         39
    40          8
    41        179
    42         18
    43        403
    44         17
    45         63
    46          2
    51          3
    53         18
    54          5
    55        346
    56         27
    57        662
    58         53
    59        279
    60         10
    65          5
    67         13
    68          3
    69        254
    70         39
    71         44
    72         24
    73        444
    74         14
    77          5
    79          4
    81          7
    83        108
    84         17
    85         59
    86          5
    87         42
    95          3
    97         92
    98         10
    99         16
   100          2
   101         16
   110          2
   111          8
   112          4
   113          4
   114          4
   115        999
   116         80
   117          5
   125         18
   126          3
   127          4
   139          3
   143        262
   144         26
   145          2
   157          8