##TITLE=Library Entry 16770
##JCAMP-DX=Revision 4.10 
##DATA TYPE=MASS SPECTRUM
##SAMPLE DESCRIPTION=Exported from NIST MS Search
##NAMES=HP
##CAS NAME=Propane, 1,1'-oxybis[2-chloro-
##MOLFORM=C6H12Cl2O
##CAS REGISTRY NO=54460-96-7
##MP= -300
##BP= -300
##MW= 170
##$RETENTION INDEX=1055
##$CONDENSED SPECTRUM=NO
##NPOINTS= 113
##XYDATA=(XY..XY) 1 
    12          1
    13          3
    14         17
    15          1
    16          1
    17          2
    18          3
    25          1
    26          7
    27         74
    28         78
    29         33
    30          3
    31         76
    32         17
    33          1
    36          4
    37          3
    38          7
    39         91
    40         16
    41        522
    42         71
    43         76
    44          8
    45        999
    46         23
    47          3
    48          2
    49         58
    50          1
    51         20
    52          1
    53          2
    54          1
    55          3
    56          1
    57         18
    58         13
    59         45
    60          2
    61          9
    62          8
    63         30
    64          4
    65         10
    66          1
    67          2
    68          1
    69          3
    70          1
    71         93
    72          2
    73          1
    74          1
    75         12
    76         25
    77         42
    78         22
    79        171
    80          6
    81         14
    82          1
    83          1
    84          1
    85          1
    86          1
    87          1
    88          1
    89         58
    90          3
    91         21
    92          2
    93         20
    94          1
    95          7
    96          1
    97          1
    98          1
    99          1
   100          1
   101          1
   102          1
   103          1
   104          1
   105          1
   106          1
   107        228
   108         11
   109         76
   110          4
   111          1
   117          1
   119          1
   121        287
   122         17
   123         96
   124          6
   125          1
   133          1
   134          2
   135          1
   136          1
   137          1
   138          3
   139          1
   155          2
   156          1
   157          1
   170          1
   171          1
   172          1
   173          1