##TITLE=Library Entry 46208
##JCAMP-DX=Revision 4.10 
##DATA TYPE=MASS SPECTRUM
##SAMPLE DESCRIPTION=Exported from NIST MS Search
##NAMES=HP
##CAS NAME=Butanoic acid, 2,3-dichloro-, methyl ester
##MOLFORM=C5H8Cl2O2
##CAS REGISTRY NO=54460-97-8
##MP= -300
##BP= -300
##MW= 170
##$RETENTION INDEX=1007
##$CONDENSED SPECTRUM=NO
##NPOINTS= 51
##XYDATA=(XY..XY) 1 
    13         15
    15        512
    19         26
    25         10
    26         45
    27         84
    29         97
    30         13
    31         16
    35         13
    36         16
    37         49
    38         81
    39        615
    40         97
    41        495
    42         26
    43         55
    45         19
    49        142
    51         45
    53         19
    55         16
    59        379
    60         13
    61         32
    62         16
    63         16
    69         91
    75        372
    76        999
    77        155
    78        302
    79         18
    83         29
    85         20
    89         14
    93         25
    95         44
    99         52
   103         84
   105         30
   110         17
   111        140
   112         16
   113         87
   115         14
   135         33
   137         10
   139          5
   141          2