##TITLE=Library Entry 2766
##JCAMP-DX=Revision 4.10 
##DATA TYPE=MASS SPECTRUM
##SAMPLE DESCRIPTION=R. SINNHUBER, DEP. FOOD SCI. TECHNOL., OREGON STATE UNI
V., U
##NAMES=HP
##CAS NAME=2-Octylcyclopropene-1-heptanol
##MOLFORM=C18H34O
##CAS REGISTRY NO=54467-85-5
##MP= -300
##BP= -300
##MW= 266
##$RETENTION INDEX=0
##$CONDENSED SPECTRUM=NO
##NPOINTS= 75
##XYDATA=(XY..XY) 1 
    27        270
    29        520
    31        370
    39        200
    41        999
    43        540
    45         10
    52         20
    53        200
    54        170
    55        760
    56        170
    57        230
    58         20
    65         90
    66        100
    67        760
    68        550
    69        430
    70        120
    71        100
    77         70
    79        480
    80        130
    81        620
    82        560
    83        210
    84         70
    85         50
    91        120
    92         20
    93        290
    94        150
    95        620
    96        170
    97        150
    98        120
   107         30
   108         50
   109        190
   110        180
   111         90
   112         40
   121         60
   122         20
   123         90
   124         40
   126         10
   135         90
   136         20
   137         30
   138         10
   139         10
   140         10
   149         20
   150         10
   151         30
   152         10
   153         10
   163         10
   165         10
   166         30
   167         10
   168         10
   179         10
   181         10
   193         10
   195         10
   205         10
   207         10
   209         10
   219         10
   223         10
   248         10
   251         10