##TITLE=Library Entry 24456
##JCAMP-DX=Revision 4.10 
##DATA TYPE=MASS SPECTRUM
##SAMPLE DESCRIPTION=Exported from NIST MS Search
##NAMES=HP
##CAS NAME=1-Hexanol, 2-ethyl-2-propyl-
##MOLFORM=C11H24O
##CAS REGISTRY NO=54461-00-6
##MP= -300
##BP= -300
##MW= 172
##$RETENTION INDEX=0
##$CONDENSED SPECTRUM=NO
##NPOINTS= 93
##XYDATA=(XY..XY) 1 
    13          1
    14          3
    15         30
    16          2
    17          1
    18          4
    19          4
    24          1
    25          1
    26         16
    27        313
    28         57
    29        400
    30         12
    31        174
    32          3
    33          3
    37          3
    38          7
    39        159
    40         26
    41        574
    42         64
    43        907
    44         38
    45         35
    46          1
    50          4
    51         17
    52          9
    53         66
    54         24
    55        574
    56         68
    57        999
    58         48
    59        103
    60          4
    61          1
    62          1
    63          3
    64          2
    65         13
    66          7
    67         46
    68         20
    69        370
    70        110
    71        554
    72         38
    73         49
    74          3
    75          1
    77         11
    78          3
    79         11
    80          3
    81         17
    82         11
    83        101
    84         27
    85        592
    86         43
    87         20
    88          2
    91          3
    93          1
    95          4
    96          4
    97         44
    98         35
    99         71
   100          6
   101          2
   110          2
   111         24
   112          7
   113          2
   114          6
   115         19
   116          1
   125          5
   126          1
   127          1
   128          4
   129         16
   130          1
   140         73
   141        339
   142         37
   143         21
   144          2
   154          1