##TITLE=Library Entry 73580
##JCAMP-DX=Revision 4.10 
##DATA TYPE=MASS SPECTRUM
##SAMPLE DESCRIPTION=RH-19
##NAMES=HP
##CAS NAME=Bicyclo[2.2.2]octane, 1-methyl-4-(methylthio)-
##MOLFORM=C10H18S
##CAS REGISTRY NO=54461-02-8
##MP= -300
##BP= -300
##MW= 170
##$RETENTION INDEX=0
##$CONDENSED SPECTRUM=NO
##NPOINTS= 119
##XYDATA=(XY..XY) 1 
    12          1
    13          1
    14          4
    15         30
    26         19
    27        169
    28         54
    29        126
    30          3
    32          5
    33          3
    34          4
    35          8
    37          6
    38         19
    39        257
    40         47
    41        268
    42         20
    43         35
    44         14
    45        108
    46         33
    47         91
    48         24
    49         13
    50         32
    51         76
    52         35
    53        174
    54         32
    55        173
    56         17
    57         23
    58         37
    59         53
    60          7
    61         72
    62         14
    63         33
    64          8
    65         99
    66         33
    67        275
    68         45
    69         63
    70         11
    71         47
    72         21
    73         24
    74         13
    75         20
    76          8
    77        188
    78         47
    79        242
    80         41
    81        505
    82         43
    83          9
    84          8
    85        204
    86         20
    87         30
    88         10
    89         10
    90          4
    91        142
    92         27
    93        173
    94         63
    95        108
    96         11
    97         28
    98         15
    99         85
   100        999
   101         78
   102         56
   103         10
   104          3
   105         20
   106          6
   107         44
   108         11
   109         19
   110          7
   111         15
   112         14
   113         54
   114          6
   115          7
   119          4
   120          3
   121         23
   122         50
   123        230
   124         27
   125         15
   126          5
   127         42
   128          6
   129          3
   139          3
   140          9
   141        111
   142         18
   143          7
   154          4
   155        233
   156         32
   157         13
   158          3
   168          4
   169          9
   170        722
   171         85
   172         38
   173          4