##TITLE=Library Entry 57329
##JCAMP-DX=Revision 4.10 
##DATA TYPE=MASS SPECTRUM
##SAMPLE DESCRIPTION=Vladimir Zaikin,TIPS RAS, Moscow, Russia
##NAMES=HP
##CAS NAME=Cyclopropanecarboxylic acid,dodecyl ester
##MOLFORM=C16H30O2
##CAS REGISTRY NO=54460-43-4
##MP= -300
##BP= -300
##MW= 254
##$RETENTION INDEX=0
##$CONDENSED SPECTRUM=NO
##NPOINTS= 47
##XYDATA=(XY..XY) 1 
    36         25
    38          9
    39        170
    40         45
    41        630
    42        120
    43        395
    44         40
    45         33
    50         10
    51         12
    53         21
    54         45
    55        295
    56        210
    57        220
    58         18
    67         50
    68         80
    69        940
    70        200
    71         88
    81         21
    82         65
    83        190
    84        130
    85         50
    86         35
    87        999
    88         45
    89          7
    96         30
    97        125
    98         70
    99         12
   110          8
   111         68
   112         40
   113          5
   124          7
   125         28
   126         17
   139          8
   140         45
   141          6
   168         85
   169         10