##TITLE=Library Entry 74065
##JCAMP-DX=Revision 4.10 
##DATA TYPE=MASS SPECTRUM
##SAMPLE DESCRIPTION=KONINKLIJKE SHELL LABORATORIUM AMSTERDAM
##NAMES=HP
##CAS NAME=Butanoic acid, 3,3-dimethyl-2-(1-methylethyl)-, methyl ester
##MOLFORM=C10H20O2
##CAS REGISTRY NO=54461-01-7
##MP= -300
##BP= -300
##MW= 172
##$RETENTION INDEX=0
##$CONDENSED SPECTRUM=NO
##NPOINTS= 99
##XYDATA=(XY..XY) 1 
    31         14
    32          0
    33          3
    36          0
    37          4
    38         14
    39        224
    40         34
    41        439
    42         35
    43        185
    44          7
    45         11
    46          0
    47          0
    48          0
    49          0
    50          7
    51         16
    52          7
    53         52
    54         11
    55        164
    56         32
    57        642
    58         28
    59         82
    60          3
    61          1
    62          0
    63          2
    64          0
    65          6
    66          3
    67         20
    68          7
    69        128
    70          9
    71         17
    72          1
    73        110
    74         15
    75          2
    76          0
    77          4
    78          1
    79          4
    80          0
    81          8
    82         10
    83        182
    84         19
    85          6
    86          0
    87          7
    88          4
    89          4
    90          2
    91          2
    92          1
    93          0
    94          0
    95          1
    96          1
    97         51
    98         10
    99          5
   100          8
   101        999
   102         55
   103          5
   104          0
   105          0
   109          1
   110          0
   111          1
   112          2
   113         18
   114          6
   115        253
   116        495
   117         38
   118          3
   119          0
   125          7
   126          0
   127          0
   128          0
   129          1
   130         28
   131          2
   132          0
   140          2
   141         39
   142          3
   143          0
   157          6
   158          2
   159          0