##TITLE=Library Entry 78793
##JCAMP-DX=Revision 4.10 
##DATA TYPE=MASS SPECTRUM
##SAMPLE DESCRIPTION=Div. of Experiment Therapeutics WRAIR, WRAMC, Washingto
n DC 20307
##NAMES=HP
##CAS NAME=1-Benzoyl-3-amino-4-cyano-3-pyrroline
##MOLFORM=C12H11N3O
##CAS REGISTRY NO=54476-01-6
##MP= -300
##BP= -300
##MW= 213
##$RETENTION INDEX=0
##$CONDENSED SPECTRUM=NO
##NPOINTS= 90
##XYDATA=(XY..XY) 1 
    41         90
    42         97
    43         50
    44         13
    45         19
    46          1
    47          4
    48          3
    49         26
    50        128
    51        419
    52        149
    53        157
    54        134
    55         27
    56         19
    57          4
    60          1
    61          2
    62          7
    63         19
    64         18
    65         21
    66         25
    67         28
    68          3
    69          3
    70          0
    71          1
    73          6
    74         38
    75         30
    76         52
    77        630
    78         43
    79         20
    80         22
    81         57
    82          5
    83          1
    84          6
    85          1
    86          3
    87          0
    89          1
    90          1
    91         12
    92         12
    93          5
    94          7
    95          3
    97          1
   102          1
   103          3
   105        999
   106         79
   107         51
   108         39
   110          1
   111          1
   113          1
   115          1
   116          1
   117          1
   120          1
   121          0
   122          3
   123          1
   132          2
   133          1
   134          1
   135          3
   136          4
   139          1
   141          1
   145          0
   150          3
   155          0
   156          2
   168          0
   169          1
   171          1
   184          4
   185          6
   193          0
   196          2
   212          7
   213         98
   214         29
   215          3