##TITLE=Library Entry 45257
##JCAMP-DX=Revision 4.10 
##DATA TYPE=MASS SPECTRUM
##SAMPLE DESCRIPTION=VERN REINHOLD,A.D.LITTLE INC.,CAMBRIDGE,MASS.
##NAMES=HP
##CAS NAME=.alpha.-D-Glucopyranoside, methyl 2-(acetylamino)-2-deoxy-3-O-(tr
imethylsilyl)-, cyclic methylboronate
##MOLFORM=C13H26BNO6Si
##CAS REGISTRY NO=54477-01-9
##MP= -300
##BP= -300
##MW= 331
##$RETENTION INDEX=0
##$CONDENSED SPECTRUM=NO
##NPOINTS= 236
##XYDATA=(XY..XY) 1 
    30         27
    31         43
    33         12
    35         24
    36         36
    37         23
    38         27
    39         89
    40         65
    41        174
    42        109
    43        253
    44        428
    45        333
    46         38
    47        206
    48         30
    49         26
    50         14
    51         37
    52         28
    53         55
    54         33
    55        121
    56         80
    57         82
    58         31
    59        138
    60         35
    61         52
    63         25
    64         23
    65         27
    66         31
    67         39
    68         38
    69         90
    70         41
    71         40
    72         40
    73        892
    74         98
    75        999
    76         99
    77        214
    78         49
    79         35
    80         33
    81         49
    82         33
    83         64
    84         82
    85         81
    86         24
    87         24
    89         58
    90         17
    91         48
    92         26
    93         29
    94         28
    95         32
    96         47
    97        123
    98         44
    99         36
   100         31
   101         81
   102         28
   103        190
   104         38
   105         42
   106         12
   107         26
   108         19
   109         45
   110         73
   111         92
   112         32
   113         44
   114         35
   115         88
   116         75
   117        282
   118         47
   119         43
   120         15
   121         26
   122         22
   123         30
   124         30
   125         57
   126         51
   127         54
   128         30
   129        160
   130         35
   131         57
   132         30
   133         73
   134         26
   135         57
   136         25
   137         34
   138         38
   139         64
   140         25
   141         33
   142         42
   143        100
   144         25
   145         70
   146         23
   147        181
   148         40
   149         46
   150         27
   151         47
   152         23
   153         27
   154         19
   155         50
   156         33
   157         43
   158         27
   159         35
   160         18
   161         25
   163         41
   165         26
   166         22
   167         32
   168         36
   169         47
   170         46
   171         58
   172         25
   173         35
   174         19
   175         38
   176         16
   177         21
   178         17
   179         31
   180         15
   181         27
   182         22
   183         38
   184         28
   185         29
   186         28
   187         26
   189         69
   190         33
   191         63
   192         29
   193         31
   194         14
   195         25
   196         20
   197         79
   198         33
   199         47
   201         33
   202         17
   203         27
   204        144
   205         63
   206         33
   207         34
   208         15
   209         22
   210         32
   211         35
   212         28
   213         32
   214         18
   215         27
   216         17
   217         57
   218         25
   219         31
   220         11
   221         24
   222         17
   223         18
   224         11
   225         21
   226         14
   227         30
   229         17
   230         18
   231         33
   232         21
   233         19
   235         12
   236         12
   237         18
   239         18
   240         25
   241         43
   242         15
   243         28
   244         15
   245         20
   246         33
   247         28
   249         19
   253         28
   254         24
   255         20
   256         11
   257         29
   267         16
   269         18
   270         13
   271         17
   283         16
   284         18
   285         22
   287         15
   288         15
   289         14
   299         38
   300         22
   301         19
   302         21
   313         17
   314         12
   315         60
   316         31
   317         25
   327         20
   329         22
   330         25
   331         23