##TITLE=Library Entry 64005
##JCAMP-DX=Revision 4.10 
##DATA TYPE=MASS SPECTRUM
##SAMPLE DESCRIPTION=Div. of Experiment Therapeutics WRAIR, WRAMC, Washingto
n DC 20307
##NAMES=HP
##CAS NAME=6-Benzyl-2,4-diamino-6,7-dihydro-5H-pyrrolo[3,4-d]pyrimidine
##MOLFORM=C13H15N5
##CAS REGISTRY NO=54476-34-5
##MP= -300
##BP= -300
##MW= 241
##$RETENTION INDEX=0
##$CONDENSED SPECTRUM=NO
##NPOINTS= 86
##XYDATA=(XY..XY) 1 
    41         43
    42         40
    43        194
    44          8
    45          5
    47          4
    49         17
    50         10
    51         51
    52         68
    53         74
    54         55
    55         10
    57          1
    60          1
    62          3
    63         24
    64          5
    65        120
    66         16
    67         18
    68         25
    69         11
    70          5
    76          1
    77         26
    78         14
    79         27
    80         29
    81         72
    82          6
    84         14
    86          9
    89         28
    91        999
    92         91
    93         11
    94          2
    95         49
    96          6
    97          6
   103          2
   104          1
   105         16
   106         33
   107         31
   108         57
   109          6
   110          3
   115          3
   117          5
   118          6
   120         15
   121          7
   122         16
   123         14
   124         41
   125          4
   128          2
   132         17
   133         22
   135         15
   136         16
   137         29
   138          3
   145          2
   148         20
   149        135
   150        270
   151         18
   162         18
   163          4
   164         25
   180          1
   196          3
   198         25
   211          1
   213          5
   223          7
   237          3
   238          7
   239         13
   240        822
   241        118
   242         32
   243          2