##TITLE=Library Entry 8293
##JCAMP-DX=Revision 4.10 
##DATA TYPE=MASS SPECTRUM
##SAMPLE DESCRIPTION=J.LLOYD PFLUG,FRANK J.SEILER RES.LAB.,USAF ACADEMY,CO 8
0840,USA
##NAMES=HP
##CAS NAME=2-Nitro-tertiary butanol
##MOLFORM=C4H9NO3
##CAS REGISTRY NO=5447-98-3
##MP= -300
##BP= -300
##MW= 119
##$RETENTION INDEX=0
##$CONDENSED SPECTRUM=NO
##NPOINTS= 57
##XYDATA=(XY..XY) 1 
    15         83
    16          4
    17          2
    18          1
    24          1
    25          4
    26         25
    27         67
    28         22
    29         70
    30        174
    31         67
    32          0
    33          1
    36          3
    37         13
    38         21
    39         72
    40         11
    41         66
    42         80
    43        999
    44         94
    45         85
    46        165
    47          1
    48          1
    49          1
    50          7
    51          7
    52          4
    53         24
    54          4
    55        245
    56         29
    57         56
    58        508
    59        494
    60         70
    61        785
    62        129
    63          5
    64          0
    67          0
    69          1
    71          8
    72          1
    73         59
    74          5
    76          1
    84          6
    85          1
    88          1
   101          1
   104        195
   105          9
   106          1