##TITLE=Library Entry 99578
##JCAMP-DX=Revision 4.10 
##DATA TYPE=MASS SPECTRUM
##SAMPLE DESCRIPTION=V.Zaikin,Inst.Petrochem.Synth.,RAS,Moscow
##NAMES=HP
##CAS NAME=m-Toluic acid, 2-butyl ester
##MOLFORM=C12H16O2
##CAS REGISTRY NO=5448-57-7
##MP= -300
##BP= -300
##MW= 192
##$RETENTION INDEX=0
##$CONDENSED SPECTRUM=NO
##NPOINTS= 94
##XYDATA=(XY..XY) 1 
    25          3
    26         22
    27         58
    28         15
    29         92
    39        112
    40         14
    41        150
    42         16
    43         93
    44          3
    49          5
    50         34
    51         58
    52         28
    53         16
    54          3
    55         32
    56         92
    57        122
    58          8
    59         16
    60          4
    61          9
    62         22
    63         61
    64         21
    65        135
    66         10
    67          6
    68          4
    69         18
    70         14
    71         44
    72          6
    73         75
    74         14
    75          9
    76          5
    77         22
    78         12
    79         44
    80          4
    81          6
    82          5
    83          5
    84          4
    85         38
    86          5
    87          6
    88          4
    89         40
    90         46
    91        475
    92         66
    93         36
    94          2
    95          5
    96          5
    97          4
    98          5
    99         10
   101          4
   103          4
   104          3
   105         17
   106          4
   107          8
   108          3
   109          6
   112          3
   113          8
   115          3
   116          2
   117         10
   118         30
   119        999
   120        102
   121         10
   126          4
   127          6
   128          3
   129          4
   131          9
   132          2
   133          3
   134          3
   135         21
   136        254
   137        338
   138         32
   163         14
   177          3
   192         13