##TITLE=Library Entry 48612
##JCAMP-DX=Revision 4.10 
##DATA TYPE=MASS SPECTRUM
##SAMPLE DESCRIPTION=I.FLEMING UNIV. CHEMICAL LABORATORY, CAMBRIDGE, UK
##NAMES=HP
##CAS NAME=Cycloheptene, 5-bromo-
##MOLFORM=C7H11Br
##CAS REGISTRY NO=54484-64-9
##MP= -300
##BP= -300
##MW= 174
##$RETENTION INDEX=0
##$CONDENSED SPECTRUM=NO
##NPOINTS= 24
##XYDATA=(XY..XY) 1 
    32        190
    39        280
    40         50
    41        220
    50         50
    51         90
    52         70
    53        150
    54        160
    55        910
    65        120
    66        180
    67        220
    77        350
    78         70
    79        999
    80        100
    81        150
    91        190
    93        170
    94        640
    95        680
   174         80
   176         80