##TITLE=Library Entry 40763
##JCAMP-DX=Revision 4.10 
##DATA TYPE=MASS SPECTRUM
##SAMPLE DESCRIPTION=Exported from NIST MS Search
##NAMES=HP
##CAS NAME=Hexane, 1-(1-ethoxyethoxy)-
##MOLFORM=C10H22O2
##CAS REGISTRY NO=54484-73-0
##MP= -300
##BP= -300
##MW= 174
##$RETENTION INDEX=1258
##$CONDENSED SPECTRUM=NO
##NPOINTS= 50
##XYDATA=(XY..XY) 1 
    14          8
    15         20
    16          2
    17          5
    18         27
    19         13
    26         12
    27        123
    28        157
    29        178
    30          8
    31         60
    32         39
    36          7
    39         54
    40         16
    41        208
    42         79
    43        567
    44         81
    45        733
    46         24
    47         76
    53         11
    54          8
    55        115
    56        115
    57        107
    58          9
    59         11
    61         21
    67          9
    69         30
    71         10
    73        999
    74         45
    75        273
    76         10
    82          8
    83          9
    85        246
    86         14
    89         14
   103         21
   111          7
   113         11
   129         99
   145          3
   159        153
   173          3