##TITLE=Library Entry 100364
##JCAMP-DX=Revision 4.10 
##DATA TYPE=MASS SPECTRUM
##SAMPLE DESCRIPTION=Zaikin V.G., TIPS RAS, Moscow, Russia
##NAMES=HP
##CAS NAME=m-Toluic acid, pentyl ester
##MOLFORM=C13H18O2
##CAS REGISTRY NO=5448-60-2
##MP= -300
##BP= -300
##MW= 206
##$RETENTION INDEX=1611
##$CONDENSED SPECTRUM=NO
##NPOINTS= 65
##XYDATA=(XY..XY) 1 
    26         16
    27         84
    28          3
    29        101
    30          3
    31          3
    36         12
    38         12
    39        110
    40         15
    41        142
    42        118
    43         75
    44         14
    45          5
    50         15
    51         29
    52          9
    53         12
    54          4
    55         93
    56         11
    57         10
    62          9
    63         42
    64         14
    65        179
    66         11
    67          5
    68          6
    69         27
    70        101
    71          8
    75          3
    76          3
    77         22
    78          4
    79          7
    82          3
    83          8
    84          4
    89         53
    90         42
    91        590
    92         81
    93         63
    94          4
    97          5
   105         11
   107          3
   118         14
   119        999
   120         88
   121          7
   134          3
   135         14
   136        814
   137        497
   138         40
   139          3
   149         16
   150          4
   177          4
   206         37
   207          4