##TITLE=Library Entry 36934
##JCAMP-DX=Revision 4.10 
##DATA TYPE=MASS SPECTRUM
##SAMPLE DESCRIPTION=CARL DJERASSI DEPT OF CHEM STANFORD UNIV STANFORD CALIF
 94305
##NAMES=HP
##CAS NAME=21-Norcholest-24-en-20-one, (5.alpha.,17.xi.)-
##MOLFORM=C26H42O
##CAS REGISTRY NO=54482-51-8
##MP= -300
##BP= -300
##MW= 370
##$RETENTION INDEX=0
##$CONDENSED SPECTRUM=NO
##NPOINTS= 155
##XYDATA=(XY..XY) 1 
    41        353
    42         10
    43         80
    53         50
    54         10
    55        414
    56         50
    57         20
    65         10
    67        363
    68         80
    69        999
    70         60
    71         20
    77         60
    78         10
    79        202
    80         50
    81        494
    82        101
    83        343
    84         70
    85         20
    91        121
    92         30
    93        262
    94        151
    95        606
    96         80
    97         90
    98         60
    99         10
   105        121
   106         40
   107        232
   108        101
   109        676
   110         90
   111        888
   112         90
   113         80
   115         10
   116         10
   117         20
   119         90
   120         70
   121        313
   122        151
   123        323
   124         50
   125         10
   126         20
   127         10
   131         40
   132         30
   133         80
   134        171
   135        383
   136         70
   137        212
   138        131
   139        373
   140         40
   145         40
   146         10
   147        111
   148         80
   149        696
   150        101
   151         40
   152        202
   153         60
   154         10
   159         40
   160         10
   161         90
   162         70
   163        555
   164         70
   165         20
   173         20
   174         10
   175         60
   176         10
   177        131
   178         20
   179         10
   185         10
   187         30
   188         10
   189         70
   190         10
   191         10
   192         10
   193         10
   199         10
   201         20
   202         10
   203        151
   204         50
   205         20
   206         10
   213         30
   214         10
   215         60
   216         30
   217        585
   218        111
   219         30
   227         10
   229         50
   230         20
   231         30
   232         90
   233         30
   241         10
   242         20
   243         40
   244        131
   245         50
   253         10
   255         30
   256         20
   257        141
   258        111
   259        838
   260        202
   261         30
   269         40
   270         50
   271         30
   273         60
   274         10
   284         10
   285         20
   286         20
   287        484
   288        212
   289         30
   296         10
   297         10
   302         60
   303         20
   313         20
   315         20
   337         70
   338         20
   353         40
   354         20
   355        606
   356        161
   357         20
   370        979
   371        292
   372         50