##TITLE=Library Entry 67873
##JCAMP-DX=Revision 4.10 
##DATA TYPE=MASS SPECTRUM
##SAMPLE DESCRIPTION=CARL DJERASSI DEPT OF CHEM STANFORD UNIV STANFORD CALIF
 94305
##NAMES=HP
##CAS NAME=D-Homoandrostane, (5.alpha.,13.alpha.)-
##MOLFORM=C20H34
##CAS REGISTRY NO=54482-31-4
##MP= -300
##BP= -300
##MW= 274
##$RETENTION INDEX=0
##$CONDENSED SPECTRUM=NO
##NPOINTS= 75
##XYDATA=(XY..XY) 1 
    41        760
    42         50
    43        390
    53        160
    54        100
    55        920
    56        130
    57        460
    65         30
    66         40
    67        750
    68        220
    69        880
    70        130
    71        230
    77        100
    79        320
    80         90
    81        760
    82        370
    83        650
    84         40
    85         60
    87        170
    91        140
    93        270
    94        130
    95        999
    96        320
    97        480
    98         20
    99         10
   105         60
   106         20
   107        270
   108        210
   109        810
   110        170
   111        420
   112         30
   113         30
   121        330
   122        120
   123        270
   124         40
   125         80
   135        380
   136         40
   137        300
   138         30
   143         20
   147         30
   148         30
   149        420
   150         60
   151         30
   161         30
   162        100
   163        270
   164        120
   165         30
   175         70
   176         20
   177        190
   178         70
   187         50
   188         30
   189         20
   201         30
   217        280
   218        130
   259        820
   260        150
   274        400
   275         70