##TITLE=Library Entry 72383
##JCAMP-DX=Revision 4.10 
##DATA TYPE=MASS SPECTRUM
##SAMPLE DESCRIPTION=CARL DJERASSI DEPT OF CHEM STANFORD UNIV STANFORD CALIF
 94305
##NAMES=HP
##CAS NAME=Cholestan-3-one, 4,4-dimethyl-, cyclic 1,2-ethanediyl acetal, (5.
alpha.)-
##MOLFORM=C31H54O2
##CAS REGISTRY NO=54498-64-5
##MP= -300
##BP= -300
##MW= 458
##$RETENTION INDEX=0
##$CONDENSED SPECTRUM=NO
##NPOINTS= 277
##XYDATA=(XY..XY) 1 
    40          2
    41         58
    42         12
    43         87
    44          5
    45         14
    51          1
    53          8
    54          2
    55         84
    56         17
    57         65
    58          4
    59          1
    60          2
    61          1
    65          2
    66          2
    67         31
    68         11
    69         60
    70         11
    71         31
    72          2
    73         11
    74          1
    77          8
    78          2
    79         20
    80          4
    81         45
    82         11
    83         27
    84          5
    85         14
    86         25
    87         12
    88          1
    89          1
    91         15
    92          4
    93         27
    94          7
    95         42
    96          7
    97         18
    98          4
    99        999
   100        140
   101         28
   102          2
   103          1
   104          1
   105         14
   106          5
   107         24
   108          8
   109         25
   110          5
   111         10
   112          2
   113         10
   114          4
   115          2
   116          1
   117          2
   118          1
   119         10
   120          2
   121         15
   122          5
   123         14
   124          2
   125          5
   126          8
   127          5
   128          1
   129          2
   130          1
   131          2
   132          1
   133         10
   134          2
   135         12
   136          4
   137          8
   138          1
   139          8
   140          2
   141          2
   142          1
   143          1
   144          1
   145          2
   146          1
   147         10
   148          4
   149         11
   150          2
   151          5
   152          2
   153          4
   154          1
   155          1
   157          1
   158          1
   159          4
   160          1
   161         10
   162          2
   163          8
   164          1
   165          4
   166          1
   167          8
   168          1
   169          1
   171          1
   172          1
   173          2
   174          1
   175          2
   176          1
   177          2
   178          1
   179          2
   180          1
   181          2
   182          1
   183          1
   185          1
   187          2
   188          1
   189          2
   190          1
   191          2
   192          1
   193          4
   194          1
   195          2
   196          1
   197          1
   199          1
   201          1
   203          4
   204          1
   205          1
   206          4
   207          2
   208          1
   209          2
   210          1
   211          1
   213          1
   215          1
   217          7
   218          2
   219          2
   220          1
   221          7
   222          2
   223          7
   224          2
   225          1
   227          1
   229          1
   231          4
   232          1
   233          1
   234          1
   235          2
   236          1
   237          1
   238          1
   239          1
   241          1
   242          1
   243          1
   245          1
   246          2
   247          5
   248          1
   249          1
   251          1
   252          5
   253          2
   255          1
   256          1
   257          1
   259          2
   260          1
   261          2
   262          1
   263          1
   264          1
   267          1
   269          1
   270          1
   271          1
   272          1
   273          1
   274          1
   275          2
   276          1
   277          2
   278          1
   279          1
   280          1
   281          1
   282          5
   283          2
   284          1
   285          1
   287          2
   288          1
   289          1
   291          1
   293          2
   294          1
   295          1
   299          1
   301          2
   302          1
   303          1
   308          4
   309          1
   314          1
   315         10
   316          2
   317          1
   323          1
   327          1
   328          1
   329          1
   331          1
   332          2
   333          1
   337          1
   343          2
   344          8
   345          2
   347          1
   349          1
   355          1
   357          2
   358          2
   359          7
   360          2
   370          2
   371          2
   372          1
   373          1
   381          1
   385          1
   386          5
   387          1
   388          1
   389          2
   390          1
   395          1
   396          7
   397          2
   398          1
   399          2
   400          1
   413          1
   414          4
   415          1
   423          1
   428          1
   429          1
   443          4
   444          1
   457          1
   458         31
   459          8
   460          2