##TITLE=Library Entry 35336
##JCAMP-DX=Revision 4.10 
##DATA TYPE=MASS SPECTRUM
##SAMPLE DESCRIPTION=CARL DJERASSI DEPT OF CHEM STANFORD UNIV STANFORD CALIF
 94305
##NAMES=HP
##CAS NAME=1,5-Pentanediol, 2TMS derivative
##MOLFORM=C11H28O2Si2
##CAS REGISTRY NO=54494-06-3
##MP= -300
##BP= -300
##MW= 248
##$RETENTION INDEX=0
##$CONDENSED SPECTRUM=NO
##NPOINTS= 77
##XYDATA=(XY..XY) 1 
    41        550
    42         60
    43        160
    44         80
    45        370
    46         30
    47        160
    48         10
    49         10
    50         10
    51         10
    52         10
    53         20
    54         10
    55         50
    56         20
    57         30
    58         80
    59        260
    60         40
    61        100
    62         10
    63         20
    65         10
    66         30
    67         40
    68         50
    69        999
    70         60
    71         20
    72         40
    73        760
    74         80
    75        610
    76         50
    77         40
    85         40
    87         40
    88         20
    89         20
    91         20
    94         20
    97         20
    99         20
   101         50
   102         20
   103        170
   104         20
   105         30
   109         40
   113         20
   115         40
   116         20
   117         30
   119         10
   129         80
   130         30
   131         50
   132         20
   133         90
   134         30
   135         20
   141         20
   143        230
   144         30
   145         40
   147        730
   148        120
   149        130
   150         30
   151         30
   158         50
   159         20
   177         50
   178         20
   233         70
   248         10