##TITLE=Library Entry 4335
##JCAMP-DX=Revision 4.10 
##DATA TYPE=MASS SPECTRUM
##SAMPLE DESCRIPTION=CARL DJERASSI DEPT OF CHEM STANFORD UNIV STANFORD CALIF
 94305
##NAMES=HP
##CAS NAME=Androst-1-ene-3,11-dione, (5.alpha.)-
##MOLFORM=C19H26O2
##CAS REGISTRY NO=54498-86-1
##MP= -300
##BP= -300
##MW= 286
##$RETENTION INDEX=0
##$CONDENSED SPECTRUM=NO
##NPOINTS= 149
##XYDATA=(XY..XY) 1 
    41        999
    42        114
    43        178
    50         11
    51         97
    52         57
    53        327
    54         63
    55        540
    56         40
    57          5
    63         11
    64          5
    65        172
    66        114
    67        431
    68         97
    69        350
    70         11
    77        373
    78         97
    79        396
    80        172
    81        367
    82        126
    83         22
    91        459
    92         68
    93        258
    94        143
    95        350
    96         86
    97         11
   103         34
   104         11
   105        201
   106         45
   107        183
   108        155
   109        172
   110         34
   115         57
   116         17
   117         86
   118         28
   119        114
   120         57
   121        178
   122        287
   123         63
   124         86
   125         11
   127          5
   128         17
   129         28
   130         11
   131         68
   132         22
   133        114
   134         57
   135        103
   136         34
   137         11
   138         11
   141          5
   142          5
   143         28
   144         22
   145         91
   146         40
   147        160
   148         57
   149        155
   150         28
   151         91
   152         11
   153          5
   155          5
   157         28
   158         22
   159         57
   160         28
   161        109
   162         80
   163         68
   164          5
   169          5
   171         22
   172         11
   173         45
   174         51
   175         40
   176         22
   177         97
   178         34
   179          5
   183          5
   185         28
   186         17
   187         34
   188         11
   189         40
   190         11
   191         40
   192         11
   198          5
   199         11
   200         51
   201         40
   202         34
   203         40
   204         34
   205          5
   211         11
   213          5
   214         17
   215         28
   216         17
   217        126
   218         57
   219          5
   225         17
   226         11
   227         40
   228         11
   229         40
   230         11
   231         22
   240         11
   241         28
   242        120
   243        109
   244         91
   245         17
   253         45
   254          5
   257         51
   258        103
   259         17
   260          5
   268         17
   269          5
   271         80
   272         11
   285          5
   286        574
   287        126
   288         40
   289          5