##TITLE=Library Entry 7164
##JCAMP-DX=Revision 4.10 
##DATA TYPE=MASS SPECTRUM
##SAMPLE DESCRIPTION=CARL DJERASSI DEPT OF CHEM STANFORD UNIV STANFORD CALIF
 94305
##NAMES=HP
##CAS NAME=Cholestan-7-one, cyclic 1,2-ethanediyl acetal, (5.alpha.)-
##MOLFORM=C29H50O2
##CAS REGISTRY NO=54498-52-1
##MP= -300
##BP= -300
##MW= 430
##$RETENTION INDEX=0
##$CONDENSED SPECTRUM=NO
##NPOINTS= 173
##XYDATA=(XY..XY) 1 
    40         37
    41        666
    42        166
    43        999
    44        240
    45        166
    46         18
    51         18
    52         18
    53         92
    54         74
    55        740
    56        148
    57        425
    58         18
    59         18
    60         37
    61          6
    63          6
    64          6
    65         30
    66         24
    67        320
    68        111
    69        308
    70         80
    71        135
    72         12
    73        395
    74         18
    75          6
    76          6
    77         67
    78         24
    79        172
    80         43
    81        345
    82         55
    83        111
    84         18
    85         24
    86        271
    87        135
    88         12
    89          6
    90          6
    91         98
    92         18
    93        148
    96         37
    97         49
    98         12
    99        506
   100         37
   101         12
   103          6
   104          6
   105         67
   106         24
   107        104
   108         30
   109         98
   110         18
   111         24
   112        129
   113         67
   114          6
   115          6
   116          6
   117         18
   118         12
   119         49
   120         18
   121         67
   122         18
   123         30
   124         12
   125        617
   126         55
   127         12
   128         12
   129          6
   130          6
   131         24
   132         12
   133         49
   134         18
   135         55
   136         12
   137         18
   138         18
   139         49
   140         18
   141         24
   142        129
   143         18
   144          6
   145         30
   146         12
   147         30
   148         12
   149         24
   150          6
   151         12
   152          6
   153        320
   154         61
   155         67
   156          6
   157          6
   158          6
   159         18
   160         12
   161         24
   162          6
   163         12
   164          6
   165         12
   167          6
   173         12
   175         18
   176          6
   177          6
   178          6
   179         12
   180          6
   181         55
   182          6
   183         12
   189         12
   191         12
   193          6
   201          6
   203          6
   205          6
   206          6
   207         12
   208          6
   209          6
   213         12
   214          6
   215          6
   217          6
   219          6
   221          6
   229          6
   235          6
   245         12
   246          6
   247         12
   255         12
   257          6
   261          6
   273          6
   274          6
   275          6
   317          6
   319         18
   320         12
   327          6
   342         12
   347          6
   348         18
   349          6
   353          6
   367          6
   368         24
   369          6
   387          6
   415         12
   430        209
   431         61
   432         12