##TITLE=Library Entry 53955
##JCAMP-DX=Revision 4.10 
##DATA TYPE=MASS SPECTRUM
##SAMPLE DESCRIPTION=CARL DJERASSI DEPT OF CHEM STANFORD UNIV STANFORD CALIF
 94305
##NAMES=HP
##CAS NAME=Androstan-16-amine, N,N-dimethyl-, (5.alpha.)-
##MOLFORM=C21H37N
##CAS REGISTRY NO=54498-45-2
##MP= -300
##BP= -300
##MW= 303
##$RETENTION INDEX=0
##$CONDENSED SPECTRUM=NO
##NPOINTS= 86
##XYDATA=(XY..XY) 1 
    40         60
    41        610
    42        380
    43        500
    44        790
    45        270
    46         90
    48         70
    50         20
    51         30
    52         20
    53        130
    54         40
    55        470
    56        180
    57        130
    58        860
    59         40
    64         20
    65         40
    66         20
    67        330
    68         70
    69        110
    70        240
    71        990
    72        240
    73         30
    77         90
    78         20
    79        190
    80         50
    81        230
    82         80
    83         50
    84        999
    85         90
    91        120
    92         30
    93        130
    94         50
    95        140
    96         70
    97         40
    98        150
    99        390
   100         30
   105         60
   106         20
   107         70
   108         50
   109         90
   110         80
   111         70
   112         60
   113         20
   117         20
   119         30
   121         50
   122         40
   123         40
   124        670
   125         80
   133         20
   135         40
   136         20
   138         20
   147         20
   149         20
   150         20
   151         20
   164         20
   178         20
   194         60
   232        140
   233         30
   243         20
   260         20
   274         30
   286         30
   288        140
   289        120
   290         20
   302         50
   303        400
   304         90