##TITLE=Library Entry 21565
##JCAMP-DX=Revision 4.10 
##DATA TYPE=MASS SPECTRUM
##SAMPLE DESCRIPTION=CARL DJERASSI DEPT OF CHEM STANFORD UNIV STANFORD CALIF
 94305
##NAMES=HP
##CAS NAME=1,7-Heptanediol, 2TMS derivative
##MOLFORM=C13H32O2Si2
##CAS REGISTRY NO=54494-07-4
##MP= -300
##BP= -300
##MW= 276
##$RETENTION INDEX=0
##$CONDENSED SPECTRUM=NO
##NPOINTS= 79
##XYDATA=(XY..XY) 1 
    41        120
    42         20
    43         80
    44         30
    45        160
    46         10
    47         70
    53         20
    54         10
    55        999
    56         50
    57         10
    58         30
    59        140
    60         20
    61         70
    66         10
    67         30
    68         30
    69        130
    70         20
    71         10
    72         20
    73        520
    74         50
    75        450
    76         30
    77         20
    81         20
    85         10
    87         30
    88         10
    89         20
    91         10
    95         30
    96         50
    97        390
    98         30
    99         20
   101         40
   102         10
   103        220
   104         30
   105         20
   113         10
   115         30
   116         10
   117         10
   119         10
   123         50
   129         50
   130         20
   131         60
   132         10
   133         70
   134         10
   135         20
   143         40
   144         20
   145         20
   147        710
   148        110
   149        220
   150         40
   151         20
   157         10
   165         20
   171         70
   172         20
   177         70
   178         20
   186         50
   187         20
   261         20
   275          2
   276          1
   277          5
   278          1
   279          1