##TITLE=Library Entry 109032
##JCAMP-DX=Revision 4.10 
##DATA TYPE=MASS SPECTRUM
##SAMPLE DESCRIPTION=CARL DJERASSI DEPT OF CHEM STANFORD UNIV STANFORD CALIF
 94305
##NAMES=HP
##CAS NAME=Cholestane-2-carboxylic acid, 3,3-[1,2-ethanediylbis(oxy)]-, meth
yl ester, (2.beta.,5.alpha.)-
##MOLFORM=C31H52O4
##CAS REGISTRY NO=54498-63-4
##MP= -300
##BP= -300
##MW= 488
##$RETENTION INDEX=0
##$CONDENSED SPECTRUM=NO
##NPOINTS= 288
##XYDATA=(XY..XY) 1 
    40         10
    41        190
    42         50
    43        350
    44         50
    45         80
    46         10
    51         10
    52         10
    53         40
    54         20
    55        260
    56         40
    57        180
    58         20
    59         20
    60         20
    61         10
    65         10
    66         20
    67        110
    68         40
    69        150
    70         30
    71         90
    72         10
    73         50
    74         10
    77         20
    78         10
    79         60
    80         20
    81        130
    82         30
    83         70
    84         20
    85         40
    86         90
    87         80
    88         10
    89         10
    91         40
    92         10
    93         70
    94         20
    95         90
    96         20
    97         50
    98         20
    99        130
   100         10
   101         10
   103         20
   104         10
   105         40
   106         10
   107         60
   108         20
   109         50
   110         20
   111         30
   112        170
   113         70
   114         10
   115         20
   116         10
   117         30
   118         10
   119         30
   120         10
   121         40
   122         20
   123         30
   124         20
   125        999
   126        120
   127         20
   128         10
   129         20
   130         10
   131         20
   132         10
   133         30
   134         10
   135         30
   136         20
   137         40
   138         10
   139         20
   140         10
   141         10
   142         10
   143         10
   144         10
   145         40
   146         10
   147         30
   148         10
   149         40
   150         10
   151         20
   152         10
   153         10
   154         10
   155         10
   157        140
   158         50
   159         30
   160         10
   161         30
   162         10
   163         20
   164         10
   165         20
   166         10
   167         30
   168         10
   169         10
   171         20
   172         10
   173         20
   174         10
   175         20
   176         10
   177         10
   178         10
   179         10
   180         10
   181         10
   182         10
   183         10
   185         20
   186         10
   187         20
   188         10
   189         10
   190         10
   191         10
   192         10
   193         10
   194         10
   195         10
   196         10
   197         10
   198         10
   199         20
   200         10
   201         10
   202         10
   203         20
   204         10
   205         10
   206         10
   207         10
   211         10
   212         10
   213         10
   215         10
   217         20
   218         10
   219         10
   220         10
   221         10
   224         10
   225         10
   227         10
   229         10
   230         10
   231         10
   233         10
   235         10
   239         10
   243         10
   245         20
   246         10
   247         20
   248         10
   249         10
   253         10
   255         10
   257         10
   258         10
   259         30
   260         10
   261         20
   263         10
   271         10
   273         10
   275         10
   281         10
   285         20
   286         10
   287         40
   288         20
   289         30
   290         10
   291         10
   292         10
   293         10
   297         10
   299         10
   300         10
   301         40
   302         10
   303         20
   304         10
   305         10
   311         40
   312         10
   313         30
   314         10
   315         30
   316         10
   317         10
   320         10
   321         50
   322         10
   327         20
   328         10
   329         30
   330         30
   331         20
   332         10
   333         20
   334         10
   335         10
   336         10
   339         20
   340         10
   341         10
   343         20
   344         10
   345         10
   347         10
   348         10
   357         10
   359         30
   360         10
   361         20
   363         10
   369         10
   370         10
   371         20
   372         20
   373        130
   374         40
   375         60
   376         20
   377         10
   383         10
   384         10
   385         10
   386         10
   387         10
   388         10
   398         10
   399         20
   400         40
   401         60
   402         30
   403         30
   404         10
   411         20
   412         10
   413         20
   414         10
   415         20
   416         10
   417         10
   425         20
   426         40
   427         20
   428         10
   429         30
   430         10
   431         10
   441         20
   442         10
   443         10
   445         10
   457         30
   458         10
   473         10
   474         10
   487         10
   488        350
   489         90
   490         20