##TITLE=Library Entry 53726
##JCAMP-DX=Revision 4.10 
##DATA TYPE=MASS SPECTRUM
##SAMPLE DESCRIPTION=CARL DJERASSI DEPT OF CHEM STANFORD UNIV STANFORD CALIF
 94305
##NAMES=HP
##CAS NAME=Androstan-1-amine, N,N-dimethyl-, (1.beta.,5.alpha.)-
##MOLFORM=C21H37N
##CAS REGISTRY NO=54498-43-0
##MP= -300
##BP= -300
##MW= 303
##$RETENTION INDEX=0
##$CONDENSED SPECTRUM=NO
##NPOINTS= 33
##XYDATA=(XY..XY) 1 
    41        752
    42        219
    43        876
    44         95
    45        476
    53         76
    55        238
    56        542
    57        114
    58        533
    59        171
    67        342
    68         66
    69         47
    70        571
    71        771
    72        209
    84        999
    85        666
    91        133
    93        190
    94         38
    95        219
    96        123
    97         19
    98        276
   260        857
   261        190
   288        171
   289         66
   302         66
   303        847
   304        247