##TITLE=Library Entry 72392
##JCAMP-DX=Revision 4.10 
##DATA TYPE=MASS SPECTRUM
##SAMPLE DESCRIPTION=CARL DJERASSI DEPT OF CHEM STANFORD UNIV STANFORD CALIF
 94305
##NAMES=HP
##CAS NAME=Lupan-3-one, cyclic 1,2-ethanediyl acetal
##MOLFORM=C32H54O2
##CAS REGISTRY NO=54498-65-6
##MP= -300
##BP= -300
##MW= 470
##$RETENTION INDEX=0
##$CONDENSED SPECTRUM=NO
##NPOINTS= 212
##XYDATA=(XY..XY) 1 
    40          6
    41         76
    42         16
    43         76
    44          6
    45         23
    51          3
    52          3
    53         13
    54          6
    55         96
    56         26
    57         70
    58         13
    59         10
    60         16
    61          6
    63          3
    65         10
    66          6
    67         43
    68         23
    69        116
    70         23
    71         36
    72          6
    73         16
    74          6
    75          3
    77         16
    78          6
    79         30
    80         10
    81         80
    82         23
    83         96
    84         13
    85         40
    86         23
    87         13
    88          3
    89          3
    91         23
    92          6
    93         50
    94         10
    95         80
    96         20
    97         30
    98         10
    99        999
   100        240
   101         50
   102          6
   103          3
   104          3
   105         20
   106          6
   107         46
   108         10
   109         80
   110         13
   111         16
   112          6
   113         16
   114         10
   115          6
   116          3
   117          6
   118          3
   119         20
   120         10
   121         40
   122         20
   123         53
   124         10
   125         13
   126          6
   127         10
   128          6
   129         10
   130          6
   131          6
   132          3
   133         16
   134          6
   135         40
   136         13
   137         43
   138         10
   139         10
   140          3
   141          6
   142          6
   143          6
   144          3
   145          6
   146          3
   147         13
   148          6
   149         36
   150         10
   151         16
   152         10
   153          6
   154          3
   155          6
   156          3
   157          6
   158          3
   159          6
   160          3
   161         10
   162          3
   163         23
   164         10
   165         30
   166         10
   167          6
   168          3
   169          3
   171          3
   172          3
   173          6
   174          3
   175         10
   176          3
   177         13
   178         23
   179         16
   180          3
   181          6
   182          3
   183          3
   185          3
   186          3
   187          6
   189         10
   190          6
   191         23
   192          6
   193         10
   194          3
   195          6
   196          3
   197          3
   199          3
   200          3
   201          6
   202          3
   203         10
   204          6
   205         43
   206         13
   207          6
   208          3
   209          3
   213          3
   215          3
   216          3
   217          6
   218          6
   219         10
   220          3
   221          6
   222          3
   223          3
   229          3
   231          6
   232          3
   233          6
   234          3
   235          6
   242          3
   244          3
   245          3
   246          3
   248          6
   249          3
   250          3
   255          3
   257          6
   261          3
   268          3
   269          3
   270          6
   271          3
   281          3
   282          3
   283          3
   294          6
   304          3
   305          3
   317         16
   318         10
   319          3
   341          3
   342          3
   353          3
   354         66
   355         76
   356         20
   357          3
   374          6
   389          3
   402          6
   403          6
   426         16
   427          6
   438          6
   439         13
   440          6