##TITLE=Library Entry 64423
##JCAMP-DX=Revision 4.10 
##DATA TYPE=MASS SPECTRUM
##SAMPLE DESCRIPTION=CARL DJERASSI DEPT OF CHEM STANFORD UNIV STANFORD CALIF
 94305
##NAMES=HP
##CAS NAME=Androsta-1,4-diene-3,11-dione
##MOLFORM=C19H24O2
##CAS REGISTRY NO=54498-90-7
##MP= -300
##BP= -300
##MW= 284
##$RETENTION INDEX=0
##$CONDENSED SPECTRUM=NO
##NPOINTS= 155
##XYDATA=(XY..XY) 1 
    41        750
    42        120
    43        300
    44         30
    50         30
    51        240
    52        140
    53        540
    54         90
    55        750
    56         50
    57         30
    63         90
    64         60
    65        330
    66        110
    67        590
    68        120
    69        120
    77        540
    78        210
    79        510
    80        120
    81        450
    82         90
    83         60
    91        999
    92        240
    93        450
    94        120
    95        540
    96         90
    97         30
   102         30
   103        120
   104         50
   105        300
   106         80
   107        180
   108         50
   109         80
   110         10
   115        330
   116        140
   117        370
   118         50
   119        100
   120         80
   121        590
   122        280
   123         60
   124         40
   125         30
   127         40
   128        150
   129        150
   130         70
   131        390
   132        210
   133        150
   134        150
   135        170
   136         30
   141         50
   142         40
   143        100
   144         60
   145        360
   146        180
   147        280
   148         60
   149         50
   150         30
   151         40
   152         20
   155         30
   156         20
   157         60
   158        110
   159        380
   160        460
   161        240
   162         50
   163        120
   164         50
   165         40
   166         10
   167         10
   169         30
   170         70
   171        170
   172        130
   173        180
   174         90
   175         30
   176         10
   177         20
   178         10
   181         10
   183         20
   184         60
   185        120
   186         90
   187        120
   188         60
   189         30
   190         10
   191         10
   195         20
   196         10
   197         30
   198         20
   199         90
   200         50
   201         20
   202         30
   203         10
   207         10
   209         10
   210         20
   211         50
   212        140
   213         70
   214         20
   215         10
   223         40
   224         20
   225        100
   226         20
   227         20
   228         30
   229         10
   237         20
   238         60
   239         40
   240        660
   241        220
   242         50
   243         10
   249         10
   252         20
   255         30
   256        250
   257         40
   258         10
   266        190
   267         50
   268         10
   269         80
   270         20
   275         10
   284        790
   285        180
   286         40
   287         10