##TITLE=Library Entry 72313
##JCAMP-DX=Revision 4.10 
##DATA TYPE=MASS SPECTRUM
##SAMPLE DESCRIPTION=CARL DJERASSI DEPT OF CHEM STANFORD UNIV STANFORD CALIF
 94305
##NAMES=HP
##CAS NAME=B-Norcholestan-3-one, cyclic 1,2-ethanediyl acetal, (5.alpha.)-
##MOLFORM=C28H48O2
##CAS REGISTRY NO=54498-53-2
##MP= -300
##BP= -300
##MW= 416
##$RETENTION INDEX=0
##$CONDENSED SPECTRUM=NO
##NPOINTS= 183
##XYDATA=(XY..XY) 1 
    40         43
    41        110
    42         30
    43        146
    44         26
    45         13
    51          3
    52          3
    53         20
    54          6
    55        136
    56         23
    57         86
    58          3
    59          3
    63          3
    65         10
    66          6
    67         60
    68         20
    69         70
    70         10
    71         40
    72          3
    73         26
    74          3
    75          3
    76          3
    77         26
    78          6
    79         53
    80         13
    81         80
    82         16
    83         36
    84          6
    85          6
    86        236
    87         66
    88          3
    89          3
    91         46
    92         10
    93         60
    94         13
    95         63
    96          6
    97         23
    98          6
    99        999
   100        216
   101         36
   102          3
   103          3
   104          3
   105         33
   106         10
   107         46
   108         20
   109         36
   110          6
   111         10
   112         73
   113         23
   114          3
   115          6
   116          3
   117         13
   118          3
   119         26
   120          6
   121         20
   122         10
   123         20
   124          6
   125        140
   126         16
   127          6
   128          6
   129          6
   130          6
   131         13
   132          6
   133         20
   134          3
   135         20
   136          6
   137          6
   138          3
   139         26
   140          3
   141          6
   142          3
   143          6
   144          6
   145         13
   146          3
   147         23
   148          3
   149         23
   150          6
   151         10
   152          3
   153          6
   154          3
   155          3
   156          3
   157          3
   158          3
   159         10
   160          3
   161         13
   162          3
   163          6
   165          6
   166          3
   167          3
   168         10
   169          3
   171          3
   172          3
   173          3
   174          3
   175          6
   176          3
   177          3
   178          3
   179          3
   180          3
   181          3
   183          3
   185          3
   187          3
   188          3
   189          3
   190          3
   191          3
   192          3
   193          3
   194          3
   195          3
   196          3
   197          3
   198          3
   199          3
   200          3
   201          3
   203          6
   204          3
   205          3
   207          6
   217         13
   218          3
   219          3
   229          3
   241          3
   247          3
   249          3
   276          3
   301          6
   303          3
   313          3
   315          3
   316          6
   317        103
   318         23
   319          3
   328          3
   357          6
   362         10
   372          3
   373          3
   382          3
   386          3
   387          3
   396          3
   401          6
   402          3
   405          3
   415          3
   416         93
   417         30
   418          6