##TITLE=Library Entry 73663
##JCAMP-DX=Revision 4.10 
##DATA TYPE=MASS SPECTRUM
##SAMPLE DESCRIPTION=Patti Price, Georgia Bureau of Investigation, Decatur,
 Georgia
##NAMES=HP
##CAS NAME=Racemoramide
##MOLFORM=C25H32N2O2
##CAS REGISTRY NO=545-59-5
##MP= -300
##BP= -300
##MW= 392
##$RETENTION INDEX=2930
##$CONDENSED SPECTRUM=NO
##NPOINTS= 145
##XYDATA=(XY..XY) 1 
    42         46
    44          7
    47          1
    51          2
    53          2
    54          8
    55        109
    56        154
    57          8
    58          4
    63          3
    67          3
    68         13
    69         11
    70         52
    71          9
    72         14
    73          1
    76          1
    77         11
    78          2
    79          1
    80          1
    82          5
    83          3
    84          6
    85          4
    86          7
    87          1
    89          4
    90          1
    91         51
    92          3
    95          1
    96          1
    98         81
    99          8
   100        999
   101         63
   102          5
   103          8
   104          4
   105          8
   106          1
   109          1
   112          3
   113          2
   114          1
   115         43
   116         16
   117         11
   118          7
   119          3
   120          1
   125          1
   126          4
   127          9
   128        476
   129         46
   130          6
   139          5
   141          2
   143          1
   144          1
   146          6
   147          1
   148          1
   150          1
   151          2
   152         20
   153          5
   154          1
   156          1
   158          1
   159          1
   160          1
   161          1
   163          6
   164          9
   165         86
   166         35
   167         28
   168          5
   170          1
   172          1
   173          1
   174          9
   175          1
   177          2
   178         29
   179         16
   180          3
   182          1
   184          1
   185          1
   187          1
   189          4
   190          4
   191          9
   192          2
   193         20
   194         36
   195         19
   196          2
   198          1
   200          1
   202          1
   203          2
   204          1
   206          1
   207          2
   208          1
   214          1
   218          1
   219          1
   221          1
   222          1
   228          1
   232          1
   234          1
   235          1
   236         25
   237          5
   238          1
   248          1
   260          1
   263          1
   264         18
   265        589
   266        114
   267         13
   268          1
   275          1
   276          1
   277          1
   278          2
   279          1
   292          3
   293          1
   304          1
   306         19
   307          2
   308          1
   390          1
   392          1