##TITLE=Library Entry 68267
##JCAMP-DX=Revision 4.10 
##DATA TYPE=MASS SPECTRUM
##SAMPLE DESCRIPTION=NIST Mass Spectrometry Data Center, 2012
##NAMES=HP
##CAS NAME=Lupeol
##MOLFORM=C30H50O
##CAS REGISTRY NO=545-47-1
##MP= -300
##BP= -300
##MW= 426
##$RETENTION INDEX=3270
##$CONDENSED SPECTRUM=NO
##NPOINTS= 339
##XYDATA=(XY..XY) 1 
    15          2
    25          1
    26          3
    27         27
    28         13
    29        100
    30          3
    31          7
    37          2
    38          3
    39         57
    40         23
    41        522
    42         38
    43        591
    44         28
    45         28
    46          1
    50          4
    51         12
    52          7
    53        171
    54         27
    55        734
    56         53
    57        234
    58         15
    59         32
    60          2
    61          1
    62          1
    63          4
    64          1
    65         58
    66         25
    67        638
    68        588
    69        701
    70         49
    71        198
    72         23
    73          9
    74          3
    75          1
    76          1
    77        192
    78         34
    79        538
    80        114
    81        862
    82        168
    83        222
    84         30
    85         55
    86         11
    87          3
    88          3
    89          2
    90          4
    91        486
    92         98
    93        925
    94        305
    95        999
    96        166
    97        175
    98         26
    99         17
   100          6
   101          6
   102          4
   103         26
   104         16
   105        538
   106        168
   107        925
   108        528
   109        882
   110        181
   111        163
   112         20
   113         10
   114          5
   115         32
   116         15
   117         82
   118         31
   119        608
   120        232
   121        903
   122        372
   123        583
   124         81
   125         57
   126          9
   127         19
   128         25
   129         36
   130         21
   131        133
   132         65
   133        459
   134        295
   135        891
   136        378
   137        223
   138         37
   139         96
   140         18
   141         15
   142         13
   143         28
   144         16
   145        166
   146         69
   147        470
   148        277
   149        354
   150         98
   151         59
   152         50
   153         40
   154         10
   155         10
   156          7
   157         23
   158         12
   159        135
   160         64
   161        384
   162        165
   163        213
   164         40
   165         29
   166         17
   167          6
   168          2
   169          6
   170          3
   171         19
   172         10
   173        116
   174         42
   175        329
   176        105
   177        137
   178         43
   179         51
   180          9
   181          5
   182          2
   183          4
   184          2
   185         18
   186         14
   187        196
   188         75
   189        714
   190        298
   191        298
   192         62
   193         32
   194          6
   195          2
   196          1
   197          3
   198          1
   199         13
   200          6
   201        131
   202         52
   203        300
   204        216
   205        161
   206        132
   207        470
   208        141
   209         18
   210          2
   211          2
   212          1
   213         15
   214          6
   215         63
   216         64
   217         78
   218        276
   219        111
   220         69
   221         28
   222         10
   223          2
   225          1
   226          1
   227         11
   228          9
   229        107
   230         33
   231         42
   232         12
   233         10
   234         67
   235         14
   236          1
   237          1
   239          2
   240          1
   241          9
   242          3
   243         25
   244         10
   245         17
   246         12
   247         46
   248         20
   249          3
   250          1
   253          1
   254          1
   255         17
   256          8
   257         76
   258         22
   259         13
   260          4
   261          3
   262          1
   263          1
   267          2
   268          1
   269         10
   270          6
   271         25
   272         29
   273         19
   274          8
   275          7
   276          4
   277          1
   281          5
   282          3
   283         12
   284          7
   285          8
   286         11
   287          9
   288          6
   289          3
   290          2
   291          1
   295          7
   296          6
   297         80
   298         42
   299         42
   300         23
   301         12
   302          7
   303          2
   309          3
   310          1
   311          6
   312          3
   313         23
   314         23
   315         98
   316         70
   317         34
   318          7
   319          1
   323          5
   324          3
   325         12
   326          8
   327          5
   328          2
   329          3
   330          1
   331          1
   337          4
   338          3
   339         22
   340         10
   341          6
   342          8
   343         12
   344         14
   345          4
   346          1
   349          1
   350          1
   351          4
   352          4
   353          3
   354          2
   355          4
   356          2
   357         12
   358          7
   359          1
   363          1
   365         81
   366         25
   367          5
   368          2
   369          5
   370         18
   371          7
   372          1
   379          3
   380          3
   381          2
   382          1
   383         22
   384          8
   385          1
   391          1
   392          1
   393         46
   394         17
   395          3
   396          1
   397          3
   398          2
   406          2
   407          2
   408         58
   409         19
   410          5
   411         97
   412         31
   413          6
   422          1
   424          3
   425          2
   426        182
   427         61
   428         10
   429          1