##TITLE=Library Entry 35931
##JCAMP-DX=Revision 4.10 
##DATA TYPE=MASS SPECTRUM
##SAMPLE DESCRIPTION=NIST Mass Spectrometry Data Center, 2010
##NAMES=HP
##CAS NAME=Diethylmalonyl dichloride
##MOLFORM=C7H10Cl2O2
##CAS REGISTRY NO=54505-72-5
##MP= -300
##BP= -300
##MW= 196
##$RETENTION INDEX=1102
##$CONDENSED SPECTRUM=NO
##NPOINTS= 93
##XYDATA=(XY..XY) 1 
    15          4
    25          1
    26         13
    27         74
    28         17
    29         79
    30          2
    31          1
    35          3
    36          3
    37          9
    38         19
    39        126
    40         20
    41        280
    42         24
    43         79
    44          8
    45          1
    47          2
    48          1
    49         11
    50         14
    51         24
    52          8
    53         66
    54         19
    55        134
    56          6
    57          3
    60          1
    61         11
    62          5
    63        135
    64          4
    65         51
    66          5
    67         28
    68         12
    69        999
    70         55
    71          2
    72          1
    73          4
    74          1
    75         12
    76          2
    77         12
    78          1
    79          5
    80          1
    81          2
    83         99
    84          6
    85          1
    87          2
    89          6
    90          2
    91          4
    92          1
    93          1
    95          2
    97        196
    98         71
    99          5
   103          3
   104          9
   105        477
   106         28
   107        149
   108          8
   109          1
   114          3
   116          1
   117         12
   118          1
   119          4
   125          1
   131          3
   132         22
   133         81
   134         12
   135         26
   136          2
   161        134
   162         10
   163         44
   164          3
   168         56
   169          3
   170         35
   171          2
   172          6