##TITLE=Library Entry 43187
##JCAMP-DX=Revision 4.10 
##DATA TYPE=MASS SPECTRUM
##SAMPLE DESCRIPTION=Chemical Concepts
##NAMES=HP
##CAS NAME=Squaric acid, 2TMS derivative
##MOLFORM=C10H18O4Si2
##CAS REGISTRY NO=54502-79-3
##MP= -300
##BP= -300
##MW= 258
##$RETENTION INDEX=0
##$CONDENSED SPECTRUM=NO
##NPOINTS= 163
##XYDATA=(XY..XY) 1 
    26          0
    27          2
    28          4
    29         18
    30          1
    31          3
    33          0
    38          0
    39          2
    40          0
    41          0
    42          5
    43         51
    44         26
    45        146
    46         10
    47          6
    48          0
    49          0
    50          0
    51          0
    52          1
    53          3
    54          1
    55          9
    56          2
    57          7
    58         17
    59         16
    60          2
    61          1
    62          0
    63          0
    64          0
    65          0
    66          1
    67          6
    68          1
    69          1
    70          5
    71          4
    72         13
    73        999
    74         83
    75         41
    76          1
    77          2
    78          0
    79          0
    81          0
    83          2
    84          0
    85          2
    86          5
    87          1
    88          0
    89          0
    91          0
    92          0
    93          1
    94          0
    95          0
    97          0
    98          3
    99          3
   100          1
   101         99
   102         10
   103          4
   104          0
   105          1
   106          0
   107          0
   110          0
   111          0
   113          1
   114          1
   115          3
   116          0
   117          4
   118          0
   119          2
   120          0
   122          0
   123          0
   124          0
   127          0
   128          0
   129          0
   131         11
   132          2
   133         15
   134          2
   135          1
   137          0
   139          0
   141          0
   142          0
   143          2
   144          0
   145          0
   146         37
   147         29
   148          7
   149          4
   150          0
   151          0
   152          0
   153          0
   155          0
   156          0
   157          3
   158          0
   159          5
   160          1
   161          0
   169          0
   171          1
   172          0
   173          1
   174          5
   175          1
   176          0
   179          0
   186          0
   187          1
   188          0
   194          0
   199          0
   200          0
   201          0
   202        207
   203         40
   204         19
   205          3
   206          0
   207          0
   209          0
   210          0
   213          0
   215         26
   216          5
   217          2
   218          0
   219          0
   221          0
   225          0
   227          0
   229          0
   230         11
   231          2
   232          0
   233          0
   243         84
   244         18
   245          8
   246          1
   257          2
   258         99
   259         21
   260          9
   261          1
   262          0