##TITLE=Library Entry 24948
##JCAMP-DX=Revision 4.10 
##DATA TYPE=MASS SPECTRUM
##SAMPLE DESCRIPTION=NIST Mass Spectrometry Data Center
##NAMES=HP
##CAS NAME=4-tert-Butylcyclohexanecarboxylic acid
##MOLFORM=C11H20O2
##CAS REGISTRY NO=5451-55-8
##MP= -300
##BP= -300
##MW= 184
##$RETENTION INDEX=0
##$CONDENSED SPECTRUM=NO
##NPOINTS= 84
##XYDATA=(XY..XY) 1 
    27         20
    29         47
    30          1
    31          1
    38          1
    39         64
    40         10
    41        267
    42         17
    43         70
    44          3
    45         34
    46          1
    47          3
    50          3
    51         12
    52          7
    53         59
    54         40
    55        144
    56        521
    57        999
    58         45
    59          4
    60          8
    61          6
    62          1
    63          3
    65         16
    66          9
    67        129
    68         31
    69         45
    70          5
    71          5
    73         40
    74          3
    77         28
    78          6
    79         54
    80         38
    81        289
    82         34
    83         24
    84          3
    85          4
    86          9
    87          6
    91         11
    92          3
    93         18
    94          2
    95         26
    96          3
    97          5
    99         16
   100          2
   105          2
   107          5
   108         37
   109         83
   110         18
   111         12
   112          1
   113          5
   121          1
   122          1
   123        136
   124         13
   125          1
   126          8
   127        287
   128        105
   129        387
   130         29
   131          2
   133          1
   137          1
   139          1
   151         34
   152          3
   167          1
   169          8
   184          1