##TITLE=Library Entry 82997
##JCAMP-DX=Revision 4.10 
##DATA TYPE=MASS SPECTRUM
##SAMPLE DESCRIPTION=Exported from NIST MS Search
##NAMES=HP
##CAS NAME=Pyridine, 2-(1-propylbutyl)-
##MOLFORM=C12H19N
##CAS REGISTRY NO=54518-13-7
##MP= -300
##BP= -300
##MW= 177
##$RETENTION INDEX=0
##$CONDENSED SPECTRUM=NO
##NPOINTS= 155
##XYDATA=(XY..XY) 1 
    24          1
    25          2
    26         18
    27        207
    28         98
    29         70
    30          4
    31          2
    32         21
    33          1
    34          1
    35          1
    36          1
    37          2
    38          9
    39         92
    40         14
    41         91
    42         17
    43         33
    44          3
    45          2
    46          1
    47          4
    48          1
    49          1
    50         20
    51         70
    52         56
    53         38
    54         12
    55         24
    56         13
    57         13
    58          1
    59          1
    60          1
    61          4
    62          3
    63         14
    64          7
    65         57
    66         16
    67          7
    68          3
    69         10
    70          8
    71          4
    73          1
    74          1
    75          3
    76          4
    77         32
    78         88
    79         73
    80         24
    81          2
    82          2
    83          8
    84          8
    85          3
    87          1
    88          1
    89          9
    90          9
    91         19
    92         60
    93        130
    94         14
    95          1
    96          1
    97          1
    98          2
    99          1
   100          1
   101          1
   102          3
   103          5
   104         36
   105         21
   106        999
   107        143
   108          8
   109          1
   110          1
   111          1
   112          3
   113          1
   114          1
   115          2
   116          5
   117         73
   118        120
   119         51
   120         32
   121          5
   122          1
   123          1
   124          1
   125          1
   126          1
   127          1
   128          1
   129          1
   130         24
   131         10
   132         51
   133         30
   134        130
   135        330
   136         32
   137          2
   138          1
   139          1
   140          1
   141          1
   142          1
   143          1
   144          3
   145          5
   146         15
   147          4
   148        280
   149         30
   150          2
   151          1
   152          1
   153          1
   154          1
   155          1
   156          1
   157          1
   158          1
   159          1
   160          2
   161          1
   162         25
   163          3
   164          1
   165          1
   166          1
   167          1
   168          1
   169          1
   170          1
   171          1
   172          1
   173          1
   174          1
   175          1
   176         10
   177         10
   178          2
   179          1
   180          1