##TITLE=Library Entry 29892
##JCAMP-DX=Revision 4.10 
##DATA TYPE=MASS SPECTRUM
##SAMPLE DESCRIPTION=Exported from NIST MS Search
##NAMES=HP
##CAS NAME=1-Propanol, 3-[3-(1-methylethoxy)propoxy]-
##MOLFORM=C9H20O3
##CAS REGISTRY NO=54518-03-5
##MP= -300
##BP= -300
##MW= 176
##$RETENTION INDEX=0
##$CONDENSED SPECTRUM=NO
##NPOINTS= 62
##XYDATA=(XY..XY) 1 
    15         12
    17          6
    18         22
    19          6
    27         41
    28         51
    29         32
    30          3
    31        164
    32         13
    36          4
    39         26
    40          7
    41        138
    42         63
    43        233
    44         19
    45        536
    46         12
    47          6
    51          4
    55          7
    56          4
    57         43
    58         38
    59        999
    60         35
    61         15
    65          4
    69         37
    71          5
    72          5
    73         20
    74          3
    75         12
    77         18
    78          4
    79         30
    80         13
    83          3
    85          6
    86          8
    87        302
    88         17
    89         17
   100         18
   101         81
   102          9
   103        125
   104          8
   115          3
   117          6
   124         16
   128         21
   129          4
   131          4
   132          3
   135          4
   141          3
   142          5
   145         38
   146          5