##TITLE=Library Entry 55359
##JCAMP-DX=Revision 4.10 
##DATA TYPE=MASS SPECTRUM
##SAMPLE DESCRIPTION=V.Zaikin,Topchiev Inst.Petrochem.Synth.,Moscow
##NAMES=HP
##CAS NAME=Pentanoic acid, cyclopentyl ester
##MOLFORM=C10H18O2
##CAS REGISTRY NO=5451-99-0
##MP= -300
##BP= -300
##MW= 170
##$RETENTION INDEX=0
##$CONDENSED SPECTRUM=NO
##NPOINTS= 70
##XYDATA=(XY..XY) 1 
    26          5
    27         31
    28         11
    29         63
    30          2
    31          2
    35          2
    36         17
    38          5
    39         46
    40          9
    41        183
    42         18
    43         19
    44          5
    45          5
    50          4
    51          6
    52          8
    53         17
    54          3
    55         40
    56         25
    57        336
    58         32
    59          8
    60        118
    61         23
    62          1
    65          6
    66          7
    67         94
    68        211
    69        209
    70         28
    71         10
    72          6
    73         59
    74          7
    75          9
    78          2
    79         13
    80          4
    81          2
    82          6
    83          9
    84         58
    85        999
    86         64
    87         13
    93          1
    95          6
    97          6
    99          1
   100         84
   101         22
   102        136
   103        388
   104         25
   105          2
   110         15
   111          2
   113         62
   114          7
   126         14
   127          3
   128         74
   129          7
   141          2
   142          4