##TITLE=Library Entry 80443
##JCAMP-DX=Revision 4.10 
##DATA TYPE=MASS SPECTRUM
##SAMPLE DESCRIPTION=Exported from NIST MS Search
##NAMES=HP
##CAS NAME=Benzene, (3-propoxy-1-propenyl)-
##MOLFORM=C12H16O
##CAS REGISTRY NO=54518-01-3
##MP= -300
##BP= -300
##MW= 176
##$RETENTION INDEX=0
##$CONDENSED SPECTRUM=NO
##NPOINTS= 92
##XYDATA=(XY..XY) 1 
    15          4
    18          3
    26          4
    27        111
    28         14
    29         39
    30          3
    31          9
    32          1
    38          7
    39         86
    40          8
    41        134
    42          9
    43        238
    44         10
    45          2
    50         24
    51         81
    52         20
    53         10
    55         61
    56         26
    57         44
    58          9
    59          2
    61          3
    62         11
    63         42
    64          9
    65         60
    66          5
    69          2
    71          2
    73          2
    74         10
    75         13
    76         16
    77        160
    78        235
    79        120
    80          8
    85          2
    86          3
    87          4
    88          3
    89        114
    90         10
    91        370
    92        751
    93         58
    94          3
    99          3
   101          4
   102         30
   103        103
   104         44
   105        999
   106        109
   107         28
   108          3
   113          3
   114          4
   115        359
   116        175
   117        504
   118        182
   119         25
   120          5
   128          2
   129          6
   130          2
   131         38
   132         18
   133        350
   134        214
   135         21
   136          2
   142          7
   143          3
   144          3
   147          8
   148          3
   149          4
   161          5
   165          2
   167          2
   173          2
   175         11
   176        657
   177         89
   178          8