##TITLE=Library Entry 22190
##JCAMP-DX=Revision 4.10 
##DATA TYPE=MASS SPECTRUM
##SAMPLE DESCRIPTION=Zaikin V.G., TIPS RAS, Moscow, Russia
##NAMES=HP
##CAS NAME=Chloroacetic acid, nonyl ester
##MOLFORM=C11H21ClO2
##CAS REGISTRY NO=5451-96-7
##MP= -300
##BP= -300
##MW= 220
##$RETENTION INDEX=1507
##$CONDENSED SPECTRUM=NO
##NPOINTS= 69
##XYDATA=(XY..XY) 1 
    25          5
    26         33
    27        168
    28          9
    29        303
    30         11
    31         13
    35          7
    36         53
    37          3
    38         25
    39        141
    40         42
    41        708
    42        435
    43        893
    44         74
    45         10
    48          6
    49        145
    50         18
    51         57
    52         16
    53         47
    54         93
    55        881
    56        999
    57        447
    58         17
    59          3
    60          4
    61          4
    65          8
    66          9
    67         91
    68        235
    69        645
    70        752
    71        270
    72         12
    73          7
    76         14
    77        294
    78         15
    79        119
    81         28
    82        158
    83        443
    84        379
    85        136
    86          7
    91          4
    93          3
    94          9
    95        120
    96         40
    97        355
    98        360
    99         26
   107         12
   109          4
   111         11
   121          3
   124          4
   125          3
   126         73
   127          7
   135          8
   171         15