##TITLE=Library Entry 34188
##JCAMP-DX=Revision 4.10 
##DATA TYPE=MASS SPECTRUM
##SAMPLE DESCRIPTION=Chuck Anderson, Aldrich Chemical Co.
##NAMES=HP
##CAS NAME=Pentane, 1-bromo-5-chloro-
##MOLFORM=C5H10BrCl
##CAS REGISTRY NO=54512-75-3
##MP= -300
##BP= -300
##MW= 184
##$RETENTION INDEX=0
##$CONDENSED SPECTRUM=NO
##NPOINTS= 115
##XYDATA=(XY..XY) 1 
    14          0
    15          4
    16          0
    24          0
    25          0
    26         19
    27        186
    28         40
    29        110
    30          2
    31          1
    32          1
    33          1
    34          1
    35          2
    36          3
    37          9
    38         24
    39        237
    40         43
    41        699
    42        161
    43        167
    44          5
    45          0
    47          1
    48          2
    49         48
    50         11
    51         33
    52          6
    53         69
    54         12
    55        439
    56         20
    57          0
    60          1
    61          8
    62         16
    63         91
    64          6
    65         35
    66          3
    67         99
    68        161
    69        999
    70         49
    71          1
    72          0
    73          2
    74          1
    75         15
    76         15
    77         12
    78          5
    79          5
    80          2
    81          3
    82          2
    83          0
    85          0
    86          0
    87          0
    88          0
    89          2
    90          0
    91          6
    92          1
    93         19
    94          1
    95         17
    96          0
    97          0
    99          0
   102          0
   104        294
   105         94
   106        102
   107         90
   108         11
   109         61
   110          1
   116          0
   117          0
   118          0
   119          4
   120          7
   121          5
   122          7
   123          1
   127          0
   128          0
   129          0
   131          0
   133          0
   135         12
   136          0
   137         12
   138          0
   141          0
   143          0
   147          0
   148         53
   149          3
   150         53
   151          2
   152          0
   156          0
   158          0
   160          0
   184          1
   185          0
   186          2
   187          0
   188          0