##TITLE=Library Entry 19890
##JCAMP-DX=Revision 4.10 
##DATA TYPE=MASS SPECTRUM
##SAMPLE DESCRIPTION=V.G. Zaikin, R.S.Borisov, TIPS RAS, Moscow, Russia
##NAMES=HP
##CAS NAME=Formic acid, decyl ester
##MOLFORM=C11H22O2
##CAS REGISTRY NO=5451-52-5
##MP= -300
##BP= -300
##MW= 186
##$RETENTION INDEX=1342
##$CONDENSED SPECTRUM=NO
##NPOINTS= 66
##XYDATA=(XY..XY) 1 
    27        173
    28         69
    29        174
    30          4
    31         78
    38          4
    39        110
    40         41
    41        609
    42        271
    43        588
    44         30
    45         18
    46          2
    47         19
    51          5
    52          6
    53         54
    54        130
    55        999
    56        819
    57        381
    58         17
    59          8
    65         11
    66         16
    67        138
    68        288
    69        720
    70        730
    71        108
    72          5
    73          5
    74          1
    77          8
    78          2
    79         14
    80          2
    81         79
    82        415
    83        755
    84        488
    85         93
    86          6
    87         15
    94          2
    95          9
    96        125
    97        438
    98        174
    99         14
   100          2
   101          2
   102          6
   109          3
   110         44
   111        285
   112        273
   113         23
   122         10
   123          5
   125          8
   138          2
   139          3
   140         67
   141         11