##TITLE=Library Entry 12834
##JCAMP-DX=Revision 4.10 
##DATA TYPE=MASS SPECTRUM
##SAMPLE DESCRIPTION=Exported from NIST MS Search
##NAMES=HP
##CAS NAME=Benzeneethanol, .alpha.-methyl-3-(1-methylethyl)-
##MOLFORM=C12H18O
##CAS REGISTRY NO=54518-11-5
##MP= -300
##BP= -300
##MW= 178
##$RETENTION INDEX=0
##$CONDENSED SPECTRUM=NO
##NPOINTS= 138
##XYDATA=(XY..XY) 1 
    36          1
    37          3
    38         10
    39        123
    40         12
    41        193
    42         10
    43        999
    44         25
    45          5
    46          1
    47          1
    48          1
    49          1
    50         30
    51         86
    52         21
    53         24
    54          2
    55          7
    56          1
    57         11
    58         12
    59         65
    60          4
    61          2
    62         10
    63         38
    64         25
    65         49
    66         16
    67         15
    68          1
    69          3
    70          4
    71          9
    72          5
    73         11
    74         51
    75         14
    76         14
    77         84
    78         31
    79         35
    80          4
    81          1
    82          1
    83          1
    84          1
    85          1
    86          2
    87          4
    88          2
    89         13
    90          4
    91        118
    92         11
    93         12
    94          2
    95          1
    96          1
    97          1
    98          1
    99          1
   100          1
   101          3
   102         13
   103         36
   104         13
   105        110
   106         10
   107          2
   108          1
   109          1
   110          1
   111          1
   112          1
   113          1
   114          1
   115         49
   116         17
   117         64
   118         15
   119         66
   120          8
   121         86
   122          8
   123          1
   125          1
   126          2
   127         10
   128         27
   129         18
   130         17
   131         15
   132          3
   133          5
   134          2
   135          3
   136          1
   137          1
   138          1
   139          1
   140          1
   141          4
   142          2
   143          7
   144          3
   145        193
   146         24
   147        104
   148         13
   149          2
   150          1
   151          1
   152          1
   153          1
   154          1
   155          1
   157          1
   158          5
   159          4
   160         80
   161         24
   162         30
   163        196
   164         24
   165          2
   166          1
   172          1
   173          1
   174          1
   175          1
   176          3
   177          2
   178         21
   179          5
   180          1