##TITLE=Library Entry 10222
##JCAMP-DX=Revision 4.10 
##DATA TYPE=MASS SPECTRUM
##SAMPLE DESCRIPTION=Exported from NIST MS Search
##NAMES=HP
##CAS NAME=Benzene, (2,4-dimethylpentyl)-
##MOLFORM=C13H20
##CAS REGISTRY NO=54518-00-2
##MP= -300
##BP= -300
##MW= 176
##$RETENTION INDEX=1247
##$CONDENSED SPECTRUM=NO
##NPOINTS= 72
##XYDATA=(XY..XY) 1 
     2         13
    12          8
    13          3
    14         13
    15         47
    16          5
    24          3
    25          8
    26         38
    27        214
    28        194
    29        188
    30         31
    32          7
    37          5
    38         10
    39        149
    40         15
    41        247
    42         44
    43        999
    44         52
    46          5
    49          5
    50         13
    51         47
    52         10
    53         20
    54          3
    55         83
    56         26
    57        114
    58          3
    62          5
    63         21
    64          5
    65         88
    66          7
    67          7
    69         52
    70          3
    71         10
    77         33
    78         16
    79         10
    81          5
    82         11
    83        193
    84        109
    85        384
    86         25
    88          5
    89         11
    91        389
    92        312
    93         28
   103         10
   104          5
   105         20
   106          3
   115         20
   116          5
   117         47
   118         20
   119         13
   127          3
   129          5
   131         20
   174         11
   175          3
   176        103
   177         15