##TITLE=Library Entry 37613
##JCAMP-DX=Revision 4.10 
##DATA TYPE=MASS SPECTRUM
##SAMPLE DESCRIPTION=V.G.Zaikin,TIPS,Russian Acad.Sci.Moscow
##NAMES=HP
##CAS NAME=Chloroacetic acid, octyl ester
##MOLFORM=C10H19ClO2
##CAS REGISTRY NO=5451-98-9
##MP= -300
##BP= -300
##MW= 206
##$RETENTION INDEX=1395
##$CONDENSED SPECTRUM=NO
##NPOINTS= 73
##XYDATA=(XY..XY) 1 
    26          8
    27         45
    28          6
    36         11
    38         15
    39         76
    40         13
    41        368
    42        259
    43        463
    44         82
    45          9
    49        133
    50         16
    51         62
    52         12
    53         27
    54         85
    55        655
    56        857
    57        588
    58         18
    59          7
    60          7
    61          7
    63          9
    64          7
    65         11
    66          7
    67         65
    68        203
    69        669
    70        999
    71        353
    72         25
    73          8
    76         22
    77        398
    78         25
    79        155
    80          9
    81         19
    82        169
    83        668
    84        943
    85         91
    91         11
    92          9
    93         12
    94         12
    95        183
    96         11
    97         78
    98         31
   105          6
   107         11
   108          5
   109         11
   110         18
   111         19
   112        224
   113         20
   115          2
   121          8
   123          7
   129          8
   130          6
   133         12
   135         15
   138          8
   157         28
   158          3
   159          1