##TITLE=Library Entry 23426
##JCAMP-DX=Revision 4.10 
##DATA TYPE=MASS SPECTRUM
##SAMPLE DESCRIPTION=V.Zaikin,Topchiev Inst.Petrochem.Synth.,Moscow
##NAMES=HP
##CAS NAME=Pentanoic acid, heptyl ester
##MOLFORM=C12H24O2
##CAS REGISTRY NO=5451-80-9
##MP= -300
##BP= -300
##MW= 200
##$RETENTION INDEX=1376
##$CONDENSED SPECTRUM=NO
##NPOINTS= 64
##XYDATA=(XY..XY) 1 
    27        246
    28         10
    29        560
    30         21
    31         50
    36         14
    38         36
    39        335
    40         65
    41        940
    42        300
    43        588
    44        116
    45         53
    47          4
    50         18
    51         23
    52         14
    53         69
    54         74
    55        496
    56        501
    57        999
    58         62
    59          6
    60        107
    61         73
    62          6
    63         17
    65          2
    67         29
    68         43
    69        127
    70        211
    71         80
    72          9
    73         53
    74         15
    75         20
    77          8
    79          3
    81         19
    82          9
    83         79
    84         47
    85        573
    86         41
    87         33
    91          4
    95          8
    96         13
    97         16
    98        245
    99         41
   102         53
   103        424
   104         23
   112          7
   113          9
   126          5
   141          3
   142          2
   143          3
   157          6