##TITLE=Library Entry 27608
##JCAMP-DX=Revision 4.10 
##DATA TYPE=MASS SPECTRUM
##SAMPLE DESCRIPTION=Chemical Concepts
##NAMES=HP
##CAS NAME=Bis(5-tert-butyl-6-methoxy-m-tolyl) sulfide
##MOLFORM=C24H34O2S
##CAS REGISTRY NO=54519-53-8
##MP= -300
##BP= -300
##MW= 386
##$RETENTION INDEX=0
##$CONDENSED SPECTRUM=NO
##NPOINTS= 169
##XYDATA=(XY..XY) 1 
    34         20
    36          9
    37          4
    38         10
    39        112
    40        173
    41        545
    43        219
    44         82
    45         77
    46         22
    50         11
    51         46
    53         90
    55        218
    57        999
    59         78
    61         10
    62          5
    63         22
    64          9
    65         60
    66         12
    67         35
    69         62
    70         39
    71         35
    73         25
    74          7
    75          9
    77        115
    78         41
    79         69
    80         19
    81         10
    83         38
    84         18
    85         17
    87          9
    89         22
    91        231
    92         39
    93         27
    94          6
    95          9
    97         29
    98          7
    99          4
   101          6
   102         17
   103         49
   104         32
   105        146
   106         19
   107         54
   108         13
   109         20
   110         11
   111         18
   112         25
   113         12
   115        108
   116         41
   117         91
   118         40
   119        198
   120         30
   121         68
   122         32
   123         36
   125         61
   126         12
   127         32
   128         52
   129         45
   130         22
   131         75
   132         40
   133         77
   134         60
   135        138
   136         29
   137         56
   138          9
   139          9
   140          4
   141          9
   142         12
   143         19
   145        146
   146        123
   147        128
   148         34
   149         47
   150         29
   151         33
   152         25
   153        112
   154         14
   155          9
   156          8
   157          7
   159         49
   160         86
   161        102
   162         76
   163        135
   164         45
   165         54
   166         53
   167         13
   168          5
   171         22
   173          4
   174          7
   175         24
   176         16
   177         48
   178        180
   179         60
   180         10
   181          6
   184          6
   185         16
   189          6
   191         23
   193        220
   194         39
   195         20
   197          5
   198          4
   201          5
   205          5
   206         11
   207         11
   209         22
   210          8
   211          7
   221          9
   222          5
   223          5
   228          7
   238          4
   241          4
   243          4
   244          9
   257          5
   258         11
   259         76
   260          7
   261          4
   273         36
   283          6
   284          4
   299          7
   300         17
   301          5
   315        107
   316         25
   340          4
   371         25
   381          9
   382         13
   383         19
   384         51
   386        943
   387        219
   388         72
   389          9