##TITLE=Library Entry 98311
##JCAMP-DX=Revision 4.10 
##DATA TYPE=MASS SPECTRUM
##SAMPLE DESCRIPTION=V.Zaikin,Topchiev Inst.Petrochem.Synth.,Moscow
##NAMES=HP
##CAS NAME=Pentanoic acid, 3-phenylpropyl ester
##MOLFORM=C14H20O2
##CAS REGISTRY NO=5451-88-7
##MP= -300
##BP= -300
##MW= 220
##$RETENTION INDEX=1635
##$CONDENSED SPECTRUM=NO
##NPOINTS= 85
##XYDATA=(XY..XY) 1 
    26          4
    27          7
    28          2
    29          9
    35          1
    36          9
    38          3
    39         10
    40          8
    41         22
    42          3
    43          6
    44          1
    50          3
    51          8
    52          4
    53          3
    54          2
    55         12
    56          4
    57         35
    58          3
    59          1
    60          2
    62          1
    63          5
    64          1
    65         17
    66          2
    67          4
    68          1
    69          5
    70          2
    71          4
    73          5
    74          2
    75          3
    76          2
    77         17
    78         15
    79         12
    80          2
    81          3
    82          4
    83          7
    84          4
    85         29
    86          2
    87          1
    89          7
    90          4
    91        171
    92         22
    93          5
    94          1
    95          3
    96          1
    97          4
    99          1
   101          1
   102          3
   103         21
   104         14
   105         19
   106          2
   107          2
   109          2
   111          2
   115         28
   116         11
   117        511
   118        999
   119         94
   120          7
   123          1
   125          1
   129          2
   131          1
   133          4
   134          2
   135          7
   136          2
   147          1
   191          1
   193          1