##TITLE=Library Entry 2069
##JCAMP-DX=Revision 4.10 
##DATA TYPE=MASS SPECTRUM
##SAMPLE DESCRIPTION=V.Zaikin,Topchiev Inst.Petrochem.Synth.,Moscow
##NAMES=HP
##CAS NAME=Pentanoic acid, octyl ester
##MOLFORM=C13H26O2
##CAS REGISTRY NO=5451-85-4
##MP= -300
##BP= -300
##MW= 214
##$RETENTION INDEX=1474
##$CONDENSED SPECTRUM=NO
##NPOINTS= 76
##XYDATA=(XY..XY) 1 
    27        463
    28         54
    29        882
    30         26
    31         44
    35          6
    36         15
    37         16
    38         20
    39        315
    40         67
    41        999
    42        332
    43        607
    44         78
    45         50
    49          3
    50          8
    51         34
    52          8
    53         61
    54         54
    55        431
    56        364
    57        815
    58         49
    59         20
    60        127
    61         89
    62          4
    63          7
    64          3
    65          2
    66          8
    67         35
    68         74
    69        228
    70        289
    71        168
    72          8
    73         90
    74         10
    75         14
    77         13
    78          4
    79          5
    81         24
    82         69
    83        169
    84        195
    85        525
    86         39
    87         22
    91          6
    95          5
    96          3
    97         27
    98         22
    99          6
   100         10
   101         11
   102         37
   103        440
   104         34
   105          3
   110          6
   111         12
   112        168
   113         23
   115         10
   116         11
   127          4
   129          3
   131          2
   139          5
   157          6