##TITLE=Library Entry 57758
##JCAMP-DX=Revision 4.10 
##DATA TYPE=MASS SPECTRUM
##SAMPLE DESCRIPTION=Japan AIST/NIMC Database- Spectrum MS-NW-8981
##NAMES=HP
##CAS NAME=Cyclohexaneacetic acid, ethyl ester
##MOLFORM=C10H18O2
##CAS REGISTRY NO=5452-75-5
##MP= -300
##BP= -300
##MW= 170
##$RETENTION INDEX=0
##$CONDENSED SPECTRUM=NO
##NPOINTS= 78
##XYDATA=(XY..XY) 1 
    15          1
    26          1
    27         33
    28         13
    29         76
    30          2
    31          2
    39         45
    40          9
    41        112
    42         21
    43         34
    44          2
    45         51
    46          1
    47          1
    51          3
    52          2
    53         29
    54         41
    55        225
    56         15
    57          7
    58          1
    59          1
    60        294
    61        262
    62          7
    63          1
    65          6
    66          4
    67         67
    68         16
    69         13
    70        198
    71         11
    72          1
    73         21
    74          4
    75          1
    77          7
    78          2
    79         19
    80         13
    81        102
    82         44
    83         52
    84          3
    85          3
    86          2
    87          1
    88        999
    89        217
    90         12
    91         11
    92          1
    93          3
    94          1
    95         30
    96          9
    97        127
    98          9
    99         17
   100          2
   101          2
   105          1
   110          1
   113          2
   123          9
   124          9
   125        158
   126         13
   127          9
   128          1
   141          1
   142          1
   170          9
   171          3