##TITLE=Library Entry 98307
##JCAMP-DX=Revision 4.10 
##DATA TYPE=MASS SPECTRUM
##SAMPLE DESCRIPTION=Insect Chem. Ecol. Lab., USDA, Beltsville, MD 20705
##NAMES=HP
##CAS NAME=Butanoic acid, 3-methyl-, 3-phenylpropyl ester
##MOLFORM=C14H20O2
##CAS REGISTRY NO=5452-07-3
##MP= -300
##BP= -300
##MW= 220
##$RETENTION INDEX=1613
##$CONDENSED SPECTRUM=NO
##NPOINTS= 89
##XYDATA=(XY..XY) 1 
    41        148
    42         36
    43         81
    44          4
    45          8
    47          0
    49          1
    50          7
    51         28
    52          8
    53          7
    55         23
    57        178
    59         20
    60          5
    61          2
    62          2
    63         13
    65         68
    66          4
    67          2
    68          1
    69         10
    70          1
    71          2
    73          1
    74          1
    75          3
    76          3
    77         48
    78         34
    79         24
    81          7
    82          7
    83          6
    85         87
    86          5
    87          7
    89         19
    91        412
    92         43
    93          2
    94          0
    95          1
    96          7
    97          1
    99          0
   101          4
   102          6
   103         49
   104         24
   105         31
   106          3
   107          5
   108          3
   109          0
   110          0
   111          0
   115         35
   117        657
   118        999
   119        159
   120         10
   121          0
   122          0
   123          0
   124          5
   125          1
   127          0
   129          2
   131          2
   132          2
   133          1
   134          1
   136          3
   137          0
   141          0
   145          1
   159          0
   163          3
   173          0
   177          0
   183          1
   187          1
   205          1
   206          0
   219          4
   220          7
   221          1