##TITLE=Library Entry 9828
##JCAMP-DX=Revision 4.10 
##DATA TYPE=MASS SPECTRUM
##SAMPLE DESCRIPTION=Chemical Concepts
##NAMES=HP
##CAS NAME=Butanoic acid, 3-oxo-, 2-chloroethyl ester
##MOLFORM=C6H9ClO3
##CAS REGISTRY NO=54527-68-3
##MP= -300
##BP= -300
##MW= 164
##$RETENTION INDEX=0
##$CONDENSED SPECTRUM=NO
##NPOINTS= 84
##XYDATA=(XY..XY) 1 
    36         26
    37          4
    38         10
    39         15
    40          5
    41         24
    42         91
    43        999
    44         30
    45         12
    47          9
    48          5
    49         58
    50          4
    51         18
    52          1
    53          2
    54          0
    55          6
    56          6
    57          3
    58          3
    59          2
    60          8
    61          6
    62         20
    63         84
    64          8
    65         26
    66          1
    67          1
    68          0
    69         31
    70          4
    71          1
    72          1
    73          7
    74          0
    75          1
    77          2
    78          0
    79          2
    80          0
    81          0
    82          0
    83          1
    84         44
    85         98
    86         28
    87         17
    88          3
    89          0
    91          1
    93          1
    97          0
    99          0
   100          1
   101          1
   102         12
   103          2
   105          0
   107          0
   113          1
   115         11
   116          0
   117          1
   118          0
   121          0
   122          6
   123          0
   124          2
   128          0
   129          2
   130          0
   135          0
   136          2
   138          1
   149          3
   150          0
   151          1
   159          0
   164          6
   165          1
   166          2