##TITLE=Library Entry 37606
##JCAMP-DX=Revision 4.10 
##DATA TYPE=MASS SPECTRUM
##SAMPLE DESCRIPTION=Institute of Organic Chemistry, USSR, 1990
##NAMES=HP
##CAS NAME=2,3,11,12-Dibenzo-1,7,13-trioxa-4,10,16-triazacyclooctadeca-2,11-
diene
##MOLFORM=C20H27N3O3
##CAS REGISTRY NO=54533-75-4
##MP= -300
##BP= -300
##MW= 357
##$RETENTION INDEX=0
##$CONDENSED SPECTRUM=NO
##NPOINTS= 95
##XYDATA=(XY..XY) 1 
    55         28
    56        320
    57         73
    58        100
    65         50
    66         14
    67         13
    68         34
    69         65
    70        999
    71        150
    72        130
    77         72
    78         17
    79         27
    80         40
    81         15
    82         30
    83        999
    84         35
    85         68
    86         20
    87         85
    88         27
    91         57
    92         45
    93         80
    94         65
    95         95
    96         78
    97         43
    98         25
   106         60
   107         40
   108         48
   109         97
   110         15
   114         27
   118         53
   119         37
   120        570
   121         90
   122        550
   123        150
   124         22
   132         50
   133         65
   134        300
   135        650
   136        700
   137        150
   138         25
   146         75
   147         40
   148        640
   149        120
   150        100
   151         22
   152         57
   153        150
   154         30
   160         45
   161        150
   162        400
   163        120
   164        100
   165         26
   176         40
   177         73
   178        150
   179        130
   180         80
   191        320
   192        170
   193         53
   203         38
   204        190
   205        800
   206        220
   207        170
   208         22
   209         19
   221         35
   222        130
   223        360
   224         49
   231        150
   232         27
   233         35
   247        110
   248         20
   249         37
   357        360
   358         96
   359         20