##TITLE=Library Entry 32000
##JCAMP-DX=Revision 4.10 
##DATA TYPE=MASS SPECTRUM
##SAMPLE DESCRIPTION=NIST Mass Spectrometry Data Center, 1990.
##NAMES=HP
##CAS NAME=5-Norbornane-2-carboxaldehyde
##MOLFORM=C8H10O
##CAS REGISTRY NO=5453-80-5
##MP= -300
##BP= -300
##MW= 122
##$RETENTION INDEX=0
##$CONDENSED SPECTRUM=NO
##NPOINTS= 48
##XYDATA=(XY..XY) 1 
    15          3
    25          4
    26         22
    27         95
    28         29
    29         39
    37         17
    38         42
    39        201
    40         74
    41         56
    42          5
    43          4
    44          6
    49          5
    50         27
    51         57
    52         15
    53         25
    54          5
    55         34
    56         10
    57         33
    61         11
    62         16
    63         34
    64          5
    65        161
    66        999
    67         69
    68         15
    74          3
    77        121
    78         81
    79         86
    80         73
    81         11
    89          5
    91         88
    92         19
    93         61
    94         25
    95          5
   103          8
   104         14
   107          4
   122         96
   123          8