##TITLE=Library Entry 432
##JCAMP-DX=Revision 4.10 
##DATA TYPE=MASS SPECTRUM
##SAMPLE DESCRIPTION=Humboldt-Universitat zu Berlin, Department of Chemistry
, Analytical Group
##NAMES=HP
##CAS NAME=N-(3-Butyrylamino-propyl)-butyramide
##MOLFORM=C11H22N2O2
##CAS REGISTRY NO=54535-62-5
##MP= -300
##BP= -300
##MW= 214
##$RETENTION INDEX=0
##$CONDENSED SPECTRUM=NO
##NPOINTS= 83
##XYDATA=(XY..XY) 1 
    12          2
    13          2
    14         10
    15         42
    16          3
    18         55
    24          1
    26         52
    27        348
    28        296
    29        999
    30        857
    31         25
    32         24
    37          1
    39         47
    41        141
    42         68
    43         83
    44        306
    45         20
    46         10
    51          2
    52          3
    53         14
    54         22
    55         88
    56        134
    57        641
    58        131
    59         20
    60          1
    65          2
    67         14
    68         18
    69         48
    70         27
    71         13
    72         92
    73         10
    74         89
    75          4
    80          1
    81          2
    82         13
    84        415
    85         37
    86        319
    87        173
    88         11
    89          1
    94          1
    95          1
    96          2
    98          7
   100        281
   101         99
   102          9
   103          1
   110          3
   112         18
   114         54
   115         69
   116          7
   123          2
   126          3
   128         58
   129         51
   130          4
   140         87
   141         14
   142         23
   143          2
   157         49
   158          5
   159         24
   160          2
   185         13
   186          1
   214         10
   215         54
   216          7
   217          0