##TITLE=Library Entry 61265
##JCAMP-DX=Revision 4.10 
##DATA TYPE=MASS SPECTRUM
##SAMPLE DESCRIPTION=Chemical Concepts
##NAMES=HP
##CAS NAME=Heptanoic acid, phenylmethyl ester
##MOLFORM=C14H20O2
##CAS REGISTRY NO=5454-21-7
##MP= -300
##BP= -300
##MW= 220
##$RETENTION INDEX=1613
##$CONDENSED SPECTRUM=NO
##NPOINTS= 146
##XYDATA=(XY..XY) 1 
    24          0
    25          0
    26          8
    27         96
    28         31
    29        100
    30          2
    31          2
    33          0
    37          3
    38          7
    39         96
    40         13
    41        165
    42         43
    43        352
    44         15
    45         10
    46          1
    47          0
    49          0
    50         11
    51         45
    52         11
    53         13
    54          3
    55         99
    56         18
    57         60
    58          3
    59          0
    60          4
    61          2
    62          6
    63         24
    64         11
    65        130
    66          8
    67          9
    68         13
    69         73
    70          8
    71          3
    72          0
    73          3
    74          3
    75          2
    76          3
    77         67
    78         19
    79         82
    80          5
    81          4
    82          3
    83        116
    84         13
    85         95
    86          7
    87         12
    88          1
    89         51
    90        110
    91        999
    92        246
    93         18
    94          2
    95         10
    96          2
    97          1
    98          0
    99          1
   100          1
   102          0
   103          0
   104          7
   105         24
   106          7
   107         55
   108        588
   109         42
   110         14
   111         79
   112          7
   113        100
   114          7
   115          1
   116          0
   117          3
   118          1
   119          2
   120          0
   121          0
   123          0
   124          0
   126          0
   127          1
   128         11
   129         84
   130          7
   131          1
   132          0
   133          3
   134          0
   135          0
   136          0
   137          0
   140          0
   141          0
   142          0
   144          0
   145          0
   146          0
   147          6
   148          0
   150          4
   151          0
   154          0
   155          0
   158          0
   159          0
   160          3
   161          2
   163          0
   168          0
   170          0
   171          0
   173          0
   174          1
   175          0
   177          4
   178          1
   180          0
   182          0
   185          0
   187          0
   190          0
   191          2
   196          0
   200          0
   201          0
   202          9
   203          1
   208          0
   211          0
   220         21
   221          2