##TITLE=Library Entry 84107
##JCAMP-DX=Revision 4.10 
##DATA TYPE=MASS SPECTRUM
##SAMPLE DESCRIPTION=Exported from NIST MS Search
##NAMES=HP
##CAS NAME=Propanoic acid, 4-ethylphenyl ester
##MOLFORM=C11H14O2
##CAS REGISTRY NO=54549-71-2
##MP= -300
##BP= -300
##MW= 178
##$RETENTION INDEX=0
##$CONDENSED SPECTRUM=NO
##NPOINTS= 70
##XYDATA=(XY..XY) 1 
    14          1
    15          1
    18          4
    26          6
    27         46
    28         28
    29        178
    30          4
    32          5
    38          6
    39         42
    40          6
    41         15
    42          2
    43          3
    44          1
    45          2
    50          9
    51         27
    52         14
    53         16
    54          2
    55         13
    56          4
    57        189
    58          6
    59          2
    61          2
    62          5
    63         16
    64          5
    65         27
    66          6
    67          3
    74          2
    75          2
    76          2
    77         89
    78         27
    79         17
    80          2
    81          3
    89          5
    90          2
    91         34
    92          4
    93          9
    94          6
    95          3
   102          2
   103         16
   104          3
   105         13
   106          3
   107        999
   108         78
   109          5
   119          5
   120         11
   121         37
   122        857
   123         77
   124          5
   134          2
   136          2
   149          4
   163          4
   178        112
   179         14
   180          1