##TITLE=Library Entry 5689
##JCAMP-DX=Revision 4.10 
##DATA TYPE=MASS SPECTRUM
##SAMPLE DESCRIPTION=ORMSBG,10(2)122(1975); G. PEIFFER
##NAMES=HP
##CAS NAME=Phosphonic acid, [[2-(1-methyl-1-propenyl)-1,3-dioxolan-2-yl]meth
yl]-, diethyl ester, (E)-
##MOLFORM=C12H23O5P
##CAS REGISTRY NO=54543-05-4
##MP= -300
##BP= -300
##MW= 278
##$RETENTION INDEX=0
##$CONDENSED SPECTRUM=NO
##NPOINTS= 43
##XYDATA=(XY..XY) 1 
    34        272
    39          7
    40        545
    41        318
    43        999
    44        227
    45        500
    47        136
    51        136
    55        408
    57         90
    63         38
    69         90
    77        181
    78        181
    79        227
    80        181
    81        454
    82        363
    87        500
    91         90
    93        318
    96          7
    99        545
   109        363
   110         38
   111        545
   121         90
   125         90
   127        454
   137         90
   138        136
   143          4
   146        181
   154        136
   156          7
   160        272
   170         45
   188         45
   201          7
   216        272
   234         45
   278         45