##TITLE=Library Entry 76775
##JCAMP-DX=Revision 4.10 
##DATA TYPE=MASS SPECTRUM
##SAMPLE DESCRIPTION=W.Jennings, T.Shibamoto
##NAMES=HP
##CAS NAME=Heptanoic acid, 2-phenylethyl ester
##MOLFORM=C15H22O2
##CAS REGISTRY NO=5454-11-5
##MP= -300
##BP= -300
##MW= 234
##$RETENTION INDEX=1740
##$CONDENSED SPECTRUM=NO
##NPOINTS= 22
##XYDATA=(XY..XY) 1 
    29          7
    41         28
    43        529
    44          7
    55         19
    57         68
    64          7
    69          7
    77          7
    78         28
    79         19
    85         99
    91         39
    92          7
    95          7
   102          7
   103         28
   104        999
   105        419
   106         28
   113        149
   114          7