##TITLE=Library Entry 7128
##JCAMP-DX=Revision 4.10 
##DATA TYPE=MASS SPECTRUM
##SAMPLE DESCRIPTION=V.Zaikin,Topchiev Inst.Petrochem.Synth.,Moscow
##NAMES=HP
##CAS NAME=Bromoacetic acid, hexadecyl ester
##MOLFORM=C18H35BrO2
##CAS REGISTRY NO=5454-48-8
##MP= -300
##BP= -300
##MW= 362
##$RETENTION INDEX=2288
##$CONDENSED SPECTRUM=NO
##NPOINTS= 121
##XYDATA=(XY..XY) 1 
    27        140
    28         16
    29        304
    30          7
    31         11
    35          4
    36         26
    38          8
    39        168
    40         38
    41        865
    42        362
    43        999
    44         88
    45         21
    46          2
    49          4
    50          5
    51         21
    52          5
    53         77
    54        146
    55        930
    56        411
    57        744
    58         27
    60         11
    61         64
    63          9
    65         16
    66         16
    67        201
    68        199
    69        769
    70        371
    71        344
    72         15
    73         14
    74          5
    75          3
    76          3
    77         16
    79         20
    80         17
    81        118
    82        317
    83        736
    84        257
    85        229
    86         14
    87         11
    89          2
    91          6
    92          4
    93         74
    94          9
    95         77
    96        172
    97        581
    98        171
    99         43
   100          2
   101          6
   103          2
   105          7
   107          6
   108          4
   109         36
   110        110
   111        280
   112        106
   113         16
   114          3
   115          6
   120          9
   121        233
   122          9
   123        250
   124         49
   125        152
   126         45
   127         20
   128          4
   130          4
   133          4
   137         17
   138         37
   139         63
   140         50
   141         77
   148          7
   149          3
   150          4
   151         28
   152         35
   153         41
   154         20
   155          5
   156          5
   164          2
   165         16
   166         20
   167         11
   168         19
   169          4
   179          3
   180         14
   181         14
   182          7
   187          3
   190          2
   193          3
   194         31
   195          5
   196         63
   197          7
   222         53
   223         16
   224         32
   225          6
   269         12