##TITLE=Library Entry 20952
##JCAMP-DX=Revision 4.10 
##DATA TYPE=MASS SPECTRUM
##SAMPLE DESCRIPTION=Chuck Anderson, Aldrich Chemical Co.
##NAMES=HP
##CAS NAME=Pentanoic acid, 5-bromo-, methyl ester
##MOLFORM=C6H11BrO2
##CAS REGISTRY NO=5454-83-1
##MP= -300
##BP= -300
##MW= 194
##$RETENTION INDEX=0
##$CONDENSED SPECTRUM=NO
##NPOINTS= 108
##XYDATA=(XY..XY) 1 
    13          0
    14          5
    15        153
    16          3
    20          0
    25          2
    26         63
    27        435
    28        199
    29        333
    30         19
    31         34
    32          2
    33          5
    36          1
    37          4
    38         11
    39        144
    40         17
    41        161
    42         58
    43         59
    44          6
    45         43
    46          1
    49          1
    50         12
    51         16
    52          8
    53         63
    54         38
    55        999
    56         69
    57         52
    58          4
    59        382
    60         13
    61          4
    62          0
    63          0
    65          1
    66          0
    67          2
    68          2
    69          7
    70          1
    71         20
    72         11
    73        435
    74         35
    75          2
    79          4
    80          3
    81         12
    82         13
    83        355
    84         19
    85          4
    87        964
    88         84
    89          7
    90          0
    91          1
    92          1
    93         23
    94          4
    95         21
    96          3
    97          2
    99          3
   100          1
   101         40
   102          2
   105          3
   106         12
   107         49
   108         12
   109         43
   110          1
   113          4
   114          6
   115        662
   116         43
   117          4
   119          5
   121          5
   122          0
   123          1
   133          3
   134          4
   135        136
   136          9
   137        133
   138          6
   139          0
   151          1
   153          1
   162          7
   163        124
   164         13
   165        121
   166          8
   167          5
   168          2
   194          5
   195          0
   196          5
   197          0