##TITLE=Library Entry 38546
##JCAMP-DX=Revision 4.10 
##DATA TYPE=MASS SPECTRUM
##SAMPLE DESCRIPTION=V.G.Zaikin, Petrochem. Synth. Inst., Moscow
##NAMES=HP
##CAS NAME=Butanoic acid, decyl ester
##MOLFORM=C14H28O2
##CAS REGISTRY NO=5454-09-1
##MP= -300
##BP= -300
##MW= 228
##$RETENTION INDEX=1597
##$CONDENSED SPECTRUM=NO
##NPOINTS= 58
##XYDATA=(XY..XY) 1 
    26         18
    27        155
    28         94
    29        193
    30          3
    31          9
    39         85
    40         25
    41        454
    42        195
    43        969
    44         44
    45         15
    51          7
    53         19
    54         59
    55        407
    56        408
    57        381
    58         28
    60         64
    61         27
    66          7
    67         49
    68        101
    69        313
    70        445
    71        999
    72         59
    73         33
    79         11
    80          3
    81         18
    82         96
    83        299
    84        239
    85        109
    86         22
    87          9
    88         76
    89        909
    90         39
    95          9
    96         39
    97        199
    98        149
    99         27
   100          5
   101         24
   110         14
   111        107
   112        149
   113         14
   140        179
   141         19
   144         35
   145          3
   185         12