##TITLE=Library Entry 10172
##JCAMP-DX=Revision 4.10 
##DATA TYPE=MASS SPECTRUM
##SAMPLE DESCRIPTION=V.G.Zaikin, Petrochem. Synth. Inst., Moscow
##NAMES=HP
##CAS NAME=Propanoic acid, 2-methyl-, decyl ester
##MOLFORM=C14H28O2
##CAS REGISTRY NO=5454-22-8
##MP= -300
##BP= -300
##MW= 228
##$RETENTION INDEX=1590
##$CONDENSED SPECTRUM=NO
##NPOINTS= 57
##XYDATA=(XY..XY) 1 
    26          7
    27        107
    28         45
    29        112
    31          9
    39        122
    40         29
    41        439
    42        179
    43        999
    44         41
    45         13
    51          9
    52          7
    53         31
    54         41
    55        319
    56        299
    57        385
    58         23
    59          5
    66          4
    67         51
    68         66
    69        259
    70        335
    71        668
    72         32
    73         26
    81         22
    82         85
    83        225
    84        196
    85        139
    86         16
    88         39
    89        888
    90         51
    91          8
    95         10
    96         31
    97        179
    98        125
    99         18
   101         21
   102          2
   110         13
   111        102
   112        118
   113         17
   125          5
   140        199
   141         20
   157          3
   185         19
   186          2
   228          2