##TITLE=Library Entry 8912
##JCAMP-DX=Revision 4.10 
##DATA TYPE=MASS SPECTRUM
##SAMPLE DESCRIPTION=CARL DJERASSI DEPT OF CHEM STANFORD UNIV STANFORD CALIF
 94305
##NAMES=HP
##CAS NAME=4-Undecanone, 9-ethyl-
##MOLFORM=C13H26O
##CAS REGISTRY NO=54549-96-1
##MP= -300
##BP= -300
##MW= 198
##$RETENTION INDEX=0
##$CONDENSED SPECTRUM=NO
##NPOINTS= 38
##XYDATA=(XY..XY) 1 
    41        515
    42         70
    43        999
    44         30
    45         70
    53         40
    55        282
    56         80
    57        282
    58        777
    59         60
    67         80
    68         20
    69        121
    70         50
    71        878
    72         60
    81        151
    82         20
    83         90
    84         20
    85         50
    86        585
    87        131
    95         30
    96        101
    97        121
    98        202
    99        262
   100         20
   123        515
   124         50
   137         40
   141        252
   142        262
   155         20
   176         50
   185         10