##TITLE=Library Entry 54187
##JCAMP-DX=Revision 4.10 
##DATA TYPE=MASS SPECTRUM
##SAMPLE DESCRIPTION=CARL DJERASSI DEPT OF CHEM STANFORD UNIV STANFORD CALIF
 94305
##NAMES=HP
##CAS NAME=Cyclopentanone, 2-(1-methylheptyl)-
##MOLFORM=C13H24O
##CAS REGISTRY NO=54549-91-6
##MP= -300
##BP= -300
##MW= 196
##$RETENTION INDEX=0
##$CONDENSED SPECTRUM=NO
##NPOINTS= 21
##XYDATA=(XY..XY) 1 
    41        110
    42         20
    43         60
    53         20
    54         10
    55        140
    56         40
    57         30
    67         20
    68         10
    69         50
    70         20
    81         10
    82         10
    83         90
    84        999
    85         90
    97         10
   111        170
   112         20
   196         30