##TITLE=Library Entry 25658
##JCAMP-DX=Revision 4.10 
##DATA TYPE=MASS SPECTRUM
##SAMPLE DESCRIPTION=Insect Chem. Ecol. Lab., USDA, Beltsville, MD 20705
##NAMES=HP
##CAS NAME=Propanoic acid, decyl ester
##MOLFORM=C13H26O2
##CAS REGISTRY NO=5454-19-3
##MP= -300
##BP= -300
##MW= 214
##$RETENTION INDEX=1501
##$CONDENSED SPECTRUM=NO
##NPOINTS= 83
##XYDATA=(XY..XY) 1 
    41        470
    42        112
    43        449
    44         18
    45          6
    47          4
    48          1
    53         32
    54         56
    55        395
    56        398
    57        999
    58         34
    59          4
    61          0
    63          0
    65          5
    66          4
    67         55
    68         98
    69        285
    70        370
    71        115
    72         17
    73          8
    74         52
    75        699
    76         19
    77          6
    79          6
    81         20
    82        121
    83        277
    84        205
    85         85
    87         36
    88          0
    89          8
    91          1
    93          1
    94          0
    95          7
    96         47
    97        203
    98        100
    99         13
   101          9
   102          1
   103          1
   105          0
   109          1
   110         18
   111        118
   112        150
   113         12
   115         14
   116          2
   121          0
   123          0
   125          5
   126          1
   127          0
   128          1
   129          1
   130         36
   131          2
   135          6
   138          2
   140        180
   141         19
   142          2
   143          0
   144          1
   149          0
   152          1
   154          0
   155          4
   157          5
   167          0
   185         19
   186          2
   214         23
   215          2