##TITLE=Library Entry 20958
##JCAMP-DX=Revision 4.10 
##DATA TYPE=MASS SPECTRUM
##SAMPLE DESCRIPTION=Japan AIST/NIMC Database- Spectrum MS-IW-3054
##NAMES=HP
##CAS NAME=Ethyl 9-hexadecenoate
##MOLFORM=C18H34O2
##CAS REGISTRY NO=54546-22-4
##MP= -300
##BP= -300
##MW= 282
##$RETENTION INDEX=1977
##$CONDENSED SPECTRUM=NO
##NPOINTS= 227
##XYDATA=(XY..XY) 1 
    14          2
    15          7
    16          1
    19          2
    26          9
    27        158
    28         53
    29        431
    30         13
    31         38
    32          1
    37          1
    38          3
    39        119
    40         26
    41        706
    42        162
    43        543
    44         56
    45        114
    46          9
    47          3
    50          3
    51          8
    52          6
    53         77
    54        219
    55        999
    56        231
    57        288
    58         26
    59         34
    60        249
    61        146
    62          6
    63          3
    64          1
    65         19
    66         20
    67        352
    68        240
    69        739
    70        337
    71        162
    72         16
    73        247
    74         28
    75          7
    76          2
    77         23
    78         10
    79         85
    80         59
    81        354
    82        220
    83        567
    84        496
    85        109
    86         15
    87         73
    88        809
    89        110
    90          8
    91         28
    92          9
    93         59
    94         73
    95        280
    96        427
    97        482
    98        402
    99         87
   100         19
   101        545
   102         49
   103          5
   104          2
   105         16
   106          8
   107         49
   108         45
   109        182
   110        218
   111        249
   112         98
   113         61
   114         24
   115        109
   116         12
   117          5
   118          3
   119         39
   120         15
   121         63
   122         30
   123        183
   124        117
   125        168
   126         43
   127         66
   128         47
   129         80
   130         17
   131          5
   132          3
   133         40
   134         28
   135         58
   136         34
   137        140
   138        129
   139        123
   140         48
   141        101
   142         58
   143         74
   144         20
   145          5
   146          1
   147         30
   148         18
   149         29
   150         17
   151        100
   152        241
   153         86
   154         30
   155        139
   156         30
   157         82
   158         28
   159          4
   160          1
   161         19
   162          7
   163         13
   164          7
   165         56
   166         49
   167         34
   168         10
   169         26
   170          9
   171         38
   172         17
   173          3
   175         10
   176          4
   177          7
   178          5
   179         32
   180         19
   181         29
   182          9
   183         17
   184          7
   185         41
   186         13
   187          3
   189          6
   190          2
   191          4
   192         59
   193         43
   194        273
   195         58
   196          7
   197         11
   198          5
   199         30
   200         12
   201          5
   202          1
   203          2
   204          1
   205          4
   206          2
   207         21
   208         27
   209          8
   210          2
   211         15
   212          4
   213         18
   214          9
   215          2
   217         11
   218         27
   219         21
   220          4
   221          6
   222          5
   223          5
   224          3
   225         11
   226          7
   227         13
   228          3
   229          1
   233          1
   234          5
   235         18
   236        367
   237        268
   238         44
   239         20
   240          6
   241          7
   242          2
   249          4
   250          5
   251         17
   252          5
   253          9
   254          4
   255          3
   256          1
   264          2
   265          1
   267          1
   278          2
   280          6
   281          2
   282        141
   283         29
   284         16
   285          3