##TITLE=Library Entry 22172
##JCAMP-DX=Revision 4.10 
##DATA TYPE=MASS SPECTRUM
##SAMPLE DESCRIPTION=Chemical Concepts
##NAMES=HP
##CAS NAME=Heptanoic acid, butyl ester
##MOLFORM=C11H22O2
##CAS REGISTRY NO=5454-28-4
##MP= -300
##BP= -300
##MW= 186
##$RETENTION INDEX=1276
##$CONDENSED SPECTRUM=NO
##NPOINTS= 93
##XYDATA=(XY..XY) 1 
    25          0
    26         21
    27        334
    28        139
    29        591
    30         15
    31         29
    33          0
    34          0
    36          0
    37          1
    38          6
    39        175
    40         38
    41        756
    42        161
    43        801
    44         34
    45         38
    46          0
    47          1
    48          0
    50          3
    51          6
    52          3
    53         29
    54         15
    55        286
    56        999
    57        362
    58         20
    59         17
    60        288
    61        101
    62          4
    63          0
    65          2
    66          1
    67         13
    68         23
    69         69
    70         24
    71         23
    72          4
    73        173
    74         23
    75         17
    76          0
    77          0
    79          2
    80          0
    81          3
    82          2
    83         61
    84         35
    85        137
    86         18
    87        136
    88          9
    89        109
    90          4
    91          0
    93          0
    94          3
    95         19
    96          2
    97          8
    98          1
    99          3
   100          0
   101         62
   102          4
   103          8
   109          0
   110          1
   111          9
   113        445
   114         33
   115          5
   116         22
   117          3
   118          0
   129         11
   130         28
   131        358
   132         28
   133          2
   143          5
   144          0
   148          0
   157          2
   167          0
   186          0