##TITLE=Library Entry 23681
##JCAMP-DX=Revision 4.10 
##DATA TYPE=MASS SPECTRUM
##SAMPLE DESCRIPTION=V.Zaikin,Topchiev Inst.Petrochem.Synth.,Moscow
##NAMES=HP
##CAS NAME=Pentanoic acid, decyl ester
##MOLFORM=C15H30O2
##CAS REGISTRY NO=5454-12-6
##MP= -300
##BP= -300
##MW= 242
##$RETENTION INDEX=0
##$CONDENSED SPECTRUM=NO
##NPOINTS= 95
##XYDATA=(XY..XY) 1 
    27        410
    28         43
    29        625
    30         22
    31         20
    35          3
    36         13
    37          4
    38         17
    39        184
    40         44
    41        858
    42        253
    43        710
    44         80
    45         34
    46          2
    49          2
    50         12
    51         21
    52          4
    53         53
    54         78
    55        595
    56        488
    57        999
    58         61
    59         14
    60        104
    61         89
    62          2
    63          5
    65          6
    66          9
    67         70
    68        121
    69        307
    70        409
    71        172
    72          8
    73         76
    74          5
    75         17
    77          5
    78          2
    79          4
    81         32
    82        101
    83        248
    84        219
    85        740
    86         46
    87         18
    88          3
    89          3
    91          2
    93          4
    94          4
    95         14
    96         40
    97        168
    98        118
    99         17
   100          8
   101         11
   102         54
   103        728
   104         47
   105          7
   109          7
   110         20
   111         87
   112        124
   113         14
   114          3
   115          9
   116         26
   117          2
   123          2
   125          3
   127          2
   128          3
   129          4
   130          3
   138          3
   139          5
   140        158
   141         13
   143          7
   155          3
   156          2
   157          5
   158          3
   185          9
   200          3