##TITLE=Library Entry 34176
##JCAMP-DX=Revision 4.10 
##DATA TYPE=MASS SPECTRUM
##SAMPLE DESCRIPTION=CARL DJERASSI DEPT OF CHEM STANFORD UNIV STANFORD CALIF
 94305
##NAMES=HP
##CAS NAME=Cyclopentanone, 2-methyl-3-(1-methylethyl)-
##MOLFORM=C9H16O
##CAS REGISTRY NO=54549-81-4
##MP= -300
##BP= -300
##MW= 140
##$RETENTION INDEX=1174
##$CONDENSED SPECTRUM=NO
##NPOINTS= 51
##XYDATA=(XY..XY) 1 
    41        838
    42        161
    43        494
    44         20
    45         10
    50         20
    51         40
    52         20
    53        151
    54         70
    55        656
    56        333
    57        111
    58         20
    63         10
    65         20
    66         10
    67        101
    68         70
    69        999
    70        151
    71         30
    72         20
    77         20
    78         20
    79         30
    80         20
    81        111
    82         30
    83        222
    84        262
    85        111
    86         10
    91         10
    93         50
    94         10
    95         20
    96        111
    97        363
    98        131
    99         10
   107        101
   108         10
   109         20
   111         60
   112         30
   122         50
   123         10
   125         50
   140        262
   141         30