##TITLE=Library Entry 31456
##JCAMP-DX=Revision 4.10 
##DATA TYPE=MASS SPECTRUM
##SAMPLE DESCRIPTION=Dr. Jiri Zamecnik, DCIEM, North York, Canada, GP Librar
y
##NAMES=HP
##CAS NAME=3-(Ehtylthio)propanal
##MOLFORM=C5H10OS
##CAS REGISTRY NO=5454-45-5
##MP= -300
##BP= -300
##MW= 118
##$RETENTION INDEX=0
##$CONDENSED SPECTRUM=NO
##NPOINTS= 21
##XYDATA=(XY..XY) 1 
    34         85
    35        101
    44         36
    45        150
    46        126
    47        481
    55        210
    56        311
    57         52
    58         63
    59         58
    61        248
    62        999
    64         30
    75         38
    81          9
    83          8
    90         78
   106          9
   108          9
   118        179