##TITLE=Library Entry 22465
##JCAMP-DX=Revision 4.10 
##DATA TYPE=MASS SPECTRUM
##SAMPLE DESCRIPTION=Chuck Anderson, Aldrich Chemical Co.
##NAMES=HP
##CAS NAME=2,2,5,5-Tetramethyltetrahydro-3-ketofuran
##MOLFORM=C8H14O2
##CAS REGISTRY NO=5455-94-7
##MP= -300
##BP= -300
##MW= 142
##$RETENTION INDEX=0
##$CONDENSED SPECTRUM=NO
##NPOINTS= 63
##XYDATA=(XY..XY) 1 
    14          2
    15         27
    16          0
    26          5
    27         46
    28         36
    29         47
    30          1
    31         33
    32          0
    37          2
    38          8
    39        135
    40         46
    41        457
    42         63
    43        442
    44         10
    45          2
    49          2
    50         10
    51          6
    52          2
    53         16
    54          6
    55         71
    56        999
    57         51
    58         11
    59        804
    60         25
    61          2
    62          0
    63          0
    65          1
    66          1
    67          3
    68          0
    69        147
    70          8
    71          1
    72          0
    77          0
    79          0
    81          1
    82          0
    83          4
    84         14
    85          7
    86          0
    87          0
    99          8
   100          0
   109          3
   110          0
   114        145
   115          9
   116          0
   125          0
   127         12
   128          0
   142         10
   143          1