##TITLE=Library Entry 1716
##JCAMP-DX=Revision 4.10 
##DATA TYPE=MASS SPECTRUM
##SAMPLE DESCRIPTION=A.A.Kutin, Moscow, Russia
##NAMES=HP
##CAS NAME=Propionitrile, 3-(4-allyl-3-phenyl-5-thioxo-1,2,4-triazol-1-yl)-
##MOLFORM=C14H14N4S
##CAS REGISTRY NO=54559-50-1
##MP= -300
##BP= -300
##MW= 270
##$RETENTION INDEX=0
##$CONDENSED SPECTRUM=NO
##NPOINTS= 182
##XYDATA=(XY..XY) 1 
    33          4
    34          1
    37         28
    39        999
    41        994
    42         44
    43         15
    44         29
    45        106
    46         14
    47          7
    48          4
    50        101
    51        262
    52        134
    54        496
    55         61
    56         12
    57         14
    58         39
    59         52
    60         51
    62         56
    63         70
    64         32
    65         30
    66         12
    67         27
    68         18
    69         21
    70         26
    72        221
    73         24
    74         60
    75         96
    76        297
    77        345
    78         37
    81         87
    82          7
    83          6
    84         16
    85         23
    86         21
    87         23
    88         16
    89         46
    90         19
    91         50
    92         17
    93         25
    94         16
    95         15
    96          6
    97          6
    98         25
    99         33
   100         29
   101         16
   103        704
   104        371
   105         35
   106          5
   107         11
   108         32
   109          4
   110          1
   111         13
   112         11
   113         30
   115         45
   116         27
   117         17
   118         38
   119         15
   120         21
   121         24
   122          4
   123          0
   125         15
   126          7
   127         35
   128         22
   129         23
   130         32
   131         71
   132          4
   134         31
   135          6
   137          0
   140         12
   141          7
   142         14
   143         13
   144         26
   146         54
   147         53
   148         20
   149          5
   150          2
   152         51
   153          4
   154          5
   155          6
   156         10
   157         18
   158         19
   159         15
   161         18
   163          2
   166          5
   167          1
   168          1
   169          9
   170         13
   171          6
   172         11
   173          2
   174          0
   175          7
   176         15
   177         34
   178          5
   179          3
   180          1
   181          0
   183         22
   184         78
   185         14
   186         10
   188         78
   189         12
   190         21
   191          3
   192          1
   194          0
   196         18
   197          6
   198          6
   199          1
   200          1
   202        145
   203         26
   204          8
   205          1
   207          0
   208          0
   209          0
   210          2
   211          3
   212          2
   213          1
   216        292
   217         34
   218         15
   219          1
   223          6
   224          0
   225          3
   228          3
   229          6
   230         27
   231          3
   235          0
   237        148
   238         19
   239          1
   241          1
   242          4
   243          4
   244          3
   253          9
   255        740
   256         86
   257         34
   258          2
   267          0
   269        152
   270        379
   271         67
   272         16
   273          2