##TITLE=Library Entry 9466
##JCAMP-DX=Revision 4.10 
##DATA TYPE=MASS SPECTRUM
##SAMPLE DESCRIPTION=CARL DJERASSI DEPT OF CHEM STANFORD UNIV STANFORD CALIF
 94305
##NAMES=HP
##CAS NAME=Androstan-3-one, 17-(acetyloxy)-2-methyl-, (2.beta.,5.beta.,17.be
ta.)-
##MOLFORM=C22H34O3
##CAS REGISTRY NO=54550-09-3
##MP= -300
##BP= -300
##MW= 346
##$RETENTION INDEX=0
##$CONDENSED SPECTRUM=NO
##NPOINTS= 136
##XYDATA=(XY..XY) 1 
    40         20
    41        190
    42         40
    43        999
    44         30
    45         10
    53         80
    54         20
    55        180
    56         20
    57         30
    65         30
    66         10
    67        170
    68         60
    69        120
    70         10
    71         30
    77         80
    78         20
    79        160
    80         30
    81        200
    82         40
    83         40
    84         10
    85         10
    91        130
    92         30
    93        180
    94        160
    95        190
    96         40
    97         30
    98         10
   105        120
   106         50
   107        150
   108         90
   109         80
   110         20
   111         30
   117         20
   118         20
   119         70
   120         40
   121         90
   122         50
   123         70
   124         30
   125         20
   131         40
   132         20
   133         70
   134         30
   135         50
   136         80
   137         30
   138         60
   139         10
   143         10
   144         10
   145         30
   146         20
   147         50
   148         40
   149         90
   150         20
   157         10
   158         10
   159         40
   160         20
   161         70
   162         30
   163         10
   164         10
   171         10
   172         10
   173         30
   174         30
   175         30
   176         50
   177         20
   178         10
   179         20
   185         20
   186         10
   187         20
   188         10
   189         20
   190         10
   191         10
   192         10
   193         10
   199         20
   200         50
   201        180
   202        120
   203         20
   204         10
   205         10
   213         10
   214         50
   215         30
   216         10
   219         10
   227         10
   228         10
   229         30
   230         10
   243         30
   245         20
   253         40
   254         10
   258         50
   259         10
   260         20
   261         30
   262         50
   263         10
   268         10
   271         50
   272         20
   274         10
   275         10
   285         10
   286        140
   287         30
   289         10
   302         10
   303         10
   304         10
   331         10
   332         10
   346        130
   347         30