##TITLE=Library Entry 5985
##JCAMP-DX=Revision 4.10 
##DATA TYPE=MASS SPECTRUM
##SAMPLE DESCRIPTION=CARL DJERASSI DEPT OF CHEM STANFORD UNIV STANFORD CALIF
 94305
##NAMES=HP
##CAS NAME=Estran-3-one, 17-(acetyloxy)-2-methyl-, (2.alpha.,5.alpha.,17.bet
a.)-
##MOLFORM=C21H32O3
##CAS REGISTRY NO=54550-10-6
##MP= -300
##BP= -300
##MW= 332
##$RETENTION INDEX=0
##$CONDENSED SPECTRUM=NO
##NPOINTS= 65
##XYDATA=(XY..XY) 1 
    39         60
    40         20
    41        280
    42         30
    43        999
    44         30
    45         10
    51         10
    53         70
    54         20
    55        190
    56         20
    57         30
    65         10
    66         10
    67        130
    68         40
    69         70
    71         20
    77         60
    78         10
    79        120
    80         30
    81        130
    82         20
    83         20
    91         90
    92         20
    93        100
    94        130
    95         90
    96         10
    97         10
   105         50
   106         20
   107         70
   108         20
   109         20
   110         10
   111         10
   119         20
   120         10
   121         30
   122         20
   123         10
   124         10
   131         10
   133         20
   134         10
   135         10
   145         10
   146         10
   147         20
   148         10
   149         20
   159         10
   161         10
   176         10
   189         10
   201         10
   231         10
   244         10
   257         20
   272         80
   332         20