##TITLE=Library Entry 78921
##JCAMP-DX=Revision 4.10 
##DATA TYPE=MASS SPECTRUM
##SAMPLE DESCRIPTION=Humboldt-Universitat zu Berlin, Department of Chemistry
, Analytical Group
##NAMES=HP
##CAS NAME=1-Morpholin-4-yl-3-phenyl-propan-1,3-dione
##MOLFORM=C13H15NO3
##CAS REGISTRY NO=54568-58-0
##MP= -300
##BP= -300
##MW= 233
##$RETENTION INDEX=0
##$CONDENSED SPECTRUM=NO
##NPOINTS= 139
##XYDATA=(XY..XY) 1 
    12          1
    13          2
    14         11
    15         81
    16          5
    17         12
    18         49
    19          3
    25          1
    26         27
    27        120
    28        307
    29        177
    30        104
    31         20
    32          1
    37          4
    38         12
    39         55
    40         13
    41         61
    42        176
    43        115
    44         78
    45         29
    46          1
    49          3
    50         94
    51        273
    52         28
    53         12
    54         38
    55         59
    56        268
    57        472
    58         52
    59         13
    60          3
    61          7
    62         12
    63         34
    64          9
    65         61
    66          6
    67          3
    69        475
    70         91
    71         10
    72         18
    73          7
    74         30
    75         31
    76         54
    77        785
    78         89
    79         15
    80          2
    82          2
    83          2
    84          5
    85         24
    86        747
    87        303
    88         28
    89         29
    90         12
    91         58
    92          9
    97          1
    98         18
    99          3
   100          8
   101          7
   102         18
   103         19
   105        999
   106         82
   107          7
   110          4
   111          1
   112          7
   113          2
   114         16
   115          6
   116          3
   117          5
   118          7
   120        189
   121         38
   122          4
   126          1
   127          5
   128         69
   129         12
   130          4
   131          4
   132          3
   133          3
   134          2
   144          3
   145          3
   146         11
   147        217
   148         24
   149          3
   156          4
   158          6
   159          2
   160          5
   161          2
   162          4
   163          3
   164          2
   171          2
   172          2
   173          3
   174          3
   175          2
   176          6
   177          2
   186          3
   187          1
   188         16
   189         13
   190        161
   191         26
   192          8
   202          3
   203         16
   204         14
   205          9
   206          2
   215          5
   216         64
   217         11
   218          2
   233        168
   234         32
   235          3