##TITLE=Library Entry 20737
##JCAMP-DX=Revision 4.10 
##DATA TYPE=MASS SPECTRUM
##SAMPLE DESCRIPTION=D.HENNEBERG, MAX-PLANCK INSTITUTE, MULHEIM, WEST GERMAN
Y
##NAMES=HP
##CAS NAME=1,12-Tridecadien-7-one
##MOLFORM=C13H22O
##CAS REGISTRY NO=54560-99-5
##MP= -300
##BP= -300
##MW= 194
##$RETENTION INDEX=0
##$CONDENSED SPECTRUM=NO
##NPOINTS= 118
##XYDATA=(XY..XY) 1 
    26          7
    27         42
    28         24
    29         91
    30          2
    31          7
    32          0
    36          0
    37          0
    38          0
    39         61
    40         13
    41        530
    42         36
    43        125
    44          3
    45          8
    49          0
    50          1
    51          1
    52          1
    53         36
    54         43
    55        999
    56         53
    57         28
    58        129
    59         30
    60         26
    61         16
    62          2
    63          0
    64          0
    65          8
    66          8
    67        168
    68        372
    69        217
    70         29
    71        178
    72         13
    73          4
    74          2
    75          0
    77          5
    78          4
    79         30
    80         13
    81         38
    82         45
    83        546
    84        103
    85         34
    86          3
    87          1
    89          0
    91          6
    92          2
    93         87
    94         11
    95         21
    96         14
    97         63
    98        193
    99         26
   100          2
   101          0
   105          2
   106          2
   107          4
   108         13
   109         13
   110         12
   111        214
   112         17
   113         12
   114          1
   115          0
   119          1
   120          0
   121         10
   122          2
   123          3
   124          4
   125          3
   126        111
   127         15
   128          4
   129          1
   133          1
   134          1
   135          1
   136          1
   137          8
   138          2
   139        153
   140         15
   141          3
   142          0
   147          1
   148          0
   150          0
   151          4
   152          5
   153         13
   154          1
   155          0
   161          0
   165          6
   166          1
   167          0
   176          0
   179          7
   180          1
   193          0
   194          4
   195          1
   196          0