##TITLE=Library Entry 16613
##JCAMP-DX=Revision 4.10 
##DATA TYPE=MASS SPECTRUM
##SAMPLE DESCRIPTION=A.A.Kutin, Moscow, Russia
##NAMES=HP
##CAS NAME=Benzene, 1-chloro-3-(2-chlorobenzoyl)-4-dimethylaminomethylenamin
o-
##MOLFORM=C16H14Cl2N2O
##CAS REGISTRY NO=54567-77-0
##MP= -300
##BP= -300
##MW= 320
##$RETENTION INDEX=0
##$CONDENSED SPECTRUM=NO
##NPOINTS= 147
##XYDATA=(XY..XY) 1 
    36          8
    38          5
    39          8
    40          6
    42        367
    44        999
    45        108
    46         29
    50         30
    51         26
    56          8
    57         46
    59         16
    62          7
    63         13
    71         16
    72         21
    73         11
    74         30
    75        156
    76         36
    77         22
    84          7
    85         10
    87          7
    89          9
    90          9
    92          7
    98          7
    99         14
   100         12
   101          7
   102         15
   103          7
   104         38
   105         15
   110         20
   111        234
   112         29
   113         69
   114          7
   124         24
   125         22
   126         15
   127          7
   128         15
   129         14
   130         11
   131          7
   136         38
   137          9
   138         42
   139        106
   140         79
   141         39
   142         26
   146          6
   149          9
   150         39
   151         54
   152         47
   153         12
   154         22
   160         44
   161         27
   162          8
   164         81
   165         32
   166         50
   167         21
   168         12
   177         54
   178         22
   179         19
   181        141
   182         17
   183         49
   184          7
   185         15
   186         67
   187         13
   188         24
   193         21
   194          7
   195          8
   199         35
   201         29
   206         11
   207         31
   208          7
   209         16
   211          9
   212         13
   213         31
   214         98
   215         29
   216         34
   217          6
   227         94
   228         25
   229         40
   230         10
   235         11
   240         11
   241         23
   242        129
   243         26
   244         43
   245          6
   248         77
   249         18
   250         52
   251          7
   252          9
   257        200
   258         36
   259         65
   260         13
   262        213
   263         41
   264        132
   265         23
   266         19
   276         71
   277        119
   278         55
   279         74
   280         14
   281          9
   285        252
   286         40
   287         78
   288         13
   291        154
   292         30
   293         98
   294         17
   295         13
   305         57
   306         10
   307         33
   320        478
   321         98
   322        269
   323         47
   324         39
   325          6