##TITLE=Library Entry 84743
##JCAMP-DX=Revision 4.10 
##DATA TYPE=MASS SPECTRUM
##SAMPLE DESCRIPTION=V.Zaikin,Inst.Petrochem.Synth.,RAS,Moscow
##NAMES=HP
##CAS NAME=Octanoic acid, 2-methylphenyl ester
##MOLFORM=C15H22O2
##CAS REGISTRY NO=5457-63-6
##MP= -300
##BP= -300
##MW= 234
##$RETENTION INDEX=0
##$CONDENSED SPECTRUM=NO
##NPOINTS= 85
##XYDATA=(XY..XY) 1 
    25          3
    26         21
    27        168
    28         23
    29        185
    30          4
    39        125
    40         26
    41        300
    42        101
    43        378
    44         53
    50         18
    51         44
    52         24
    53         41
    54         14
    55        300
    56         47
    57        868
    58         38
    59         12
    60        141
    61         19
    62          6
    63         12
    64          6
    65         43
    66          4
    67         34
    68         10
    69         46
    70         20
    71         22
    72          4
    73         80
    74          7
    75          5
    77         85
    78         37
    79         42
    80         11
    81          9
    82         21
    83         38
    84         39
    85         32
    87         10
    89          7
    90         18
    91         49
    92          5
    93          5
    94         40
    95         10
    96          4
    97         15
    98         23
    99          4
   101         21
   104          3
   105          8
   106          5
   107         80
   108        999
   109        134
   110         14
   111          6
   113          2
   115          8
   119          4
   121          3
   125          3
   126          4
   127        240
   128         27
   130          4
   131          3
   135          3
   144          3
   151          6
   163          2
   193          3
   234         42
   235          9