##TITLE=Library Entry 91688
##JCAMP-DX=Revision 4.10 
##DATA TYPE=MASS SPECTRUM
##SAMPLE DESCRIPTION=Chemical Concepts
##NAMES=HP
##CAS NAME=Dimethyl 3-oxoadipate
##MOLFORM=C8H12O5
##CAS REGISTRY NO=5457-44-3
##MP= -300
##BP= -300
##MW= 188
##$RETENTION INDEX=0
##$CONDENSED SPECTRUM=NO
##NPOINTS= 73
##XYDATA=(XY..XY) 1 
    41         69
    42        167
    43        135
    44         52
    45         85
    46          2
    49          4
    50          4
    51          9
    52          3
    53         20
    54         12
    55        801
    56        114
    57        280
    58         23
    59        719
    60         22
    61          4
    63         15
    65          0
    66          2
    67         19
    68          8
    69        273
    70         19
    71          9
    72          1
    73          2
    74         18
    75          1
    77          1
    79          3
    81          3
    82         24
    83         30
    84          5
    85          7
    86          6
    87        260
    88        192
    89         13
    90          1
    95          0
    96         26
    97        146
    98         42
    99          7
   100          8
   101        455
   102         19
   103          2
   109          4
   111          3
   112          1
   113          3
   114         21
   115        999
   116         54
   117          6
   123          1
   124         20
   125        208
   126         38
   127         22
   128         99
   129        220
   130         15
   131          1
   156        119
   157         62
   158          5
   169          1