##TITLE=Library Entry 58296
##JCAMP-DX=Revision 4.10 
##DATA TYPE=MASS SPECTRUM
##SAMPLE DESCRIPTION=Exported from NIST MS Search
##NAMES=HP
##CAS NAME=Benzene, [2-[(1-methylethyl)thio]ethyl]-
##MOLFORM=C11H16S
##CAS REGISTRY NO=54576-42-0
##MP= -300
##BP= -300
##MW= 180
##$RETENTION INDEX=0
##$CONDENSED SPECTRUM=NO
##NPOINTS= 136
##XYDATA=(XY..XY) 1 
    24          1
    25          3
    26         33
    27        397
    28         24
    29         14
    30          1
    31          1
    32          6
    33          5
    34         11
    35          6
    36          1
    37         11
    38         34
    39        294
    40         30
    41        289
    42         29
    43        689
    44         22
    45        101
    46         37
    47        512
    48         13
    49         28
    50         63
    51        162
    52         40
    53         21
    54          2
    55        292
    56         13
    57          5
    58         24
    59         77
    60         19
    61         21
    62         18
    63         60
    64         15
    65        148
    66         11
    67          2
    68          1
    69          8
    70          1
    71          5
    72          1
    73          5
    74         29
    75         68
    76         20
    77        200
    78         79
    79         65
    80          4
    81          1
    82          2
    83          1
    84          1
    85          1
    86          2
    87          4
    88          3
    89        999
    90         65
    91        490
    92         61
    93          5
    94          1
    95          1
    96          1
    97          3
    98          1
    99          1
   100          1
   101          4
   102         20
   103        103
   104        382
   105        207
   106         20
   107          1
   108          2
   109         21
   110          3
   111          2
   112          1
   113          1
   115          2
   116          1
   117          1
   118          1
   119          1
   120          1
   121          3
   122          1
   123          1
   124          1
   127          1
   128          1
   129          1
   130          1
   131         17
   132          2
   133          3
   134         10
   135         29
   136          8
   137         19
   138          6
   139          2
   140          1
   141          2
   142          1
   143          1
   145          1
   146          1
   147          1
   149          1
   150          1
   151          1
   152          1
   163          1
   165          6
   166          7
   167          1
   168          1
   178          1
   179          1
   180        288
   181         38
   182         15
   183          2
   184          1