##TITLE=Library Entry 26103
##JCAMP-DX=Revision 4.10 
##DATA TYPE=MASS SPECTRUM
##SAMPLE DESCRIPTION=V.Zaikin,Inst.Petrochem.Synth.,RAS,Moscow
##NAMES=HP
##CAS NAME=Octanoic acid, phenyl ester
##MOLFORM=C14H20O2
##CAS REGISTRY NO=5457-78-3
##MP= -300
##BP= -300
##MW= 220
##$RETENTION INDEX=0
##$CONDENSED SPECTRUM=NO
##NPOINTS= 76
##XYDATA=(XY..XY) 1 
    25          4
    26         23
    27        103
    28         15
    29        138
    30          4
    38         15
    39        178
    40         44
    41        289
    42         95
    43        362
    44         12
    50         23
    51         69
    52         40
    53         23
    54          9
    55        309
    56         50
    57        999
    58         43
    59          9
    60         88
    61         13
    62          9
    63         32
    64         20
    65        109
    66         54
    67         39
    68         11
    69         53
    70         21
    71         19
    72          2
    73         70
    74         11
    75          6
    76          6
    77         78
    78         19
    80         13
    81         10
    82         42
    83         51
    84         42
    85         14
    87          8
    89          2
    90          3
    91         13
    92          7
    93         21
    94        738
    95         84
    96         11
    98         58
    99          8
   100          2
   101         13
   109         37
   110         10
   121          4
   127        642
   128         71
   134          2
   135          3
   136         18
   137          4
   149          6
   163          6
   219          3
   220         92
   221         14
   222          2