##TITLE=Library Entry 91686
##JCAMP-DX=Revision 4.10 
##DATA TYPE=MASS SPECTRUM
##SAMPLE DESCRIPTION=NIST Mass Spectrometry Data Center
##NAMES=HP
##CAS NAME=Hexanedioic acid, 3-methyl-, dimethyl ester
##MOLFORM=C9H16O4
##CAS REGISTRY NO=54576-13-5
##MP= -300
##BP= -300
##MW= 188
##$RETENTION INDEX=1285
##$CONDENSED SPECTRUM=NO
##NPOINTS= 107
##XYDATA=(XY..XY) 1 
    15         41
    16          1
    26          5
    27         56
    28         30
    29         78
    30          6
    31         21
    32          1
    33          4
    34          1
    35          1
    37          1
    38          6
    39        129
    40         27
    41        282
    42        139
    43        210
    44         12
    45         61
    46          1
    47          2
    48         28
    49         20
    50          7
    51         15
    52          8
    53         82
    54         44
    55        719
    56         85
    57         50
    59        660
    60         19
    61          5
    62          1
    63         13
    64          1
    65         12
    66          4
    67         51
    68        155
    69        644
    70         46
    71        107
    72         30
    73        638
    74        410
    75         25
    76          2
    77          2
    78          1
    79          8
    80          2
    81         29
    82        125
    83        388
    84         23
    85         50
    86         28
    87        248
    88         28
    89          3
    93          1
    94          1
    95         19
    96        213
    97        210
    98         19
    99         31
   100         41
   101        120
   102         52
   103          3
   107          1
   108          2
   109         16
   110          2
   111         49
   112          5
   113         62
   114        152
   115        999
   116         68
   117          6
   122          1
   123          4
   125        618
   126         51
   127         23
   128        591
   129        105
   130          9
   131          3
   138          1
   139          2
   141         21
   142          2
   155          7
   156         43
   157        403
   158         37
   159          5
   160          1
   173          1
   189          1