##TITLE=Library Entry 20450
##JCAMP-DX=Revision 4.10 
##DATA TYPE=MASS SPECTRUM
##SAMPLE DESCRIPTION=INST.OF CLINICAL BIOCHEM,RIKSHOSP,UNIV.OF OSLO,E.JELLUM
,ET.A
##NAMES=HP
##CAS NAME=Octanedioic acid, 3-methyl-, dimethyl ester
##MOLFORM=C11H20O4
##CAS REGISTRY NO=54576-15-7
##MP= -300
##BP= -300
##MW= 216
##$RETENTION INDEX=1453
##$CONDENSED SPECTRUM=NO
##NPOINTS= 80
##XYDATA=(XY..XY) 1 
    27        295
    29        346
    31         81
    32        102
    39        306
    40         81
    41        806
    42        244
    43        653
    44         71
    45        153
    53        163
    54         81
    55        999
    56        173
    57        112
    59        877
    60         61
    65         51
    66         51
    67        295
    68        183
    69        836
    70         81
    71         91
    73        163
    74        999
    75         91
    76         51
    77        122
    78         71
    79        214
    80        102
    81        469
    82        397
    83        948
    84        163
    86         61
    87        265
    88        112
    91         71
    93         91
    94        112
    95        234
    96        102
    97        316
    98        112
    99        173
   101        326
   103         91
   104         61
   105         51
   107         61
   108        132
   109        193
   110        183
   111        877
   112         81
   113         51
   114         61
   115        112
   122        132
   123        102
   124        163
   125        285
   126         61
   127         91
   128         71
   129        142
   150        112
   151        142
   152        428
   153        214
   154        122
   155         61
   156        142
   157         51
   184        112
   185        499
   186         81