##TITLE=Library Entry 26642
##JCAMP-DX=Revision 4.10 
##DATA TYPE=MASS SPECTRUM
##SAMPLE DESCRIPTION=V.Zaikin,Topchiev Inst.Petrochem.Synth.,Moscow
##NAMES=HP
##CAS NAME=Octanoic acid, 2-butyl ester
##MOLFORM=C12H24O2
##CAS REGISTRY NO=5458-61-7
##MP= -300
##BP= -300
##MW= 200
##$RETENTION INDEX=1508
##$CONDENSED SPECTRUM=NO
##NPOINTS= 114
##XYDATA=(XY..XY) 1 
    21          1
    25          3
    26         35
    27        206
    28         75
    29        367
    30          8
    31         11
    35          3
    36         24
    37          7
    38         15
    39        194
    40         38
    41        675
    42        131
    43        297
    44         35
    45         47
    49          3
    50         20
    51         27
    52         16
    53         43
    54         29
    55        307
    56        656
    57        999
    58         41
    59         20
    60        389
    61         84
    62          5
    63          8
    64          2
    65         11
    66          6
    67         51
    68         15
    69         66
    70         31
    71         18
    72         12
    73        317
    74         26
    75          8
    76          4
    77         31
    78         15
    79         26
    80          9
    81         17
    82         32
    83         66
    84        167
    85         96
    86          6
    87         73
    88          7
    89         43
    90          4
    91         57
    92         16
    93         10
    94          3
    95          7
    96          9
    97         26
    98         39
    99          5
   100          3
   101        109
   102         10
   103         25
   104          6
   105         10
   106          2
   107          4
   108          2
   109         30
   110          3
   111          5
   113          2
   114          1
   115         72
   116         59
   117         31
   118         16
   119          4
   120          2
   122          3
   124          9
   125         16
   126          3
   127        764
   128         66
   129          8
   130          2
   131          6
   132          4
   133          4
   134          4
   135          3
   136          2
   137          1
   141          1
   142          3
   143          3
   144        128
   145        391
   146         27
   147          3
   164          1
   171         10