##TITLE=Library Entry 6830
##JCAMP-DX=Revision 4.10 
##DATA TYPE=MASS SPECTRUM
##SAMPLE DESCRIPTION=Exported from NIST MS Search
##NAMES=HP
##CAS NAME=Propanoic acid, 2,2-dichloro-, 1-methylethyl ester
##MOLFORM=C6H10Cl2O2
##CAS REGISTRY NO=54587-48-3
##MP= -300
##BP= -300
##MW= 184
##$RETENTION INDEX=0
##$CONDENSED SPECTRUM=NO
##NPOINTS= 88
##XYDATA=(XY..XY) 1 
    14          2
    15         15
    18          2
    19          2
    25          1
    26         17
    27        138
    28         14
    29          9
    31          6
    32          1
    36          2
    37          2
    38          4
    39         34
    40          6
    41        169
    42         83
    43        999
    44         35
    45        215
    46          5
    47          2
    49          1
    53          4
    54          2
    55          5
    56          1
    57          1
    58          1
    59         54
    60          4
    61         36
    62         33
    63         46
    64         12
    65         12
    68          3
    74          4
    78          2
    80          6
    82          2
    83          1
    84          2
    86          1
    89         10
    90         20
    91         83
    92         10
    93         26
    94          1
    95          1
    96          2
    97        141
    98          5
    99         92
   100          3
   101         15
   107         33
   108         10
   109         34
   110          5
   111          9
   112          1
   113          1
   125         17
   126          2
   127         12
   128          1
   129          3
   135         13
   137          4
   140          2
   141          9
   142          1
   143          9
   145          3
   149          4
   151          2
   155          1
   169         52
   170          3
   171         34
   172          2
   173          6
   184          1
   186          2
   188          1