##TITLE=Library Entry 8259
##JCAMP-DX=Revision 4.10 
##DATA TYPE=MASS SPECTRUM
##SAMPLE DESCRIPTION=Japan AIST/NIMC Database- Spectrum MS-NW-5206
##NAMES=HP
##CAS NAME=n-Octanoic acid isopropyl ester
##MOLFORM=C11H22O2
##CAS REGISTRY NO=5458-59-3
##MP= -300
##BP= -300
##MW= 186
##$RETENTION INDEX=1218
##$CONDENSED SPECTRUM=NO
##NPOINTS= 102
##XYDATA=(XY..XY) 1 
    14          1
    15         14
    17          1
    18          3
    26          8
    27        180
    28         30
    29        169
    30          6
    31          9
    36          1
    37          1
    38          4
    39         92
    40         20
    41        372
    42        154
    43        999
    44         34
    45         36
    46          1
    47          1
    48          1
    50          2
    51          4
    52          2
    53         15
    54         13
    55        179
    56         57
    57        543
    58         25
    59        256
    60        652
    61        119
    62          6
    63          1
    64          1
    65          3
    66          1
    67         28
    68          9
    69         60
    70         20
    71         16
    72          1
    73        239
    74         37
    75          7
    77          2
    78          1
    79          4
    80          6
    81         10
    82         26
    83         64
    84        152
    85        112
    86          7
    87         98
    88          8
    89         38
    90          3
    91          1
    93          1
    95          2
    96          5
    97         34
    98         34
    99          4
   100          3
   101        137
   102        315
   103         39
   104          3
   105          1
   107          4
   108          4
   109         25
   110          3
   111          5
   113          1
   115         46
   116          5
   117          2
   124          4
   125         24
   126          4
   127        491
   128         45
   129          8
   130          1
   143          5
   144        176
   145        329
   146         31
   147          3
   148          2
   171          7
   172          1
   186          2
   187          1