##TITLE=Library Entry 59768
##JCAMP-DX=Revision 4.10 
##DATA TYPE=MASS SPECTRUM
##SAMPLE DESCRIPTION=NIST Mass Spectrometry Data Center
##NAMES=HP
##CAS NAME=4-Benzyloxybenzophenone
##MOLFORM=C20H16O2
##CAS REGISTRY NO=54589-41-2
##MP= -300
##BP= -300
##MW= 288
##$RETENTION INDEX=0
##$CONDENSED SPECTRUM=NO
##NPOINTS= 54
##XYDATA=(XY..XY) 1 
    27          1
    38          3
    39         19
    41          6
    50         12
    51         37
    52          4
    53          1
    62          4
    63         24
    64         13
    65        101
    66          6
    74          3
    75          4
    76          9
    77         81
    78          6
    87          1
    88          1
    89         16
    90          8
    91        999
    92        100
    93          4
   102          1
   104          1
   105         32
   106          2
   113          1
   114          1
   115         29
   116          2
   120          1
   121          4
   126          1
   139          9
   140          2
   141         31
   142          3
   151          1
   152          4
   153          2
   168          1
   169         16
   170          2
   181          1
   182          1
   183          1
   197          1
   198          1
   288         70
   289         14
   290          1