##TITLE=Library Entry 15771
##JCAMP-DX=Revision 4.10 
##DATA TYPE=MASS SPECTRUM
##SAMPLE DESCRIPTION=NIST Mass Spectrometry Data Center, 1994
##NAMES=HP
##CAS NAME=Ethanol, 2-(hexylamino)-
##MOLFORM=C8H19NO
##CAS REGISTRY NO=54596-69-9
##MP= -300
##BP= -300
##MW= 145
##$RETENTION INDEX=1197
##$CONDENSED SPECTRUM=NO
##NPOINTS= 51
##XYDATA=(XY..XY) 1 
    14          6
    15         34
    16          2
    18         20
    19         17
    26         17
    27        186
    28        201
    29        253
    30        429
    31         56
    32          6
    37          2
    39         93
    41        216
    42        130
    43        395
    44        999
    45         93
    46          3
    51          5
    53         16
    54         19
    55         68
    56        315
    57         60
    58         10
    60         18
    61         10
    62          3
    67          6
    68          7
    69          5
    70         26
    71          4
    72         12
    73          3
    74        558
    75         23
    83          7
    84         25
    85          9
    86          8
   100          6
   112         11
   114        376
   115         30
   116          3
   130          2
   144          6
   145         17