##TITLE=Library Entry 6013
##JCAMP-DX=Revision 4.10 
##DATA TYPE=MASS SPECTRUM
##SAMPLE DESCRIPTION=CARL DJERASSI DEPT OF CHEM STANFORD UNIV STANFORD CALIF
 94305
##NAMES=HP
##CAS NAME=Androstan-7-one, 3-(acetyloxy)-, (3.beta.,5.alpha.)-
##MOLFORM=C21H32O3
##CAS REGISTRY NO=54594-47-7
##MP= -300
##BP= -300
##MW= 332
##$RETENTION INDEX=0
##$CONDENSED SPECTRUM=NO
##NPOINTS= 105
##XYDATA=(XY..XY) 1 
    41        861
    42         55
    43        999
    44         41
    45         13
    53         78
    54         18
    55        694
    56         23
    57         27
    61         46
    65         27
    66         18
    67        208
    68          9
    69         69
    70         50
    77         92
    78         18
    79        212
    80         55
    81        217
    82         32
    83         27
    91        171
    92         41
    93        240
    94        138
    95        254
    96         37
    97         18
   105        120
   106         41
   107        162
   108        125
   109         97
   110         18
   111         13
   117         32
   118         13
   119         55
   120         37
   121         97
   122         41
   123         23
   131         27
   132          9
   133         41
   134         23
   135        208
   136         41
   137         23
   143         13
   144          9
   145         41
   146         13
   147         46
   148         41
   149         46
   150         32
   151          9
   157          9
   158          4
   159         23
   160         18
   161         37
   162         18
   163         60
   164         18
   165         27
   171          4
   173         13
   174          9
   175         13
   176          9
   177          9
   178        462
   179         92
   180          9
   185          9
   187          9
   189         13
   199          9
   200          4
   201          9
   202          4
   203          4
   204          9
   213          4
   215          4
   229          4
   236         13
   239         18
   240          4
   241         18
   242          4
   243          9
   249         18
   250          9
   254         13
   255          4
   256         37
   257         18
   258          9
   332         41