##TITLE=Library Entry 50145
##JCAMP-DX=Revision 4.10 
##DATA TYPE=MASS SPECTRUM
##SAMPLE DESCRIPTION=CARL DJERASSI DEPT OF CHEM STANFORD UNIV STANFORD CALIF
 94305
##NAMES=HP
##CAS NAME=2(1H)-Naphthalenone, octahydro-4a-methyl-7-(1-methylethyl)-, (4a.
alpha.,7.beta.,8a.beta.)-
##MOLFORM=C14H24O
##CAS REGISTRY NO=54594-42-2
##MP= -300
##BP= -300
##MW= 208
##$RETENTION INDEX=0
##$CONDENSED SPECTRUM=NO
##NPOINTS= 70
##XYDATA=(XY..XY) 1 
    63         20
    65        120
    66         70
    67        840
    68        330
    69        720
    70        110
    71        130
    72         20
    73         60
    77        190
    78         40
    79        330
    80         90
    81        999
    82        310
    83        430
    84        250
    85         40
    91        190
    92        110
    93        350
    94        140
    95        780
    96        150
    97        430
    98         40
   105        140
   106         40
   107        350
   108         80
   109        450
   110        160
   111        210
   112         30
   119         60
   120         40
   121        140
   122         60
   123        270
   124         60
   125         20
   126         10
   131         10
   133         20
   134         20
   135         90
   136        180
   137        190
   138        160
   139         20
   147        170
   148         20
   149         30
   150         30
   151         40
   152         30
   153         40
   161         20
   162         10
   163         10
   164        160
   165        180
   166         30
   175         20
   179         20
   180         10
   193         20
   208        100
   209         20