##TITLE=Library Entry 6420
##JCAMP-DX=Revision 4.10 
##DATA TYPE=MASS SPECTRUM
##SAMPLE DESCRIPTION=Insect Chem. Ecol. Lab., USDA, Beltsville, MD 20705
##NAMES=HP
##CAS NAME=Butyric acid, 2-bromo-, propyl ester
##MOLFORM=C7H13BrO2
##CAS REGISTRY NO=5459-97-2
##MP= -300
##BP= -300
##MW= 208
##$RETENTION INDEX=1089
##$CONDENSED SPECTRUM=NO
##NPOINTS= 124
##XYDATA=(XY..XY) 1 
    41        659
    42        251
    43        999
    44         42
    45         31
    46          1
    47          0
    49          0
    50          1
    51          2
    52          0
    53          6
    54          4
    55        140
    56          9
    57         24
    58          3
    59         21
    60          2
    61          1
    63          0
    65          0
    66          1
    67          2
    68          7
    69         45
    70         36
    71         11
    72          1
    73         13
    74          1
    77          2
    78          0
    79          4
    80          1
    81          4
    82          2
    83          4
    84          2
    85          4
    86          5
    87         82
    88         11
    89          2
    91          1
    92          2
    93          8
    94          2
    95          9
    96          1
    97          2
    98          1
    99          1
   100          0
   101          1
   102          0
   104          0
   105          4
   106          3
   107          4
   108          2
   109          2
   110          0
   111          1
   113          0
   115          1
   117          1
   119          3
   120         20
   121        110
   122         23
   123        104
   124          4
   125          1
   126          0
   128          0
   129         23
   130          2
   131          1
   133          3
   134          0
   135          3
   137          2
   138         34
   139          2
   140         32
   141          1
   145          0
   147          1
   148          2
   149        100
   150          7
   151         97
   152          5
   153          2
   154          0
   155          0
   157          0
   158          0
   159          0
   163          0
   165          1
   166          4
   167        316
   168         19
   169        305
   170         15
   171          2
   175          0
   177          0
   178          0
   179          5
   180         49
   181          7
   182         49
   183          3
   184          0
   193          1
   195          0
   196          0
   207          0
   208          1
   210          1
   211          0