##TITLE=Library Entry 3865
##JCAMP-DX=Revision 4.10 
##DATA TYPE=MASS SPECTRUM
##SAMPLE DESCRIPTION=J. CASSAN
##NAMES=HP
##CAS NAME=Hydrazinecarboxamide, 2-cyclopentylidene-
##MOLFORM=C6H11N3O
##CAS REGISTRY NO=5459-00-7
##MP= -300
##BP= -300
##MW= 141
##$RETENTION INDEX=0
##$CONDENSED SPECTRUM=NO
##NPOINTS= 56
##XYDATA=(XY..XY) 1 
    26         55
    27        266
    28        186
    29        153
    30        113
    31         41
    32        199
    37         11
    38         37
    39        393
    40        133
    41        999
    42        146
    43        279
    44        406
    45         69
    50         17
    51         33
    52         41
    53        233
    54        566
    55        386
    56        139
    57        253
    58         61
    60         13
    61         49
    63         11
    65         49
    66         49
    67        439
    68        113
    69        439
    70        126
    71         21
    79         13
    80        239
    81        126
    82        279
    83         99
    84         23
    87        366
    88         45
    95         31
    96         44
    97        361
    98        846
    99        133
   111         15
   113         99
   123         29
   124         66
   125         12
   140         45
   141        666
   142         93