##TITLE=Library Entry 73114
##JCAMP-DX=Revision 4.10 
##DATA TYPE=MASS SPECTRUM
##SAMPLE DESCRIPTION=N. Kalyanam, Res. Cent., Indian Petrochem. Corp. Ltd.,
 Vadodara, India
##NAMES=HP
##CAS NAME=Acetamide, N-(1,1,3,3-tetramethylbutyl)-
##MOLFORM=C10H21NO
##CAS REGISTRY NO=5459-42-7
##MP= -300
##BP= -300
##MW= 171
##$RETENTION INDEX=0
##$CONDENSED SPECTRUM=NO
##NPOINTS= 31
##XYDATA=(XY..XY) 1 
    53         17
    54         13
    55         87
    56         52
    57        168
    58        887
    59         52
    60         61
    61         11
    66         14
    69         23
    70         17
    71         12
    72         41
    79          9
    81          8
    82          9
    83          8
    84          8
    97        313
    98         37
    99          9
   100        999
   101         71
   112         29
   113          9
   114        148
   115         21
   156         42
   157          9
   171         13