##TITLE=Library Entry 16927
##JCAMP-DX=Revision 4.10 
##DATA TYPE=MASS SPECTRUM
##SAMPLE DESCRIPTION=Chemical Concepts
##NAMES=HP
##CAS NAME=Androst-4-en-3-one, 17-(acetyloxy)-19-methoxy-, (17.beta.)-
##MOLFORM=C22H32O4
##CAS REGISTRY NO=54594-62-6
##MP= -300
##BP= -300
##MW= 360
##$RETENTION INDEX=0
##$CONDENSED SPECTRUM=NO
##NPOINTS= 262
##XYDATA=(XY..XY) 1 
    26          6
    27         48
    29        106
    30          4
    31         10
    33          2
    34          3
    35         19
    36         35
    37          2
    38          8
    39         75
    40          7
    41        174
    42         29
    43        625
    44         41
    45        999
    46         27
    47         32
    48          3
    49          9
    50          8
    51         19
    52          9
    53         65
    54         18
    55        146
    56         36
    57        131
    58         10
    59          7
    60         17
    61          7
    62          4
    63          8
    64          3
    65         61
    66         13
    67        105
    68         27
    69         86
    70         45
    71         71
    72         10
    73         19
    74         12
    75         13
    76         17
    77        123
    78         32
    79        139
    80         29
    81        157
    82         32
    83         49
    84         24
    85         33
    86          7
    87          9
    88          3
    89         10
    90          7
    91        180
    92         29
    93        151
    94         65
    95         96
    96         17
    97         40
    98         18
    99         13
   100         10
   101          7
   102          7
   103         29
   104         28
   105        145
   106         30
   107        152
   108         39
   109         67
   110         36
   111         26
   112         24
   113         23
   114          5
   115         50
   116         29
   117        136
   118         25
   119        136
   120         32
   121         65
   122         72
   123         48
   124        147
   125         23
   126         13
   127         19
   128         34
   129         80
   130         36
   131        107
   132         36
   133        143
   134         47
   135        152
   136         47
   137         33
   138          8
   139         34
   140          6
   141         65
   142         38
   143         56
   144         46
   145        131
   146         62
   147        120
   148         36
   149        194
   150         34
   151         26
   152         30
   153         20
   154         19
   155         62
   156         23
   157         46
   158         25
   159        159
   160         91
   161        114
   162         37
   163         33
   164         14
   165         17
   166          9
   167         41
   168         14
   169         28
   170         17
   171         28
   172         28
   173         70
   174         37
   175         50
   176         16
   177         12
   178          7
   179         20
   180         13
   181         22
   182          9
   183         36
   184         14
   185         66
   186         40
   187         35
   188         35
   189         21
   190          6
   191          9
   192         12
   193         13
   194          6
   195         19
   196         10
   197         44
   198         26
   199         45
   200         24
   201         40
   202         10
   203         12
   205         21
   207         20
   208          9
   209         13
   210          9
   211         50
   212         20
   213         67
   214         32
   215         38
   216         14
   217          8
   218          6
   219          8
   220          9
   221         11
   222          6
   223         20
   224         10
   225         25
   226         25
   227         29
   228         11
   229         24
   230         13
   231          9
   232          6
   235          4
   236          6
   237         28
   238         11
   239         24
   240         17
   241         14
   242         41
   243         18
   244         26
   245         13
   251          6
   253         25
   254         15
   255        182
   256         63
   257         23
   258         15
   259          6
   260          6
   261          3
   266          5
   267          9
   268         21
   269         13
   270         10
   271         43
   272         27
   273        159
   274         36
   275         19
   279         24
   285         16
   286         27
   287         16
   297         24
   298         10
   299         11
   300         20
   301          6
   302          8
   303          8
   310          7
   314         76
   315        239
   316         67
   317         16
   327         39
   328         22
   330        136
   331         35
   332         10
   341          6
   342          4
   343          8
   351          5
   360        566
   361        126
   362         33