##TITLE=Library Entry 7143
##JCAMP-DX=Revision 4.10 
##DATA TYPE=MASS SPECTRUM
##SAMPLE DESCRIPTION=CARL DJERASSI DEPT OF CHEM STANFORD UNIV STANFORD CALIF
 94305
##NAMES=HP
##CAS NAME=Androstan-3-one, 17-(acetyloxy)-2,4-dimethyl-, (2.alpha.,4.alpha.
,5.alpha.,17.beta.)-
##MOLFORM=C23H36O3
##CAS REGISTRY NO=54594-48-8
##MP= -300
##BP= -300
##MW= 360
##$RETENTION INDEX=0
##$CONDENSED SPECTRUM=NO
##NPOINTS= 119
##XYDATA=(XY..XY) 1 
    40         20
    41        270
    42         30
    43        999
    44         30
    45         10
    53         60
    54         10
    55        280
    56         20
    57         40
    65         20
    66         10
    67        160
    68         30
    69        150
    70         10
    71         20
    77         60
    78         10
    79        130
    80         30
    81        160
    82         50
    83         50
    84         20
    85         20
    91        100
    92         20
    93        160
    94        170
    95        180
    96         30
    97         30
    98         10
   115         80
   116         20
   117        130
   118         40
   119         80
   120         20
   121         20
   127         10
   128         10
   129         60
   130         20
   131         20
   133         50
   134         20
   135         60
   136         30
   137         40
   138         20
   139         40
   145         20
   146         10
   147         50
   148         50
   149        130
   150         30
   151         20
   152        100
   153         20
   159         20
   160         10
   161         50
   162         20
   163         20
   164         10
   165         10
   171         10
   173         30
   174         10
   175         20
   176         10
   177         10
   187         20
   188         10
   189         20
   190         10
   191         40
   192         10
   193         10
   199         10
   200         10
   201         50
   202         10
   203         10
   205         10
   206         10
   207         10
   214         20
   215         10
   217         10
   229         30
   230         10
   231         80
   232         20
   233         10
   243         30
   245         10
   249         10
   257         10
   258         10
   259         80
   260         20
   261         20
   272         20
   274         30
   275         10
   285        140
   286         30
   291         10
   299         10
   300        140
   301         20
   345         10
   360        140
   361         30