##TITLE=Library Entry 53520
##JCAMP-DX=Revision 4.10 
##DATA TYPE=MASS SPECTRUM
##SAMPLE DESCRIPTION=Exported from NIST MS Search
##NAMES=HP
##CAS NAME=Cyclohexylamine, N-ethyl-
##MOLFORM=C8H17N
##CAS REGISTRY NO=5459-93-8
##MP= -300
##BP= -300
##MW= 127
##$RETENTION INDEX=996
##$CONDENSED SPECTRUM=NO
##NPOINTS= 74
##XYDATA=(XY..XY) 1 
    37          3
    38          8
    39        102
    40         18
    41        167
    42         72
    43         48
    44         73
    45          5
    46          6
    47          1
    48          1
    49          1
    50          5
    51         11
    52          8
    53         31
    54         35
    55         84
    56         23
    57         24
    58         46
    59          2
    61          1
    62          1
    63          2
    64          1
    65          5
    66          4
    67         19
    68         23
    69         10
    70         49
    71        142
    72          9
    73          1
    74          1
    75          1
    76          1
    77          7
    78          3
    79          8
    80          5
    81         13
    82         24
    83         19
    84        999
    85         61
    86          2
    87          1
    89          1
    90          1
    91          4
    92          4
    94          2
    95          1
    96          5
    97          3
    98         46
    99          3
   100          1
   110          5
   112         28
   113          2
   120          1
   121          1
   122          1
   123          1
   124          2
   125          2
   126         18
   127        126
   128         12
   129          1