##TITLE=Library Entry 56252
##JCAMP-DX=Revision 4.10 
##DATA TYPE=MASS SPECTRUM
##SAMPLE DESCRIPTION=RADIAN CORP
##NAMES=HP
##CAS NAME=1,3-Propanediamine, N,N-diethyl-N'-methyl-
##MOLFORM=C8H20N2
##CAS REGISTRY NO=5459-95-0
##MP= -300
##BP= -300
##MW= 144
##$RETENTION INDEX=0
##$CONDENSED SPECTRUM=NO
##NPOINTS= 60
##XYDATA=(XY..XY) 1 
    15         14
    18         22
    26          4
    27         48
    28        136
    29         98
    30        212
    31          6
    32          2
    39         18
    40          8
    41         68
    42        241
    43         50
    44        510
    45         19
    46          2
    50          2
    52          3
    53          2
    54         20
    55         14
    56        200
    57         75
    58        529
    59         25
    64          2
    67          3
    68         11
    69          4
    70        178
    71        195
    72        551
    73         39
    74        193
    75          9
    82          4
    83          2
    84         85
    85         30
    86        999
    87         62
    88          2
    96          2
    97          1
    98        126
    99         17
   100         38
   101          4
   112          5
   113        231
   114         20
   115         15
   116          1
   127         13
   128          1
   129          3
   141          1
   144         35
   145          4