##TITLE=Library Entry 22059
##JCAMP-DX=Revision 4.10 
##DATA TYPE=MASS SPECTRUM
##SAMPLE DESCRIPTION=Japan AIST/NIMC Database- Spectrum MS-NW- 934
##NAMES=HP
##CAS NAME=n-Butyl cyanoacetate
##MOLFORM=C7H11NO2
##CAS REGISTRY NO=5459-58-5
##MP= -300
##BP= -300
##MW= 141
##$RETENTION INDEX=0
##$CONDENSED SPECTRUM=NO
##NPOINTS= 67
##XYDATA=(XY..XY) 1 
    12          1
    13          1
    14          5
    15         16
    16          1
    17          1
    18          3
    25          1
    26         19
    27        170
    28         94
    29        268
    30          7
    31         56
    32          4
    33          3
    37          3
    38         13
    39        110
    40        155
    41        639
    42         52
    43        164
    44         40
    45         18
    50          4
    51          5
    52          2
    53          9
    54         17
    55        131
    56        999
    57        258
    58         10
    59         12
    60          9
    61          5
    67         20
    68        612
    69         24
    70          5
    71         26
    72          5
    73          9
    80          5
    81          8
    82         29
    83          5
    84          1
    85          4
    86        102
    87          4
    94          1
    95          3
    96          5
    97          1
    98          5
    99         13
   100          2
   101          3
   105          3
   108          1
   112         39
   113          9
   114          3
   126          5
   140          2