##TITLE=Library Entry 87196
##JCAMP-DX=Revision 4.10 
##DATA TYPE=MASS SPECTRUM
##SAMPLE DESCRIPTION=RESEARCH LABORATORY, STATE ALCOHOL MONOPOLY ALKO, HELSI
NKI, FINLAND; IRMA NYKANEN ET AL
##NAMES=HP
##CAS NAME=Thujone
##MOLFORM=C10H16O
##CAS REGISTRY NO=546-80-5
##MP= -300
##BP= -300
##MW= 152
##$RETENTION INDEX=1103
##$CONDENSED SPECTRUM=NO
##NPOINTS= 61
##XYDATA=(XY..XY) 1 
    27        144
    29         86
    30          3
    38          6
    39        179
    40         44
    41        575
    42         51
    43        162
    44         10
    50         10
    51         41
    52         31
    53        158
    54         51
    55        324
    56         44
    57          3
    63         13
    64          3
    65         55
    66         27
    67        675
    68        579
    69        534
    70        248
    71         24
    77         82
    78         17
    79        227
    80         79
    81        882
    82        224
    83         48
    84          3
    91         62
    92         10
    93         44
    94         20
    95        699
    96         93
    97         31
   105         10
   107         27
   108         17
   109        434
   110        999
   111         96
   119         20
   121          3
   123         13
   124         62
   125          6
   134         10
   135         27
   136          3
   137         20
   150          6
   151          3
   152         62
   153          6