##TITLE=Library Entry 15955
##JCAMP-DX=Revision 4.10 
##DATA TYPE=MASS SPECTRUM
##SAMPLE DESCRIPTION=R RYHAGE MS-LAB KAROLINSKA INSTITUTET STOCKHOLM SWEDEN
##NAMES=HP
##CAS NAME=Columbin
##MOLFORM=C20H22O6
##CAS REGISTRY NO=546-97-4
##MP= -300
##BP= -300
##MW= 358
##$RETENTION INDEX=0
##$CONDENSED SPECTRUM=NO
##NPOINTS= 216
##XYDATA=(XY..XY) 1 
    12         20
    14          5
    15          8
    16         42
    17         32
    18        125
    22          6
    26         11
    27         51
    28        164
    29         59
    30          9
    31         20
    32         14
    37          7
    38         15
    39        121
    40         31
    41        125
    42         23
    43         79
    44        999
    45         27
    46          7
    50         18
    51         47
    52         25
    53         85
    54         28
    55        103
    56         14
    57         28
    58          8
    60          7
    62          8
    63         27
    64         11
    65         82
    66         38
    67         63
    68         58
    69         53
    70         11
    71         17
    73          9
    74          8
    75          8
    76          8
    77        180
    78         52
    79        215
    80         51
    81        142
    82         83
    83         23
    84         12
    85         13
    86          5
    87          5
    89         21
    90         22
    91        234
    92         45
    93        123
    94        173
    95        151
    96         31
    97         28
    98         11
    99          5
   102         10
   103         37
   104         21
   105        145
   106         41
   107        142
   108        131
   109        149
   110         72
   111         19
   112          7
   113          6
   115         68
   116         28
   117         62
   118         29
   119         85
   120         36
   121        127
   122         38
   123         16
   124          8
   125          9
   126          7
   127         22
   128         45
   129         51
   130         24
   131        110
   132         47
   133        118
   134         51
   135         47
   136         14
   137         15
   138          9
   139          9
   141         26
   142         17
   143         32
   144         18
   145         76
   146         35
   147        114
   148         52
   149         28
   150         12
   151          9
   152         24
   153         26
   154          9
   155         18
   156         10
   157         32
   158         32
   159         81
   160         84
   161         82
   162         34
   163         17
   164          9
   165         20
   166         15
   167         13
   168          7
   169         16
   170          9
   171         28
   172         17
   173         40
   174         34
   175         39
   176         26
   177         32
   178         29
   179         25
   180          6
   181         11
   182          7
   183         16
   184         10
   185         23
   186         16
   187         33
   188         43
   189         51
   190         22
   191         29
   192         18
   193          9
   195          9
   196          6
   197         17
   198          9
   199         19
   200         12
   201         12
   202         43
   203         18
   204        164
   205         47
   206         31
   207         10
   209          6
   210          5
   211         11
   212         10
   213         12
   214          9
   215         10
   217          5
   218          6
   219          6
   220         46
   221         10
   223          5
   225         11
   226          6
   227          7
   228          9
   229          5
   231         12
   232          6
   233          5
   237          5
   239          5
   240         10
   241          7
   242          7
   243          5
   245          5
   246          9
   252         15
   253         10
   254          5
   258          6
   268         19
   269          7
   270          9
   271          7
   281          6
   286         19
   296         27
   297          6
   314         85
   315         20