##TITLE=Library Entry 53957
##JCAMP-DX=Revision 4.10 
##DATA TYPE=MASS SPECTRUM
##SAMPLE DESCRIPTION=Finnigan MAT: Toxicological Library (LIBR-TX)
##NAMES=HP
##CAS NAME=Conessine
##MOLFORM=C24H40N2
##CAS REGISTRY NO=546-06-5
##MP= -300
##BP= -300
##MW= 356
##$RETENTION INDEX=0
##$CONDENSED SPECTRUM=NO
##NPOINTS= 17
##XYDATA=(XY..XY) 1 
    42         19
    44         18
    56         20
    58         20
    70         28
    71        144
    79         21
    80         40
    81         20
    82         39
    84        999
    85         51
   327         20
   341         30
   342          9
   355         10
   356         20