##TITLE=Library Entry 52095
##JCAMP-DX=Revision 4.10 
##DATA TYPE=MASS SPECTRUM
##SAMPLE DESCRIPTION=Chemical Concepts
##NAMES=HP
##CAS NAME=1,5-Heptadien-4-one, 3,3,6-trimethyl-
##MOLFORM=C10H16O
##CAS REGISTRY NO=546-49-6
##MP= -300
##BP= -300
##MW= 152
##$RETENTION INDEX=1062
##$CONDENSED SPECTRUM=NO
##NPOINTS= 49
##XYDATA=(XY..XY) 1 
    26          2
    27         45
    28         45
    29         52
    30          1
    37          0
    38          2
    39         71
    40         10
    41         62
    42          6
    43          7
    45          0
    50          3
    51          9
    52          3
    53         39
    54          9
    55        304
    56         18
    57          2
    63          1
    65          3
    66          0
    67         10
    68          2
    69         23
    70          1
    77          4
    78          0
    79          1
    81          2
    82          8
    83        999
    84         62
    85          4
    86          0
    91          2
    93          1
    95          0
    97          1
   105          1
   106          0
   107          0
   108          1
   109          3
   122          1
   137          1
   152          2