##TITLE=Library Entry 5471
##JCAMP-DX=Revision 4.10 
##DATA TYPE=MASS SPECTRUM
##SAMPLE DESCRIPTION=Japan AIST/NIMC Database- Spectrum MS-NW-2921
##NAMES=HP
##CAS NAME=Acetohydroxamic acid
##MOLFORM=C2H5NO2
##CAS REGISTRY NO=546-88-3
##MP= -300
##BP= -300
##MW= 75
##$RETENTION INDEX=0
##$CONDENSED SPECTRUM=NO
##NPOINTS= 42
##XYDATA=(XY..XY) 1 
    12          8
    13         10
    14         46
    15        258
    16          9
    17          3
    18         17
    19          2
    20          1
    24          1
    25          3
    26          8
    27         36
    28          8
    29         28
    30         77
    31          1
    32         21
    33         24
    34          1
    38         19
    39         33
    40         91
    41        194
    42         93
    43        999
    44        121
    45         35
    46          3
    47          4
    54          2
    55          6
    56         37
    57         99
    58          5
    59        101
    60         31
    61          1
    72          1
    73          2
    75         94
    76          3