##TITLE=Library Entry 81823
##JCAMP-DX=Revision 4.10 
##DATA TYPE=MASS SPECTRUM
##SAMPLE DESCRIPTION=A.SELVA INST. OF CHEMISTRY, MILAN POLYTECH., MILAN, ITA
LY
##NAMES=HP
##CAS NAME=Methanone, (4,5-dihydro-3,4-diphenyl-5-isoxazolyl)phenyl-
##MOLFORM=C22H17NO2
##CAS REGISTRY NO=54606-04-1
##MP= -300
##BP= -300
##MW= 327
##$RETENTION INDEX=0
##$CONDENSED SPECTRUM=NO
##NPOINTS= 33
##XYDATA=(XY..XY) 1 
    51         70
    62         20
    64         40
    76         60
    77        410
    78         40
    89         40
    90         40
    91        370
    92         30
   103        140
   104         30
   105        999
   106         80
   116         20
   119         50
   165         30
   167         30
   178         20
   193         70
   194        220
   195         40
   196         20
   207         20
   221         60
   222        620
   223        100
   224         30
   296         20
   298         30
   299         30
   311         20
   327         20