##TITLE=Library Entry 58916
##JCAMP-DX=Revision 4.10 
##DATA TYPE=MASS SPECTRUM
##SAMPLE DESCRIPTION=NIST Mass Spectrometry Data Center, 1994
##NAMES=HP
##CAS NAME=N-(Phenethyl)phenylacetamide
##MOLFORM=C16H17NO
##CAS REGISTRY NO=5460-60-6
##MP= -300
##BP= -300
##MW= 239
##$RETENTION INDEX=0
##$CONDENSED SPECTRUM=NO
##NPOINTS= 73
##XYDATA=(XY..XY) 1 
    15          3
    17          1
    18          5
    26          2
    27         35
    28         37
    29          1
    30        622
    31          1
    37          2
    38         16
    39        143
    40         15
    41         39
    42          8
    43          4
    44          9
    46          2
    50         30
    51         88
    52         22
    53         10
    54          1
    56          3
    57          1
    61          2
    62         16
    63         72
    64         28
    65        334
    66         17
    74          3
    75          6
    77        105
    78         44
    79         76
    80          7
    86          2
    87          3
    89         73
    91        999
    92        206
    93         12
   101          1
   103         66
   104        520
   105        253
   106         22
   107          1
   115          1
   116          1
   117          4
   118         21
   119         26
   120         62
   121          6
   130          2
   132          1
   134          2
   136          2
   146          1
   148        107
   149         10
   152          1
   165          3
   166          1
   178          1
   179          1
   180          1
   237          1
   239        209
   240         38
   241          4