##TITLE=Library Entry 22642
##JCAMP-DX=Revision 4.10 
##DATA TYPE=MASS SPECTRUM
##SAMPLE DESCRIPTION=Exported from NIST MS Search
##NAMES=HP
##CAS NAME=2,4(3H,5H)-Furandione, 3,5-dimethyl-
##MOLFORM=C6H8O3
##CAS REGISTRY NO=5460-81-1
##MP= -300
##BP= -300
##MW= 128
##$RETENTION INDEX=0
##$CONDENSED SPECTRUM=NO
##NPOINTS= 17
##XYDATA=(XY..XY) 1 
    39         30
    41         40
    43        130
    44         40
    45         40
    55         90
    56        999
    57        130
    58         10
    83         30
    85        240
    86         30
   100        110
   101         10
   113         60
   128        210
   129         40