##TITLE=Library Entry 47339
##JCAMP-DX=Revision 4.10 
##DATA TYPE=MASS SPECTRUM
##SAMPLE DESCRIPTION=Chuck Anderson, Aldrich Chemical Co.
##NAMES=HP
##CAS NAME=2-Methyl-3-nitrophenol
##MOLFORM=C7H7NO3
##CAS REGISTRY NO=5460-31-1
##MP= -300
##BP= -300
##MW= 153
##$RETENTION INDEX=0
##$CONDENSED SPECTRUM=NO
##NPOINTS= 64
##XYDATA=(XY..XY) 1 
    15          1
    18          9
    26         35
    27        164
    28         31
    29         41
    30         59
    31          8
    32          2
    37         22
    38         52
    39        301
    40         26
    41         59
    42         10
    43         22
    46         12
    49         10
    50        114
    51        275
    52        198
    53        348
    54         25
    55         75
    61         18
    62         45
    63        129
    64         34
    65         75
    66         40
    67        128
    68         41
    69         11
    73          9
    74         46
    75         29
    76         24
    77        999
    78        275
    79        194
    80        275
    81         97
    82          7
    83          3
    86          4
    87          3
    89         10
    90         18
    91         11
    92         12
    93          9
    94         26
    95          3
   105         68
   106         38
   107         37
   108        207
   109         29
   122          5
   123         18
   136        717
   137         53
   153        363
   154         24