##TITLE=Library Entry 24946
##JCAMP-DX=Revision 4.10 
##DATA TYPE=MASS SPECTRUM
##SAMPLE DESCRIPTION=V.Zaikin,Topchiev Inst.Petrochem.Synth.,Moscow
##NAMES=HP
##CAS NAME=n-Caprylic acid isobutyl ester
##MOLFORM=C12H24O2
##CAS REGISTRY NO=5461-06-3
##MP= -300
##BP= -300
##MW= 200
##$RETENTION INDEX=1348
##$CONDENSED SPECTRUM=NO
##NPOINTS= 87
##XYDATA=(XY..XY) 1 
    26          7
    27         45
    28          9
    29        106
    30          3
    31          7
    36          2
    37          2
    38          3
    39         43
    40         12
    41        232
    42         49
    43        155
    44          5
    45          7
    50          2
    51          3
    52          2
    53         10
    54          8
    55        105
    56        896
    57        999
    58         34
    59         10
    60        190
    61         43
    62          2
    65          1
    66          1
    67         19
    68          6
    69         29
    70         11
    71         12
    72          3
    73        118
    74         14
    75          3
    77          1
    78          1
    79          5
    80          3
    81          7
    82         14
    83         35
    84         39
    85         25
    86         11
    87         49
    88          4
    89         17
    91          1
    93          2
    95          1
    96          3
    97         17
    98         21
    99          3
   100          2
   101         72
   102          5
   103          9
   107          2
   108          2
   109         22
   110          2
   111          3
   113          1
   115         23
   116         32
   117          5
   124          2
   125          8
   126          2
   127        826
   128         51
   129          8
   143          3
   144         53
   145        272
   146         19
   147          2
   157          3
   170          6
   185          2