##TITLE=Library Entry 73298
##JCAMP-DX=Revision 4.10 
##DATA TYPE=MASS SPECTRUM
##SAMPLE DESCRIPTION=Chemical Concepts
##NAMES=HP
##CAS NAME=l-Proline, 3-hydroxy-4-methyl-, (3S,4S)-
##MOLFORM=C6H11NO3
##CAS REGISTRY NO=54615-51-9
##MP= -300
##BP= -300
##MW= 145
##$RETENTION INDEX=0
##$CONDENSED SPECTRUM=NO
##NPOINTS= 71
##XYDATA=(XY..XY) 1 
    26          6
    27         50
    28         64
    29         44
    30        272
    31         27
    36          4
    37          2
    38          5
    39         50
    40         10
    41        241
    42         90
    43         50
    44         29
    45         17
    46          4
    50          3
    51          6
    52          4
    53         61
    54         14
    55         59
    56         32
    57         55
    58         17
    59         83
    60          9
    65          5
    66          3
    67         19
    68         32
    69        302
    70         38
    71        108
    72         24
    73          5
    74         70
    75         11
    76          4
    77          4
    78          3
    79          4
    80         18
    81         12
    82         86
    83         28
    84         18
    85          7
    86          5
    87        382
    88         36
    89          5
    91          5
    92          2
    93          6
    94          4
    95          6
    96          4
    97          7
    98         13
    99          8
   100        999
   101         69
   102          5
   111          4
   112          6
   113          0
   144          1
   145         15
   146          3