##TITLE=Library Entry 98306
##JCAMP-DX=Revision 4.10 
##DATA TYPE=MASS SPECTRUM
##SAMPLE DESCRIPTION=V.Zaikin,Inst.Petrochem.Synth.,RAS,Moscow
##NAMES=HP
##CAS NAME=m-Toluic acid, 3-phenylpropyl ester
##MOLFORM=C17H18O2
##CAS REGISTRY NO=5462-05-5
##MP= -300
##BP= -300
##MW= 254
##$RETENTION INDEX=0
##$CONDENSED SPECTRUM=NO
##NPOINTS= 74
##XYDATA=(XY..XY) 1 
    26         12
    27         32
    28          2
    29         20
    30          4
    39        113
    40         16
    41         68
    42          6
    43         13
    44          1
    50         37
    51         81
    52         23
    53         12
    55          9
    56          7
    57          4
    58          2
    59          2
    61          5
    62         19
    63         55
    64         19
    65        195
    66         15
    69          3
    70         10
    71          3
    74          7
    75         12
    76          6
    77         52
    78         41
    79         26
    81          2
    83          2
    84          3
    85          3
    86          3
    87          3
    88          3
    89         49
    90         42
    91        617
    92         65
    93         12
   101          2
   102          7
   103         32
   104         43
   105         26
   107          5
   112          3
   113          3
   114          2
   115         33
   116        106
   117        622
   118        999
   119        582
   120         48
   121          4
   127          2
   130         10
   131          3
   133          2
   134          2
   135         13
   136         39
   137         18
   147          3
   152          5
   163          4