##TITLE=Library Entry 47736
##JCAMP-DX=Revision 4.10 
##DATA TYPE=MASS SPECTRUM
##SAMPLE DESCRIPTION=A.A.Kutin, Moscow, Russia
##NAMES=HP
##CAS NAME=Pyrazole-5-carboxylic acid, 3-hydroxy-1-phenyl-, ethyl ester
##MOLFORM=C12H12N2O3
##CAS REGISTRY NO=54627-25-7
##MP= -300
##BP= -300
##MW= 232
##$RETENTION INDEX=0
##$CONDENSED SPECTRUM=NO
##NPOINTS= 74
##XYDATA=(XY..XY) 1 
    39         68
    40          4
    41         13
    43         32
    44         23
    45          1
    50         45
    51        391
    52         46
    53         96
    54         26
    55          7
    56          5
    57          0
    63         28
    64         17
    65         87
    66         34
    67          2
    68         30
    69          7
    75          9
    76         21
    77        999
    78        237
    79          6
    81          0
    83          2
    86          1
    89        148
    90         52
    91        142
    92        124
    93        376
    94         94
   103         65
   104        171
   105         71
   106         22
   111         35
   112          6
   115          2
   116         39
   117        325
   118         83
   119         40
   120         30
   121          1
   129         41
   130         48
   131         69
   132         96
   133         29
   142          3
   144        121
   145          8
   146          3
   158        148
   159        127
   160        140
   161          4
   169          2
   170          0
   175          0
   186          1
   187        423
   188         67
   203         24
   204        105
   205         18
   231          2
   232        829
   233        213
   234          9