##TITLE=Library Entry 43525
##JCAMP-DX=Revision 4.10 
##DATA TYPE=MASS SPECTRUM
##SAMPLE DESCRIPTION=NIST Mass Spectrometry Data Center, 2010
##NAMES=HP
##CAS NAME=5'-Methylthioadenosine, 3TMS derivative
##MOLFORM=C20H39N5O3SSi3
##CAS REGISTRY NO=54623-28-8
##MP= -300
##BP= -300
##MW= 513
##$RETENTION INDEX=2805
##$CONDENSED SPECTRUM=NO
##NPOINTS= 300
##XYDATA=(XY..XY) 1 
    15          1
    27          4
    28          3
    29          3
    30          1
    31          1
    35          4
    39          2
    40          1
    41          9
    42          2
    43         11
    44         13
    45         78
    46          7
    47         13
    48          2
    49          1
    52          1
    53          5
    54          3
    55         22
    56          3
    57         15
    58         11
    59         33
    60          5
    61        200
    62          6
    63          9
    65          2
    66          2
    67          3
    68          3
    69         10
    70          5
    71          5
    72         16
    73        999
    74         91
    75         91
    76          6
    77          6
    78          1
    79          1
    80          1
    81          8
    82          2
    83          2
    84         23
    85         20
    86          6
    87         18
    88          2
    89          5
    90          2
    91          4
    92          1
    93          2
    94          2
    95          3
    96          1
    97          9
    98          4
    99         23
   100          9
   101         27
   102          5
   103         45
   104          4
   105         24
   106          3
   107          3
   108          4
   109          9
   110          3
   111         23
   112          4
   113          9
   114          2
   115         20
   116         18
   117         15
   118          3
   119         13
   120          2
   121          3
   122          2
   123          5
   124          3
   125          5
   126          3
   127         19
   128          3
   129        136
   130         19
   131         27
   132          6
   133         39
   134          6
   135         10
   136          6
   137          6
   138          9
   139          2
   140          3
   141         10
   142         40
   143         45
   144          8
   145         12
   146          4
   147        167
   148         28
   149         29
   150          7
   151          6
   152          3
   153          5
   154          2
   155          5
   156          4
   157         11
   158          4
   159          4
   160          2
   161          5
   162         10
   163          6
   164         18
   165         44
   166          8
   167          3
   168          2
   169        258
   170         40
   171         25
   172          4
   173          9
   174          3
   175        532
   176         83
   177         50
   178          9
   179          6
   180         10
   181          3
   182          1
   183          1
   184          1
   185          2
   186          1
   187          3
   188        670
   189        106
   190         63
   191         22
   192        201
   193         31
   194          8
   195          1
   196          1
   199          1
   201          5
   202          1
   203          2
   204         18
   205          8
   206         48
   207         88
   208        113
   209         20
   210          5
   211          1
   215          5
   216          4
   217         44
   218         11
   219          8
   220          8
   221          3
   222          1
   223          1
   229          1
   230          7
   231          8
   232          4
   233          2
   234          8
   235          7
   236        845
   237        143
   238         43
   239          5
   240          1
   242          1
   243         13
   244          4
   245         82
   246         20
   247          9
   248          3
   249          2
   250          2
   251          1
   252          1
   253          1
   254          1
   257          2
   258          7
   259          7
   260          4
   261          1
   262          6
   263          2
   264         19
   265          5
   266          5
   267          1
   268          1
   274          2
   275          1
   276          1
   277          2
   278         14
   279          9
   280         34
   281          8
   282          3
   286          1
   288          1
   289         10
   290          3
   291          5
   292          3
   293          1
   294          3
   295          1
   296          1
   304          1
   305          1
   306         19
   307          5
   308          5
   309          2
   310          1
   318          1
   320          2
   321          1
   322         10
   323          2
   324          1
   332          1
   333          1
   334         19
   335          6
   336          3
   337          3
   338         17
   339          5
   340          2
   347          1
   348          1
   350          1
   352          1
   360          1
   362          2
   364          1
   376          7
   377          2
   378          2
   379          1
   380          1
   382          1
   394          2
   395          1
   396          1
   408          2
   409          1
   410          2
   422          1
   423          1
   424          1
   426          1
   440          3
   441          1
   450          1
   452          1
   466         10
   467          4
   468          2
   498         43
   499         17
   500          9
   501          3
   502          1
   512          1
   513          5
   514          2
   515          1