##TITLE=Library Entry 1727
##JCAMP-DX=Revision 4.10 
##DATA TYPE=MASS SPECTRUM
##SAMPLE DESCRIPTION=J.VOTH UNIV. OF CALIFORNIA, DAVIS, CALIFORNIA, 95616, U
SA
##NAMES=HP
##CAS NAME=1-Pentene, 1,1-dibromo-
##MOLFORM=C5H8Br2
##CAS REGISTRY NO=54624-36-1
##MP= -300
##BP= -300
##MW= 226
##$RETENTION INDEX=0
##$CONDENSED SPECTRUM=NO
##NPOINTS= 130
##XYDATA=(XY..XY) 1 
    12         14
    13         13
    14         34
    15        147
    16          4
    17          3
    18         10
    24          4
    25         36
    26        178
    27        690
    28         92
    29        291
    30          7
    31          5
    32          5
    35          1
    36         18
    37        130
    38        221
    39        999
    40        104
    41        515
    42        937
    43         78
    44          3
    45          1
    49          2
    50        101
    51        263
    52         67
    53         84
    54          7
    55         81
    56          5
    57          2
    59          1
    60         11
    61         43
    62         50
    63         70
    64         15
    65        141
    66         70
    67        502
    68         47
    69          9
    70          5
    71         19
    72          8
    73          8
    75          1
    79        143
    80         44
    81        143
    82         43
    83         10
    84          1
    91         30
    92          9
    93         79
    94          9
    95         46
   103          3
   104         65
   105         99
   106         70
   107        106
   108          6
   109         12
   112          1
   113          2
   114          1
   115          3
   116         16
   117        227
   118         57
   119        323
   120         86
   121        106
   122         28
   123          2
   128          3
   129          6
   130          6
   131         42
   132         12
   133         39
   134          8
   135         15
   137         10
   141          1
   143          3
   145          5
   146          7
   147        178
   148         15
   149        174
   150          9
   151          4
   158          3
   160          5
   162          3
   163          9
   165          8
   170          6
   171         28
   172         12
   173         56
   174          6
   175         27
   183          2
   184        465
   185         39
   186        828
   187         63
   188        441
   189         30
   211          6
   212          2
   213         11
   214          1
   215          5
   225          2
   226        202
   227         15
   228        411
   229         24
   230        190
   231         10