##TITLE=Library Entry 16838
##JCAMP-DX=Revision 4.10 
##DATA TYPE=MASS SPECTRUM
##SAMPLE DESCRIPTION=CONTINENTAL OIL CO., PONCA CITY, OKLA, USA
##NAMES=HP
##CAS NAME=2-Heptanol, 5-methyl-
##MOLFORM=C8H18O
##CAS REGISTRY NO=54630-50-1
##MP= -300
##BP= -300
##MW= 130
##$RETENTION INDEX=856
##$CONDENSED SPECTRUM=NO
##NPOINTS= 79
##XYDATA=(XY..XY) 1 
    13          1
    14          9
    15         56
    16          3
    17          4
    18         12
    19         20
    25          0
    26         10
    27        171
    28         44
    29        129
    30          4
    31         31
    32          4
    33          0
    36          0
    37          2
    38          6
    39         98
    40         19
    41        206
    42        101
    43        288
    44         81
    45        999
    46         23
    47          4
    48          1
    49          3
    50          3
    51          5
    52          2
    53         15
    54          6
    55        239
    56        111
    57         76
    58         16
    59          9
    60          0
    61          0
    62          0
    63          1
    65          2
    66          1
    67          6
    68          6
    69        120
    70         61
    71         43
    72          3
    73          2
    77          1
    78          0
    79          1
    80          0
    81          4
    82          2
    83          7
    84         48
    85         37
    86          8
    87          6
    88          0
    95          2
    96          1
    97         66
    98          5
    99          0
   101          0
   110          0
   111          2
   112         13
   113          1
   115         20
   116          1
   128          0
   129          1