##TITLE=Library Entry 62796
##JCAMP-DX=Revision 4.10 
##DATA TYPE=MASS SPECTRUM
##SAMPLE DESCRIPTION=Chemical Concepts
##NAMES=HP
##CAS NAME=Benzenepropanamide, .alpha.-hydroxy-N-methyl-
##MOLFORM=C10H13NO2
##CAS REGISTRY NO=54639-03-1
##MP= -300
##BP= -300
##MW= 179
##$RETENTION INDEX=0
##$CONDENSED SPECTRUM=NO
##NPOINTS= 109
##XYDATA=(XY..XY) 1 
    26          7
    27         48
    29         39
    30        168
    31         30
    32        305
    33          5
    35          5
    36         22
    37        185
    38         19
    39         74
    40         73
    42         58
    43         51
    44          6
    49          2
    50         60
    51        194
    52         43
    53         26
    54          4
    55         18
    56          7
    57         15
    58        408
    59         64
    60        129
    61          8
    62         27
    63         92
    64         26
    65        306
    66         25
    67          7
    68          5
    69         22
    70         14
    71          7
    72          0
    73          5
    74         17
    75         18
    76         19
    77        337
    78        178
    79        130
    80         10
    81         11
    82          3
    83          7
    84         70
    85          4
    86          4
    87          4
    88        414
    89         70
    90         29
    91        999
    92        310
    93         82
    94          7
    95          4
    96          2
    97          4
    98          1
    99          1
   101          5
   102         31
   103        683
   104        115
   105         23
   106          5
   107          3
   109          2
   111          2
   115          3
   116          1
   117          5
   118         15
   119         12
   120         63
   121        242
   122         22
   123          3
   124          0
   125          1
   128          1
   129          2
   130         63
   131        593
   133         12
   134          3
   135          1
   136          4
   137          2
   141          1
   144          6
   145          2
   146         15
   147          4
   148          1
   149          7
   159          7
   160        436
   161        919
   162        121
   179         18
   180          2