##TITLE=Library Entry 2689
##JCAMP-DX=Revision 4.10 
##DATA TYPE=MASS SPECTRUM
##SAMPLE DESCRIPTION=CARL DJERASSI DEPT OF CHEM STANFORD UNIV STANFORD CALIF
 94305
##NAMES=HP
##CAS NAME=Androstan-3-one, 17-hydroxy-2-methyl-, (2.beta.,5.beta.,17.beta.)
-
##MOLFORM=C20H32O2
##CAS REGISTRY NO=54630-68-1
##MP= -300
##BP= -300
##MW= 304
##$RETENTION INDEX=0
##$CONDENSED SPECTRUM=NO
##NPOINTS= 182
##XYDATA=(XY..XY) 1 
    41        999
    42        122
    43        500
    44        106
    45         38
    50          6
    51         29
    52         20
    53        245
    54         61
    55        636
    56         77
    57        209
    58         34
    59          6
    60          4
    61          4
    63          9
    64          4
    65         75
    66         40
    67        415
    68        204
    69        245
    70         29
    71         81
    72          9
    73          6
    74         18
    75          4
    76          2
    77        165
    78         45
    79        313
    80         70
    81        388
    82         72
    83         72
    84         27
    85         25
    86          9
    87          4
    89          2
    91        238
    92         47
    93        286
    94         90
    95        293
    96         65
    97         65
    98          9
    99          2
   102          2
   103         13
   104          9
   105        184
   106         75
   107        202
   108        150
   109        159
   110         34
   111         45
   112          2
   113          2
   115         13
   116          6
   117         31
   118         20
   119        104
   120         61
   121        138
   122         77
   123        125
   124         52
   125         20
   126          2
   127          2
   128          6
   129         13
   130          4
   131         45
   132         15
   133         75
   134         34
   135         77
   136        102
   137         45
   138         50
   139          9
   141          2
   142          2
   143          9
   144          4
   145         40
   146         15
   147         72
   148         27
   149         59
   150         18
   151         27
   152          4
   153          2
   157         13
   158          6
   159         59
   160         18
   161        102
   162         38
   163         50
   164         11
   165          6
   166          2
   167          2
   171          9
   172          4
   173         34
   174         22
   175         45
   176         75
   177         40
   178         15
   179         25
   180          2
   183          2
   185          9
   186          2
   187         22
   188          9
   189         22
   190          9
   191         11
   192          9
   193          6
   199          9
   200         15
   201         59
   202         34
   203         11
   204          2
   205          6
   206          2
   213          4
   214          4
   215         11
   216          2
   217         11
   218         13
   219         38
   220        225
   221         38
   222          2
   227         31
   228          4
   229         36
   230          6
   231         11
   232         20
   233         18
   234          2
   243         54
   244          9
   245         45
   246          9
   247         34
   248          6
   253          9
   254          2
   258          9
   259          4
   260         27
   261        102
   262         20
   271         34
   272          4
   275          2
   276          2
   286         11
   289         13
   290          2
   304        156
   305         34
   306          2