##TITLE=Library Entry 24518
##JCAMP-DX=Revision 4.10 
##DATA TYPE=MASS SPECTRUM
##SAMPLE DESCRIPTION=NIST Mass Spectrometry Data Center, 1990.
##NAMES=HP
##CAS NAME=3-Decanone, 2-methyl-
##MOLFORM=C11H22O
##CAS REGISTRY NO=5463-82-1
##MP= -300
##BP= -300
##MW= 170
##$RETENTION INDEX=0
##$CONDENSED SPECTRUM=NO
##NPOINTS= 33
##XYDATA=(XY..XY) 1 
    15         10
    27        202
    28         87
    29        158
    39        119
    41        438
    42        133
    43        695
    44         25
    53         23
    55        151
    57        999
    58         49
    59         11
    67         55
    68         16
    69         25
    70         11
    71        284
    72         13
    82          8
    83         20
    84         10
    85          8
    86        213
    87         32
    98         13
    99         23
   109         60
   127        442
   128         38
   170         76
   171         11