##TITLE=Library Entry 54080
##JCAMP-DX=Revision 4.10 
##DATA TYPE=MASS SPECTRUM
##SAMPLE DESCRIPTION=R.Milberg ET AL.Biomed.Mass Spectrom.,2,2(1975)
##NAMES=HP
##CAS NAME=Ritalinic acid
##MOLFORM=C13H17NO2
##CAS REGISTRY NO=54631-24-2
##MP= -300
##BP= -300
##MW= 219
##$RETENTION INDEX=0
##$CONDENSED SPECTRUM=NO
##NPOINTS= 25
##XYDATA=(XY..XY) 1 
    39         77
    43         55
    45         16
    50         16
    52         22
    54         22
    55        132
    56        220
    57         27
    60         27
    76         55
    82         38
    83         38
    84        999
    89         55
    91        242
    92         38
   103         22
   115         38
   116         22
   118         38
   129         22
   136         44
   175         21
   218          1