##TITLE=Library Entry 38752
##JCAMP-DX=Revision 4.10 
##DATA TYPE=MASS SPECTRUM
##SAMPLE DESCRIPTION=D.HENNEBERG, MAX-PLANCK INSTITUTE, MULHEIM, WEST GERMAN
Y
##NAMES=HP
##CAS NAME=Cyclobuta[1,2-b:4,3-b']dipyran-4,5-dione, octahydro-2,2,7,7-tetra
methyl-
##MOLFORM=C14H20O4
##CAS REGISTRY NO=54637-09-1
##MP= -300
##BP= -300
##MW= 252
##$RETENTION INDEX=0
##$CONDENSED SPECTRUM=NO
##NPOINTS= 156
##XYDATA=(XY..XY) 1 
    26         36
    27        156
    28        168
    29        149
    30          4
    31         15
    32         11
    36          1
    37          2
    38          7
    39        211
    40         59
    41        366
    42         50
    43        255
    44         10
    45          3
    46          0
    47          0
    48          0
    49          2
    50          7
    51         19
    52         31
    53         48
    54         87
    55        196
    56        555
    57        135
    58          7
    59         18
    60          3
    61          0
    62          0
    63          2
    64          3
    65         14
    66         12
    67         15
    68         88
    69         68
    70         11
    71        999
    72         37
    73          5
    74          1
    75          0
    76          1
    77         15
    78          3
    79         23
    80         59
    81         45
    82        367
    83        167
    84         62
    85         32
    86          5
    87          0
    88          1
    90          0
    91          6
    92          2
    93          9
    94          6
    95         34
    96         20
    97         35
    98         32
    99          6
   100          1
   101          1
   103          1
   104          0
   105          3
   106          1
   107          7
   108         75
   109        114
   110         23
   111        394
   112         70
   113         12
   114          1
   115          0
   117          0
   118          0
   119          1
   120          1
   121         49
   122          7
   123         14
   124          5
   125         24
   126        422
   127        481
   128         37
   129          3
   132          1
   133          3
   134          1
   135          9
   136          2
   137         23
   138         58
   139         24
   140          7
   141          3
   147          0
   148          0
   149         16
   150          6
   151         16
   152          2
   153         17
   154          2
   155          0
   160          1
   161          2
   163          9
   164          0
   165          6
   166          3
   167          5
   168          8
   169          2
   173          0
   175          0
   176          1
   177          1
   178          4
   179          6
   180          0
   181          7
   182          0
   191          1
   193          6
   194          6
   195          1
   196          8
   197          3
   201          0
   205          1
   206          2
   207          1
   216          0
   217          0
   219          3
   220          0
   223          2
   224          1
   234          1
   237          3
   238          0
   252          1
   253          0