##TITLE=Library Entry 70869
##JCAMP-DX=Revision 4.10 
##DATA TYPE=MASS SPECTRUM
##SAMPLE DESCRIPTION=CARL DJERASSI DEPT OF CHEM STANFORD UNIV STANFORD CALIF
 94305
##NAMES=HP
##CAS NAME=Piperidinium, 1-ethyl-1-methyl-, bromide
##MOLFORM=C8H18BrN
##CAS REGISTRY NO=54644-39-2
##MP= -300
##BP= -300
##MW= 207
##$RETENTION INDEX=0
##$CONDENSED SPECTRUM=NO
##NPOINTS= 38
##XYDATA=(XY..XY) 1 
    41        140
    42        290
    43        390
    44        150
    45         20
    46         10
    53         20
    54         20
    55        140
    56         60
    57        160
    58        100
    60         10
    67         20
    68         20
    69         60
    70        110
    71         80
    72         20
    79         20
    80         10
    81         20
    82         20
    83         30
    84         80
    85         30
    91         10
    93         40
    94        190
    95         30
    96        180
    97         20
    98        999
    99        280
   108        180
   110        180
   112        160
   113        160