##TITLE=Library Entry 33536
##JCAMP-DX=Revision 4.10 
##DATA TYPE=MASS SPECTRUM
##SAMPLE DESCRIPTION=CARL DJERASSI DEPT OF CHEM STANFORD UNIV STANFORD CALIF
 94305
##NAMES=HP
##CAS NAME=7-Azabicyclo[4.1.0]heptane, 3-methyl-
##MOLFORM=C7H13N
##CAS REGISTRY NO=54644-35-8
##MP= -300
##BP= -300
##MW= 111
##$RETENTION INDEX=0
##$CONDENSED SPECTRUM=NO
##NPOINTS= 29
##XYDATA=(XY..XY) 1 
    40         30
    41        250
    42        170
    43        180
    44         30
    45         40
    46         10
    51         20
    53         40
    54         80
    55         80
    56        180
    57         90
    67        100
    68        999
    69        880
    70         80
    77         20
    79         30
    80         30
    81         40
    82        130
    83        260
    84         20
    94         30
    96        540
    97         30
   110         50
   111         20