##TITLE=Library Entry 64301
##JCAMP-DX=Revision 4.10 
##DATA TYPE=MASS SPECTRUM
##SAMPLE DESCRIPTION=Div. of Experiment Therapeutics WRAIR, WRAMC, Washingto
n DC 20307
##NAMES=HP
##CAS NAME=Benzene, (8-bromooctyl)-
##MOLFORM=C14H21Br
##CAS REGISTRY NO=54646-75-2
##MP= -300
##BP= -300
##MW= 268
##$RETENTION INDEX=0
##$CONDENSED SPECTRUM=NO
##NPOINTS= 123
##XYDATA=(XY..XY) 1 
    41        142
    42         28
    43         52
    44          2
    47          1
    50          8
    51         33
    52         10
    53         19
    54          8
    55        137
    56         14
    57         25
    58          2
    60          0
    62          2
    63         16
    64          6
    65         97
    66          7
    67         14
    68          5
    69         27
    70          6
    71          3
    74          2
    75          2
    76          4
    77         60
    78         69
    79         34
    80          6
    81          5
    82          3
    83          6
    84          1
    85          1
    87          0
    89         17
    90         16
    91        999
    92        196
    93         44
    94          9
    95          4
    96          1
    97         21
    98          2
   101          0
   102          6
   103         52
   104         76
   105        117
   106         21
   107         10
   109          9
   110          4
   111          2
   112          2
   114          0
   115         17
   116          4
   117         28
   118          7
   119         30
   120          7
   121          6
   123          4
   124          0
   125          1
   126          0
   127          1
   128          3
   129          2
   131          4
   132          2
   133         67
   134         15
   135          7
   136          0
   137          6
   138         10
   139          2
   141          1
   144          4
   145          3
   147          8
   148          2
   150          2
   151          1
   152          1
   153          1
   158          1
   161          1
   162          1
   163          0
   164          1
   165         15
   166         11
   167          2
   169          3
   171          2
   176          1
   177          1
   178          4
   179          5
   180          2
   183          1
   186          1
   188          2
   189          2
   214          1
   216          0
   225          2
   226          1
   227          2
   234          0
   266          2
   268        210
   269         31
   270        201
   271         29
   272          2