##TITLE=Library Entry 37789
##JCAMP-DX=Revision 4.10 
##DATA TYPE=MASS SPECTRUM
##SAMPLE DESCRIPTION=RH-14
##NAMES=HP
##CAS NAME=Bicyclo[2.2.2]octan-1-ol, 4-methyl-, acetate
##MOLFORM=C11H18O2
##CAS REGISTRY NO=54644-25-6
##MP= -300
##BP= -300
##MW= 182
##$RETENTION INDEX=0
##$CONDENSED SPECTRUM=NO
##NPOINTS= 80
##XYDATA=(XY..XY) 1 
    14         28
    15        120
    16         33
    17        100
    18        234
    26         45
    27        197
    28        138
    29        141
    37         33
    38         42
    39        286
    40         35
    41        332
    42         94
    43        793
    44         39
    45         29
    49         29
    50        128
    51        168
    52        140
    53        150
    54         56
    55        375
    56         47
    57         60
    60         19
    61         19
    63         52
    65         52
    66         39
    67        159
    68         96
    69        152
    70        999
    71        249
    72         18
    73         15
    74         36
    75         11
    76         41
    77        217
    78        679
    79        291
    80        187
    81        177
    82         82
    83         88
    84         42
    91        111
    92         61
    93        521
    94        249
    95         82
    96         21
    97         77
    98         21
   105         36
   106         14
   107        373
   108         46
   109         29
   110         42
   111        679
   112         92
   113          6
   121         25
   122        916
   123        154
   124         24
   125         63
   126          6
   139         19
   140        585
   141         62
   142          4
   182        227
   183         28
   184          2