##TITLE=Library Entry 45579
##JCAMP-DX=Revision 4.10 
##DATA TYPE=MASS SPECTRUM
##SAMPLE DESCRIPTION=Exported from NIST MS Search
##NAMES=HP
##CAS NAME=Benzene, 1-[(3-chloro-2-propenyl)oxy]-3-methyl-
##MOLFORM=C10H11ClO
##CAS REGISTRY NO=54644-22-3
##MP= -300
##BP= -300
##MW= 182
##$RETENTION INDEX=0
##$CONDENSED SPECTRUM=NO
##NPOINTS= 148
##XYDATA=(XY..XY) 1 
    14          1
    15          3
    18          3
    26         13
    27         71
    28         29
    29          9
    31          2
    32          4
    35          5
    36         46
    37         15
    38         36
    39        284
    40         24
    41         35
    42          4
    43         10
    44          3
    45          3
    47          2
    48          2
    49         56
    50         53
    51        123
    52         50
    53         81
    54         68
    55         36
    56          3
    57          5
    58          5
    59          1
    60          7
    61         13
    62         25
    63         64
    64         21
    65        114
    66         19
    67         35
    68          8
    69          8
    70          1
    71          1
    72         18
    73         16
    74         16
    75        999
    76         46
    77        523
    78         74
    79        203
    80         43
    81         10
    82          5
    83          2
    84          3
    85          4
    86          5
    87          7
    88         15
    89         46
    90         73
    91        226
    92         28
    93         11
    94          4
    95          1
    97          7
    98          2
    99          2
   100          1
   101         10
   102          6
   103         23
   104         12
   105         33
   106          7
   107        498
   108        550
   109         46
   110          4
   111          2
   112          8
   113          3
   114          9
   115         55
   116         13
   117         48
   118         15
   119        120
   120         17
   121         13
   122          3
   123          1
   124          2
   125          2
   126          4
   127          7
   128          9
   129         15
   130          3
   131         46
   132         35
   133         33
   134          4
   135          1
   139          5
   140          1
   141          5
   142          2
   143          2
   144          7
   145        133
   146         75
   147        545
   148         61
   149          6
   150          7
   151          3
   152         11
   153          5
   154          2
   155          4
   156          1
   157          2
   158          3
   159          2
   161          1
   163          2
   164          1
   165          8
   166          3
   167          6
   168          7
   169          6
   170          2
   171          2
   178          2
   179          2
   180          2
   181         14
   182        224
   183         41
   184         94
   185         14
   186          2