##TITLE=Library Entry 77897
##JCAMP-DX=Revision 4.10 
##DATA TYPE=MASS SPECTRUM
##SAMPLE DESCRIPTION=G. GALLO, GRUPPO LEPETIT SPA, CASELLA POSTALE, MILAN, I
TD u
##NAMES=HP
##CAS NAME=Phthalazinone, 2-(2-(methoxycarbonyl)benzyl)-1(2H)-
##MOLFORM=C17H14N2O3
##CAS REGISTRY NO=54648-85-0
##MP= -300
##BP= -300
##MW= 294
##$RETENTION INDEX=0
##$CONDENSED SPECTRUM=NO
##NPOINTS= 59
##XYDATA=(XY..XY) 1 
    50        176
    51        235
    52         58
    62        176
    63        405
    64        117
    65        229
    73        176
    74         58
    75        176
    76        400
    77        764
    78        176
    79         58
    89        705
    90        405
    91        647
    92        117
   102        411
   103        352
   104        999
   105        529
   106        117
   117         58
   118        117
   119        117
   130         76
   131         52
   132        587
   133        191
   134         22
   135          5
   147        117
   148        411
   149        176
   150         58
   162        158
   163         58
   164        235
   165         64
   177         58
   178        105
   179        223
   180         88
   181         52
   205        105
   206        176
   233        294
   234        117
   235        823
   236        170
   237         58
   262        929
   263        535
   264        235
   265         58
   294        823
   295        235
   296         58