##TITLE=Library Entry 45578
##JCAMP-DX=Revision 4.10 
##DATA TYPE=MASS SPECTRUM
##SAMPLE DESCRIPTION=Exported from NIST MS Search
##NAMES=HP
##CAS NAME=Benzene, 1-[(3-chloro-2-propenyl)oxy]-2-methyl-
##MOLFORM=C10H11ClO
##CAS REGISTRY NO=54644-21-2
##MP= -300
##BP= -300
##MW= 182
##$RETENTION INDEX=0
##$CONDENSED SPECTRUM=NO
##NPOINTS= 121
##XYDATA=(XY..XY) 1 
    14          2
    15          4
    18          6
    25          2
    26         27
    27        117
    28         61
    29         14
    31          3
    32          9
    35          9
    36         80
    37         26
    38         75
    39        324
    40         29
    41         39
    42          4
    43         17
    44          6
    45          5
    47          3
    48          3
    49         68
    50         88
    51        191
    52         79
    53        122
    54        138
    55         41
    56          4
    57          9
    58         11
    59          2
    60          5
    61         20
    62         35
    63         87
    64         33
    65        119
    66         25
    67         76
    68         11
    69          5
    71          1
    72         23
    73         24
    74         27
    75        999
    76         57
    77        621
    78        131
    79        320
    80         80
    81         15
    82          7
    83          3
    84          3
    85          6
    86          8
    87         13
    88         30
    89        119
    90        206
    91        275
    92         31
    93         10
    94          4
    95          2
    97          4
    98          2
    99          3
   100          2
   101         21
   102         12
   103         29
   104         12
   105         33
   106         27
   107        762
   108        859
   109         76
   110          7
   111          4
   112         17
   113          7
   114         18
   115        129
   116         41
   117         73
   118         25
   119         91
   120         14
   121         18
   122          6
   123          3
   124          8
   125          3
   126          6
   127         27
   128         32
   129         31
   130          8
   131         92
   132         51
   133         15
   134          2
   135          2
   139          7
   140          2
   141          9
   146         11
   147        335
   148         40
   149          6
   181         26
   182        181
   183         59
   184        109
   185         19
   186          3