##TITLE=Library Entry 47635
##JCAMP-DX=Revision 4.10 
##DATA TYPE=MASS SPECTRUM
##SAMPLE DESCRIPTION=CARL DJERASSI DEPT OF CHEM STANFORD UNIV STANFORD CALIF
 94305
##NAMES=HP
##CAS NAME=Benzoic acid, 3-[(phenoxycarbonyl)oxy]-, methyl ester
##MOLFORM=C15H12O5
##CAS REGISTRY NO=54644-59-6
##MP= -300
##BP= -300
##MW= 272
##$RETENTION INDEX=0
##$CONDENSED SPECTRUM=NO
##NPOINTS= 88
##XYDATA=(XY..XY) 1 
    41         50
    42         20
    43         40
    44        200
    45         10
    46         10
    47         20
    49         20
    50        260
    51        360
    52         50
    53         70
    54         10
    55         50
    56         10
    57         20
    59         90
    61         30
    62         80
    63        300
    64        240
    65        490
    66        140
    67         30
    68         10
    69         10
    71         10
    72         20
    73         10
    74         50
    75        110
    76        190
    77        999
    78         80
    79         30
    80         20
    81         10
    91         40
    92        230
    93        220
    94        380
    95         70
    96         20
   103         90
   104         50
   105         20
   107         30
   108         10
   115        100
   116         20
   119         60
   120        130
   121        440
   122         40
   123         20
   128         10
   129         20
   135        200
   136         30
   139         30
   140         30
   141        390
   142         70
   151         20
   152        150
   153         20
   155         10
   157         20
   168        120
   169        270
   170         60
   183         20
   195         70
   196        150
   197        700
   198        100
   199         10
   200         20
   211         10
   214         20
   227         20
   228        220
   229         30
   241        190
   242         30
   255         10
   272        110
   274         10