##TITLE=Library Entry 33165
##JCAMP-DX=Revision 4.10 
##DATA TYPE=MASS SPECTRUM
##SAMPLE DESCRIPTION=Exported from NIST MS Search
##NAMES=HP
##CAS NAME=1-Pentalenecarboxylic acid, octahydro-3-methyl-, methyl ester
##MOLFORM=C11H18O2
##CAS REGISTRY NO=54644-24-5
##MP= -300
##BP= -300
##MW= 182
##$RETENTION INDEX=0
##$CONDENSED SPECTRUM=NO
##NPOINTS= 126
##XYDATA=(XY..XY) 1 
    15        114
    16          3
    17          5
    18         19
    26          6
    27        173
    28        130
    29        145
    30          5
    31          7
    32         24
    33          6
    38          8
    39        243
    40         52
    41        414
    42         39
    43         76
    44         14
    45         27
    46          2
    50         12
    51         52
    52         34
    53        212
    54         88
    55        424
    56         29
    57         26
    58          9
    59        147
    60          7
    61         13
    62          3
    63         13
    64          3
    65         82
    66        134
    67        999
    68        170
    69         82
    70          9
    71         19
    72         19
    73         19
    74        119
    75         35
    76          3
    77        167
    78         40
    79        475
    80        216
    81        882
    82        127
    83         72
    84         13
    85         16
    86          3
    87        665
    88         63
    89         10
    91         94
    92         19
    93        262
    94        174
    95        338
    96        863
    97         90
    98         12
    99         16
   100         48
   101         43
   102          4
   103          7
   104          3
   105         25
   106         29
   107        301
   108        396
   109        158
   110         15
   111         78
   112         27
   113         58
   114        177
   115         59
   116         16
   117         11
   119          6
   120          3
   121         76
   122        309
   123        530
   124         54
   125         88
   126         24
   127        381
   128         34
   129          5
   131          2
   132          5
   133          5
   135         42
   136          5
   137          3
   138          6
   139        338
   140        914
   141        292
   142         30
   143          5
   149          9
   150        252
   151        330
   152         36
   153         56
   154         50
   155          5
   164          3
   165          9
   167        123
   168         14
   181          9
   182        453
   183         65
   184          6