##TITLE=Library Entry 33702
##JCAMP-DX=Revision 4.10 
##DATA TYPE=MASS SPECTRUM
##SAMPLE DESCRIPTION=TAT 0007
##NAMES=HP
##CAS NAME=1,3-Isobenzofurandione, hexahydro-4,7-dimethyl-
##MOLFORM=C10H14O3
##CAS REGISTRY NO=54644-18-7
##MP= -300
##BP= -300
##MW= 182
##$RETENTION INDEX=0
##$CONDENSED SPECTRUM=NO
##NPOINTS= 68
##XYDATA=(XY..XY) 1 
    14         80
    15         40
    16         30
    26         70
    27        390
    28         60
    29        210
    37         30
    38         60
    39         60
    40        110
    41        450
    42         70
    43         70
    44         30
    45         40
    50         70
    51        140
    52         70
    53        250
    54        110
    55        390
    56         60
    58         30
    62         30
    63         60
    64         30
    65        100
    66         80
    67        370
    68        999
    69        110
    70         10
    75         30
    77        150
    78         60
    79        150
    80         70
    81        350
    82         30
    83         40
    91        130
    92         40
    93        370
    94        420
    95        960
    96        100
    97         40
    99         40
   100         40
   106         60
   107         60
   108        240
   109         80
   110        480
   111         70
   112         10
   126         60
   127         40
   136         60
   137         70
   138         10
   139         30
   153         30
   154         30
   164         40
   182         80
   183         10