##TITLE=Library Entry 21988
##JCAMP-DX=Revision 4.10 
##DATA TYPE=MASS SPECTRUM
##SAMPLE DESCRIPTION=CARL DJERASSI DEPT OF CHEM STANFORD UNIV STANFORD CALIF
 94305
##NAMES=HP
##CAS NAME=Oxirane, 2,3-bis(1-methylethyl)-, trans-
##MOLFORM=C8H16O
##CAS REGISTRY NO=54644-32-5
##MP= -300
##BP= -300
##MW= 128
##$RETENTION INDEX=0
##$CONDENSED SPECTRUM=NO
##NPOINTS= 25
##XYDATA=(XY..XY) 1 
    41        730
    42         50
    43        350
    44         20
    45         30
    50         10
    51         10
    53         30
    54         20
    55        230
    56        999
    57        260
    58         20
    59         10
    67         10
    69         30
    70         10
    71         80
    72        120
    73        230
    74         10
    95         10
   111         10
   113         20
   128         20