##TITLE=Library Entry 26993
##JCAMP-DX=Revision 4.10 
##DATA TYPE=MASS SPECTRUM
##SAMPLE DESCRIPTION=ORMSBG,9(7)726(1974); UNDEWALLE
##NAMES=HP
##CAS NAME=1,3-Dioxane, 4,6-bis(2,2-dimethylpropyl)-
##MOLFORM=C14H28O2
##CAS REGISTRY NO=54646-74-1
##MP= -300
##BP= -300
##MW= 228
##$RETENTION INDEX=0
##$CONDENSED SPECTRUM=NO
##NPOINTS= 22
##XYDATA=(XY..XY) 1 
    41        420
    42         30
    43        120
    44         40
    55        110
    56         60
    57        999
    58         50
    68         50
    71         50
    83         20
    84         41
    86         30
    87         50
    88         80
   102         50
   109        550
   110         60
   127        270
   128         30
   157        620
   158         70