##TITLE=Library Entry 75940
##JCAMP-DX=Revision 4.10 
##DATA TYPE=MASS SPECTRUM
##SAMPLE DESCRIPTION=CARL DJERASSI DEPT OF CHEM STANFORD UNIV STANFORD CALIF
 94305
##NAMES=HP
##CAS NAME=Carbamic acid, butylmethyl-, methyl ester
##MOLFORM=C7H15NO2
##CAS REGISTRY NO=54644-60-9
##MP= -300
##BP= -300
##MW= 145
##$RETENTION INDEX=0
##$CONDENSED SPECTRUM=NO
##NPOINTS= 21
##XYDATA=(XY..XY) 1 
    41        120
    42        250
    43         80
    44         70
    45         10
    54         10
    55         20
    56         40
    57         70
    58        380
    59        210
    70         10
    72         10
    74         10
    88         10
   102        999
   103         40
   114         20
   130         10
   145         90
   146         10