##TITLE=Library Entry 3579
##JCAMP-DX=Revision 4.10 
##DATA TYPE=MASS SPECTRUM
##SAMPLE DESCRIPTION=Exported from NIST MS Search
##NAMES=HP
##CAS NAME=1,2,4-Trithiolane, 3,5-diethyl-
##MOLFORM=C6H12S3
##CAS REGISTRY NO=54644-28-9
##MP= -300
##BP= -300
##MW= 180
##$RETENTION INDEX=1352
##$CONDENSED SPECTRUM=NO
##NPOINTS= 50
##XYDATA=(XY..XY) 1 
    41        999
    42         50
    43         10
    44         60
    45        659
    46        200
    47        220
    48         10
    49         10
    55         30
    57         40
    58        110
    59        180
    60         10
    61         10
    64         90
    66         10
    67         10
    68         10
    69         50
    70         10
    71         70
    72         30
    73        250
    74        799
    75         70
    76         40
    77         10
    78         20
    81         10
    85         30
    87         40
    88         10
    91         10
    97         10
    99         10
   101         20
   106        180
   107         10
   108         10
   111         20
   112         10
   115        100
   116        120
   118         10
   151         10
   180        260
   181         23
   182         30
   183          2