##TITLE=Library Entry 72246
##JCAMP-DX=Revision 4.10 
##DATA TYPE=MASS SPECTRUM
##SAMPLE DESCRIPTION=Chemical Concepts
##NAMES=HP
##CAS NAME=Cyclohexanol, 1-(2-hexenyl)-
##MOLFORM=C12H22O
##CAS REGISTRY NO=54655-47-9
##MP= -300
##BP= -300
##MW= 182
##$RETENTION INDEX=0
##$CONDENSED SPECTRUM=NO
##NPOINTS= 80
##XYDATA=(XY..XY) 1 
    26          5
    27         65
    28         16
    29         64
    31         11
    35          2
    38          3
    39         75
    40         12
    41        169
    42         35
    43         63
    44          4
    45          5
    47          4
    49          3
    50          3
    51         11
    52          6
    53         44
    54         25
    55        212
    56         28
    57         51
    58          4
    63          3
    65         14
    66          7
    67         61
    68         13
    69         49
    70         18
    71         17
    77         25
    78          6
    79         61
    80         13
    81        527
    82         70
    83         54
    84         23
    85          5
    86         15
    88          2
    91         16
    92          3
    93         19
    94          5
    95         18
    96          8
    97         16
    98         20
    99        999
   100         75
   101          4
   105          7
   107          8
   108          3
   109         18
   110          8
   111          7
   112          2
   121         16
   122          4
   123         14
   124          5
   125          4
   126          1
   135         10
   136          2
   137          3
   138          2
   139         10
   140          7
   141          1
   153          3
   164          8
   165          6
   166          1
   182          0