##TITLE=Library Entry 34170
##JCAMP-DX=Revision 4.10 
##DATA TYPE=MASS SPECTRUM
##SAMPLE DESCRIPTION=Japan AIST/NIMC Database- Spectrum MS-NW-3446
##NAMES=HP
##CAS NAME=3,4-Dimethyl cyclohexanone
##MOLFORM=C8H14O
##CAS REGISTRY NO=5465-09-8
##MP= -300
##BP= -300
##MW= 126
##$RETENTION INDEX=0
##$CONDENSED SPECTRUM=NO
##NPOINTS= 70
##XYDATA=(XY..XY) 1 
    14          2
    15          9
    18          2
    26          9
    27         96
    28         24
    29         68
    30          2
    31          1
    32          1
    37          3
    38          8
    39        107
    40         22
    41        269
    42         94
    43        177
    44          7
    45          1
    49          1
    50          8
    51         12
    52          6
    53         33
    54         15
    55        220
    56        173
    57         17
    58          4
    61          1
    62          2
    63          3
    65          6
    66          3
    67         37
    68         18
    69        999
    70        152
    71         78
    72          5
    77          7
    78          2
    79          6
    80          2
    81         10
    82         56
    83         43
    84         57
    85          4
    91          6
    92          1
    93         38
    94          3
    95          8
    96          2
    97         11
    98         48
    99          3
   105          1
   106          1
   107          2
   108         37
   109          5
   110          5
   111         40
   112          3
   125          2
   126        217
   127         20
   128          1