##TITLE=Library Entry 17246
##JCAMP-DX=Revision 4.10 
##DATA TYPE=MASS SPECTRUM
##SAMPLE DESCRIPTION=CARL DJERASSI DEPT OF CHEM STANFORD UNIV STANFORD CALIF
 94305
##NAMES=HP
##CAS NAME=Hexane, 3-methoxy-
##MOLFORM=C7H16O
##CAS REGISTRY NO=54658-01-4
##MP= -300
##BP= -300
##MW= 116
##$RETENTION INDEX=0
##$CONDENSED SPECTRUM=NO
##NPOINTS= 22
##XYDATA=(XY..XY) 1 
    39        150
    40         10
    41        320
    42         60
    43        180
    45        999
    53         20
    55        190
    56         30
    57         60
    58         30
    59         30
    69         10
    71         20
    72         20
    73        990
    74         50
    85         10
    86         10
    87        490
    88         30
   116         10