##TITLE=Library Entry 35318
##JCAMP-DX=Revision 4.10 
##DATA TYPE=MASS SPECTRUM
##SAMPLE DESCRIPTION=CARL DJERASSI DEPT OF CHEM STANFORD UNIV STANFORD CALIF
 94305
##NAMES=HP
##CAS NAME=4,25-Secoobscurinervan-4-ol, 22-ethyl-15,16-dimethoxy-, diacetate
 (ester), (4.beta.,22.alpha.)-
##MOLFORM=C29H40N2O7
##CAS REGISTRY NO=54658-12-7
##MP= -300
##BP= -300
##MW= 528
##$RETENTION INDEX=0
##$CONDENSED SPECTRUM=NO
##NPOINTS= 255
##XYDATA=(XY..XY) 1 
    60        407
    61        135
    62         10
    63         27
    64         21
    65         76
    66         43
    67        385
    68        201
    69        999
    70        298
    71        597
    72         65
    73        326
    74         54
    75         27
    76         16
    77        108
    78         38
    79        157
    80         76
    81        451
    82        173
    83        375
    84        157
    85        271
    86         32
    87         92
    88         16
    89         16
    90         10
    91        146
    92         43
    93        146
    94         86
    95        293
    96        130
    97        217
    98         92
    99         76
   100         21
   101         43
   102         16
   103         32
   104         32
   105        119
   106         54
   107        103
   108         59
   109        201
   110         97
   111        108
   112         48
   113         54
   114         16
   115         59
   116         27
   117         59
   118         38
   119        125
   120         65
   121         86
   122        510
   123        135
   124         54
   125         76
   126         32
   127         43
   128         43
   129         86
   130         48
   131         70
   132         65
   133         81
   134         54
   135         54
   136         43
   137         81
   138         65
   139         32
   140         81
   141         48
   142         32
   143         59
   144         43
   145         70
   146         48
   147         54
   148         48
   149         65
   150         27
   151         38
   152         32
   153         32
   154         38
   155         43
   156         43
   157         59
   158         65
   159         81
   160         65
   161         76
   162         38
   163         38
   164         21
   165         27
   166         32
   167         32
   168         38
   169         43
   170         43
   171         54
   172         43
   173         59
   174         32
   175         65
   176         76
   177         43
   178         27
   179         32
   180         32
   181         21
   182        494
   183        119
   184         48
   185         65
   186         38
   187         54
   188         43
   189         43
   190         86
   191         43
   192         27
   193         10
   194         21
   195         21
   196         32
   197         48
   198         48
   199         43
   200         38
   201         38
   202         38
   203         38
   204         43
   205         48
   206         21
   207         16
   208         16
   209         21
   210         16
   211         32
   212         21
   213         86
   214         38
   215         76
   216         38
   217         38
   218         16
   219         10
   220         10
   221          5
   222          5
   223         10
   224         16
   225         27
   226         21
   227         54
   228         38
   229         97
   230         59
   231         38
   232         16
   234         10
   236          5
   237          5
   238          5
   239         21
   240         10
   241        108
   242         48
   243        271
   244         92
   245         38
   246         21
   251          5
   252          5
   253         16
   254         16
   255        402
   256        130
   257        152
   258         92
   259         32
   260         81
   261         10
   264         21
   265          5
   267         10
   268         27
   269         43
   270         32
   271         32
   272         21
   273         21
   274         65
   275          5
   280          5
   281         16
   282          5
   283         21
   284         38
   285         10
   286          5
   288          5
   295         16
   296         10
   297         32
   298         10
   299          5
   306         10
   307          5
   309         21
   310          5
   311         10
   312          5
   316          5
   323         38
   324         21
   325         27
   326         10
   337          5
   338         16
   339         16
   351          5
   353          5
   365         21
   379         16
   380          5
   381         16
   382          5
   393         21
   394          5
   395         32
   408        440
   409        163
   410         65
   425          5
   439         16
   453          5
   468          5
   485         16
   499         97
   513        125
   528        543