##TITLE=Library Entry 100892
##JCAMP-DX=Revision 4.10 
##DATA TYPE=MASS SPECTRUM
##SAMPLE DESCRIPTION=Japan AIST/NIMC Database- Spectrum MS-IW-7029
##NAMES=HP
##CAS NAME=1,4-Di(p-tolyl)-trans-2-buten-1,4-dione
##MOLFORM=C18H16O2
##CAS REGISTRY NO=5465-41-8
##MP= -300
##BP= -300
##MW= 264
##$RETENTION INDEX=0
##$CONDENSED SPECTRUM=NO
##NPOINTS= 102
##XYDATA=(XY..XY) 1 
    17          8
    18         42
    27          1
    28          6
    39         13
    40          1
    41          6
    43          1
    44          1
    50          2
    51          6
    52          1
    53          5
    54          1
    55          1
    57          1
    62          2
    63         10
    64          3
    65         75
    66          4
    69          1
    71          1
    74          1
    75          1
    76          1
    77          2
    82          1
    83          1
    89         15
    90         11
    91        250
    92         23
    93          1
    97          1
   101          1
   102          3
   103          2
   104          2
   105          1
   106          1
   109          1
   110          1
   111          1
   115         11
   116          5
   117         10
   118          5
   119        999
   120         89
   121          5
   123          1
   124          2
   127          1
   128          3
   129          9
   130          1
   131          2
   132          9
   133          1
   144          8
   145         42
   146          5
   147          2
   156          1
   157          2
   165          1
   173         17
   174          2
   178          2
   179          1
   189          1
   190          1
   191          3
   192          2
   193          4
   202          1
   203          1
   205          4
   206          1
   207          3
   208          3
   209          1
   218          1
   219          2
   220          4
   221         24
   222          4
   235         13
   236         27
   237          6
   246          1
   247          2
   248         30
   249         10
   250          1
   262          2
   263          5
   264        665
   265        131
   266         19
   267          2