##TITLE=Library Entry 87278
##JCAMP-DX=Revision 4.10 
##DATA TYPE=MASS SPECTRUM
##SAMPLE DESCRIPTION=TNO Volatile Compounds in Food - Chemical Concepts
##NAMES=HP
##CAS NAME=1-Heptanone, 1-(2-furanyl)-
##MOLFORM=C11H16O2
##CAS REGISTRY NO=5466-40-0
##MP= -300
##BP= -300
##MW= 180
##$RETENTION INDEX=1956
##$CONDENSED SPECTRUM=NO
##NPOINTS= 53
##XYDATA=(XY..XY) 1 
    26          4
    27         61
    28         46
    29         46
    30          2
    31         15
    32          2
    37          3
    38         15
    39        130
    40          9
    41         73
    42         12
    43         38
    44         14
    51          7
    52          2
    53         17
    54         10
    55         32
    56          7
    57          4
    65          4
    66          4
    67         16
    68         22
    69          6
    73         14
    77          6
    79          3
    81         20
    82          6
    83          1
    84          3
    91          2
    92          1
    94          6
    95        788
    96         18
    97          8
   107          1
   109          1
   110        999
   111         51
   112          3
   123         87
   124          9
   133          2
   137          4
   147          2
   151          5
   152          3
   180          4