##TITLE=Library Entry 1246
##JCAMP-DX=Revision 4.10 
##DATA TYPE=MASS SPECTRUM
##SAMPLE DESCRIPTION=NIST Mass Spectrometry Data Center
##NAMES=HP
##CAS NAME=Urea, 1,3-diphenethyl-
##MOLFORM=C17H20N2O
##CAS REGISTRY NO=5467-84-5
##MP= -300
##BP= -300
##MW= 268
##$RETENTION INDEX=2551
##$CONDENSED SPECTRUM=NO
##NPOINTS= 55
##XYDATA=(XY..XY) 1 
    27          6
    29          7
    30        999
    31         13
    39         53
    40          6
    41         20
    42         24
    44          8
    50         18
    51         67
    52         22
    53         10
    56         34
    62          8
    63         53
    64         17
    65        248
    66         15
    73        111
    74         13
    75          6
    76         11
    77        262
    78         92
    79        198
    80         14
    85         26
    86         10
    89         59
    90         29
    91        839
    92        121
    93         31
   102         21
   103        216
   104        581
   105        547
   106         47
   119         47
   120        122
   121         13
   122         11
   128         13
   146          5
   147         29
   148         28
   164         17
   165          8
   177        430
   178         47
   179          5
   268        590
   269        110
   270         13