##TITLE=Library Entry 99227
##JCAMP-DX=Revision 4.10 
##DATA TYPE=MASS SPECTRUM
##SAMPLE DESCRIPTION=V.Zaikin,Inst.Petrochem.Synth.,RAS,Moscow
##NAMES=HP
##CAS NAME=p-Toluic acid, benzyl ester
##MOLFORM=C15H14O2
##CAS REGISTRY NO=5467-99-2
##MP= -300
##BP= -300
##MW= 226
##$RETENTION INDEX=1883
##$CONDENSED SPECTRUM=NO
##NPOINTS= 100
##XYDATA=(XY..XY) 1 
    25          2
    26         10
    27         27
    28          3
    29         20
    30          3
    38          2
    39        103
    40         12
    41         48
    42         10
    43         19
    44          1
    50         35
    51         56
    52         23
    53         10
    54          2
    55         16
    56         14
    57         11
    58          4
    59          4
    61          6
    62         19
    63         55
    64         17
    65        154
    66         11
    67          7
    68          2
    69         15
    70         49
    71         15
    73          4
    74          7
    75          8
    76          7
    77         39
    78         13
    79         28
    80          4
    81          3
    82          4
    83         10
    84         16
    85          4
    86          3
    87          4
    88          3
    89         52
    90         63
    91        681
    92         68
    93          9
    95          6
    96          3
    97          3
   105         24
   106          6
   107         33
   108          3
   112          9
   113          5
   117          4
   118         12
   119        999
   120        104
   121         10
   126         10
   127          4
   133          4
   135         12
   136         53
   137         39
   138          3
   139          4
   148          6
   149          4
   150          3
   151          3
   152          6
   153          2
   162          2
   165          6
   166          5
   167         11
   179          3
   181         20
   182          4
   193          3
   194          2
   207          5
   208         21
   209          5
   211          9
   225          4
   226        109
   227         21
   228          2