##TITLE=Library Entry 82159
##JCAMP-DX=Revision 4.10 
##DATA TYPE=MASS SPECTRUM
##SAMPLE DESCRIPTION=Japan AIST/NIMC Database- Spectrum MS-IW-4400
##NAMES=HP
##CAS NAME=Benzamide, N,N'-1,4-phenylenebis-
##MOLFORM=C20H16N2O2
##CAS REGISTRY NO=5467-04-9
##MP= -300
##BP= -300
##MW= 316
##$RETENTION INDEX=0
##$CONDENSED SPECTRUM=NO
##NPOINTS= 54
##XYDATA=(XY..XY) 1 
    26          1
    27          4
    28          3
    38          1
    39          4
    41          2
    43          2
    44          1
    50          9
    51         40
    52          6
    53          3
    55          1
    57          3
    63          2
    64          1
    65          1
    69          1
    71          1
    74          2
    75          4
    76         21
    77        345
    78         27
    79          2
    80          1
    81          1
    83          1
    85          1
    91          1
    93          1
    97          1
   102          1
   103         39
   104          6
   105        999
   106         80
   107          6
   109          1
   110          3
   111          1
   139          1
   181          1
   194          1
   195          1
   209          1
   211          3
   212          2
   213         30
   214          4
   315          3
   316        360
   317         81
   318          9