##TITLE=Library Entry 34958
##JCAMP-DX=Revision 4.10 
##DATA TYPE=MASS SPECTRUM
##SAMPLE DESCRIPTION=MASS SPECTRA OF ORGANIC COMPOUNDS, CSIRO, B.H. KENNETT
 ET AL
##NAMES=HP
##CAS NAME=Cyclohexane, 2-butyl-1,1,3-trimethyl-
##MOLFORM=C13H26
##CAS REGISTRY NO=54676-39-0
##MP= -300
##BP= -300
##MW= 182
##$RETENTION INDEX=1228
##$CONDENSED SPECTRUM=NO
##NPOINTS= 53
##XYDATA=(XY..XY) 1 
    29        330
    30         10
    39        140
    41        720
    42        100
    43        420
    45         10
    51         10
    52         10
    53         90
    54         45
    55        790
    56        760
    57        600
    58         30
    65         20
    66         10
    67        110
    68         80
    69        999
    70        520
    71        170
    72         10
    75         10
    77         20
    79         20
    81         80
    82         50
    83        360
    84        150
    85         70
    91         10
    93         10
    95         50
    96         60
    97        260
    98        110
    99         20
   109         20
   110         20
   111        160
   112        170
   113         30
   124         10
   125         70
   126        130
   127         30
   139         10
   140         10
   167        100
   168         20
   182        160
   183         20