##TITLE=Library Entry 60885
##JCAMP-DX=Revision 4.10 
##DATA TYPE=MASS SPECTRUM
##SAMPLE DESCRIPTION=Chemical Concepts
##NAMES=HP
##CAS NAME=3-Oxo-5-phenylpentanoic acid
##MOLFORM=C11H12O3
##CAS REGISTRY NO=54680-53-4
##MP= -300
##BP= -300
##MW= 192
##$RETENTION INDEX=0
##$CONDENSED SPECTRUM=NO
##NPOINTS= 136
##XYDATA=(XY..XY) 1 
    22          0
    26          3
    27         40
    28         22
    29         15
    30          1
    31          5
    32          2
    36          3
    37          1
    38          3
    39         64
    40          6
    41         23
    42          9
    43        411
    44        208
    45         12
    46          1
    49          1
    50         22
    51         89
    52         22
    53         14
    54          1
    55         35
    56          3
    57         11
    58          2
    59          5
    60          7
    61          3
    62          5
    63         33
    64          9
    65        119
    66         10
    67          2
    68          1
    69         20
    70          4
    71          9
    72          2
    73          6
    74          7
    75          8
    76         10
    77        133
    78         88
    79         88
    80          6
    81          4
    82          2
    83          3
    84          2
    85         12
    86          1
    87         36
    88          3
    89         24
    90          9
    91        999
    92         84
    93          4
    94          1
    95          3
    96          3
    97          4
    98          1
    99          1
   101          5
   102         15
   103         78
   104        206
   105        461
   106         50
   107          7
   108          0
   109          2
   110          0
   111          1
   113          1
   114          3
   115         24
   116          5
   117          6
   118          2
   119          4
   120          1
   121          2
   122          1
   123          1
   125          1
   126          1
   127          7
   128         23
   129         28
   130         33
   131         29
   132         39
   133        130
   134         13
   135          2
   137          1
   141          0
   143          0
   145          8
   146          9
   147         20
   148        343
   149         43
   150         23
   151          4
   152          1
   153          0
   155          1
   156          3
   157          1
   163          0
   164          0
   165          1
   166          0
   167          0
   169          1
   173          1
   174         44
   175          9
   176          3
   177          0
   188          1
   189          0
   191          0
   192         49
   193          8
   194          0
   195          0