##TITLE=Library Entry 59596
##JCAMP-DX=Revision 4.10 
##DATA TYPE=MASS SPECTRUM
##SAMPLE DESCRIPTION=Chemical Concepts
##NAMES=HP
##CAS NAME=N-Benzyl-N'-(1-benzylamino-2,2,2-trichloroethyl)-p-tolylcarboxami
dine
##MOLFORM=C24H24Cl3N3
##CAS REGISTRY NO=54683-08-8
##MP= -300
##BP= -300
##MW= 459
##$RETENTION INDEX=0
##$CONDENSED SPECTRUM=NO
##NPOINTS= 110
##XYDATA=(XY..XY) 1 
    35         61
    36         59
    37         34
    38         68
    39        205
    40         22
    41         51
    42          4
    43          7
    45         10
    47         59
    48         21
    49         38
    50        134
    51        208
    52         62
    53         13
    54          3
    55          3
    59         12
    60         25
    61         22
    62         58
    63        141
    64         48
    65        326
    66         19
    73         22
    74         42
    75         31
    76         49
    77        149
    78         67
    79         37
    80          4
    82         62
    83         50
    84         36
    85         39
    86         15
    87         14
    89        156
    90         98
    91        999
    92        114
    93          6
    95         24
    96          3
    97         16
    98          3
    99          6
   100          3
   101         13
   102         10
   103         18
   104         49
   105         14
   106         85
   107         20
   108          6
   109          3
   110          5
   111          3
   112          2
   113          3
   114          3
   115          7
   116         36
   117         61
   118        190
   119         46
   120          3
   121         10
   122         16
   123          5
   124         10
   125          6
   126          4
   127          3
   128         10
   129          3
   130          8
   131          9
   132          8
   133          5
   135          4
   137          4
   139          2
   140          5
   141          2
   142          5
   146          4
   159          3
   163          3
   164          9
   165          6
   166          5
   178          2
   192          2
   194          5
   195          2
   200          6
   202          4
   206          2
   207         11
   208          4
   223         15
   224          9
   225          4
   342          3