##TITLE=Library Entry 30506
##JCAMP-DX=Revision 4.10 
##DATA TYPE=MASS SPECTRUM
##SAMPLE DESCRIPTION=Japan AIST/NIMC Database- Spectrum MS-IW- 39
##NAMES=HP
##CAS NAME=p-Chloro-.alpha.,.alpha.-dimethylphenethyl alcohol
##MOLFORM=C10H13ClO
##CAS REGISTRY NO=5468-97-3
##MP= -300
##BP= -300
##MW= 184
##$RETENTION INDEX=0
##$CONDENSED SPECTRUM=NO
##NPOINTS= 102
##XYDATA=(XY..XY) 1 
    14          1
    15          7
    16          1
    17          2
    18          7
    26          1
    27          9
    28          7
    29         16
    31        143
    32          1
    36          5
    37          1
    38          4
    39         30
    40          3
    41         63
    42          4
    43        170
    44          7
    45          3
    49          1
    50          9
    51         18
    52          4
    53          4
    54          1
    55          7
    56          1
    57         30
    58         15
    59        999
    60         43
    61          4
    62          9
    63         34
    64         10
    65         22
    66          9
    67          8
    73          9
    74          4
    75         12
    76          3
    77         15
    78          2
    79          2
    84         10
    85          3
    86          2
    87          3
    88          1
    89         64
    90         21
    91        326
    92         28
    93          1
    97          1
    99         20
   100          1
   101          9
   102          3
   103          6
   104          1
   105          3
   111          2
   112          3
   113          2
   114          3
   115         30
   116         26
   117          5
   123          1
   125        110
   126        581
   127         83
   128        193
   129         21
   130          5
   131         58
   132          7
   133          3
   137          3
   138          1
   139          3
   141          1
   149          2
   150          1
   151         30
   152          4
   153          9
   154          1
   165          1
   166         26
   167          9
   168         10
   169        106
   170         10
   171         33
   172          3
   184          3
   186          1