##TITLE=Library Entry 9876
##JCAMP-DX=Revision 4.10 
##DATA TYPE=MASS SPECTRUM
##SAMPLE DESCRIPTION=CARL DJERASSI DEPT OF CHEM STANFORD UNIV STANFORD CALIF
 94305
##NAMES=HP
##CAS NAME=2-Nonanone, 9-[(tetrahydro-2H-pyran-2-yl)oxy]-
##MOLFORM=C14H26O3
##CAS REGISTRY NO=54699-41-1
##MP= -300
##BP= -300
##MW= 242
##$RETENTION INDEX=0
##$CONDENSED SPECTRUM=NO
##NPOINTS= 22
##XYDATA=(XY..XY) 1 
    41        260
    42         60
    43        999
    44         80
    45         10
    55        310
    56         70
    57         80
    58        380
    59        170
    67         60
    69         20
    71        120
    81         20
    82         90
    83        110
    84         40
    85        520
    97         10
   101        160
   123         60
   141         10