##TITLE=Library Entry 39328
##JCAMP-DX=Revision 4.10 
##DATA TYPE=MASS SPECTRUM
##SAMPLE DESCRIPTION=CARL DJERASSI DEPT OF CHEM STANFORD UNIV STANFORD CALIF
 94305
##NAMES=HP
##CAS NAME=Propane, 1,1'-[methylenebis(thio)]bis[2,2-dimethyl-
##MOLFORM=C11H24S2
##CAS REGISTRY NO=54699-23-9
##MP= -300
##BP= -300
##MW= 220
##$RETENTION INDEX=0
##$CONDENSED SPECTRUM=NO
##NPOINTS= 45
##XYDATA=(XY..XY) 1 
    41        370
    42         30
    43        750
    44         30
    45        150
    46         90
    47         70
    48         10
    51         10
    53         60
    54         20
    55        190
    56         90
    57        340
    58         20
    59         60
    60         60
    61        190
    62         20
    63         10
    64         10
    67         10
    68         10
    69         80
    70        270
    71        999
    72         60
    73         20
    75         10
    78         20
    79         10
    87         10
    92         10
   101         90
   102         10
   103         10
   115         10
   116        120
   117        850
   118        130
   119         40
   149         50
   220        380
   221         60
   222         40