##TITLE=Library Entry 2881
##JCAMP-DX=Revision 4.10 
##DATA TYPE=MASS SPECTRUM
##SAMPLE DESCRIPTION=CARL DJERASSI DEPT OF CHEM STANFORD UNIV STANFORD CALIF
 94305
##NAMES=HP
##CAS NAME=Cyclohexanepropanoic acid, 1,4,4-trimethyl-2-oxo-, methyl ester
##MOLFORM=C13H22O3
##CAS REGISTRY NO=54699-30-8
##MP= -300
##BP= -300
##MW= 226
##$RETENTION INDEX=0
##$CONDENSED SPECTRUM=NO
##NPOINTS= 95
##XYDATA=(XY..XY) 1 
    41        999
    42        316
    43        574
    44         49
    45         59
    50          9
    51         49
    52         29
    53        297
    54        108
    55        990
    56        316
    57        514
    58         29
    59        237
    60          9
    65         49
    66         19
    67        316
    68        227
    69        861
    70        138
    71         69
    72         19
    73         29
    74        217
    75          9
    77         49
    78          9
    79         69
    80         19
    81        356
    82        287
    83        990
    84        178
    85        138
    86         19
    87        118
    88         19
    91         29
    93         49
    94         19
    95        148
    96        108
    97        138
    98         39
    99        277
   100         19
   105          9
   107         79
   108         59
   109        306
   110        227
   111        158
   112         69
   113         19
   114         19
   115          9
   119         19
   121         29
   122        128
   123         69
   124          9
   125         69
   126          9
   127         39
   128         19
   129          9
   133         19
   135         49
   137         19
   138          9
   139        128
   140        782
   141        148
   142         89
   143          9
   149          9
   150         39
   151         59
   152         29
   153         69
   166         29
   167         29
   177          9
   179        128
   180         19
   182        485
   183         59
   193         19
   194         29
   195        118
   196         19
   211         29
   226         29