##TITLE=Library Entry 5038
##JCAMP-DX=Revision 4.10 
##DATA TYPE=MASS SPECTRUM
##SAMPLE DESCRIPTION=CARL DJERASSI DEPT OF CHEM STANFORD UNIV STANFORD CALIF
 94305
##NAMES=HP
##CAS NAME=Methanamine, N-[2-methyl-1-(1-methylethyl)butylidene]-
##MOLFORM=C9H19N
##CAS REGISTRY NO=54699-50-2
##MP= -300
##BP= -300
##MW= 141
##$RETENTION INDEX=0
##$CONDENSED SPECTRUM=NO
##NPOINTS= 27
##XYDATA=(XY..XY) 1 
    41        220
    42        999
    43        130
    44         10
    51         10
    52         10
    53         20
    54         20
    55         40
    56         40
    57        120
    58         10
    66         10
    67         10
    68         70
    69         30
    70         20
    71         20
    82         20
    84        390
    85         40
    98        460
    99         70
   113         60
   126         30
   141         50
   142         10