##TITLE=Library Entry 31318
##JCAMP-DX=Revision 4.10 
##DATA TYPE=MASS SPECTRUM
##SAMPLE DESCRIPTION=CARL DJERASSI DEPT OF CHEM STANFORD UNIV STANFORD CALIF
 94305
##NAMES=HP
##CAS NAME=Pentane, 2-[(1-methylethyl)thio]-
##MOLFORM=C8H18S
##CAS REGISTRY NO=54699-12-6
##MP= -300
##BP= -300
##MW= 146
##$RETENTION INDEX=0
##$CONDENSED SPECTRUM=NO
##NPOINTS= 28
##XYDATA=(XY..XY) 1 
    41        240
    42         60
    43        700
    44         20
    45         30
    47         30
    53         20
    55        190
    56         20
    58         10
    59         60
    60         60
    61        999
    62         30
    64         40
    69         20
    70        250
    71        260
    75         20
    76         10
    89         30
   103        710
   104         40
   105         30
   131         10
   146        200
   147         20
   148         10