##TITLE=Library Entry 29906
##JCAMP-DX=Revision 4.10 
##DATA TYPE=MASS SPECTRUM
##SAMPLE DESCRIPTION=CARL DJERASSI DEPT OF CHEM STANFORD UNIV STANFORD CALIF
 94305
##NAMES=HP
##CAS NAME=Ethane, [(ethoxymethyl)thio]-
##MOLFORM=C5H12OS
##CAS REGISTRY NO=54699-20-6
##MP= -300
##BP= -300
##MW= 120
##$RETENTION INDEX=0
##$CONDENSED SPECTRUM=NO
##NPOINTS= 21
##XYDATA=(XY..XY) 1 
    41        100
    43         50
    44         20
    45        180
    46        180
    47        380
    48         20
    49         20
    57         20
    58        120
    59        999
    60         50
    61         90
    62        100
    63         40
    74         40
    75        300
    76         20
    77         20
   120        270
   121         20