##TITLE=Library Entry 59729
##JCAMP-DX=Revision 4.10 
##DATA TYPE=MASS SPECTRUM
##SAMPLE DESCRIPTION=NIST Mass Spectrometry Data Center, 1994
##NAMES=HP
##CAS NAME=Ethanone, 1-[4-(phenylmethoxy)phenyl]-
##MOLFORM=C15H14O2
##CAS REGISTRY NO=54696-05-8
##MP= -300
##BP= -300
##MW= 226
##$RETENTION INDEX=0
##$CONDENSED SPECTRUM=NO
##NPOINTS= 54
##XYDATA=(XY..XY) 1 
    14          1
    15         10
    18          0
    26          2
    27          7
    28          0
    29          2
    37          3
    38         16
    39         60
    40          4
    41         14
    42          6
    43         55
    44          0
    50         22
    51         34
    52         11
    53          5
    61          2
    62         14
    63         50
    64         35
    65        147
    66         10
    74          4
    75          5
    76         11
    77         27
    78          6
    79          8
    86          0
    87          1
    89         22
    91        999
    92        103
    93          5
    94          0
   104          1
   105          3
   107          7
   120         11
   121          2
   135          1
   151          0
   152          2
   153          1
   154          0
   165          0
   183          1
   211          1
   226         47
   227          8
   228          0