##TITLE=Library Entry 62630
##JCAMP-DX=Revision 4.10 
##DATA TYPE=MASS SPECTRUM
##SAMPLE DESCRIPTION=A.Mazepa, Phys.-Chem.Institute, Odessa, Ukraine
##NAMES=HP
##CAS NAME=1,3-Propanediol di-p-tosylate
##MOLFORM=C17H20O6S2
##CAS REGISTRY NO=5469-66-9
##MP= -300
##BP= -300
##MW= 384
##$RETENTION INDEX=0
##$CONDENSED SPECTRUM=NO
##NPOINTS= 68
##XYDATA=(XY..XY) 1 
    30         15
    31         11
    38         58
    39         19
    40         42
    41         58
    42          4
    43         21
    44         17
    50          6
    51         24
    52          5
    53          4
    55          2
    57         65
    58          1
    59         18
    62          3
    63         33
    64         10
    65        208
    66          8
    67          1
    73          2
    76          1
    77         32
    78          6
    79         27
    89         46
    90        183
    91        999
    92        153
    93          8
    95          1
    96          1
   105          2
   106          1
   107        109
   108         21
   118          2
   120          2
   131          6
   133          5
   139         24
   140          5
   148          6
   149          1
   154         50
   155        600
   156         85
   157         98
   158          5
   165          2
   171         34
   172         49
   173        142
   174         20
   175          3
   181          2
   212        422
   213        492
   214         80
   215         21
   229          7
   262          3
   384         90
   385         13
   386          6