##TITLE=Library Entry 31051
##JCAMP-DX=Revision 4.10 
##DATA TYPE=MASS SPECTRUM
##SAMPLE DESCRIPTION=CARL DJERASSI DEPT OF CHEM STANFORD UNIV STANFORD CALIF
 94305
##NAMES=HP
##CAS NAME=Acetamide, 2-amino-N-ethyl-2-thioxo-
##MOLFORM=C4H8N2OS
##CAS REGISTRY NO=54699-19-3
##MP= -300
##BP= -300
##MW= 132
##$RETENTION INDEX=0
##$CONDENSED SPECTRUM=NO
##NPOINTS= 22
##XYDATA=(XY..XY) 1 
    43         20
    44         30
    45         50
    46         10
    47         10
    54         40
    56         10
    58         10
    59         70
    60        999
    61        130
    62         70
    63         10
    72         10
    84         20
    89         80
    90         10
   105         20
   106         10
   132        300
   133         50
   134         10