##TITLE=Library Entry 19433
##JCAMP-DX=Revision 4.10 
##DATA TYPE=MASS SPECTRUM
##SAMPLE DESCRIPTION=D.HENNEBERG, MAX-PLANCK INSTITUTE, MULHEIM, WEST GERMAN
Y
##NAMES=HP
##CAS NAME=Cyclohexanamine, N-cyclooctylidene-
##MOLFORM=C14H25N
##CAS REGISTRY NO=54699-42-2
##MP= -300
##BP= -300
##MW= 207
##$RETENTION INDEX=0
##$CONDENSED SPECTRUM=NO
##NPOINTS= 148
##XYDATA=(XY..XY) 1 
    27        168
    28         83
    29        231
    30         77
    36          0
    37          1
    38          3
    39        196
    40         39
    41        915
    42        121
    43        159
    44         41
    47          0
    49          0
    50          3
    51         15
    52         15
    53        138
    54        339
    55        999
    56        161
    57        121
    58        150
    59          5
    60          0
    61          0
    62          0
    63          2
    64          1
    65         25
    66         23
    67        334
    68         97
    69        151
    70        183
    71         47
    72         23
    73          1
    75          1
    76          1
    77         29
    78          8
    79         70
    80         89
    81        150
    82        374
    83        779
    84        106
    85         35
    86          3
    89          0
    90          0
    91         13
    92          4
    93         20
    94         56
    95         42
    96        228
    97        381
    98        237
    99         20
   100         10
   101          1
   103          1
   104          2
   105          4
   106          9
   107         11
   108         46
   109         37
   110        135
   111         43
   112          9
   113          1
   114          0
   115          0
   117          1
   118          1
   119          2
   120          9
   121          5
   122         45
   123        152
   124        130
   125         33
   126        294
   127         28
   128          1
   129          0
   130          1
   131          1
   132          1
   133          1
   134          6
   135          3
   136        155
   137         47
   138         48
   139        114
   140         13
   141          0
   146          0
   147          1
   148          4
   149          1
   150         69
   151         30
   152        357
   153         62
   154          8
   155          4
   157          0
   158          0
   159          0
   160          0
   161          1
   162          4
   163          2
   164        328
   165        120
   166         65
   167          7
   168          0
   172          0
   174          0
   175          0
   176          5
   177          4
   178        203
   179        411
   180         54
   181          3
   186          0
   190          1
   191          0
   192         87
   193         13
   194          1
   195          0
   200          0
   203          0
   204          2
   205          4
   206         64
   207        222
   208         39
   209          2