##TITLE=Library Entry 16328
##JCAMP-DX=Revision 4.10 
##DATA TYPE=MASS SPECTRUM
##SAMPLE DESCRIPTION=Japan AIST/NIMC Database- Spectrum MS-IW-1346
##NAMES=HP
##CAS NAME=Methyl calcein blue
##MOLFORM=C14H15NO5
##CAS REGISTRY NO=54696-41-2
##MP= -300
##BP= -300
##MW= 277
##$RETENTION INDEX=0
##$CONDENSED SPECTRUM=NO
##NPOINTS= 193
##XYDATA=(XY..XY) 1 
    12          4
    13          5
    14         17
    15         94
    16          9
    17          2
    18          7
    25          1
    26          6
    27         34
    28        116
    29         40
    30         70
    31         45
    32          1
    35          5
    36          7
    37          2
    38         14
    39         39
    40         27
    41         44
    42        247
    43        172
    44        999
    45        130
    46          6
    49          1
    50         17
    51         44
    52         26
    53         16
    54          3
    55         17
    56          5
    57         16
    58         35
    59          7
    60         75
    61          6
    62         10
    63         28
    64          9
    65         21
    66         13
    67          9
    68          2
    69          9
    70          5
    71          7
    72          3
    73          4
    74         16
    75          9
    76         10
    77         65
    78         69
    79         25
    80          9
    81          8
    82          3
    83          8
    84          3
    85          6
    86          3
    87          4
    88          7
    89        155
    90         22
    91         31
    92          9
    93          8
    94          4
    95          7
    96          3
    97          8
    98          2
    99          3
   100          1
   101          7
   102         20
   103         79
   104         45
   105         40
   106         10
   107          6
   108          3
   109          4
   110          2
   111          5
   112          1
   113          3
   114          2
   115         18
   116          7
   117          8
   118          7
   119         15
   120          9
   121          3
   122          1
   123          3
   124          1
   125          3
   126          1
   127          3
   128          2
   129          2
   130          2
   131        161
   132         63
   133         35
   134         14
   135          6
   136          1
   137          2
   138          1
   139          2
   141          2
   142          4
   143          2
   144          5
   145         12
   146          5
   147         41
   148         41
   149         10
   150          2
   151          2
   152          1
   153          2
   155          1
   157          2
   158          2
   159         38
   160        392
   161        179
   162        182
   163         20
   164          2
   165          2
   166          1
   167          2
   168          1
   169          1
   171          1
   172          4
   173          3
   174          6
   175          4
   176         44
   177          7
   178          1
   179          1
   181          1
   183          1
   184          1
   185          1
   186          4
   187          6
   188        291
   189        219
   190        388
   191         51
   192          6
   193          1
   195          1
   200          3
   201          2
   202          5
   203          4
   204          5
   205          2
   211          1
   214          8
   215          3
   216          8
   217          7
   218         23
   219          7
   220          1
   221          1
   230          3
   231         54
   232         43
   233        156
   234         22
   235          3
   275          1
   276          1
   277          5
   278          3
   279          1