##TITLE=Library Entry 17302
##JCAMP-DX=Revision 4.10 
##DATA TYPE=MASS SPECTRUM
##SAMPLE DESCRIPTION=CARL DJERASSI DEPT OF CHEM STANFORD UNIV STANFORD CALIF
 94305
##NAMES=HP
##CAS NAME=3-Nonyne, 9-methoxy-
##MOLFORM=C10H18O
##CAS REGISTRY NO=54699-39-7
##MP= -300
##BP= -300
##MW= 154
##$RETENTION INDEX=0
##$CONDENSED SPECTRUM=NO
##NPOINTS= 45
##XYDATA=(XY..XY) 1 
    41        370
    42         30
    43         40
    45        999
    46         20
    51         40
    52         20
    53        120
    54         10
    55        300
    56         10
    57         10
    58         40
    59         10
    63         10
    65         60
    66         60
    67        330
    68        160
    69         20
    71        270
    72         30
    77        140
    78         30
    79        830
    80        180
    81        180
    82        130
    84         80
    85         20
    86         90
    87         10
    91        120
    92         20
    93        610
    94         90
    95         30
    96         20
    97         60
   105         10
   107        130
   109         20
   111         30
   122         30
   125        130