##TITLE=Library Entry 38715
##JCAMP-DX=Revision 4.10 
##DATA TYPE=MASS SPECTRUM
##SAMPLE DESCRIPTION=CARL DJERASSI DEPT OF CHEM STANFORD UNIV STANFORD CALIF
 94305
##NAMES=HP
##CAS NAME=4-Nonanone, 9-methoxy-
##MOLFORM=C10H20O2
##CAS REGISTRY NO=54699-40-0
##MP= -300
##BP= -300
##MW= 172
##$RETENTION INDEX=0
##$CONDENSED SPECTRUM=NO
##NPOINTS= 39
##XYDATA=(XY..XY) 1 
    41        430
    42         80
    43        760
    44         20
    45        910
    46         10
    53         10
    54         80
    55        270
    56         10
    57         40
    58        570
    59         30
    61        150
    67         50
    68         20
    69        650
    70         30
    71        999
    72         50
    79         80
    81         10
    82         10
    84        200
    85         20
    86        330
    87        230
    97        440
    98         30
    99        120
   111         50
   112        100
   113         10
   125         40
   129        200
   130         10
   140        100
   144         10
   172         40