##TITLE=Library Entry 29661
##JCAMP-DX=Revision 4.10 
##DATA TYPE=MASS SPECTRUM
##SAMPLE DESCRIPTION=CARL DJERASSI DEPT OF CHEM STANFORD UNIV STANFORD CALIF
 94305
##NAMES=HP
##CAS NAME=Cyclohexane, (ethoxymethoxy)-
##MOLFORM=C9H18O2
##CAS REGISTRY NO=54699-29-5
##MP= -300
##BP= -300
##MW= 158
##$RETENTION INDEX=0
##$CONDENSED SPECTRUM=NO
##NPOINTS= 34
##XYDATA=(XY..XY) 1 
    41        240
    42         50
    43         50
    44         50
    45         20
    47         30
    53         30
    54         50
    55        210
    56         30
    57        130
    58         20
    59        999
    60         40
    67         70
    68         40
    69         90
    70         20
    71         20
    75         30
    77         20
    79         20
    81         20
    82         40
    83        220
    84         60
    85         80
    94         30
   111         10
   112         20
   113         10
   115         20
   129         10
   158         20