##TITLE=Library Entry 100737
##JCAMP-DX=Revision 4.10 
##DATA TYPE=MASS SPECTRUM
##SAMPLE DESCRIPTION=Japan AIST/NIMC Database- Spectrum MS-IW-1246
##NAMES=HP
##CAS NAME=Benzene, 1-bromo-2,4,5-trimethyl-
##MOLFORM=C9H11Br
##CAS REGISTRY NO=5469-19-2
##MP= -300
##BP= -300
##MW= 198
##$RETENTION INDEX=0
##$CONDENSED SPECTRUM=NO
##NPOINTS= 82
##XYDATA=(XY..XY) 1 
    15          1
    26          1
    27         10
    28          1
    29          1
    37          1
    38          4
    39         33
    40          4
    41         33
    42          1
    45          1
    49          1
    50         18
    51         43
    52         12
    53         12
    55          1
    57         17
    58         27
    59          5
    61          3
    62          9
    63         28
    64          6
    65         31
    66          3
    67          2
    73          1
    74         11
    75         11
    76          9
    77         70
    78         34
    79         25
    80          2
    81          1
    82          2
    85          1
    86          4
    87          5
    88          2
    89         15
    90          7
    91        183
    92         18
    93         19
    94          1
    97          1
    98         15
    99         19
   100          6
   101          4
   102         20
   103         84
   104         82
   105         12
   106          1
   113          1
   114          1
   115         82
   116         20
   117        123
   118         60
   119        999
   120        104
   121          5
   143          1
   169          3
   171          3
   182          1
   183        137
   184         12
   185        135
   186         11
   196          3
   197         76
   198        985
   199        174
   200        960
   201         94
   202          4