##TITLE=Library Entry 96896
##JCAMP-DX=Revision 4.10 
##DATA TYPE=MASS SPECTRUM
##SAMPLE DESCRIPTION=Japan AIST/NIMC Database- Spectrum MS-NW-1949
##NAMES=HP
##CAS NAME=.alpha.-Acetamidocinnamic acid
##MOLFORM=C11H11NO3
##CAS REGISTRY NO=5469-45-4
##MP= -300
##BP= -300
##MW= 205
##$RETENTION INDEX=0
##$CONDENSED SPECTRUM=NO
##NPOINTS= 106
##XYDATA=(XY..XY) 1 
    12          1
    13          1
    14         12
    15         48
    16          3
    17          2
    18          7
    26          4
    27         12
    28         25
    29          4
    32          1
    37          6
    38         15
    39         57
    40          9
    41         14
    42         30
    43        947
    44         64
    45          9
    49          3
    50         30
    51         47
    52         15
    53          4
    54          1
    55          1
    57          3
    58          4
    59          3
    60          2
    61          9
    62         22
    63         67
    64         24
    65         38
    66          5
    69          1
    70          1
    71          1
    73          2
    74         11
    75         14
    76         20
    77         36
    78          8
    79         13
    80          1
    85          2
    86          4
    87          7
    88          9
    89        138
    90        176
    91        174
    92         27
    93          3
    98          1
   101          5
   102         42
   103          9
   104         11
   105          6
   106          4
   107          5
   114          5
   115         18
   116         83
   117        999
   118        248
   119        147
   120         11
   127          1
   128          5
   129          5
   130          6
   131          4
   132          1
   134          6
   135          4
   140          3
   141          2
   142          4
   143         36
   144         14
   145          7
   146          9
   147          2
   148          1
   158          1
   159         59
   160          7
   161         54
   162         11
   163        725
   164         75
   165          7
   172          1
   177          2
   187        138
   188         19
   189          2
   205        105
   206         12
   207          1