##TITLE=Library Entry 54615
##JCAMP-DX=Revision 4.10 
##DATA TYPE=MASS SPECTRUM
##SAMPLE DESCRIPTION=CARL DJERASSI DEPT OF CHEM STANFORD UNIV STANFORD CALIF
 94305
##NAMES=HP
##CAS NAME=Octanoic acid, 8-[(tetrahydro-2H-pyran-2-yl)oxy]-
##MOLFORM=C13H24O4
##CAS REGISTRY NO=54699-43-3
##MP= -300
##BP= -300
##MW= 244
##$RETENTION INDEX=0
##$CONDENSED SPECTRUM=NO
##NPOINTS= 36
##XYDATA=(XY..XY) 1 
    41        257
    42         39
    43        207
    44         49
    45         59
    47         19
    53          9
    54          9
    55        247
    56        237
    57        168
    58          9
    59         49
    60         39
    67        118
    68         19
    69         29
    70          9
    71         19
    73         49
    74         19
    81          9
    82         19
    83        108
    84        108
    85        999
    86         69
    87         19
    96          9
    97         59
    98         19
   101        168
   102          9
   125         99
   143         29
   171         39