##TITLE=Library Entry 20261
##JCAMP-DX=Revision 4.10 
##DATA TYPE=MASS SPECTRUM
##SAMPLE DESCRIPTION=Chemical Concepts
##NAMES=HP
##CAS NAME=Bicyclo[3.1.1]heptan-3-one, 2,6,6-trimethyl-, (1.alpha.,2.alpha.,
5.alpha.)-
##MOLFORM=C10H16O
##CAS REGISTRY NO=547-60-4
##MP= -300
##BP= -300
##MW= 152
##$RETENTION INDEX=1160
##$CONDENSED SPECTRUM=NO
##NPOINTS= 86
##XYDATA=(XY..XY) 1 
    26          9
    27        163
    28         28
    29        151
    30          2
    31          7
    33          0
    37          3
    38         11
    39        223
    40         37
    41        792
    42         49
    43        112
    44          5
    45          9
    46          2
    50         13
    51         33
    52         18
    53        113
    54         44
    55        999
    56         77
    57         10
    58          1
    59          4
    60          0
    61          0
    62          2
    63          6
    64          0
    65         30
    66          9
    67        197
    68         97
    69        942
    70        101
    71          4
    73          0
    74          2
    76          0
    77         30
    78          7
    79         53
    80         14
    81        216
    82         83
    83        925
    84         61
    85          2
    89          0
    91         15
    92          2
    93         22
    94         16
    95        400
    96         85
    97        259
    98         14
    99          1
   103          0
   105          2
   106          0
   107          5
   108         23
   109         60
   110        159
   111         44
   112          3
   115          0
   117          0
   119          2
   121          1
   123          7
   124          6
   128          0
   134          2
   135          3
   137          8
   138          0
   145          0
   149          0
   152        125
   153         13
   154          0