##TITLE=Library Entry 64983
##JCAMP-DX=Revision 4.10 
##DATA TYPE=MASS SPECTRUM
##SAMPLE DESCRIPTION=Exported from NIST MS Search
##NAMES=HP
##CAS NAME=Bicyclo[3.1.1]heptan-3-ol, 6,6-dimethyl-2-methylene-, [1S-(1.alph
a.,3.alpha.,5.alpha.)]-
##MOLFORM=C10H16O
##CAS REGISTRY NO=547-61-5
##MP= -300
##BP= -300
##MW= 152
##$RETENTION INDEX=1139
##$CONDENSED SPECTRUM=NO
##NPOINTS= 81
##XYDATA=(XY..XY) 1 
    15         12
    26         17
    27        292
    28         27
    29        238
    30          7
    31         37
    37          8
    38         19
    39        382
    40         66
    41        872
    42        128
    43        400
    44         17
    45         13
    50         26
    51         95
    52         44
    53        270
    54         60
    55        911
    56         75
    57         35
    58         10
    59         35
    60          8
    61          6
    62          9
    63         35
    64         13
    65        115
    66         51
    67        195
    68         42
    69        530
    70        910
    71         66
    72          6
    75          9
    77        188
    78         62
    79        228
    80         40
    81        400
    82         71
    83        838
    84        104
    85         11
    89         11
    90         26
    91        636
    92        999
    93        275
    94         51
    95        184
    96         66
    97         18
   103         16
   104         11
   105         99
   106         59
   107         42
   108         40
   109        310
   110         62
   111         79
   112          6
   115         13
   117         22
   118          6
   119        262
   120         27
   121         15
   123         16
   124         12
   133         10
   134        328
   135         44
   137         27
   152          8