##TITLE=Library Entry 70822
##JCAMP-DX=Revision 4.10 
##DATA TYPE=MASS SPECTRUM
##SAMPLE DESCRIPTION=Chemical Concepts
##NAMES=HP
##CAS NAME=1-Propylpiperidine
##MOLFORM=C8H17N
##CAS REGISTRY NO=5470-02-0
##MP= -300
##BP= -300
##MW= 127
##$RETENTION INDEX=930
##$CONDENSED SPECTRUM=NO
##NPOINTS= 75
##XYDATA=(XY..XY) 1 
    26         12
    27        176
    28        108
    29         87
    30        130
    31          2
    35          0
    37          2
    38          6
    39        108
    40         17
    41        432
    42        467
    43        139
    44        172
    45          4
    47          0
    48          0
    50          4
    51          6
    52          6
    53         20
    54         43
    55        338
    56        105
    57         34
    58         13
    59          0
    62          0
    63          0
    64          0
    65          4
    66          2
    67         19
    68         25
    69        102
    70        103
    71          9
    72         10
    73          0
    76          6
    77          1
    78          1
    79          1
    80          9
    81          4
    82         17
    83         15
    84         95
    85         11
    86          5
    91          0
    92          1
    93          1
    94          4
    95          2
    96         64
    97         13
    98        999
    99        222
   100          6
   108          0
   109          0
   110         10
   111          1
   112          7
   113          0
   122          0
   123          0
   124          7
   125         10
   126        100
   127        219
   128         19
   129          0