##TITLE=Library Entry 8707
##JCAMP-DX=Revision 4.10 
##DATA TYPE=MASS SPECTRUM
##SAMPLE DESCRIPTION=A.Pleshkova, Nesmeyanov Inst.Org.Elem.Cpds, Moscow
##NAMES=HP
##CAS NAME=1-Pyrrolidinecarboxylic acid, ethyl ester
##MOLFORM=C7H13NO2
##CAS REGISTRY NO=5470-26-8
##MP= -300
##BP= -300
##MW= 143
##$RETENTION INDEX=0
##$CONDENSED SPECTRUM=NO
##NPOINTS= 39
##XYDATA=(XY..XY) 1 
    27        103
    28        215
    29        253
    30        113
    31         43
    39         73
    40         21
    41        221
    42        275
    43        999
    44        181
    45         61
    46          5
    55        183
    56        413
    57        261
    58        153
    59         21
    68         41
    69         39
    70        513
    71        221
    72         43
    73          3
    83         21
    84        113
    85         62
    86        281
    87         41
    88          4
    98        463
    99         53
   100          5
   114        343
   115         81
   116          6
   142         41
   143        125
   144         11