##TITLE=Library Entry 89474
##JCAMP-DX=Revision 4.10 
##DATA TYPE=MASS SPECTRUM
##SAMPLE DESCRIPTION=NIST Mass Spectrometry Data Center, 1992
##NAMES=HP
##CAS NAME=2-Chloro-3-nitropyridine
##MOLFORM=C5H3ClN2O2
##CAS REGISTRY NO=5470-18-8
##MP= -300
##BP= -300
##MW= 158
##$RETENTION INDEX=0
##$CONDENSED SPECTRUM=NO
##NPOINTS= 79
##XYDATA=(XY..XY) 1 
    12          5
    13          2
    16          2
    24          4
    25         12
    26         79
    27         23
    30        174
    35         18
    36         15
    37         75
    38         91
    39         79
    40          9
    41          2
    42          0
    44          0
    46         32
    47         18
    48         15
    49         98
    50        352
    51        259
    52         48
    53          5
    54          1
    55          1
    56          0
    59          2
    60          9
    61         46
    62         74
    63         29
    64         40
    65         11
    66          3
    67          1
    68          0
    71          1
    72          9
    73         15
    74         16
    75        103
    76        777
    77         68
    78          2
    80          0
    84         56
    85        231
    86         51
    87         75
    88          9
    89          2
    91          1
    92          1
    93          1
   100        134
   101          9
   102         44
   103          2
   107          0
   109          1
   110          3
   112        999
   113         72
   114        312
   115         16
   128          6
   129          0
   130          1
   142          6
   143          0
   144          1
   155          0
   158        529
   159         41
   160        172
   161         11
   162          1