##TITLE=Library Entry 65051
##JCAMP-DX=Revision 4.10 
##DATA TYPE=MASS SPECTRUM
##SAMPLE DESCRIPTION=A.A.Kutin, Moscow, Russia
##NAMES=HP
##CAS NAME=4-Aminophenyl methyl sufhone
##MOLFORM=C7H9NO2S
##CAS REGISTRY NO=5470-49-5
##MP= -300
##BP= -300
##MW= 171
##$RETENTION INDEX=0
##$CONDENSED SPECTRUM=NO
##NPOINTS= 107
##XYDATA=(XY..XY) 1 
    33          5
    34          6
    35          2
    36          6
    37         29
    38        100
    39        360
    40         49
    41        133
    42         38
    43          9
    44         20
    45         39
    46         11
    47          7
    48         24
    49         10
    50         47
    51         54
    52        129
    53         92
    54         43
    55          8
    56          3
    57          8
    58          5
    59          2
    60          6
    61         28
    62         74
    63        206
    64        166
    65        831
    66        102
    67         11
    68          8
    69         21
    70         11
    71          6
    72          2
    73          5
    74         17
    75         12
    76          8
    77         18
    78         19
    79         31
    80        139
    81         32
    82          5
    83          4
    84          4
    85          6
    86          2
    87          3
    88          4
    89          9
    90         22
    92        999
    93         71
    94          5
    95          7
    96          8
    97          5
    98          1
    99          1
   104          3
   105          3
   106         25
   108        637
   109         42
   110          5
   111          2
   112          6
   113          0
   114          0
   115          0
   120          0
   121          0
   122          4
   123         17
   124         15
   125          2
   126          1
   127          0
   128          0
   134          0
   135          1
   136          0
   137          1
   138          1
   139          9
   140         48
   141          4
   142          2
   143          0
   149          3
   150          0
   154          2
   156        701
   157         52
   158         33
   159          2
   171        690
   172         60
   173         33
   174          2