##TITLE=Library Entry 70881
##JCAMP-DX=Revision 4.10 
##DATA TYPE=MASS SPECTRUM
##SAMPLE DESCRIPTION=J.R.DIXON GLAMORGAN POLYTECHNIC, PONTYPRIDD, GLAMORGAN,
 UK
##NAMES=HP
##CAS NAME=Ethanone, 1-(4-cycloocten-1-yl)-
##MOLFORM=C10H16O
##CAS REGISTRY NO=54703-57-0
##MP= -300
##BP= -300
##MW= 152
##$RETENTION INDEX=0
##$CONDENSED SPECTRUM=NO
##NPOINTS= 42
##XYDATA=(XY..XY) 1 
    39        360
    40         70
    41        570
    42        100
    43        690
    44        150
    51         50
    53        150
    54        200
    55        480
    65         50
    66         50
    67        600
    68        100
    69         70
    70        360
    71        160
    77         80
    78         50
    79        220
    80         80
    81        170
    82         60
    83        210
    84         80
    91         80
    93        100
    94        140
    95        100
    97        210
    98        999
    99         70
   105         50
   108         60
   109        200
   111         80
   112         60
   119         70
   123         70
   134        150
   137         60
   152        150