##TITLE=Library Entry 89953
##JCAMP-DX=Revision 4.10 
##DATA TYPE=MASS SPECTRUM
##SAMPLE DESCRIPTION=V.A.Korolev, Moscow, Russia
##NAMES=HP
##CAS NAME=2-Pyridinecarboxylic acid, 4-chloro-
##MOLFORM=C6H4ClNO2
##CAS REGISTRY NO=5470-22-4
##MP= -300
##BP= -300
##MW= 157
##$RETENTION INDEX=0
##$CONDENSED SPECTRUM=NO
##NPOINTS= 56
##XYDATA=(XY..XY) 1 
    35         88
    36         58
    37        162
    38        166
    39         81
    40         33
    41         13
    42          1
    44        109
    45        804
    46          8
    47         46
    48         44
    49        234
    50        547
    51        435
    52        161
    53         42
    54         15
    55          4
    56          8
    57          1
    59          3
    60         77
    61         47
    62         69
    63         23
    64         21
    65          5
    66          8
    71          3
    72         17
    73         34
    74         29
    75        151
    76        439
    77        106
    78        702
    79         40
    83          1
    84         20
    85         69
    86         67
    87         29
    88         16
   112        229
   113        999
   114        128
   115        323
   116         16
   140         12
   142          4
   157         99
   158          7
   159         32
   160          2