##TITLE=Library Entry 66716
##JCAMP-DX=Revision 4.10 
##DATA TYPE=MASS SPECTRUM
##SAMPLE DESCRIPTION=A.I. Gren, Phys.-Chem. Inst., Acad. Sci. Ukraine, Odess
a, Ukraine
##NAMES=HP
##CAS NAME=Butanediamide, 2,3-dihydroxy-N,N'-diphenyl-, (R,R)-(+)-
##MOLFORM=C16H16N2O4
##CAS REGISTRY NO=5470-13-3
##MP= -300
##BP= -300
##MW= 300
##$RETENTION INDEX=0
##$CONDENSED SPECTRUM=NO
##NPOINTS= 24
##XYDATA=(XY..XY) 1 
    51         22
    60         49
    61         52
    65         67
    66         81
    67         22
    71         21
    77        168
    78         23
    92         72
    93        999
    94        156
   107         22
   119         22
   120        275
   121         23
   151         78
   152          7
   164         25
   180        356
   181         43
   300        134
   301         25
   302          2