##TITLE=Library Entry 47760
##JCAMP-DX=Revision 4.10 
##DATA TYPE=MASS SPECTRUM
##SAMPLE DESCRIPTION=ASES Database, Dalian Institute, P.R. China
##NAMES=HP
##CAS NAME=2-Propen-1-one, 3-(3-methoxyphenyl)-1-phenyl-
##MOLFORM=C16H14O2
##CAS REGISTRY NO=5470-91-7
##MP= -300
##BP= -300
##MW= 238
##$RETENTION INDEX=0
##$CONDENSED SPECTRUM=NO
##NPOINTS= 22
##XYDATA=(XY..XY) 1 
    50        168
    51        377
    63        217
    75         91
    76         98
    77        999
    89        328
   101         10
   102         58
   105        228
   130          9
   133         99
   161        239
   178         99
   179         78
   195         59
   207        565
   208         99
   209        149
   210         50
   237        699
   238        886