##TITLE=Library Entry 45804
##JCAMP-DX=Revision 4.10 
##DATA TYPE=MASS SPECTRUM
##SAMPLE DESCRIPTION=Chemical Concepts
##NAMES=HP
##CAS NAME=2(1H)-Naphthalenone, 1-(dimethoxymethyl)-3,4,5,6,7,8-hexahydro-
##MOLFORM=C13H20O3
##CAS REGISTRY NO=54710-18-8
##MP= -300
##BP= -300
##MW= 224
##$RETENTION INDEX=0
##$CONDENSED SPECTRUM=NO
##NPOINTS= 171
##XYDATA=(XY..XY) 1 
    26          6
    27         74
    29         78
    30          6
    31         67
    33          5
    37          1
    38          7
    39        100
    40         44
    41        160
    42         32
    43         66
    44         17
    45        110
    46          4
    47        118
    48          3
    50          9
    51         39
    52         30
    53         73
    54         14
    55         86
    56         11
    57         17
    58         23
    59         29
    60          6
    61          6
    62          6
    63         16
    64          8
    65         67
    66         25
    67         73
    68         16
    69         21
    70          6
    71         68
    72          8
    73         35
    74         20
    75        999
    77        135
    78         47
    79        146
    80         27
    81         42
    82         14
    83         18
    84         17
    85         24
    86          7
    87          8
    88        149
    89         18
    90          7
    91        200
    92         48
    93        100
    94         33
    95         33
    96         12
    97         28
    98         13
    99          8
   100          3
   101         13
   102          6
   103         25
   104         32
   105         89
   106         29
   107         67
   108         30
   109         40
   110         29
   111         17
   112          7
   113          5
   114          5
   115         19
   116         11
   117         39
   118         90
   119        106
   120         31
   121         88
   122         51
   123         50
   124         13
   125         26
   126          6
   127          8
   128          8
   129          7
   130          4
   131         29
   132         45
   133        119
   134         46
   135         58
   136         54
   137        115
   138         29
   139         10
   140          5
   141          5
   142          3
   143          5
   144          3
   145          8
   146          8
   147         15
   148         13
   149         38
   150         71
   151        223
   152         42
   153         29
   154          4
   155          3
   156          2
   157          2
   158          2
   159          6
   160         12
   161         37
   162         16
   163         37
   164         77
   165         42
   166         22
   167         12
   168         73
   169         10
   170          3
   171          1
   172          2
   173          4
   174          8
   175          8
   176          7
   177         38
   178          9
   179          7
   180          6
   181         13
   182         11
   183          4
   184          1
   185          1
   187          2
   188          1
   189          1
   190          1
   191          4
   192         43
   193        134
   194         25
   195         19
   196          8
   206          6
   207          3
   208          8
   209          5
   223          4
   224        214
   225         51
   226         11