##TITLE=Library Entry 45139
##JCAMP-DX=Revision 4.10 
##DATA TYPE=MASS SPECTRUM
##SAMPLE DESCRIPTION=J.T. CLERC, ORGANIC CHEM. LAB., ETH, ZURICH, SWITZ.
##NAMES=HP
##CAS NAME=2-Cyclohexen-1-one, 4-(dimethoxymethyl)-3,4-dimethyl-
##MOLFORM=C11H18O3
##CAS REGISTRY NO=54710-15-5
##MP= -300
##BP= -300
##MW= 198
##$RETENTION INDEX=0
##$CONDENSED SPECTRUM=NO
##NPOINTS= 46
##XYDATA=(XY..XY) 1 
    26         50
    27          4
    28         64
    31        353
    39         91
    40         13
    41         73
    42          9
    43         32
    45         18
    47        564
    51         22
    52          9
    53         45
    55         64
    59         22
    63         13
    65         22
    66          9
    67         64
    68         13
    69          4
    75        999
    76         41
    77         55
    78          4
    79         45
    80          9
    81         18
    91         36
    92         22
    95         50
    96         27
   107         36
   108          9
   109          9
   123         22
   125         55
   135         22
   138         36
   139         22
   151          4
   167         59
   168          9
   183         13
   198         13