##TITLE=Library Entry 12311
##JCAMP-DX=Revision 4.10 
##DATA TYPE=MASS SPECTRUM
##SAMPLE DESCRIPTION=CARL DJERASSI DEPT OF CHEM STANFORD UNIV STANFORD CALIF
 94305
##NAMES=HP
##CAS NAME=Cyclohexanol, 2-methyl-, acetate, trans-
##MOLFORM=C9H16O2
##CAS REGISTRY NO=54714-34-0
##MP= -300
##BP= -300
##MW= 156
##$RETENTION INDEX=0
##$CONDENSED SPECTRUM=NO
##NPOINTS= 28
##XYDATA=(XY..XY) 1 
    41        150
    42         30
    43        999
    44         50
    45         20
    53         30
    54         50
    55        200
    56         10
    57         60
    58         20
    67        180
    68        220
    69         60
    71         40
    72         60
    81        430
    82         20
    85         10
    95         60
    96        650
    97         80
   113         10
   114         40
   140          0
   141        999
   155          0
   156          0