##TITLE=Library Entry 97944
##JCAMP-DX=Revision 4.10 
##DATA TYPE=MASS SPECTRUM
##SAMPLE DESCRIPTION=Pu Leung, NIH, Bethesda, MD
##NAMES=HP
##CAS NAME=2,5-Diphenyl-4-hydroxy-3-oxo-2,3-thiophene-1,1-dioxide
##MOLFORM=C16H12O4S
##CAS REGISTRY NO=54714-10-2
##MP= -300
##BP= -300
##MW= 300
##$RETENTION INDEX=0
##$CONDENSED SPECTRUM=NO
##NPOINTS= 148
##XYDATA=(XY..XY) 1 
    41         15
    42          5
    43         12
    44          4
    45         14
    47         16
    48         11
    49         89
    50         42
    51        168
    52         21
    53         29
    54          2
    55          8
    56          2
    57          6
    58          0
    59          3
    60          2
    61          8
    62         66
    63        234
    64         89
    65         46
    66         10
    67          3
    68          1
    69         14
    70          4
    71          6
    73          2
    74         13
    75         21
    76         27
    77        178
    78         37
    79         24
    80          0
    81          3
    82         10
    84         58
    86         44
    87         14
    89        587
    90        641
    91        100
    92          7
    93          1
    94         16
    95         10
    96          1
    97          3
    98          3
    99          3
   100          1
   101          5
   102         58
   103         23
   105        303
   106         24
   107         41
   108          5
   109         11
   110          3
   111          2
   113          4
   114          2
   115          7
   118        999
   119         85
   121        266
   122         23
   123         14
   124          2
   125          1
   126          4
   127          3
   129          7
   130         56
   131         28
   132          3
   133          1
   135         81
   137         16
   138          3
   139          7
   140          1
   141          1
   143          0
   145          8
   147          4
   149          1
   150          5
   151          7
   152         15
   153          4
   154          0
   155          0
   157          1
   158          1
   159          1
   162          0
   163          4
   165         47
   166          7
   167          2
   169          0
   176         12
   178         96
   179         87
   180         18
   181          3
   182          2
   187          3
   189         28
   190          7
   191         11
   193         10
   194          1
   195          0
   196          1
   197          0
   201          0
   205          2
   206          2
   207        125
   208         64
   209          7
   210          1
   217          1
   218          4
   219          2
   221          1
   223          3
   224          3
   234          2
   235         19
   236         39
   237          6
   238          0
   252          3
   255          0
   298          0
   299          0
   300        521
   301         95
   302         31
   303          5