##TITLE=Library Entry 28808
##JCAMP-DX=Revision 4.10 
##DATA TYPE=MASS SPECTRUM
##SAMPLE DESCRIPTION=T. KAWAI, SHIONO KORYO KAISHA LTD., NIITAKAKITA, OSAKA,
 JAPAN
##NAMES=HP
##CAS NAME=5,6-Dihydro-2,4,6-triethyl-4H-1,3,5-dithiazine
##MOLFORM=C9H19NS2
##CAS REGISTRY NO=54717-17-8
##MP= -300
##BP= -300
##MW= 205
##$RETENTION INDEX=1435
##$CONDENSED SPECTRUM=NO
##NPOINTS= 18
##XYDATA=(XY..XY) 1 
    39         20
    41        160
    43         20
    45         30
    56         30
    58        999
    59         20
    68         20
    70         50
    73         50
    74        140
    75         30
    84        130
    98        290
    99        160
   131         80
   205        120
   207         30