##TITLE=Library Entry 22711
##JCAMP-DX=Revision 4.10 
##DATA TYPE=MASS SPECTRUM
##SAMPLE DESCRIPTION=Div. of Experiment Therapeutics WRAIR, WRAMC, Washingto
n DC 20307
##NAMES=HP
##CAS NAME=Propanoic acid, 2-[[(1-methylethylidene)amino]oxy]-, ethyl ester
##MOLFORM=C8H15NO3
##CAS REGISTRY NO=54716-29-9
##MP= -300
##BP= -300
##MW= 173
##$RETENTION INDEX=0
##$CONDENSED SPECTRUM=NO
##NPOINTS= 89
##XYDATA=(XY..XY) 1 
    41         37
    42        220
    43         95
    44         26
    45         76
    46          2
    47          1
    49          2
    50          2
    51          5
    52          7
    53          5
    54         33
    55         56
    56        999
    57        110
    58         61
    59         10
    60          4
    61          4
    63          1
    65          2
    67          4
    68          3
    69         10
    70          7
    71          6
    72         11
    73         31
    74          6
    75          2
    77          7
    78         16
    79          5
    81          2
    82          6
    83          8
    84          8
    85         37
    86         20
    87         10
    88          3
    89          6
    91         10
    92          4
    93          0
    95          3
    96          2
    97          6
    98         12
   100        254
   101         18
   103         54
   104          4
   105          4
   106          7
   109          0
   110          2
   111          5
   112          3
   113          4
   114          4
   115          5
   116          9
   117          2
   121          2
   124          8
   125          2
   126          3
   127          2
   128         11
   129          5
   130          6
   131          9
   132          2
   141          4
   142          3
   143          2
   144          4
   145          9
   146          2
   154          1
   156          4
   158          9
   159          1
   171          3
   172          4
   173        104
   174          9