##TITLE=Library Entry 83391
##JCAMP-DX=Revision 4.10 
##DATA TYPE=MASS SPECTRUM
##SAMPLE DESCRIPTION=NIST Mass Spectrometry Data Center, 1990.
##NAMES=HP
##CAS NAME=2-Butanone, 4-(4-hydroxyphenyl)-
##MOLFORM=C10H12O2
##CAS REGISTRY NO=5471-51-2
##MP= -300
##BP= -300
##MW= 164
##$RETENTION INDEX=1554
##$CONDENSED SPECTRUM=NO
##NPOINTS= 36
##XYDATA=(XY..XY) 1 
    14         31
    15         47
    27         67
    28         13
    39        111
    40         25
    41         24
    43        408
    50         36
    51         86
    52         33
    53         50
    55         66
    62         22
    63         49
    64         18
    65         93
    66         24
    77        251
    78         45
    79         27
    89         19
    91        118
    93         43
    94        161
    95         18
   103         66
   107        999
   108         74
   119         27
   120         37
   121        124
   131         30
   149         56
   164        299
   165         32