##TITLE=Library Entry 39178
##JCAMP-DX=Revision 4.10 
##DATA TYPE=MASS SPECTRUM
##SAMPLE DESCRIPTION=CARL DJERASSI DEPT OF CHEM STANFORD UNIV STANFORD CALIF
 94305
##NAMES=HP
##CAS NAME=Butanoic acid, 2-methylcyclohexyl ester, cis-
##MOLFORM=C11H20O2
##CAS REGISTRY NO=54714-35-1
##MP= -300
##BP= -300
##MW= 184
##$RETENTION INDEX=0
##$CONDENSED SPECTRUM=NO
##NPOINTS= 25
##XYDATA=(XY..XY) 1 
    41        210
    42         50
    43        480
    44         10
    53         20
    54         40
    55        300
    56         20
    57         10
    66         10
    67        150
    68        110
    69         40
    70         10
    71        999
    72         20
    81        340
    82         10
    89         20
    95         40
    96        530
    97        200
   113         20
   127         20
   141         20