##TITLE=Library Entry 4494
##JCAMP-DX=Revision 4.10 
##DATA TYPE=MASS SPECTRUM
##SAMPLE DESCRIPTION=NIST Mass Spectrometry Data Center
##NAMES=HP
##CAS NAME=Hexamethyleneiminoacetonitrile
##MOLFORM=C8H14N2
##CAS REGISTRY NO=54714-50-0
##MP= -300
##BP= -300
##MW= 138
##$RETENTION INDEX=0
##$CONDENSED SPECTRUM=NO
##NPOINTS= 72
##XYDATA=(XY..XY) 1 
    12          2
    13          4
    14         18
    15        124
    16          2
    18          3
    20          2
    24          1
    26         71
    27        364
    28        295
    29        118
    30         70
    32          1
    35          1
    36          1
    37         10
    39        356
    40        253
    41        702
    42        999
    43        221
    44         89
    50         12
    51         23
    52         22
    53         58
    54         81
    55        175
    56        121
    57         72
    58         20
    62          1
    63          3
    64          3
    65         12
    66         29
    67        157
    68         98
    69        237
    70        120
    71         23
    72          1
    77          3
    79          7
    80         15
    81         50
    82        272
    83        246
    84         40
    85          5
    92          2
    93          4
    95        149
    96        148
    97         20
    98         99
    99          7
   106          1
   107          8
   109        422
   110         56
   111          6
   112         23
   113          2
   119          1
   121          2
   123         32
   124          3
   137        122
   138        151
   139         15