##TITLE=Library Entry 40798
##JCAMP-DX=Revision 4.10 
##DATA TYPE=MASS SPECTRUM
##SAMPLE DESCRIPTION=Chemical Concepts
##NAMES=HP
##CAS NAME=4-[1,3]Dioxolan-2-yl-3,4-dimethyl-cyclohex-2-enone
##MOLFORM=C11H16O3
##CAS REGISTRY NO=54710-16-6
##MP= -300
##BP= -300
##MW= 196
##$RETENTION INDEX=0
##$CONDENSED SPECTRUM=NO
##NPOINTS= 120
##XYDATA=(XY..XY) 1 
    26          2
    27         31
    28          1
    29         23
    30          1
    31          2
    34          0
    36          0
    37          0
    38          3
    39         39
    40         10
    41         40
    42          5
    43         27
    44          7
    45        191
    46          6
    47          1
    48          0
    49          0
    50          2
    51         12
    52          7
    53         22
    54          5
    55         30
    56          3
    57          2
    58          1
    59          1
    60          0
    61          1
    62          1
    63          3
    64          1
    65         11
    66          6
    67         26
    68          4
    69          6
    70          1
    71          2
    72          0
    73        999
    74         41
    75          8
    76          1
    77         18
    78          4
    79         19
    80          6
    81          8
    82          3
    83          2
    84          1
    85          1
    86          2
    87          1
    89          1
    90          0
    91         11
    92          2
    93         12
    94          3
    95         18
    96          7
    97          2
    98          1
    99          2
   100          2
   101          0
   102          0
   103          0
   104          0
   105          2
   106          1
   107          5
   108          6
   109         29
   110          4
   111          1
   112          0
   113          2
   114          1
   115          0
   117          0
   118          0
   119          0
   120          0
   121          5
   122          2
   123          6
   124         11
   125          1
   126          0
   127          0
   128          1
   129          0
   133          0
   134          0
   135          2
   136          3
   137          2
   138          0
   139          1
   140          0
   141          1
   142          0
   149          1
   150          0
   151          2
   152          0
   153          1
   154          0
   195          4
   196         27
   197          4
   198          1
   199          0