##TITLE=Library Entry 7130
##JCAMP-DX=Revision 4.10 
##DATA TYPE=MASS SPECTRUM
##SAMPLE DESCRIPTION=CARL DJERASSI DEPT OF CHEM STANFORD UNIV STANFORD CALIF
 94305
##NAMES=HP
##CAS NAME=Nonadecanoic acid, 18-oxo-, methyl ester
##MOLFORM=C20H38O3
##CAS REGISTRY NO=54725-53-0
##MP= -300
##BP= -300
##MW= 326
##$RETENTION INDEX=0
##$CONDENSED SPECTRUM=NO
##NPOINTS= 151
##XYDATA=(XY..XY) 1 
    41        530
    42        110
    43        999
    44        210
    45        220
    46         10
    53         30
    54         60
    55        730
    56        110
    57        400
    58        520
    59        260
    60         20
    61         10
    67        170
    68        100
    69        480
    70         90
    71        380
    72         30
    73         70
    74        520
    75         90
    79         30
    80         30
    81        200
    82        140
    83        390
    84        240
    85        140
    86         10
    87        320
    88         80
    89         20
    91         10
    93         30
    94         40
    95        200
    96        170
    97        350
    98        450
    99         80
   100         30
   101         80
   102         10
   105         10
   107         40
   108         30
   109        120
   110         70
   111        200
   112        140
   113         60
   114         30
   115         50
   116         20
   117         10
   119         10
   121         60
   122         20
   123         80
   124         50
   125        140
   126         50
   127         50
   128         50
   129         60
   130         40
   131         10
   132         10
   133         10
   134         10
   135         60
   136         20
   137         50
   138         40
   139         80
   140         30
   141         40
   142         30
   143         80
   144         20
   149         60
   150         10
   151         30
   152         60
   153         60
   154         40
   155         30
   156         30
   157         50
   163         20
   165         20
   166         20
   167         30
   168         20
   169         20
   170         10
   171         40
   176         10
   178         10
   179         10
   180         10
   181         20
   182         30
   183         10
   185         40
   186         20
   191         10
   192         20
   193         20
   194         50
   195         30
   196         40
   199         30
   200         20
   201         10
   208         30
   209         30
   213         20
   218         10
   219         70
   225         10
   227         20
   235         10
   236        180
   237        170
   238         30
   239         10
   240         10
   241         10
   250         10
   251         20
   252         20
   253         50
   266         10
   267         10
   268        100
   269        200
   270         40
   276         10
   283         10
   284         10
   285         20
   294         60
   295        110
   296         20
   311         10
   326        120
   327         10