##TITLE=Library Entry 85206
##JCAMP-DX=Revision 4.10 
##DATA TYPE=MASS SPECTRUM
##SAMPLE DESCRIPTION=D.HENNEBERG, MAX-PLANCK INSTITUTE, MULHEIM, WEST GERMAN
Y
##NAMES=HP
##CAS NAME=Phosphine, (1-methylethyl)phenyl-
##MOLFORM=C9H13P
##CAS REGISTRY NO=54722-12-2
##MP= -300
##BP= -300
##MW= 152
##$RETENTION INDEX=0
##$CONDENSED SPECTRUM=NO
##NPOINTS= 116
##XYDATA=(XY..XY) 1 
    27        150
    28         15
    29         10
    30          0
    32          0
    33          0
    35          0
    36          2
    37          4
    38         14
    39        163
    40         16
    41        244
    42         19
    43        517
    44         16
    45         30
    46          8
    47          7
    48          8
    49          1
    50         36
    51         93
    52         21
    53          6
    54          0
    55          1
    56         44
    57        143
    58         16
    59          7
    60          1
    61          1
    62          6
    63         30
    64          8
    65        137
    66         22
    67          2
    68         14
    69         36
    70          6
    71         10
    72         11
    73          8
    74        115
    75         13
    76          5
    77         47
    78         69
    79         19
    80         29
    81         58
    82         26
    83        170
    84         11
    85          1
    86          0
    87          5
    88          0
    89          2
    90          0
    91         35
    92          4
    93          5
    94          2
    95          5
    96          1
    97          1
    99          0
   100          0
   101          0
   102          2
   103          7
   104          6
   105          5
   106         14
   107        248
   108        999
   109        510
   110        893
   111         58
   112          2
   113          0
   115          5
   116          2
   117          2
   118          0
   119          2
   120          1
   121         18
   122          1
   123          9
   124          9
   125          0
   126          0
   127          0
   128          0
   133          7
   134          1
   135          2
   136          0
   137         11
   138          1
   139          0
   143          1
   144          3
   145          1
   146          3
   147          0
   148          1
   149          1
   150          0
   151         11
   152        786
   153         82