##TITLE=Library Entry 100082
##JCAMP-DX=Revision 4.10 
##DATA TYPE=MASS SPECTRUM
##SAMPLE DESCRIPTION=Chemical Concepts
##NAMES=HP
##CAS NAME=Benzenemethanol, 2-methyl-.alpha.-phenyl-
##MOLFORM=C14H14O
##CAS REGISTRY NO=5472-13-9
##MP= -300
##BP= -300
##MW= 198
##$RETENTION INDEX=0
##$CONDENSED SPECTRUM=NO
##NPOINTS= 108
##XYDATA=(XY..XY) 1 
    26          4
    27         49
    28         31
    29         24
    38         14
    39        152
    40         14
    41         42
    43         11
    50         49
    51        196
    52         43
    53         32
    55          6
    57          4
    61          4
    62         23
    63         84
    64         27
    65        185
    66         13
    67          2
    69          2
    70          3
    74         22
    75         33
    76         73
    77        640
    78        175
    79        273
    80         19
    81          5
    82         22
    83         19
    84         10
    85          4
    86          7
    87         13
    88         25
    89        127
    90         51
    91        585
    92        576
    93        445
    94         33
    97          6
    98          8
    99         22
   100          2
   101          7
   102         17
   103         17
   104          9
   105        804
   106         80
   107        239
   108         18
   113          6
   114          3
   115         47
   116          7
   118         11
   119        999
   120        201
   121        250
   122         22
   126         11
   127         17
   128         27
   129          9
   130          2
   139         23
   140          3
   141         16
   142          3
   149          4
   150          6
   151         20
   152         51
   153         26
   154         17
   155         12
   163         12
   164         14
   165        161
   166         61
   167         18
   168          3
   169         15
   170          3
   175          3
   176         17
   177         20
   178        109
   179        300
   180        450
   181        115
   182         21
   183        210
   184         35
   185          3
   194          0
   195          4
   196          3
   197        157
   198        456
   199         71
   200          6