##TITLE=Library Entry 45353
##JCAMP-DX=Revision 4.10 
##DATA TYPE=MASS SPECTRUM
##SAMPLE DESCRIPTION=CARL DJERASSI DEPT OF CHEM STANFORD UNIV STANFORD CALIF
 94305
##NAMES=HP
##CAS NAME=2-Cyclohexen-1-ol, TMS derivative
##MOLFORM=C9H18OSi
##CAS REGISTRY NO=54725-71-2
##MP= -300
##BP= -300
##MW= 170
##$RETENTION INDEX=1027
##$CONDENSED SPECTRUM=NO
##NPOINTS= 40
##XYDATA=(XY..XY) 1 
    39         30
    41         50
    43         40
    44         10
    45         70
    47         50
    51         10
    52         10
    53         30
    57         10
    59         30
    61         50
    70         20
    72         10
    73        480
    74         30
    75        999
    76         70
    77         80
    78         10
    79        100
    80         30
    81         30
    85         10
    99         10
   101         20
   127        150
   128         10
   129         10
   141         10
   142        190
   143         20
   144         10
   155        210
   156         30
   157         10
   169        150
   170        400
   171         60
   172         20