##TITLE=Library Entry 68632
##JCAMP-DX=Revision 4.10 
##DATA TYPE=MASS SPECTRUM
##SAMPLE DESCRIPTION=CARL DJERASSI DEPT OF CHEM STANFORD UNIV STANFORD CALIF
 94305
##NAMES=HP
##CAS NAME=7-Thiabicyclo[4.1.0]heptane, 3-methyl-
##MOLFORM=C7H12S
##CAS REGISTRY NO=54725-38-1
##MP= -300
##BP= -300
##MW= 128
##$RETENTION INDEX=0
##$CONDENSED SPECTRUM=NO
##NPOINTS= 60
##XYDATA=(XY..XY) 1 
    31        110
    32        380
    38         30
    39        430
    40         60
    41        480
    42        100
    43         80
    44         30
    45        260
    46         30
    47         50
    50         30
    51         80
    52         30
    53        230
    54        200
    55        410
    56         70
    57         30
    58         60
    59         70
    60         50
    61         20
    63         20
    65         80
    66         50
    67        520
    68        360
    69         90
    70         30
    71        120
    72         50
    73        250
    74         60
    75         20
    77        130
    78         30
    79        500
    80        100
    81        380
    82         30
    83         30
    84         60
    85        140
    86         60
    87         30
    91         40
    93         80
    94        430
    95        999
    96        150
    97        130
    99         90
   100         30
   113         40
   114         30
   128        540
   129         40
   130         20