##TITLE=Library Entry 4353
##JCAMP-DX=Revision 4.10 
##DATA TYPE=MASS SPECTRUM
##SAMPLE DESCRIPTION=CARL DJERASSI DEPT OF CHEM STANFORD UNIV STANFORD CALIF
 94305
##NAMES=HP
##CAS NAME=Androstane-3,17-diol, 7-methyl-, diacetate, (3.alpha.,5.alpha.,17
.beta.)-
##MOLFORM=C24H38O4
##CAS REGISTRY NO=54725-67-6
##MP= -300
##BP= -300
##MW= 390
##$RETENTION INDEX=0
##$CONDENSED SPECTRUM=NO
##NPOINTS= 179
##XYDATA=(XY..XY) 1 
    41        999
    42        426
    43        666
    44        413
    45        213
    49         13
    50        106
    51        160
    52         80
    53        260
    54         80
    55        566
    56         53
    57         73
    58         13
    60         20
    61        233
    63         66
    64         13
    65        106
    66         53
    67        300
    68         86
    69         93
    70         13
    71         13
    73         13
    74         13
    75         13
    76          6
    77        180
    78         66
    79        280
    80         53
    81        213
    82         33
    83         33
    89         13
    91        226
    92         53
    93        240
    94        100
    95        153
    96         20
    97         20
   102          6
   103         33
   104         20
   105        220
   106         86
   107        280
   108        220
   109        153
   110         33
   111         33
   115         80
   116         40
   117        106
   118         53
   119        266
   120        113
   121        233
   122         86
   123        106
   124         20
   125         13
   127         26
   128         73
   129         80
   130         46
   131        173
   132         93
   133        300
   134        153
   135        353
   136        100
   137         86
   138         13
   139         13
   141         46
   142         40
   143         73
   144         40
   145        193
   146         80
   147        226
   148         80
   149        100
   150         26
   151         26
   152         13
   153         13
   154          6
   155         26
   156         13
   157         53
   158         33
   159        253
   160        200
   161        520
   162        213
   163        300
   164         46
   165         20
   166          6
   167          6
   168          6
   169         20
   170         13
   171         46
   172         26
   173        113
   174        100
   175        140
   176        100
   177         53
   178         13
   179         33
   180          6
   181          6
   183         13
   184          6
   185         46
   186         20
   187        140
   188         86
   189         86
   190         20
   191          6
   197          6
   198          6
   199         53
   200         33
   201         93
   202         33
   203         33
   207          6
   213         73
   214         33
   215        120
   216        213
   217         40
   220         33
   221         53
   222         20
   223         20
   227         46
   228         53
   229        213
   230         53
   231         40
   232          6
   234         40
   241         33
   242         20
   244         13
   247         26
   248         46
   253          6
   254         13
   255        366
   256         93
   259         13
   260          6
   269         20
   270        333
   271        113
   273         66
   274         33
   275         20
   276        286
   287         13
   288         46
   289         26
   315        166
   316         66
   329         20
   330        673
   331        313