##TITLE=Library Entry 87328
##JCAMP-DX=Revision 4.10 
##DATA TYPE=MASS SPECTRUM
##SAMPLE DESCRIPTION=CARL DJERASSI DEPT OF CHEM STANFORD UNIV STANFORD CALIF
 94305
##NAMES=HP
##CAS NAME=Cholestan-3-one, 2-(dimethylamino)-, (2.beta.,5.alpha.)-
##MOLFORM=C29H51NO
##CAS REGISTRY NO=54725-09-6
##MP= -300
##BP= -300
##MW= 429
##$RETENTION INDEX=0
##$CONDENSED SPECTRUM=NO
##NPOINTS= 81
##XYDATA=(XY..XY) 1 
    26         30
    27         30
    28          2
    29         30
    39         30
    40         10
    41        110
    42         60
    43        160
    44        100
    45         40
    46         60
    53         10
    55        130
    56         60
    57        110
    58        210
    67         50
    68         20
    69         80
    70         80
    71        320
    72         60
    77         20
    78         10
    79         40
    80         10
    81         70
    82         20
    83         30
    84        150
    85        140
    86         10
    91         30
    92         10
    93         50
    94         20
    95         80
    96         40
    97         90
    98        480
    99         30
   100         10
   105         20
   107         30
   108         10
   109         20
   110        999
   111        140
   112         10
   113         20
   119         10
   121         20
   122         10
   123         20
   124        110
   125         60
   135         10
   136         10
   137         10
   138        150
   139         30
   150         20
   153         10
   344        100
   345         20
   358         10
   386         60
   387         10
   400         60
   401        450
   402        140
   403         10
   412         60
   413         20
   414         50
   415         10
   428         20
   429        210
   430         60
   431         10