##TITLE=Library Entry 66951
##JCAMP-DX=Revision 4.10 
##DATA TYPE=MASS SPECTRUM
##SAMPLE DESCRIPTION=CARL DJERASSI DEPT OF CHEM STANFORD UNIV STANFORD CALIF
 94305
##NAMES=HP
##CAS NAME=8-Azabicyclo[3.2.1]oct-6-en-3-ol, 8-methyl-
##MOLFORM=C8H13NO
##CAS REGISTRY NO=54725-49-4
##MP= -300
##BP= -300
##MW= 139
##$RETENTION INDEX=0
##$CONDENSED SPECTRUM=NO
##NPOINTS= 29
##XYDATA=(XY..XY) 1 
    40         40
    41         90
    42        180
    43         40
    44         50
    51         30
    52         30
    53         70
    54         40
    55         40
    66         20
    67         40
    68         20
    77         30
    78         30
    79         30
    80         60
    81        130
    82         70
    83         30
    93         30
    94        999
    95        180
    96         50
    97         20
   120         20
   121         20
   122         50
   139         50