##TITLE=Library Entry 67247
##JCAMP-DX=Revision 4.10 
##DATA TYPE=MASS SPECTRUM
##SAMPLE DESCRIPTION=CARL DJERASSI DEPT OF CHEM STANFORD UNIV STANFORD CALIF
 94305
##NAMES=HP
##CAS NAME=8-Azabicyclo[3.2.1]octane-3,6-diol, 8-methyl-, 3-acetate
##MOLFORM=C10H17NO3
##CAS REGISTRY NO=54725-46-1
##MP= -300
##BP= -300
##MW= 199
##$RETENTION INDEX=1495
##$CONDENSED SPECTRUM=NO
##NPOINTS= 63
##XYDATA=(XY..XY) 1 
    30         50
    31         60
    39         80
    40        160
    41        160
    42        420
    43        360
    44        110
    45         60
    47         10
    50         10
    51         20
    52         20
    53         40
    54         30
    55        100
    56         80
    57        140
    58         70
    59         20
    60         30
    67         40
    68         30
    69         30
    70         50
    71         10
    72         10
    73         20
    77         20
    79         30
    80         20
    81         50
    82        120
    83         90
    84         40
    85         40
    86         10
    91         10
    93         20
    94        999
    95        580
    96        160
    97         30
    98         60
    99         20
   107         10
   108         20
   109         10
   110         60
   111         10
   112         60
   113         30
   120         10
   121         20
   122         50
   123         10
   124         20
   140        200
   141         20
   155         70
   156         20
   157         10
   199        100