##TITLE=Library Entry 1048
##JCAMP-DX=Revision 4.10 
##DATA TYPE=MASS SPECTRUM
##SAMPLE DESCRIPTION=Virginia Division of Forensic Science
##NAMES=HP
##CAS NAME=Fluvoxamine
##MOLFORM=C15H21F3N2O2
##CAS REGISTRY NO=54739-18-3
##MP= -300
##BP= -300
##MW= 318
##$RETENTION INDEX=1890
##$CONDENSED SPECTRUM=NO
##NPOINTS= 227
##XYDATA=(XY..XY) 1 
    14          3
    15         42
    16          2
    17          3
    18         48
    19          1
    21          1
    23          1
    25          1
    26          4
    27         51
    28         96
    29        136
    30        999
    31         39
    32          1
    33          7
    35          1
    37          1
    38          2
    39         48
    40         11
    41        108
    42         60
    43        167
    44        129
    45        491
    46         12
    47          1
    48          1
    49          1
    50         16
    51         17
    52          5
    53         17
    54         13
    55         52
    56         21
    57         14
    58         31
    59          7
    60          5
    61          2
    62          3
    63          7
    64          2
    65          2
    66          1
    67          2
    68          3
    69         15
    71        236
    72         11
    73          1
    74          8
    75         39
    76         16
    77          7
    78          1
    79          1
    80          2
    81          5
    82          4
    83          2
    84          2
    85          3
    86         12
    87          5
    88          3
    89          4
    90          1
    91          3
    92          1
    93          1
    94          6
    95         41
    96          6
    97          1
    98          1
    99          7
   100          7
   101          6
   102         26
   103          7
   104          1
   105          1
   106          2
   107         10
   108          2
   109          7
   110          1
   111          1
   112          1
   113          1
   114          3
   115         15
   116          9
   117          6
   118          3
   119          8
   120          5
   121         24
   122          3
   123          1
   124          2
   125         45
   126         44
   127         20
   128         11
   129          4
   130         12
   131          8
   132         10
   133          8
   134          2
   135          1
   136          1
   137          2
   138          2
   139          2
   140          5
   141          7
   142          4
   143         14
   145        183
   146         19
   147          1
   148          1
   149          1
   151         31
   152         30
   153          9
   154          2
   155          1
   156          3
   157          3
   158          6
   159         21
   160          5
   161          1
   162          1
   163          1
   164          5
   165          6
   166          8
   168         15
   169          4
   170         12
   171         26
   172        165
   173         22
   174          7
   175          1
   176          1
   177          7
   178          2
   179          3
   180          5
   181          1
   182          2
   183          6
   184          4
   185         29
   187        223
   188         30
   189          2
   190          2
   191          3
   192          1
   193          1
   194          1
   195          1
   196          2
   198         41
   199         23
   200         90
   201         12
   202          4
   203          2
   204          1
   206          1
   207          1
   208          1
   209          1
   210          3
   211          7
   212         19
   213          6
   214         18
   215          5
   216          4
   217          1
   223          1
   224          6
   226         25
   227         44
   228         16
   229          3
   230          1
   231          1
   238          1
   239          1
   240          1
   241          1
   242          7
   244         21
   245          3
   246          1
   255          1
   256          5
   257          1
   258         10
   259          9
   260          2
   270          1
   271          1
   272          1
   273          1
   274          1
   276        115
   277         17
   278          1
   288          1
   299         44
   300          7
   301          1
   319          1