##TITLE=Library Entry 5856
##JCAMP-DX=Revision 4.10 
##DATA TYPE=MASS SPECTRUM
##SAMPLE DESCRIPTION=A.Pleshkova, Nesmeyanov Inst.Org.Elem.Cpds, Moscow
##NAMES=HP
##CAS NAME=1-Isopropyl-3,3-bis(trifluoromethyl)diaziridine
##MOLFORM=C6H8F6N2
##CAS REGISTRY NO=54731-13-4
##MP= -300
##BP= -300
##MW= 222
##$RETENTION INDEX=0
##$CONDENSED SPECTRUM=NO
##NPOINTS= 19
##XYDATA=(XY..XY) 1 
    41        180
    42        120
    43        999
    44         76
    50          4
    56         16
    57          4
    58         12
    69         10
    96          6
   110          8
   161         12
   166          2
   180          4
   192          4
   207         18
   208          1
   222         36
   223          3