##TITLE=Library Entry 66303
##JCAMP-DX=Revision 4.10 
##DATA TYPE=MASS SPECTRUM
##SAMPLE DESCRIPTION=Institute of Organic Chemistry, Novosibirsk, USSR 1988
##NAMES=HP
##CAS NAME=(1,2-Dichlorovinyl)trimethylsilane
##MOLFORM=C5H10Cl2Si
##CAS REGISTRY NO=54748-33-3
##MP= -300
##BP= -300
##MW= 168
##$RETENTION INDEX=0
##$CONDENSED SPECTRUM=NO
##NPOINTS= 17
##XYDATA=(XY..XY) 1 
    73        161
    93        999
    94         71
    95        338
    96         18
   108         20
   110          7
   113         80
   115         50
   117         20
   119          8
   153        131
   155         89
   157         20
   168        101
   170         70
   172          7