##TITLE=Library Entry 114714
##JCAMP-DX=Revision 4.10 
##DATA TYPE=MASS SPECTRUM
##SAMPLE DESCRIPTION=S. MARKEY UNIV. OF COLO. MED. CTR., DENVER, COLORADO, U
SA
##NAMES=HP
##CAS NAME=2-Methylalanine, 2TMS derivative
##MOLFORM=C10H25NO2Si2
##CAS REGISTRY NO=54745-23-2
##MP= -300
##BP= -300
##MW= 247
##$RETENTION INDEX=1182
##$CONDENSED SPECTRUM=NO
##NPOINTS= 81
##XYDATA=(XY..XY) 1 
    26          1
    27         18
    29         36
    30          8
    31         16
    38          2
    39         10
    40          6
    41        147
    42         94
    43        119
    44         72
    45        299
    46         17
    47         54
    49          7
    51          3
    52          1
    53          3
    54          1
    55         14
    56         13
    57         19
    58         87
    59         89
    60         23
    61         21
    62          2
    63         11
    65          8
    66          2
    69         12
    70         19
    71          5
    72         29
    73        920
    74        104
    75        146
    76         16
    77         27
    84         13
    85          1
    86          5
    87          1
    93         18
    94          1
    95          8
    96          2
    98          5
   100         49
   101         11
   102          4
   103         11
   113          3
   114        101
   115         26
   116         19
   117         11
   119          1
   126          4
   128          1
   129          6
   130        999
   131        143
   132         47
   133         31
   134          1
   142         22
   143          7
   144         18
   146          7
   147        154
   148         22
   149         13
   151          1
   188          2
   204        116
   205         16
   206          6
   232         20
   233          1