##TITLE=Library Entry 35796
##JCAMP-DX=Revision 4.10 
##DATA TYPE=MASS SPECTRUM
##SAMPLE DESCRIPTION=Zaikin V.G., TIPS RAS, Moscow, Russia
##NAMES=HP
##CAS NAME=Cyclopentanecarboxylic acid, phenyl ester
##MOLFORM=C12H14O2
##CAS REGISTRY NO=54758-32-6
##MP= -300
##BP= -300
##MW= 190
##$RETENTION INDEX=0
##$CONDENSED SPECTRUM=NO
##NPOINTS= 33
##XYDATA=(XY..XY) 1 
    26          7
    27         27
    28          1
    29          4
    36          5
    38          6
    39         78
    40         21
    41        168
    42         10
    50          5
    51         20
    53         12
    55         57
    63          9
    64          4
    65         57
    66         37
    67         53
    68         35
    69        999
    70         48
    77         39
    78          3
    93          9
    94        299
    95         34
    96        121
    97        390
    98         25
   149          7
   190         56
   191          9