##TITLE=Library Entry 51768
##JCAMP-DX=Revision 4.10 
##DATA TYPE=MASS SPECTRUM
##SAMPLE DESCRIPTION=CARL DJERASSI DEPT OF CHEM STANFORD UNIV STANFORD CALIF
 94305
##NAMES=HP
##CAS NAME=3-Piperidinol, 1-acetyl-6-propyl-, acetate (ester)
##MOLFORM=C12H21NO3
##CAS REGISTRY NO=54751-94-9
##MP= -300
##BP= -300
##MW= 227
##$RETENTION INDEX=0
##$CONDENSED SPECTRUM=NO
##NPOINTS= 27
##XYDATA=(XY..XY) 1 
    43        510
    54         20
    55        220
    56         60
    67         30
    68         30
    69         30
    70         60
    80         40
    81         20
    82        999
    83        100
    84         40
    95         20
    96         30
    98         30
   100        160
   124        320
   125         40
   126         40
   142        770
   143         60
   167        140
   168         20
   184        440
   185         30
   227         10