##TITLE=Library Entry 69195
##JCAMP-DX=Revision 4.10 
##DATA TYPE=MASS SPECTRUM
##SAMPLE DESCRIPTION=V.G.Zaikin, TIPS, Russian Acad. Sci.
##NAMES=HP
##CAS NAME=Sophoridine, N-oxide
##MOLFORM=C15H24N2O2
##CAS REGISTRY NO=54750-07-1
##MP= -300
##BP= -300
##MW= 264
##$RETENTION INDEX=0
##$CONDENSED SPECTRUM=NO
##NPOINTS= 104
##XYDATA=(XY..XY) 1 
    51         58
    52         64
    53        252
    54        305
    55        816
    56        257
    57         48
    63         16
    64        172
    65        112
    66        220
    68        344
    69        295
    77        149
    78         64
    79        188
    80        300
    81        193
    82        172
    83        106
    84         96
    91        106
    92         48
    93        144
    94        193
    95         90
    96        999
    97         85
    98        144
    99         26
   104         10
   105         42
   106        139
   107        112
   108        117
   109         80
   110         80
   117         42
   118         74
   119         48
   120        209
   121         85
   122        144
   123         42
   124         42
   131         80
   132        139
   134        252
   135         80
   136        225
   137        106
   138         42
   145         16
   146        144
   147         74
   148        467
   149        193
   150        337
   151         80
   152         16
   160         42
   161        112
   162        112
   163         64
   164         10
   172         10
   173         42
   174         64
   175        160
   176        172
   177        198
   178         69
   179         16
   188         32
   189         69
   190        155
   191         74
   192        188
   193         26
   194         16
   203         32
   204         64
   205        451
   206        112
   207         26
   216         10
   217        101
   218        198
   219        112
   220         64
   221         10
   231        139
   232         26
   233         10
   243         48
   244         21
   245        461
   246        655
   247        811
   248        704
   249         74
   264         85
   265         15
   266          1