##TITLE=Library Entry 59746
##JCAMP-DX=Revision 4.10 
##DATA TYPE=MASS SPECTRUM
##SAMPLE DESCRIPTION=LAC, NIDDK, NIH, Bethesda, MD 20892
##NAMES=HP
##CAS NAME=N-carbobenzyloxy-.beta.-alanine, methyl ester
##MOLFORM=C12H15NO4
##CAS REGISTRY NO=54755-77-0
##MP= -300
##BP= -300
##MW= 237
##$RETENTION INDEX=0
##$CONDENSED SPECTRUM=NO
##NPOINTS= 122
##XYDATA=(XY..XY) 1 
    41         15
    42         26
    43         28
    44         27
    45          7
    47          1
    48          1
    49          8
    50         12
    51         32
    52          9
    53          4
    54          2
    55         19
    56          9
    57          6
    58          2
    59          6
    60          2
    61          1
    62          6
    63         20
    64          8
    65         87
    66          5
    67          1
    68          1
    69          5
    70         20
    71          5
    72          5
    73          2
    74         17
    75          3
    76          4
    77         40
    78         11
    79         29
    80          3
    81          1
    82          2
    83          2
    84          7
    85          6
    86          9
    87          7
    88          4
    89         32
    90         29
    91        999
    92         86
    93          5
    95          1
    96          1
    97          2
    98         12
    99          2
   100          3
   101          2
   102         25
   103          3
   104          4
   105         10
   106         73
   107         37
   108         32
   109          3
   110          0
   111          1
   112          1
   113          1
   114          1
   115          3
   116         13
   117          2
   118          2
   119          2
   120         21
   121          7
   122         13
   123         12
   124          1
   125          1
   128          2
   129          4
   130         12
   131          1
   132          2
   133          4
   134          1
   144          1
   145          1
   146          8
   147          2
   149          1
   151          0
   152          2
   153          0
   159          3
   160          1
   162          1
   164          9
   165          2
   166          0
   176          6
   177          7
   178          1
   179          1
   180          0
   181          1
   188          1
   192          0
   193          2
   194          0
   203          1
   205          1
   206         37
   207          4
   209          0
   222          1
   237         14
   238          5