##TITLE=Library Entry 32675
##JCAMP-DX=Revision 4.10 
##DATA TYPE=MASS SPECTRUM
##SAMPLE DESCRIPTION=NIST Mass Spectrometry Data Center
##NAMES=HP
##CAS NAME=(2R,5S)-2-Methyl-5-(prop-1-en-2-yl)-2-vinyltetrahydrofuran
##MOLFORM=C10H16O
##CAS REGISTRY NO=54750-69-5
##MP= -300
##BP= -300
##MW= 152
##$RETENTION INDEX=1008
##$CONDENSED SPECTRUM=NO
##NPOINTS= 60
##XYDATA=(XY..XY) 1 
    26          5
    27         79
    29         33
    37          3
    38          9
    39        207
    40         50
    41        278
    42         51
    43        351
    44         11
    45         10
    50         14
    51         34
    52         19
    53        122
    54         58
    55        614
    56         31
    57         19
    59          4
    63          7
    65         56
    66         28
    67        999
    68        683
    69        121
    70         28
    71         88
    79         77
    80         19
    81        168
    82        246
    83         40
    84         22
    94         36
    95         98
    96        157
    97         22
   105         17
   106         29
   107         28
   108         26
   109        121
   110        173
   111         33
   112          3
   119         40
   120          5
   121          7
   122          4
   123         52
   124         18
   125         17
   126          2
   134         19
   137        154
   138         15
   151          2
   152          7