##TITLE=Library Entry 90799
##JCAMP-DX=Revision 4.10 
##DATA TYPE=MASS SPECTRUM
##SAMPLE DESCRIPTION=CARL DJERASSI DEPT OF CHEM STANFORD UNIV STANFORD CALIF
 94305
##NAMES=HP
##CAS NAME=3-Piperidinol, 1,6-dimethyl-
##MOLFORM=C7H15NO
##CAS REGISTRY NO=54751-70-1
##MP= -300
##BP= -300
##MW= 129
##$RETENTION INDEX=0
##$CONDENSED SPECTRUM=NO
##NPOINTS= 31
##XYDATA=(XY..XY) 1 
    41         90
    42        480
    43        250
    44        860
    53         30
    54         40
    55         60
    56        160
    57        240
    58        110
    68         50
    70        100
    71        100
    72        120
    81         50
    82         60
    84        160
    95         40
    96        330
    97         40
    98        140
    99         20
   100         50
   110         20
   111         70
   112         30
   114        999
   115         80
   127         50
   128         40
   129        150