##TITLE=Library Entry 9748
##JCAMP-DX=Revision 4.10 
##DATA TYPE=MASS SPECTRUM
##SAMPLE DESCRIPTION=CARL DJERASSI DEPT OF CHEM STANFORD UNIV STANFORD CALIF
 94305
##NAMES=HP
##CAS NAME=3-Piperidinol, 1-acetyl-6-propyl-, (3R-trans)-
##MOLFORM=C10H19NO2
##CAS REGISTRY NO=54751-92-7
##MP= -300
##BP= -300
##MW= 185
##$RETENTION INDEX=0
##$CONDENSED SPECTRUM=NO
##NPOINTS= 22
##XYDATA=(XY..XY) 1 
    43        999
    45        280
    46        300
    47         50
    48        180
    49         70
    55         60
    56         20
    57         40
    61        120
    69         30
    70         60
    73         40
    82        100
    83        340
    84        460
    85        190
    86        310
    88         80
   100        160
   142         90
   185         10