##TITLE=Library Entry 47436
##JCAMP-DX=Revision 4.10 
##DATA TYPE=MASS SPECTRUM
##SAMPLE DESCRIPTION=A.A.Kutin, Moscow, Russia
##NAMES=HP
##CAS NAME=Isoxazol-5(4H)-one, 4-(2-hydroxyphenylmethyllideno)-3-phenyl-
##MOLFORM=C16H11NO3
##CAS REGISTRY NO=54754-45-9
##MP= -300
##BP= -300
##MW= 265
##$RETENTION INDEX=0
##$CONDENSED SPECTRUM=NO
##NPOINTS= 186
##XYDATA=(XY..XY) 1 
    33          0
    34          0
    36          1
    37         16
    38         52
    39        289
    40         36
    41         25
    42         14
    43         18
    44         13
    45          4
    46          2
    48          0
    50        138
    51        482
    52         94
    53         31
    54          7
    55         14
    56          7
    57         10
    58          2
    59          1
    60          3
    61         11
    62         46
    63        170
    64         67
    65        166
    66         41
    67         12
    68         14
    69          6
    70          3
    71          5
    72          1
    73          6
    74         32
    75         50
    76        152
    77        999
    78        126
    79          9
    80          2
    81          2
    82          3
    83          4
    84          3
    85          4
    86          5
    87         11
    88         28
    89        226
    90         41
    91         38
    92         20
    93         58
    94          9
    95          4
    96          3
    97          3
    98          3
    99          4
   100          5
   101         15
   102        137
   103         73
   104        162
   105        251
   106         29
   107          3
   108          1
   109          3
   110          3
   111          2
   112          2
   113          5
   114         13
   115         36
   116        415
   117        298
   118        223
   119         36
   120         39
   121        434
   122         36
   123          6
   124          1
   125          1
   126          1
   127          3
   128          5
   129          4
   130          2
   132         92
   133        235
   134         22
   135          2
   137          0
   138          0
   139          1
   140          1
   141          1
   144        820
   145        145
   146         37
   147          6
   148          6
   149          2
   150          1
   151          1
   152          2
   153          1
   154          0
   155          0
   156          1
   157          0
   158          0
   159          5
   160          6
   161         40
   162          5
   163          1
   164          0
   165          2
   166          0
   167          1
   168          0
   169          0
   171          6
   172          6
   173          1
   175          0
   176          2
   177          1
   178          2
   179          1
   180          2
   181          1
   182          0
   185          0
   187          1
   188          0
   189          1
   190          1
   191          1
   192          1
   193          2
   194          2
   195          1
   196          0
   199          0
   202          0
   203          1
   204          7
   205          3
   206          2
   207          9
   208          4
   209          3
   210          0
   215          0
   216          0
   217          0
   218          0
   219          2
   220          3
   221          5
   222          3
   223          1
   231          0
   232          4
   233          3
   234          2
   235          2
   236          2
   237          0
   247         10
   248          2
   249          0
   261          1
   264        349
   265         63
   266          8
   267          1