##TITLE=Library Entry 65790
##JCAMP-DX=Revision 4.10 
##DATA TYPE=MASS SPECTRUM
##SAMPLE DESCRIPTION=Chemical Concepts
##NAMES=HP
##CAS NAME=Bicyclo[4.1.0]heptan-3-ol, 4,7,7-trimethyl-, (1.alpha.,3.beta.,4.
alpha.,6.alpha.)-
##MOLFORM=C10H18O
##CAS REGISTRY NO=54750-09-3
##MP= -300
##BP= -300
##MW= 154
##$RETENTION INDEX=0
##$CONDENSED SPECTRUM=NO
##NPOINTS= 73
##XYDATA=(XY..XY) 1 
    26         18
    27        390
    29        413
    30         28
    31         71
    38         15
    39        568
    40         37
    41        932
    42         73
    43        681
    44         65
    45         39
    49         11
    50         41
    51         61
    52         21
    53        308
    54        135
    55        870
    56        132
    57        351
    58        259
    59         51
    63         29
    64         13
    65        217
    66         30
    67        504
    68         97
    69        383
    70        114
    71         91
    72         41
    73         15
    75          8
    77        253
    78         30
    79        430
    80        153
    81        926
    82        127
    83        124
    84         65
    85         42
    86         11
    87         15
    91        228
    92        308
    93        999
    94         95
    95        287
    96        248
    97        251
    98         42
   103         22
   105         85
   106         44
   107        352
   108         40
   109         37
   110         20
   111         83
   112         58
   119         21
   121        890
   122        110
   123         16
   135         18
   136        249
   137          2
   139         28
   154          8