##TITLE=Library Entry 72912
##JCAMP-DX=Revision 4.10 
##DATA TYPE=MASS SPECTRUM
##SAMPLE DESCRIPTION=CARL DJERASSI DEPT OF CHEM STANFORD UNIV STANFORD CALIF
 94305
##NAMES=HP
##CAS NAME=3-Piperidinol, 6-methyl-
##MOLFORM=C6H13NO
##CAS REGISTRY NO=54751-93-8
##MP= -300
##BP= -300
##MW= 115
##$RETENTION INDEX=0
##$CONDENSED SPECTRUM=NO
##NPOINTS= 31
##XYDATA=(XY..XY) 1 
    41        202
    42        202
    43         30
    44        969
    45         30
    53         20
    54         30
    55        141
    56        353
    57        131
    58        353
    59         10
    60         10
    67         10
    68         10
    69         20
    70         50
    71         50
    72         10
    73         10
    82        393
    83         10
    84         10
    86         50
    87         40
    96         20
    98         30
   100        999
   101         50
   114         50
   115        121