##TITLE=Library Entry 70642
##JCAMP-DX=Revision 4.10 
##DATA TYPE=MASS SPECTRUM
##SAMPLE DESCRIPTION=NIST Mass Spectrometry Data Center
##NAMES=HP
##CAS NAME=2-(2-Thienylidene)-1-tetralone
##MOLFORM=C15H12OS
##CAS REGISTRY NO=54752-27-1
##MP= -300
##BP= -300
##MW= 240
##$RETENTION INDEX=0
##$CONDENSED SPECTRUM=NO
##NPOINTS= 181
##XYDATA=(XY..XY) 1 
    26          3
    27         21
    37          4
    38         22
    39        131
    40         10
    41          6
    43          1
    45        116
    46          3
    47          7
    49          2
    50         69
    51        144
    52         29
    53         32
    54          1
    55          5
    57         12
    58         36
    59          8
    60          2
    61          9
    62         56
    63        204
    64         60
    65         76
    66         11
    67          3
    69         66
    70         28
    71         23
    72          2
    73          4
    74         47
    75         62
    76         73
    77        188
    78         74
    79         21
    80          4
    81          9
    82         34
    83         21
    84         27
    85         14
    86         27
    87         38
    88         30
    89        422
    90        509
    91        129
    92         69
    93         34
    94          6
    95         26
    96         57
    97        999
    98         86
    99         59
   100          8
   101         23
   102         60
   103         47
   104         51
   105         61
   106         39
   108         25
   109         29
   110        187
   111         41
   112         27
   113         25
   114         17
   115        187
   116         28
   117         11
   118        108
   119         21
   120         51
   121        204
   122         47
   123         16
   124          5
   125         11
   126         43
   127        100
   128        413
   129         64
   130          7
   131         30
   132        274
   133         31
   134         33
   135         35
   136          5
   137         14
   138          8
   139         80
   140         15
   141         31
   142          5
   143          3
   144          8
   145          6
   146          2
   147          7
   148          1
   149          4
   150         30
   151         62
   152        181
   153         50
   154          7
   155          7
   156        137
   157         18
   158          7
   159          2
   160          1
   161          1
   162          5
   163         35
   164         32
   165        176
   166         43
   167         53
   168         11
   169          4
   170          4
   171         38
   172          6
   173          3
   174          4
   175          6
   176         55
   177         42
   178        315
   179        182
   180         27
   181         14
   182          4
   183         10
   184         66
   185         45
   186         10
   187          3
   188          1
   189          9
   190          4
   193          2
   194          9
   195         20
   196          8
   197        115
   198         19
   199          8
   200          1
   205          8
   206         13
   207         45
   208         45
   209         38
   210         30
   211        154
   212        167
   213         36
   214         10
   215          1
   221         75
   222         39
   223         34
   224         10
   225         15
   226          2
   237         12
   239        543
   240        968
   241        197
   242         63
   243          8