##TITLE=Library Entry 78776
##JCAMP-DX=Revision 4.10 
##DATA TYPE=MASS SPECTRUM
##SAMPLE DESCRIPTION=J. Little, Eastman chemical company.
##NAMES=HP
##CAS NAME=1,2,3-Benzotriazole-1-benzoate
##MOLFORM=C13H9N3O2
##CAS REGISTRY NO=54769-36-7
##MP= -300
##BP= -300
##MW= 239
##$RETENTION INDEX=0
##$CONDENSED SPECTRUM=NO
##NPOINTS= 32
##XYDATA=(XY..XY) 1 
    27         32
    30         27
    37         66
    38         79
    39        130
    49         25
    50        236
    51        328
    52         39
    61         28
    62         42
    63        112
    64        100
    73         17
    74         76
    75         53
    76        145
    77        464
    78         52
    90         30
   105        999
   106         78
   122          8
   152         13
   166         12
   167         22
   183          7
   194          8
   211         25
   239         34
   240          7
   241          3