##TITLE=Library Entry 66939
##JCAMP-DX=Revision 4.10 
##DATA TYPE=MASS SPECTRUM
##SAMPLE DESCRIPTION=CARL DJERASSI DEPT OF CHEM STANFORD UNIV STANFORD CALIF
 94305
##NAMES=HP
##CAS NAME=Bicyclo[4.1.0]heptane-7-carboxylic acid, 3-methyl-, ethyl ester
##MOLFORM=C11H18O2
##CAS REGISTRY NO=54764-60-2
##MP= -300
##BP= -300
##MW= 182
##$RETENTION INDEX=0
##$CONDENSED SPECTRUM=NO
##NPOINTS= 74
##XYDATA=(XY..XY) 1 
    41        464
    42         40
    43        161
    44         20
    45         20
    50         10
    51         30
    52         10
    53        151
    54         40
    55        252
    56         50
    57         20
    59         10
    60         10
    61         50
    63         10
    65         50
    66         50
    67        424
    68         70
    69        181
    70         30
    71         10
    73         70
    77         70
    78         20
    79        212
    80         40
    81        191
    82         70
    83         20
    84         20
    85         10
    86        282
    87         10
    88         30
    89         70
    91         60
    92        101
    93        282
    94        999
    95        282
    96         20
    97        181
    98         30
    99         60
   100         10
   101         30
   105         10
   107         90
   108        202
   109        212
   110         20
   111         80
   112        141
   113         10
   114        404
   115         20
   121         50
   125        141
   126         10
   127         10
   135         40
   136        171
   137        353
   138         20
   139        121
   140         60
   153         60
   154         60
   167         70
   182        464
   183         40