##TITLE=Library Entry 55265
##JCAMP-DX=Revision 4.10 
##DATA TYPE=MASS SPECTRUM
##SAMPLE DESCRIPTION=CARL DJERASSI DEPT OF CHEM STANFORD UNIV STANFORD CALIF
 94305
##NAMES=HP
##CAS NAME=1-Pentanone, 1-(3-methylbicyclo[4.1.0]hept-7-yl)-
##MOLFORM=C13H22O
##CAS REGISTRY NO=54764-61-3
##MP= -300
##BP= -300
##MW= 194
##$RETENTION INDEX=0
##$CONDENSED SPECTRUM=NO
##NPOINTS= 66
##XYDATA=(XY..XY) 1 
    41        383
    42         20
    43         70
    44         10
    45         10
    51         20
    52         20
    53         90
    54         10
    55        181
    56         30
    57        787
    58         30
    59         10
    65         40
    66         20
    67        303
    68         30
    69         70
    70         10
    71         20
    77         70
    78         20
    79        191
    80         20
    81        111
    82         30
    83         30
    84         40
    85        999
    86         60
    91         60
    92         20
    93        212
    94        898
    96         40
    97         20
    98         10
   101         30
   106         10
   107         20
   108         70
   109        242
   110         60
   111         10
   119         20
   121         10
   126         30
   135         20
   136         10
   137        797
   138         90
   139         10
   143         50
   149         30
   150         10
   151         60
   152        353
   153         40
   154         10
   165         30
   179         30
   192         10
   193         10
   194        181
   195         30