##TITLE=Library Entry 12597
##JCAMP-DX=Revision 4.10 
##DATA TYPE=MASS SPECTRUM
##SAMPLE DESCRIPTION=Chemical Concepts
##NAMES=HP
##CAS NAME=Bicyclo[3.3.1]nona-2,6-diene, 2,6-bis(acetoxy)-
##MOLFORM=C13H16O4
##CAS REGISTRY NO=54764-06-6
##MP= -300
##BP= -300
##MW= 236
##$RETENTION INDEX=0
##$CONDENSED SPECTRUM=NO
##NPOINTS= 133
##XYDATA=(XY..XY) 1 
    33          0
    37          1
    38          2
    39         61
    40         18
    41         72
    42         19
    43        999
    44         24
    45          4
    46          0
    47          0
    50          2
    51         14
    52          9
    53         35
    54         12
    55        277
    56         17
    57         17
    58          6
    59          3
    60          1
    61          2
    62          0
    63          9
    64          1
    65         23
    66         22
    67         46
    68         24
    69         26
    70         23
    71         15
    72          1
    73          2
    74          4
    75          1
    76          1
    77         69
    78         35
    79         55
    80         16
    81         37
    82        110
    83         56
    84         14
    85          7
    86          0
    87          1
    88          0
    89          0
    90          1
    91         33
    92         81
    93         17
    94         96
    95        189
    96        192
    97         80
    98         22
    99          2
   100          1
   101          3
   102          1
   103          4
   104          1
   105         26
   106         17
   107         38
   108         23
   109         47
   110         24
   111         23
   112          1
   113          0
   114          0
   115          3
   116          6
   117          6
   118          8
   119         27
   120          4
   121          4
   122          6
   123         48
   124        142
   125         19
   126          1
   127          0
   129          1
   130          0
   131          1
   132          6
   133         49
   134         71
   135         26
   136          5
   137          6
   138          1
   139          2
   140          0
   142          0
   143          0
   145          0
   146          0
   147          0
   148          2
   149          2
   150          5
   151         61
   152        874
   153         83
   154          6
   158          0
   161          0
   165          0
   166          1
   168          0
   172          0
   175          0
   176          3
   177          1
   178          0
   179          0
   190          0
   192          0
   193          5
   194        343
   195         41
   196          3
   236         35
   237          4