##TITLE=Library Entry 58209
##JCAMP-DX=Revision 4.10 
##DATA TYPE=MASS SPECTRUM
##SAMPLE DESCRIPTION=A.A.Kutin, Moscow, Russia
##NAMES=HP
##CAS NAME=Thiourea, 1-(3-hydroxyphenyl)-3,3-dimethyl-
##MOLFORM=C9H12N2OS
##CAS REGISTRY NO=54767-03-2
##MP= -300
##BP= -300
##MW= 196
##$RETENTION INDEX=0
##$CONDENSED SPECTRUM=NO
##NPOINTS= 135
##XYDATA=(XY..XY) 1 
    33         11
    34          5
    35          1
    37         35
    38         96
    39        338
    40         57
    41         54
    42        278
    43         65
    44        413
    45        132
    46         23
    47         46
    49         12
    50         47
    51         66
    52         71
    53        118
    54         18
    55         41
    56         70
    57         25
    58         13
    59         24
    60         26
    61         39
    62         52
    63        130
    64         89
    65        256
    66         42
    67         16
    68         29
    69         43
    70         42
    71        307
    72         62
    73        112
    74         30
    75         23
    76         22
    77         17
    78         21
    79         28
    80         37
    81         58
    82         16
    83         13
    84         11
    85          8
    88        999
    89         99
    90         57
    91         21
    92         23
    93         89
    94         45
    95         23
    96         36
    97         70
    98         30
    99          5
   100          1
   101          0
   102          1
   103          1
   104          2
   105          3
   106          8
   107         49
   108         27
   109         17
   110          8
   111          6
   112          7
   113          2
   114          0
   116          5
   117          6
   118          3
   119         21
   120         26
   122         72
   123         18
   124         12
   125         26
   126         81
   127          8
   128          7
   129          1
   130          1
   131          0
   132          2
   133          5
   134         10
   136         44
   137          7
   138          3
   139          3
   140         15
   141          4
   142          1
   146          2
   147         12
   148         65
   149         18
   151        129
   152         57
   153         10
   154         10
   155          4
   156          1
   157          0
   158          0
   160          0
   161          3
   163        158
   164         16
   165          7
   166          3
   167         14
   168          1
   169          0
   177          1
   179         23
   180         14
   181          6
   182          4
   195         96
   196        528
   197         58
   198         26
   199          2
   200          0