##TITLE=Library Entry 20965
##JCAMP-DX=Revision 4.10 
##DATA TYPE=MASS SPECTRUM
##SAMPLE DESCRIPTION=V.G.Zaikin, TIPS, Russian Acad. Sci.
##NAMES=HP
##CAS NAME=6-Methoxyhexan-1-ol, TMS derivative
##MOLFORM=C10H24O2Si
##CAS REGISTRY NO=54767-37-2
##MP= -300
##BP= -300
##MW= 204
##$RETENTION INDEX=0
##$CONDENSED SPECTRUM=NO
##NPOINTS= 50
##XYDATA=(XY..XY) 1 
    41        230
    42         40
    43         80
    44         20
    45        350
    46         20
    47         60
    54         50
    55        999
    56         75
    58         70
    59         90
    60         10
    61         80
    67         60
    69         30
    71        110
    72         40
    73        570
    74         60
    75        410
    76         30
    77         30
    81         40
    82        240
    83        635
    84         65
    85         30
    89        910
    90         80
    91         50
    99         40
   101         60
   102         10
   103        300
   104         30
   105         10
   114         30
   115         20
   116         15
   119        230
   120         20
   129         70
   130         15
   157        135
   158         20
   172         40
   189         85
   190         10
   204          3