##TITLE=Library Entry 32478
##JCAMP-DX=Revision 4.10 
##DATA TYPE=MASS SPECTRUM
##SAMPLE DESCRIPTION=CARL DJERASSI DEPT OF CHEM STANFORD UNIV STANFORD CALIF
 94305
##NAMES=HP
##CAS NAME=3,9-Dodecadiene
##MOLFORM=C12H22
##CAS REGISTRY NO=54764-65-7
##MP= -300
##BP= -300
##MW= 166
##$RETENTION INDEX=0
##$CONDENSED SPECTRUM=NO
##NPOINTS= 36
##XYDATA=(XY..XY) 1 
    41        760
    42         60
    43         60
    51         10
    52         10
    53        100
    54        250
    55        670
    56         50
    57         20
    65         20
    66         50
    67        999
    68        390
    69        360
    70         30
    77         20
    79         50
    80         20
    81        620
    82        740
    83         80
    84         20
    91         10
    93         20
    95        370
    96        100
    97         20
   109         80
   110        290
   111         20
   120         80
   121        260
   122         30
   137         40
   166         50