##TITLE=Library Entry 82359
##JCAMP-DX=Revision 4.10 
##DATA TYPE=MASS SPECTRUM
##SAMPLE DESCRIPTION=NIST Mass Spectrometry Data Center, 1994
##NAMES=HP
##CAS NAME=4-Acetamidobenzyl chloride
##MOLFORM=C9H10ClNO
##CAS REGISTRY NO=54777-65-0
##MP= -300
##BP= -300
##MW= 183
##$RETENTION INDEX=0
##$CONDENSED SPECTRUM=NO
##NPOINTS= 44
##XYDATA=(XY..XY) 1 
     4          0
    14         11
    15         40
    18          9
    26         11
    27         17
    28         15
    32          2
    37          8
    38         15
    39         35
    40          8
    41         10
    42         31
    43        278
    44         14
    50         43
    51         92
    52         73
    53         17
    62         14
    63         23
    64          9
    65         10
    75         10
    77        159
    78        122
    79         37
    80         10
    89         19
   104         38
   106        999
   107        103
   113         12
   132         12
   140         18
   141        101
   142         14
   143         31
   148        174
   149         21
   183        138
   184         19
   185         46