##TITLE=Library Entry 96202
##JCAMP-DX=Revision 4.10 
##DATA TYPE=MASS SPECTRUM
##SAMPLE DESCRIPTION=AP-2125
##NAMES=HP
##CAS NAME=Thiophene, 2-(cyclopentylthio)-
##MOLFORM=C9H12S2
##CAS REGISTRY NO=54774-96-8
##MP= -300
##BP= -300
##MW= 184
##$RETENTION INDEX=0
##$CONDENSED SPECTRUM=NO
##NPOINTS= 133
##XYDATA=(XY..XY) 1 
    12          1
    13          1
    14          2
    15         35
    16          0
    24          0
    25          1
    26         18
    27        174
    28         28
    29         42
    30          1
    31          0
    32          4
    33          1
    34          1
    35          0
    36          0
    37         10
    38         40
    39        363
    40         45
    41        649
    42         33
    43         10
    44          5
    45        145
    46          6
    47         10
    48          0
    49          2
    50         11
    51         18
    52          7
    53         34
    54          3
    55          2
    56          1
    57         26
    58         36
    59         11
    60          2
    61          1
    62          2
    63          6
    64          5
    65         21
    66          9
    67         72
    68         15
    69        250
    70         31
    71         37
    72          3
    73          1
    76          6
    77          5
    78          4
    79          1
    80          0
    81         10
    82         26
    83          8
    84         12
    85          4
    86          0
    87          0
    88          3
    89          3
    90          3
    91         11
    92          8
    93          1
    94          0
    95          0
    96          1
    97         14
    98          1
    99          1
   100          0
   101          0
   102          0
   103          0
   105          0
   108          0
   109          2
   110          1
   111          1
   112          0
   113          0
   114          4
   115         45
   116        999
   117         66
   118         84
   119          5
   120          2
   121          1
   122          1
   123          2
   124          0
   125          0
   127          1
   128          0
   129          1
   130          0
   131          0
   134          0
   135          0
   136          0
   137          0
   140          0
   141          2
   142          1
   143          0
   144          0
   147          0
   148          0
   149          0
   150          0
   151          0
   153          0
   154          0
   155          0
   156          0
   157          0
   183          0
   184        147
   185         18
   186         14
   187          1
   188          0
   189          0