##TITLE=Library Entry 37583
##JCAMP-DX=Revision 4.10 
##DATA TYPE=MASS SPECTRUM
##SAMPLE DESCRIPTION=TAT 0498
##NAMES=HP
##CAS NAME=Thiazolo[5,4-d]pyrimidine-7(4H)-thione, 5-methyl-
##MOLFORM=C6H5N3S2
##CAS REGISTRY NO=54774-93-5
##MP= -300
##BP= -300
##MW= 183
##$RETENTION INDEX=0
##$CONDENSED SPECTRUM=NO
##NPOINTS= 69
##XYDATA=(XY..XY) 1 
    50        100
    51        210
    52        400
    53        250
    54         80
    55        130
    56        360
    57        600
    58        340
    59        540
    60        230
    61        760
    62         90
    63         60
    64        180
    65         90
    66        200
    67         50
    68         40
    69         60
    70        999
    71        190
    72         60
    73        260
    74         30
    76         40
    77         40
    79         40
    80         80
    81         40
    82        810
    83        680
    84        150
    85         60
    87         30
    88        340
    89         30
    96         40
    97         60
    98         90
   107         30
   108         30
   109        460
   110        350
   111         60
   112         30
   114         60
   115        100
   116         10
   120         30
   123         30
   124         40
   125         30
   126         30
   141         80
   142        460
   143         40
   144         50
   149         50
   150        130
   151        340
   152         60
   153         40
   155         40
   156         30
   182         10
   183        530
   184         50
   185         50