##TITLE=Library Entry 22742
##JCAMP-DX=Revision 4.10 
##DATA TYPE=MASS SPECTRUM
##SAMPLE DESCRIPTION=A.Pleshkova, Nesmeyanov Inst.Org.Elem.Cpds, Moscow
##NAMES=HP
##CAS NAME=N-Tert.-butyl-2-isopropoxycarbonylazetidine
##MOLFORM=C11H21NO2
##CAS REGISTRY NO=54773-10-3
##MP= -300
##BP= -300
##MW= 199
##$RETENTION INDEX=0
##$CONDENSED SPECTRUM=NO
##NPOINTS= 24
##XYDATA=(XY..XY) 1 
    27         15
    28         55
    29         35
    30         11
    39          6
    41         62
    42         37
    43         42
    44          8
    55         62
    56        999
    57        150
    58         11
    70         40
    84         31
   112        662
   113         24
   142        202
   143         15
   156          7
   184         90
   185         26
   199         51
   200          4