##TITLE=Library Entry 11732
##JCAMP-DX=Revision 4.10 
##DATA TYPE=MASS SPECTRUM
##SAMPLE DESCRIPTION=RH-36
##NAMES=HP
##CAS NAME=Bicyclo[2.2.2]octane-1,4-diol, monoacetate
##MOLFORM=C10H16O3
##CAS REGISTRY NO=54774-94-6
##MP= -300
##BP= -300
##MW= 184
##$RETENTION INDEX=0
##$CONDENSED SPECTRUM=NO
##NPOINTS= 97
##XYDATA=(XY..XY) 1 
    12          4
    13          4
    14         26
    15        136
    16          8
    17         13
    18         29
    26         26
    27        119
    28         88
    29         75
    30          3
    31         23
    37          3
    38         12
    39        114
    40         25
    41        124
    42        103
    43        999
    44         31
    45         19
    50         14
    51         31
    52         18
    53         76
    54         43
    55        187
    56         35
    57         42
    58          6
    60          6
    61         14
    62          5
    63         12
    64          4
    65         33
    66         30
    67        140
    68         62
    69         30
    70         64
    71         71
    72         16
    73         13
    74          4
    75          4
    77         40
    78         25
    79         58
    80         30
    81         75
    82         61
    83         72
    84         12
    85         49
    86          4
    91         49
    92          9
    93         20
    94         20
    95        205
    96        478
    97         41
    98          5
    99          7
   103          7
   104          3
   105         12
   106         81
   107         31
   108         12
   109        189
   110         16
   111          5
   112          5
   113         17
   114          5
   121          5
   122         12
   123         30
   124        631
   125         78
   126          6
   132          2
   133          2
   138         10
   141          7
   142         12
   143          1
   148         10
   149          3
   165          4
   166        131
   167         18
   168          2
   184          3