##TITLE=Library Entry 33350
##JCAMP-DX=Revision 4.10 
##DATA TYPE=MASS SPECTRUM
##SAMPLE DESCRIPTION=F.J. WINKLER, LEHRSTUHL ALLG. CHEM. BIOCHEM., FREISING,
 W. G
##NAMES=HP
##CAS NAME=5-cis-Methyl-1R,3-cis-cyclohexanediol
##MOLFORM=C7H14O2
##CAS REGISTRY NO=54773-78-3
##MP= -300
##BP= -300
##MW= 130
##$RETENTION INDEX=0
##$CONDENSED SPECTRUM=NO
##NPOINTS= 58
##XYDATA=(XY..XY) 1 
    39        170
    41        570
    42        450
    43        590
    44        830
    45        380
    46         20
    47        100
    51         20
    52         10
    53         80
    54         30
    55        230
    56        240
    57        160
    58         60
    59         10
    65         20
    66         20
    67        120
    68        999
    69        340
    70        280
    71        400
    72         20
    73        420
    74         20
    75         40
    77         60
    78         20
    79        220
    80         20
    81         40
    82         10
    83         80
    84         60
    85         40
    86         10
    87         20
    88         40
    89         10
    91         40
    92         20
    93         40
    94        490
    95         60
    96         10
    97        180
    98         10
   110          5
   111         40
   112        250
   113         20
   114          2
   115          8
   128          2
   129          2
   130          6