##TITLE=Library Entry 16228
##JCAMP-DX=Revision 4.10 
##DATA TYPE=MASS SPECTRUM
##SAMPLE DESCRIPTION=TAT 0070
##NAMES=HP
##CAS NAME=2H-Pyran-2-one, 4-methoxy-6-methyl-3-nitro-
##MOLFORM=C7H7NO5
##CAS REGISTRY NO=54774-80-0
##MP= -300
##BP= -300
##MW= 185
##$RETENTION INDEX=0
##$CONDENSED SPECTRUM=NO
##NPOINTS= 58
##XYDATA=(XY..XY) 1 
    15         50
    16         20
    26         30
    27        140
    28        200
    29         80
    30        130
    31         30
    37         50
    38        100
    39        400
    40         60
    41         50
    42        160
    43         90
    44        999
    45         30
    46         10
    50         40
    51         50
    52         60
    53        110
    54         80
    55        180
    56         40
    65         40
    66        110
    67        320
    68        130
    69        180
    70         40
    71         10
    80         50
    81         30
    82         40
    83         20
    93         20
    94         20
    95         20
    96         50
    97         10
    98         30
   107         30
   108         10
   109         20
   110         50
   111         10
   112        150
   113         10
   124         70
   125         20
   126         10
   127         10
   140         70
   141        480
   142         40
   143         10
   155         10