##TITLE=Library Entry 20353
##JCAMP-DX=Revision 4.10 
##DATA TYPE=MASS SPECTRUM
##SAMPLE DESCRIPTION=Exported from NIST MS Search
##NAMES=HP
##CAS NAME=2-Propenoic acid, 6-methylheptyl ester
##MOLFORM=C11H20O2
##CAS REGISTRY NO=54774-91-3
##MP= -300
##BP= -300
##MW= 184
##$RETENTION INDEX=1232
##$CONDENSED SPECTRUM=NO
##NPOINTS= 82
##XYDATA=(XY..XY) 1 
    15          2
    18          1
    26          9
    27        175
    28         21
    29        249
    30          3
    31         11
    38          1
    39         46
    40          7
    41        223
    42         95
    43        188
    44         15
    45          3
    50          1
    51          3
    52          1
    53          8
    54         20
    55        999
    56        229
    57        433
    58         57
    59          7
    65          2
    66          1
    67         14
    68         29
    69        131
    70        849
    71        115
    72          8
    73         96
    74          6
    75          2
    77          1
    79          2
    80          1
    81          8
    82         40
    83        237
    84        133
    85        109
    86         59
    87         19
    88          3
    89          1
    93          1
    94          1
    95          7
    96          1
    97         33
    98         38
    99          6
   100          3
   101          1
   107          1
   109          3
   110          4
   111         22
   112        169
   113         17
   114          3
   115          1
   123          1
   124          3
   125          4
   126          2
   127          7
   128          2
   129          2
   137          5
   138          1
   139          1
   141          3
   142          1
   151          1
   152          1
   153          4
   154          1