##TITLE=Library Entry 31254
##JCAMP-DX=Revision 4.10 
##DATA TYPE=MASS SPECTRUM
##SAMPLE DESCRIPTION=Chemical Concepts
##NAMES=HP
##CAS NAME=2-(Dimethyl phosphino)-ethyl phosphine
##MOLFORM=C4H12P2
##CAS REGISTRY NO=54772-64-4
##MP= -300
##BP= -300
##MW= 122
##$RETENTION INDEX=0
##$CONDENSED SPECTRUM=NO
##NPOINTS= 16
##XYDATA=(XY..XY) 1 
    45        464
    46        201
    57        434
    59        419
    61        999
    62        472
    63        999
    75        150
    76        488
    77         99
    79        139
    89        560
    93        149
    94        559
   121         58
   122        329