##TITLE=Library Entry 53457
##JCAMP-DX=Revision 4.10 
##DATA TYPE=MASS SPECTRUM
##SAMPLE DESCRIPTION=A.Pleshkova, Nesmeyanov Inst.Org.Elem.Cpds, Moscow
##NAMES=HP
##CAS NAME=N-Ethyl-2-carbethoxyazetidine
##MOLFORM=C8H15NO2
##CAS REGISTRY NO=54773-05-6
##MP= -300
##BP= -300
##MW= 157
##$RETENTION INDEX=0
##$CONDENSED SPECTRUM=NO
##NPOINTS= 14
##XYDATA=(XY..XY) 1 
    28        202
    29         36
    41         21
    42         48
    43          3
    55         14
    56        176
    57          8
    84        999
    85         53
    86          3
   142         14
   157         50
   158          5