##TITLE=Library Entry 36005
##JCAMP-DX=Revision 4.10 
##DATA TYPE=MASS SPECTRUM
##SAMPLE DESCRIPTION=A.A.Kutin, Moscow, Russia
##NAMES=HP
##CAS NAME=1,2,4-Triazole, 3-trifluromethyl-4-methyl-5-methylthio-
##MOLFORM=C5H6F3N3S
##CAS REGISTRY NO=54770-35-3
##MP= -300
##BP= -300
##MW= 197
##$RETENTION INDEX=0
##$CONDENSED SPECTRUM=NO
##NPOINTS= 103
##XYDATA=(XY..XY) 1 
    33         28
    34          6
    36          6
    38         12
    39         16
    40        146
    41         34
    42        162
    43         19
    44         95
    45        421
    46        376
    47        467
    48         36
    50         37
    51         11
    53        127
    54         95
    55        231
    56        489
    57        127
    58        262
    59        121
    60         82
    61         25
    62          8
    63         16
    64         20
    67          7
    69        999
    70        257
    71         17
    72         67
    73         92
    74        174
    75         12
    76         85
    77         15
    78          3
    81          8
    82         59
    83          1
    85         98
    86          6
    87         19
    88         45
    89         17
    90         25
    91         62
    94         15
    95          1
    96         47
    99          7
   101         15
   102         13
   103          7
   104          8
   105         39
   108         11
   109         41
   110        951
   111         39
   113         24
   116          2
   117          1
   118         79
   119          1
   120         11
   123         39
   124          4
   125          4
   130          1
   131        192
   132         64
   133          2
   134         41
   135          6
   136          1
   137          1
   138         54
   139          8
   144         70
   145          3
   151        899
   152        461
   153         41
   154          3
   162         14
   163          1
   164         42
   165         16
   176         26
   177          1
   178        158
   179         14
   180          8
   182         39
   184          2
   195          7
   196        220
   197        875
   198         60
   199         31