##TITLE=Library Entry 11773
##JCAMP-DX=Revision 4.10 
##DATA TYPE=MASS SPECTRUM
##SAMPLE DESCRIPTION=Exported from NIST MS Search
##NAMES=HP
##CAS NAME=Propanoic acid, 2,3-dichloro-, 1-methylethyl ester
##MOLFORM=C6H10Cl2O2
##CAS REGISTRY NO=54774-99-1
##MP= -300
##BP= -300
##MW= 184
##$RETENTION INDEX=1032
##$CONDENSED SPECTRUM=NO
##NPOINTS= 121
##XYDATA=(XY..XY) 1 
    14          3
    15         19
    17          2
    18          7
    19          3
    26          2
    27         24
    28        162
    29         17
    30         14
    32         10
    33          2
    35          1
    36          3
    37          2
    38          5
    39         44
    40         10
    41        211
    42        147
    43        999
    44         38
    45        122
    46          3
    47          2
    48          3
    49          6
    50          1
    51          2
    53          5
    54          3
    55         44
    56          3
    57          2
    58          3
    59         72
    60         11
    61         74
    62         81
    63         41
    64         26
    65          7
    67          4
    68          2
    69          3
    71         29
    72          2
    73         39
    74          4
    75          2
    76         11
    77         18
    78          6
    79          7
    83          6
    85          4
    87          4
    88          1
    89         84
    90          6
    91         38
    92          3
    93          5
    95          5
    96          5
    97        239
    98          9
    99        152
   100          5
   101         25
   102          1
   103          1
   104          1
   105          4
   106         10
   107         57
   108          8
   109         23
   110          2
   111          4
   113          4
   115          4
   116          1
   117          9
   120          1
   123         18
   124          2
   125        366
   126         13
   127        228
   128          9
   129         38
   130          2
   131          5
   133         55
   134          4
   135         21
   136          1
   137          1
   139          1
   140          4
   141          9
   142         34
   143         82
   144         23
   145         50
   146          5
   147         13
   148          1
   149          4
   151          1
   167          1
   168          1
   169         86
   170          5
   171         55
   172          3
   182          2
   184          2
   186          1
   187          1