##TITLE=Library Entry 68061
##JCAMP-DX=Revision 4.10 
##DATA TYPE=MASS SPECTRUM
##SAMPLE DESCRIPTION=CARL DJERASSI DEPT OF CHEM STANFORD UNIV STANFORD CALIF
 94305
##NAMES=HP
##CAS NAME=7-Thiabicyclo[4.1.0]heptane, 2-methyl-
##MOLFORM=C7H12S
##CAS REGISTRY NO=54773-76-1
##MP= -300
##BP= -300
##MW= 128
##$RETENTION INDEX=0
##$CONDENSED SPECTRUM=NO
##NPOINTS= 62
##XYDATA=(XY..XY) 1 
    29        280
    30         30
    31        440
    32         90
    38         40
    39        480
    40        150
    41        760
    42        160
    43        210
    44         70
    45        380
    46         90
    47         40
    50         40
    51         80
    52         30
    53        280
    54         90
    55        620
    56        280
    57        120
    58         90
    59         60
    60         60
    61         20
    63         20
    65         80
    66         80
    67        690
    68        860
    69        210
    70         30
    71        180
    72         30
    73        100
    74         90
    77        120
    78         30
    79        610
    80        120
    81        310
    82         20
    83        140
    84         50
    85        120
    86         40
    87         60
    91         40
    93         80
    94        430
    95        999
    96        120
    97        390
    98         30
    99         50
   112        100
   113         40
   114         50
   128        510
   129         40
   130         20