##TITLE=Library Entry 53458
##JCAMP-DX=Revision 4.10 
##DATA TYPE=MASS SPECTRUM
##SAMPLE DESCRIPTION=A.Pleshkova, Nesmeyanov Inst.Org.Elem.Cpds, Moscow
##NAMES=HP
##CAS NAME=N-Ethyl-2-isopropoxycarbonylazetidine
##MOLFORM=C9H17NO2
##CAS REGISTRY NO=54773-06-7
##MP= -300
##BP= -300
##MW= 171
##$RETENTION INDEX=0
##$CONDENSED SPECTRUM=NO
##NPOINTS= 11
##XYDATA=(XY..XY) 1 
    28        137
    29         11
    41         31
    42         53
    43          4
    56        134
    57         14
    84        999
    85         46
   171         22
   172          2