##TITLE=Library Entry 54669
##JCAMP-DX=Revision 4.10 
##DATA TYPE=MASS SPECTRUM
##SAMPLE DESCRIPTION=CARL DJERASSI DEPT OF CHEM STANFORD UNIV STANFORD CALIF
 94305
##NAMES=HP
##CAS NAME=2-Furanmethanol, tetrahydro-5-methyl-, trans-
##MOLFORM=C6H12O2
##CAS REGISTRY NO=54774-28-6
##MP= -300
##BP= -300
##MW= 116
##$RETENTION INDEX=0
##$CONDENSED SPECTRUM=NO
##NPOINTS= 25
##XYDATA=(XY..XY) 1 
    41        320
    42         80
    43        430
    44        130
    45        130
    53         20
    54         20
    55        110
    56        140
    57        300
    58         20
    59         20
    61         10
    67         90
    68         10
    69         10
    70         10
    71         20
    72         10
    74         10
    83         20
    84         30
    85        999
    86         50
    98         10