##TITLE=Library Entry 33408
##JCAMP-DX=Revision 4.10 
##DATA TYPE=MASS SPECTRUM
##SAMPLE DESCRIPTION=D.HENNEBERG, MAX-PLANCK INSTITUTE, MULHEIM, WEST GERMAN
Y
##NAMES=HP
##CAS NAME=Spiro[2.4]heptane, 1,1-dichloro-
##MOLFORM=C7H10Cl2
##CAS REGISTRY NO=54788-76-0
##MP= -300
##BP= -300
##MW= 164
##$RETENTION INDEX=0
##$CONDENSED SPECTRUM=NO
##NPOINTS= 69
##XYDATA=(XY..XY) 1 
    26          6
    27         33
    28         67
    29         11
    32         12
    36         11
    38          3
    39         77
    40         36
    41         76
    42         19
    43          3
    44          3
    45          2
    49          3
    50          4
    51         28
    52         11
    53         65
    54          8
    55         24
    57          2
    61          7
    62          1
    63          8
    65         69
    66         26
    67        499
    68        999
    69         54
    73          9
    75         13
    77         51
    78          8
    79         26
    80          3
    81         20
    82          2
    83          3
    85          4
    87         29
    88          6
    89         11
    90          2
    91         49
    92          5
    93         65
    94          6
    96          4
    98          2
    99         11
   100          3
   101         15
   102          2
   103          3
   109          4
   111          3
   113          2
   115          4
   122         45
   123          6
   124         26
   125          3
   126          4
   129          8
   131          3
   135          2
   136          1
   149          3