##TITLE=Library Entry 21656
##JCAMP-DX=Revision 4.10 
##DATA TYPE=MASS SPECTRUM
##SAMPLE DESCRIPTION=NIST Mass Spectrometry Data Center
##NAMES=HP
##CAS NAME=3-(5-Methyl-5-vinyltetrahydrofuran-2-yl)butan-2-ol
##MOLFORM=C11H20O2
##CAS REGISTRY NO=54783-61-8
##MP= -300
##BP= -300
##MW= 184
##$RETENTION INDEX=1376
##$CONDENSED SPECTRUM=NO
##NPOINTS= 86
##XYDATA=(XY..XY) 1 
    26         16
    27        147
    28         52
    29        114
    30          7
    31         15
    37          3
    38         16
    39        240
    40         47
    41        406
    42         64
    43        440
    44         21
    45        206
    50         28
    51         61
    52         30
    53        190
    54         63
    55        999
    56         87
    57         77
    58         15
    61          9
    62          7
    63         18
    64          3
    65         70
    66         37
    67        448
    68        155
    69        353
    70         74
    71        327
    72         34
    73         55
    74         93
    77         91
    78         12
    79        116
    80         35
    81        210
    82         71
    83        107
    84         52
    85         16
    86          9
    87         14
    91        100
    92         11
    93        478
    94         59
    95        364
    96         45
    97         50
    98         64
    99         33
   100          4
   101         20
   103          6
   107         51
   108         12
   109         34
   110        105
   111        439
   112         51
   113         36
   114         16
   116         60
   120         10
   121         17
   123        197
   124         24
   133          6
   138          8
   139         27
   151        112
   152         11
   157         45
   158          4
   166         16
   169        611
   170         47
   171          9
   184          8