##TITLE=Library Entry 2551
##JCAMP-DX=Revision 4.10 
##DATA TYPE=MASS SPECTRUM
##SAMPLE DESCRIPTION=Exported from NIST MS Search
##NAMES=HP
##CAS NAME=2-Thiophenethiol, 5-(1,1-dimethylethoxy)-
##MOLFORM=C8H12OS2
##CAS REGISTRY NO=54789-36-5
##MP= -300
##BP= -300
##MW= 188
##$RETENTION INDEX=0
##$CONDENSED SPECTRUM=NO
##NPOINTS= 53
##XYDATA=(XY..XY) 1 
    40        107
    41        999
    42        333
    43        967
    44        107
    45        236
    46         43
    50         43
    51         43
    53         53
    54         53
    55        225
    56        322
    57        645
    58        193
    59        139
    60         21
    64         53
    65         43
    66         43
    67         32
    68        107
    69        322
    70        139
    71        215
    72        107
    73         32
    76        333
    77        107
    78         53
    79         53
    85         53
    89         64
    91        150
    99         96
   100        107
   101         64
   102        247
   103        139
   104        193
   105         32
   114         53
   130        537
   131         64
   132        752
   133        107
   134         86
   173         43
   186         43
   187         43
   188        215
   189         32
   190         32