##TITLE=Library Entry 57989
##JCAMP-DX=Revision 4.10 
##DATA TYPE=MASS SPECTRUM
##SAMPLE DESCRIPTION=Exported from NIST MS Search
##NAMES=HP
##CAS NAME=Octanoic acid, 2,6-dimethyl-, methyl ester
##MOLFORM=C11H22O2
##CAS REGISTRY NO=54798-85-5
##MP= -300
##BP= -300
##MW= 186
##$RETENTION INDEX=0
##$CONDENSED SPECTRUM=NO
##NPOINTS= 59
##XYDATA=(XY..XY) 1 
    27         56
    28         16
    29        126
    31          8
    39         48
    40         13
    41        194
    42         52
    43        137
    44          8
    45         16
    53         16
    54          3
    55        197
    56         56
    57        210
    58         13
    59         94
    67         16
    68          8
    69        145
    70         24
    71         65
    72          3
    73         48
    74         13
    81          8
    83         40
    84         13
    85         29
    87         94
    88        999
    89         48
    90          3
    95          2
    96         32
    97        113
    98         24
   101        476
   102         40
   111         24
   112          8
   113         13
   115         24
   125         24
   126          8
   127         16
   129         48
   130          8
   139         13
   143          8
   153          3
   155         32
   156          3
   157         73
   158          8
   169         13
   171          8
   186         32