##TITLE=Library Entry 6213
##JCAMP-DX=Revision 4.10 
##DATA TYPE=MASS SPECTRUM
##SAMPLE DESCRIPTION=KONINKLIJKE SHELL LABORATORIUM AMSTERDAM
##NAMES=HP
##CAS NAME=Hexanoic acid, 2-methyl-2-propyl-, methyl ester
##MOLFORM=C11H22O2
##CAS REGISTRY NO=54798-83-3
##MP= -300
##BP= -300
##MW= 186
##$RETENTION INDEX=1112
##$CONDENSED SPECTRUM=NO
##NPOINTS= 103
##XYDATA=(XY..XY) 1 
    31         30
    33         10
    34          0
    35          0
    36          1
    37          5
    38         14
    39        314
    40         63
    41        863
    42         95
    43        999
    44         36
    45         62
    46          1
    47          0
    49          0
    50          7
    51         21
    52         11
    53         93
    54         26
    55        422
    56        168
    57        700
    58         32
    59        215
    60          6
    61          3
    62          1
    63          3
    71        791
    72         45
    73         98
    74         10
    75          2
    76          0
    77         10
    78          3
    79         13
    80          3
    81         17
    82         11
    83         89
    84         53
    85        500
    86         32
    87         55
    88         14
    89          1
    91          2
    92          0
    93          1
    94          0
    95          8
    96          4
    97         34
    98         19
    99          8
   100          6
   101        711
   102         45
   103          4
   104          0
   105          0
   107          0
   108          0
   109          1
   110          1
   111         17
   112         10
   113          5
   114          3
   115         11
   116          1
   123          1
   124          1
   125          9
   126         52
   127        459
   128         46
   129         25
   130        418
   131         31
   132          2
   133          0
   136          0
   139          1
   141          1
   142          1
   143         72
   144        288
   145         25
   146          2
   155          6
   156          0
   157         48
   158          6
   159          0
   171          3
   186          1
   187          1
   188          0