##TITLE=Library Entry 80854
##JCAMP-DX=Revision 4.10 
##DATA TYPE=MASS SPECTRUM
##SAMPLE DESCRIPTION=A.A.Kutin, Moscow, Russia
##NAMES=HP
##CAS NAME=Benzoic acid, 4-methyl-, 2-oxo-2-phenylethyl ester
##MOLFORM=C16H14O3
##CAS REGISTRY NO=54797-44-3
##MP= -300
##BP= -300
##MW= 254
##$RETENTION INDEX=0
##$CONDENSED SPECTRUM=NO
##NPOINTS= 123
##XYDATA=(XY..XY) 1 
    33          0
    34          0
    37          2
    38         10
    39         76
    40         11
    41         23
    42          4
    43          3
    44          6
    45          2
    48          0
    50         48
    51        121
    52         12
    53          4
    54          0
    55          0
    56          0
    57          0
    59          1
    60          0
    61          2
    62         13
    63         44
    64         19
    65        199
    66         11
    67          0
    69          0
    70          0
    71          0
    72          0
    73          1
    74          8
    75          9
    77        299
    78         20
    79          1
    80          0
    81          0
    82          0
    83          0
    85          0
    86          1
    87          2
    89         53
    90         47
    91        353
    92         28
    93          1
    94          0
    95          0
    97          0
    98          0
    99          0
   101          0
   102          1
   105        999
   106         81
   107          6
   108          0
   109          0
   110          0
   111          0
   112          0
   113          0
   114          0
   115          0
   118        207
   119        676
   120         66
   121          4
   122          0
   126          0
   127          0
   128          0
   132          0
   133          1
   134          0
   135          0
   136          1
   137          0
   139          2
   140          0
   141          0
   145          0
   147          0
   148          0
   149          1
   150          0
   151          0
   152          1
   153          0
   163          0
   164          0
   165          1
   166          0
   167          0
   168          0
   173          0
   175          0
   177          0
   178          0
   180          0
   181          0
   191          0
   194          0
   195          0
   220          0
   222          0
   224         18
   225          2
   226          0
   237          0
   238          1
   239          0
   251          0
   252          0
   253          2
   254         18
   255          3
   256          0