##TITLE=Library Entry 79350
##JCAMP-DX=Revision 4.10 
##DATA TYPE=MASS SPECTRUM
##SAMPLE DESCRIPTION=ORMSBG,9(1)102(1974); THOMAS
##NAMES=HP
##CAS NAME=Benzoic acid, 4-chloro-, 2-oxo-2-phenylethyl ester
##MOLFORM=C15H11ClO3
##CAS REGISTRY NO=54797-45-4
##MP= -300
##BP= -300
##MW= 274
##$RETENTION INDEX=0
##$CONDENSED SPECTRUM=NO
##NPOINTS= 14
##XYDATA=(XY..XY) 1 
    39         30
    50         60
    51        100
    75         80
    76         30
    77        230
   105        999
   106         90
   111        110
   113         40
   118        110
   139        160
   141         70
   274         30