##TITLE=Library Entry 84337
##JCAMP-DX=Revision 4.10 
##DATA TYPE=MASS SPECTRUM
##SAMPLE DESCRIPTION=Japan AIST/NIMC Database- Spectrum MS-NW-2565
##NAMES=HP
##CAS NAME=Benzoic acid, 2-amino-3-hydroxy-
##MOLFORM=C7H7NO3
##CAS REGISTRY NO=548-93-6
##MP= -300
##BP= -300
##MW= 153
##$RETENTION INDEX=0
##$CONDENSED SPECTRUM=NO
##NPOINTS= 81
##XYDATA=(XY..XY) 1 
    14          1
    15          2
    17          2
    18          7
    25          2
    26         12
    27         41
    28         54
    29         12
    30          3
    31          1
    32          1
    36          2
    37         15
    38         26
    39         49
    40         20
    41         11
    42          5
    43          3
    44          9
    45         17
    46          1
    48          2
    49         12
    50         42
    51        104
    52        293
    53        129
    54         45
    55         13
    56          1
    57          1
    60          2
    61          9
    62         18
    63         40
    64         16
    65         12
    66          5
    67          4
    68         19
    69          1
    70          1
    71          1
    74          2
    75          7
    76         17
    77         12
    78        136
    79        289
    80         98
    81          9
    85          1
    88          1
    89          2
    90         11
    91         13
    92          6
    93          1
    95          1
    96          2
   105          1
   106        100
   107        999
   108        101
   109         19
   110          1
   119          3
   120          1
   121          5
   134         61
   135        478
   136         61
   137          5
   148          1
   149          2
   152         13
   153        668
   154         53
   155          6