##TITLE=Library Entry 4772
##JCAMP-DX=Revision 4.10 
##DATA TYPE=MASS SPECTRUM
##SAMPLE DESCRIPTION=CARL DJERASSI DEPT OF CHEM STANFORD UNIV STANFORD CALIF
 94305
##NAMES=HP
##CAS NAME=8-Azabicyclo[3.2.1]octane-2-carboxylic acid, 3-hydroxy-8-methyl-,
 (exo,exo)-
##MOLFORM=C9H15NO3
##CAS REGISTRY NO=54808-87-6
##MP= -300
##BP= -300
##MW= 185
##$RETENTION INDEX=0
##$CONDENSED SPECTRUM=NO
##NPOINTS= 76
##XYDATA=(XY..XY) 1 
    30        170
    31         75
    32         58
    37          4
    38         25
    39        241
    40         50
    41        316
    42        999
    43        170
    44        183
    45         79
    50          8
    51         29
    52         29
    53         91
    54         83
    55        258
    56        154
    57        441
    58        154
    59         12
    60          8
    63          4
    65         16
    66         16
    67         62
    68         75
    69         45
    70         70
    71         33
    72          4
    73          4
    77         16
    78          4
    79         16
    80         25
    81         37
    82        416
    83        225
    84         54
    85         12
    86         54
    87          8
    91         12
    93         25
    94        120
    95         33
    96        320
    97        216
    98         37
    99          4
   100          4
   102          4
   108         16
   109          4
   110         20
   111          4
   112         54
   113          4
   122         12
   123          8
   124        100
   125         12
   126          8
   128          8
   130          8
   138         12
   140         20
   141         33
   142         12
   168         29
   169          8
   170          8
   185         29
   186         20