##TITLE=Library Entry 44847
##JCAMP-DX=Revision 4.10 
##DATA TYPE=MASS SPECTRUM
##SAMPLE DESCRIPTION=Exported from NIST MS Search
##NAMES=HP
##CAS NAME=1-Pentalenecarboxylic acid, 3-(chloromethyl)octahydro-, methyl es
ter
##MOLFORM=C11H17ClO2
##CAS REGISTRY NO=54815-17-7
##MP= -300
##BP= -300
##MW= 216
##$RETENTION INDEX=0
##$CONDENSED SPECTRUM=NO
##NPOINTS= 146
##XYDATA=(XY..XY) 1 
    15         17
    16          4
    17         12
    18         42
    26          5
    27         95
    28        187
    29         51
    31         14
    32         45
    33          3
    35         12
    36         88
    37          6
    38         35
    39        161
    40         33
    41        224
    42         23
    43        170
    44         21
    45         20
    46          4
    49          9
    50         17
    51         57
    52         32
    53        121
    54         45
    55         94
    56          6
    57          8
    58         12
    59        117
    60         10
    61          9
    62          6
    63         19
    64          5
    65         84
    66         53
    67        317
    68         51
    69         18
    71         19
    73          7
    74        999
    75        243
    76         17
    77        178
    78        107
    79        522
    80        135
    81        135
    82         16
    83          6
    84         11
    85          9
    87         63
    88         21
    89         15
    90          6
    91        195
    92         63
    93        171
    94        150
    95         68
    96          8
    97         14
    98          5
    99         45
   100         13
   101         23
   102          6
   103         18
   104         28
   105         99
   106        432
   107        939
   108         98
   109         22
   110          4
   111         15
   112          6
   113         51
   114         22
   115         27
   116         14
   117         15
   118          5
   119         35
   120        173
   121        271
   122        102
   123         13
   125         11
   126          5
   127         43
   128          9
   129         10
   130         12
   131         10
   133          5
   135         19
   137          8
   138         15
   139         72
   140         88
   141         30
   142         62
   143         42
   144         22
   145         12
   147          6
   148         88
   149        106
   150         20
   151         14
   152         16
   153          6
   154         15
   155          3
   156         18
   157         14
   158          6
   159          5
   165         14
   167         46
   168          5
   173          5
   175         25
   177          8
   180         62
   181        331
   182         40
   183          4
   184         10
   185        100
   186         14
   187         33
   188          8
   201          3
   207          5
   216         35
   217          6
   218         12