##TITLE=Library Entry 76370
##JCAMP-DX=Revision 4.10 
##DATA TYPE=MASS SPECTRUM
##SAMPLE DESCRIPTION=Exported from NIST MS Search
##NAMES=HP
##CAS NAME=Nonane, 1,1-diethoxy-
##MOLFORM=C13H28O2
##CAS REGISTRY NO=54815-13-3
##MP= -300
##BP= -300
##MW= 216
##$RETENTION INDEX=1381
##$CONDENSED SPECTRUM=NO
##NPOINTS= 58
##XYDATA=(XY..XY) 1 
    14          4
    15         11
    17          1
    18         10
    19          7
    26         12
    27         65
    28         55
    29        188
    30         12
    31         88
    32         11
    39         23
    40          7
    41        122
    42         33
    43        129
    44         51
    45         53
    46         23
    47        205
    53         13
    54         22
    55        129
    56         34
    57        340
    58         25
    59         32
    66          9
    67         45
    68         45
    69        211
    70         30
    71         30
    72         41
    73         12
    75        252
    81         46
    82         67
    83        126
    84         16
    85        270
    86         21
    95         34
    96         27
    97         14
    98          9
    99         31
   103        999
   104         65
   113         13
   124         20
   125         16
   127         27
   141         21
   159          3
   171        229
   215          3