##TITLE=Library Entry 70016
##JCAMP-DX=Revision 4.10 
##DATA TYPE=MASS SPECTRUM
##SAMPLE DESCRIPTION=Chemical Concepts
##NAMES=HP
##CAS NAME=2H-Pyran-2-one, 5,6-dihydro-6-pentyl-
##MOLFORM=C10H16O2
##CAS REGISTRY NO=54814-64-1
##MP= -300
##BP= -300
##MW= 168
##$RETENTION INDEX=1501
##$CONDENSED SPECTRUM=NO
##NPOINTS= 81
##XYDATA=(XY..XY) 1 
    26         11
    27        166
    28         24
    29        170
    30          4
    31          5
    33          0
    37          5
    38         21
    39        327
    40        177
    41        419
    42         89
    43         94
    44         17
    45          4
    50          6
    51         10
    52          8
    53         36
    54         16
    55         91
    56         20
    57         24
    58          3
    62          0
    63          5
    64          0
    65         10
    66         11
    67         43
    68        787
    69        303
    70         25
    71         31
    72          3
    73          2
    74          1
    77          8
    78          4
    79         19
    80          9
    81         32
    82         12
    83         21
    84         24
    85         10
    86         17
    91          2
    92          3
    93         11
    94         15
    95         17
    96         46
    97        999
    98         62
    99         26
   100          5
   101          1
   106          6
   107          9
   108         52
   109         12
   110          3
   111         11
   112         17
   113          4
   114          6
   121          6
   122         14
   123          9
   124          2
   125          7
   126          4
   127          1
   132          1
   135          2
   139         13
   140          7
   150          5
   168          2