##TITLE=Library Entry 24830
##JCAMP-DX=Revision 4.10 
##DATA TYPE=MASS SPECTRUM
##SAMPLE DESCRIPTION=Insect Chem. Ecol. Lab., USDA, Beltsville, MD 20705
##NAMES=HP
##CAS NAME=2-Chloropropanoic acid butyl ester
##MOLFORM=C7H13ClO2
##CAS REGISTRY NO=54819-86-2
##MP= -300
##BP= -300
##MW= 164
##$RETENTION INDEX=1027
##$CONDENSED SPECTRUM=NO
##NPOINTS= 77
##XYDATA=(XY..XY) 1 
    41        806
    42         64
    43        105
    45        108
    47         20
    48         14
    49         84
    50         12
    51         31
    52          6
    53         22
    54          0
    55        202
    56        817
    57        999
    58         47
    59          5
    60          1
    61         21
    62         31
    63        316
    64         93
    65         97
    66         25
    67          2
    68          0
    69          4
    71         20
    73         36
    74         18
    76          7
    77          7
    78          3
    79          7
    80          0
    81          2
    82          2
    83          8
    87          2
    88          4
    89          2
    90          6
    91        123
    93         47
    94          1
    95          3
    97          8
    99          5
   101          6
   104          4
   105          1
   106          1
   107          3
   108          8
   109        117
   111         45
   112          1
   115          2
   121         17
   123          6
   124          0
   125          0
   127          0
   129          2
   130          0
   135          3
   136          0
   137          1
   139          0
   148          0
   149          3
   151          1
   163          5
   164          9
   165          1
   166          4
   167          0