##TITLE=Library Entry 55912
##JCAMP-DX=Revision 4.10 
##DATA TYPE=MASS SPECTRUM
##SAMPLE DESCRIPTION=Exported from NIST MS Search
##NAMES=HP
##CAS NAME=2(3H)-Furanone, 3-(2-bromoethyl)dihydro-
##MOLFORM=C6H9BrO2
##CAS REGISTRY NO=54815-24-6
##MP= -300
##BP= -300
##MW= 192
##$RETENTION INDEX=0
##$CONDENSED SPECTRUM=NO
##NPOINTS= 94
##XYDATA=(XY..XY) 1 
    14          1
    15          4
    17          6
    18         17
    26         12
    27         79
    28         29
    29         55
    30          3
    31          5
    32          4
    36          3
    37          3
    38          8
    39         64
    40         15
    41        201
    42         43
    43         17
    44          6
    45          5
    49          1
    50          5
    51          7
    52          4
    53         35
    54         18
    55        220
    56         13
    57         12
    58         33
    59          2
    60          7
    61          2
    62          2
    63          2
    65          4
    66          3
    67         26
    68         23
    69         68
    70          5
    71          6
    73         10
    74          2
    75          1
    79          3
    80          3
    81          5
    82          6
    83          7
    84          3
    85         50
    86        999
    87         48
    88          6
    91          1
    92          1
    93          7
    94          2
    95          7
    96          2
    97          3
    98          2
    99          5
   100          3
   101          1
   105          1
   106          5
   107         17
   108          5
   109         16
   110          1
   111          2
   112          6
   113         15
   114          1
   115          2
   119          3
   120          3
   121          4
   122          2
   125          1
   127          1
   129          4
   133          1
   134          4
   135          2
   136          4
   137          1
   184          3
   190          1
   192          2
   194          1