##TITLE=Library Entry 45540
##JCAMP-DX=Revision 4.10 
##DATA TYPE=MASS SPECTRUM
##SAMPLE DESCRIPTION=Exported from NIST MS Search
##NAMES=HP
##CAS NAME=Pentane, 1,5-bis(ethylthio)-
##MOLFORM=C9H20S2
##CAS REGISTRY NO=54815-22-4
##MP= -300
##BP= -300
##MW= 192
##$RETENTION INDEX=0
##$CONDENSED SPECTRUM=NO
##NPOINTS= 87
##XYDATA=(XY..XY) 1 
    15          4
    16         15
    26         16
    27        145
    29        212
    30          5
    32         13
    33          5
    34         14
    35         65
    39         59
    40         13
    41        417
    42         37
    43         20
    44        251
    45        125
    46         47
    47        301
    48         16
    49         15
    53         29
    54         11
    55        115
    56         10
    57         10
    58         18
    59        130
    60         90
    61        164
    62         49
    63         48
    65         15
    67        195
    68        254
    69        457
    70         45
    71         14
    72          7
    73         64
    74         26
    75        999
    76         58
    77         46
    79         19
    81         12
    85         13
    87         53
    88         39
    89         88
    90          7
    91          6
    93         11
    95          6
    96          8
    97          5
    99         10
   101        489
   102        180
   103         53
   104         10
   105          4
   107         24
   115         39
   116          4
   117         45
   118          4
   119          4
   121         15
   129          7
   130        144
   131        175
   132         21
   133         10
   135         16
   150         49
   151          4
   152          5
   164        361
   165         35
   166         34
   167          3
   179          8
   192        176
   193         21
   194         18
   195          2