##TITLE=Library Entry 98778
##JCAMP-DX=Revision 4.10 
##DATA TYPE=MASS SPECTRUM
##SAMPLE DESCRIPTION=M.C.HAMMING CONTINENTAL OIL CO., PONCA CITY., OKLA., US
A
##NAMES=HP
##CAS NAME=Benzene, 1-(3-cyclopentylpropyl)-2,4-dimethyl-
##MOLFORM=C16H24
##CAS REGISTRY NO=54815-16-6
##MP= -300
##BP= -300
##MW= 216
##$RETENTION INDEX=0
##$CONDENSED SPECTRUM=NO
##NPOINTS= 149
##XYDATA=(XY..XY) 1 
    13          0
    14          2
    15         12
    16          0
    25          0
    26          5
    27         72
    28         27
    29         42
    30          1
    36          0
    37          1
    38          4
    39         83
    40         15
    41        183
    42         28
    43          9
    44          1
    45          0
    50          5
    51         23
    52          9
    53         33
    54          7
    55         55
    56          3
    57          1
    58          1
    59          0
    62          2
    63         11
    64          4
    65         27
    66          7
    67         31
    68          5
    69         18
    70          2
    71          2
    74          1
    75          3
    76          4
    77         61
    78         22
    79         35
    80          4
    81          6
    82          4
    83          3
    86          0
    87          1
    88          1
    89          6
    90          4
    91         98
    92          9
    93          7
    94          2
    95          2
    96          0
    97          2
    98          0
   101          2
   102          7
   103         31
   104         32
   105         77
   106         37
   107          8
   108          7
   109          2
   110          0
   113          1
   114          2
   115         35
   116         17
   117         41
   118         31
   119        999
   120        168
   121         21
   122          2
   126          0
   127          4
   128         12
   129         10
   130          7
   131         14
   132         24
   133        142
   134         20
   135          2
   139          0
   140          0
   141          3
   142          2
   143          4
   144          1
   145         28
   146          5
   147          7
   148         20
   149          2
   150          0
   152          0
   153          0
   154          0
   155          1
   156          0
   157          1
   158          0
   159          4
   160          1
   161          3
   162          0
   165          0
   166          0
   167          0
   168          0
   169          1
   170          0
   171          1
   172          0
   173          2
   174          0
   175          0
   181          0
   183          0
   184          0
   185          0
   186          0
   187          0
   188          0
   189          0
   197          1
   199          0
   201          1
   202          0
   207          0
   210          0
   211          0
   212          1
   213          0
   214          4
   215          2
   216        178
   217         31
   218          2