##TITLE=Library Entry 54764
##JCAMP-DX=Revision 4.10 
##DATA TYPE=MASS SPECTRUM
##SAMPLE DESCRIPTION=Exported from NIST MS Search
##NAMES=HP
##CAS NAME=Hexane, 1,1'-[methylenebis(oxy)]bis-
##MOLFORM=C13H28O2
##CAS REGISTRY NO=54815-12-2
##MP= -300
##BP= -300
##MW= 216
##$RETENTION INDEX=0
##$CONDENSED SPECTRUM=NO
##NPOINTS= 59
##XYDATA=(XY..XY) 1 
    15          2
    18          4
    26          2
    27         52
    28         32
    29         81
    30          4
    31         20
    32          3
    36          3
    39         31
    40          8
    41        163
    42         64
    43        757
    44         44
    45         30
    51          2
    53          8
    54         10
    55        101
    56        110
    57        154
    58         15
    59          6
    60          3
    61          2
    67         20
    68         12
    69         37
    70         18
    71         39
    72          9
    73          8
    80          2
    81         13
    82         62
    83        332
    84        106
    85        999
    86         77
    87          6
    95          7
    96         30
    97         20
    98          7
    99          7
   100          7
   101         21
   102          3
   103          5
   109          2
   112          2
   113         66
   114         15
   115        365
   116         29
   117         18
   216          8