##TITLE=Library Entry 21064
##JCAMP-DX=Revision 4.10 
##DATA TYPE=MASS SPECTRUM
##SAMPLE DESCRIPTION=Exported from NIST MS Search
##NAMES=HP
##CAS NAME=Cyclohexane, 1-(cyclohexylmethyl)-4-methyl-, trans-
##MOLFORM=C14H26
##CAS REGISTRY NO=54823-98-2
##MP= -300
##BP= -300
##MW= 194
##$RETENTION INDEX=0
##$CONDENSED SPECTRUM=NO
##NPOINTS= 122
##XYDATA=(XY..XY) 1 
    36          1
    37          1
    38          4
    39        172
    40         31
    41        592
    42         62
    43         86
    44          3
    45          1
    46          1
    47          1
    48          1
    49          1
    50          3
    51         12
    52          9
    53         89
    54        111
    55        999
    56         84
    57         20
    58          1
    59          1
    60          1
    61          1
    62          1
    63          2
    64          1
    65         18
    66         15
    67        224
    68         87
    69        153
    70         23
    71          5
    72          1
    73          1
    74          1
    75          1
    76          1
    77         22
    78          6
    79         34
    80         13
    81        232
    82        406
    83        497
    84         36
    85          2
    86          1
    87          1
    88          1
    89          1
    90          1
    91         10
    92          2
    93          7
    94          5
    95         92
    96        378
    97        729
    98         59
    99          3
   100          1
   101          1
   102          1
   103          1
   104          1
   105          1
   106          1
   107          2
   108          2
   109         25
   110         75
   111         73
   112          7
   113          1
   114          1
   115          1
   116          1
   117          1
   118          1
   119          1
   120          1
   121          1
   122          2
   123         13
   124          5
   125          1
   126          1
   127          1
   128          1
   129          1
   130          1
   131          1
   132          1
   133          1
   134          1
   135          1
   136          1
   137          3
   138          2
   139          1
   140          1
   149          1
   150          1
   151          1
   152          1
   153          1
   164          1
   165          2
   166          3
   167          1
   178          1
   179          2
   180          1
   192          1
   193          1
   194        165
   195         26
   196          2