##TITLE=Library Entry 78718
##JCAMP-DX=Revision 4.10 
##DATA TYPE=MASS SPECTRUM
##SAMPLE DESCRIPTION=Exported from NIST MS Search
##NAMES=HP
##CAS NAME=1-Propanone, 2,2-dichloro-3-hydroxy-1-phenyl-
##MOLFORM=C9H8Cl2O2
##CAS REGISTRY NO=54824-08-7
##MP= -300
##BP= -300
##MW= 218
##$RETENTION INDEX=0
##$CONDENSED SPECTRUM=NO
##NPOINTS= 84
##XYDATA=(XY..XY) 1 
    14          1
    15          1
    18          3
    26          1
    27          4
    28         24
    29         31
    30         25
    31          3
    32          3
    36          1
    37          3
    38          5
    39          9
    40          1
    41          1
    42          2
    43          2
    44          2
    47          1
    48          2
    49          6
    50         32
    51         84
    52          6
    53          2
    61          4
    62          7
    63         12
    64          2
    65          3
    69          1
    71          1
    73          4
    74         13
    75         10
    76         16
    77        348
    78         42
    79          3
    83          2
    84          1
    85          3
    86          2
    87          2
    89         13
    90          3
    91          3
    97          1
    98          1
    99          3
   101          3
   102          4
   103          2
   104          3
   105        999
   106         77
   107          6
   110         10
   111          1
   112          8
   114          2
   122         13
   123          2
   125         16
   126          1
   127          5
   128          1
   129          3
   131          1
   136          1
   137          1
   147          1
   154          1
   156          1
   166          9
   167          1
   168          3
   181          1
   183          1
   188         11
   189          1
   190          7
   192          1