##TITLE=Library Entry 21059
##JCAMP-DX=Revision 4.10 
##DATA TYPE=MASS SPECTRUM
##SAMPLE DESCRIPTION=Exported from NIST MS Search
##NAMES=HP
##CAS NAME=Cyclohexane, 1-(cyclohexylmethyl)-3-methyl-, cis-
##MOLFORM=C14H26
##CAS REGISTRY NO=54823-96-0
##MP= -300
##BP= -300
##MW= 194
##$RETENTION INDEX=0
##$CONDENSED SPECTRUM=NO
##NPOINTS= 124
##XYDATA=(XY..XY) 1 
    36          1
    37          1
    38          4
    39        168
    40         32
    41        582
    42         81
    43         89
    44          3
    45          1
    46          1
    47          1
    48          1
    49          1
    50          3
    51         12
    52          9
    53         85
    54         98
    55        999
    56         80
    57         17
    58          1
    59          1
    60          1
    61          1
    62          1
    63          2
    64          1
    65         17
    66         15
    67        205
    68         73
    69        149
    70         17
    71          3
    72          1
    73          1
    74          1
    75          1
    76          1
    77         22
    78          6
    79         32
    80         11
    81        198
    82        355
    83        422
    84         31
    85          2
    86          1
    87          1
    88          1
    89          1
    90          1
    91         10
    92          2
    93          7
    94          6
    95        112
    96        355
    97        870
    98         71
    99          3
   100          1
   101          1
   102          1
   103          1
   104          1
   105          1
   106          1
   107          2
   108          2
   109         21
   110         42
   111         64
   112          6
   113          1
   114          1
   115          1
   116          1
   117          1
   118          1
   119          1
   120          1
   121          1
   122          1
   123         12
   124          3
   125          1
   126          1
   127          1
   128          1
   129          1
   130          1
   131          1
   132          1
   133          1
   134          1
   135          1
   136          1
   137          2
   138          2
   139          1
   140          1
   149          1
   150          1
   151          2
   152          2
   153          1
   154          1
   165          1
   166          2
   167          1
   178          1
   179          5
   180          1
   181          1
   192          1
   193          1
   194        163
   195         26
   196          2
   197          1