##TITLE=Library Entry 21061
##JCAMP-DX=Revision 4.10 
##DATA TYPE=MASS SPECTRUM
##SAMPLE DESCRIPTION=Exported from NIST MS Search
##NAMES=HP
##CAS NAME=Cyclohexane, 1-(cyclohexylmethyl)-4-methyl-, cis-
##MOLFORM=C14H26
##CAS REGISTRY NO=54823-97-1
##MP= -300
##BP= -300
##MW= 194
##$RETENTION INDEX=0
##$CONDENSED SPECTRUM=NO
##NPOINTS= 124
##XYDATA=(XY..XY) 1 
    36          1
    37          1
    38          4
    39        175
    40         31
    41        595
    42         60
    43         90
    44          3
    45          1
    46          1
    47          1
    49          1
    50          3
    51         12
    52         10
    53         91
    54        112
    55        999
    56         83
    57         23
    58          1
    59          1
    60          1
    61          1
    62          1
    63          2
    64          1
    65         18
    66         15
    67        224
    68         85
    69        145
    70         24
    71          6
    72          1
    73          1
    74          1
    75          1
    76          1
    77         22
    78          6
    79         35
    80         13
    81        234
    82        313
    83        430
    84         30
    85          2
    86          1
    87          1
    88          1
    89          1
    90          1
    91         10
    92          2
    93          7
    94          4
    95         83
    96        469
    97        789
    98         63
    99          3
   100          1
   101          1
   102          1
   103          1
   104          1
   105          1
   106          1
   107          2
   108          2
   109         26
   110         62
   111         65
   112          7
   113          1
   114          1
   115          1
   116          1
   117          1
   118          1
   119          1
   120          1
   121          1
   122          2
   123         11
   124          4
   125          1
   126          1
   127          1
   128          1
   129          1
   130          1
   131          1
   132          1
   133          1
   134          1
   135          1
   136          1
   137          3
   138          2
   139          1
   140          1
   141          1
   149          1
   150          1
   151          1
   152          1
   153          1
   164          1
   165          2
   166          3
   167          1
   178          1
   179          2
   180          1
   181          1
   192          1
   193          1
   194        131
   195         20
   196          2
   197          1