##TITLE=Library Entry 21058
##JCAMP-DX=Revision 4.10 
##DATA TYPE=MASS SPECTRUM
##SAMPLE DESCRIPTION=Exported from NIST MS Search
##NAMES=HP
##CAS NAME=Cyclohexane, 1-(cyclohexylmethyl)-3-methyl-, trans-
##MOLFORM=C14H26
##CAS REGISTRY NO=54823-95-9
##MP= -300
##BP= -300
##MW= 194
##$RETENTION INDEX=0
##$CONDENSED SPECTRUM=NO
##NPOINTS= 123
##XYDATA=(XY..XY) 1 
    36          1
    37          1
    38          4
    39        172
    40         33
    41        600
    42         83
    43         92
    44          3
    45          1
    46          1
    47          1
    48          1
    49          1
    50          3
    51         12
    52          9
    53         88
    54        100
    55        999
    56         82
    57         20
    58          1
    59          1
    60          1
    61          1
    62          1
    63          2
    64          1
    65         18
    66         15
    67        211
    68         74
    69        155
    70         17
    71          4
    72          1
    73          1
    74          1
    75          1
    76          1
    77         23
    78          6
    79         33
    80         11
    81        225
    82        295
    83        375
    84         27
    85          3
    86          1
    87          1
    88          1
    89          1
    90          1
    91         10
    92          2
    93          7
    94          6
    95        111
    96        452
    97        864
    98         67
    99          3
   100          1
   101          1
   102          1
   103          1
   104          1
   105          1
   106          1
   107          2
   108          2
   109         24
   110         48
   111         70
   112          7
   113          1
   114          1
   115          1
   116          1
   117          1
   118          1
   119          1
   120          1
   121          1
   122          1
   123         12
   124          3
   125          1
   126          1
   127          1
   128          1
   129          1
   130          1
   131          1
   132          1
   133          1
   134          1
   135          1
   136          1
   137          2
   138          2
   139          1
   149          1
   150          1
   151          3
   152          1
   153          1
   165          1
   166          3
   167          1
   177          1
   178          1
   179          3
   180          1
   181          1
   192          1
   193          1
   194        132
   195         20
   196          2
   197          1