##TITLE=Library Entry 52732
##JCAMP-DX=Revision 4.10 
##DATA TYPE=MASS SPECTRUM
##SAMPLE DESCRIPTION=S. MARKEY UNIV. OF COLO. MED. CTR., DENVER, COLORADO, U
SA
##NAMES=HP
##CAS NAME=Glycine, N-(3-methyl-1-oxo-2-butenyl)-, trimethylsilyl ester
##MOLFORM=C10H19NO3Si
##CAS REGISTRY NO=54824-02-1
##MP= -300
##BP= -300
##MW= 229
##$RETENTION INDEX=1570
##$CONDENSED SPECTRUM=NO
##NPOINTS= 120
##XYDATA=(XY..XY) 1 
    26          6
    27         68
    29        125
    30         59
    38          5
    39         78
    40         27
    41         28
    42         25
    43         51
    44         47
    45         99
    46          7
    47         51
    48          5
    49          4
    51          4
    52         11
    53         44
    54         36
    55        219
    56         27
    57         16
    58         21
    59         29
    60          6
    61         35
    62          3
    63          3
    65          4
    66          6
    67         20
    68         10
    69         29
    70          3
    72         25
    73        491
    74         55
    75        229
    76         22
    77         29
    78          6
    80         11
    81         11
    82        406
    83        999
    84         72
    85         13
    86         11
    87         15
    88         19
    89          7
    93         25
    94         13
    95         26
    96         18
    97         15
    98          3
    99          9
   100         11
   101          5
   102         21
   103          8
   104          5
   107          8
   109          5
   110         10
   111         27
   112         26
   113         24
   114          4
   115          8
   116         12
   117         19
   127          3
   128          6
   129         12
   130         16
   131         21
   132          6
   133          6
   139         89
   140         11
   141         20
   142         13
   143         12
   145         11
   146          6
   147         57
   148         27
   149         11
   151          4
   152          3
   154         16
   155         10
   156         14
   157         13
   158          4
   160          3
   168          4
   169          3
   170        182
   171         35
   172         12
   173          3
   184         18
   185          6
   188          3
   199          5
   204          4
   211          8
   213          3
   214         73
   215         15
   216         11
   217          5
   223          2
   229        121
   230         28
   231          5