##TITLE=Library Entry 69421
##JCAMP-DX=Revision 4.10 
##DATA TYPE=MASS SPECTRUM
##SAMPLE DESCRIPTION=T.A.BLAZER DU PONT, GIBBSTOWN, N.J., USA
##NAMES=HP
##CAS NAME=1,1'-Bicyclohexyl, 4,4'-dimethyl-
##MOLFORM=C14H26
##CAS REGISTRY NO=54823-99-3
##MP= -300
##BP= -300
##MW= 194
##$RETENTION INDEX=0
##$CONDENSED SPECTRUM=NO
##NPOINTS= 65
##XYDATA=(XY..XY) 1 
    14          1
    15          9
    26          1
    27         31
    28        278
    29        136
    30          1
    38          0
    39        102
    40         14
    41        305
    42         36
    43         61
    44          5
    50          0
    51          9
    52          5
    53         58
    54         72
    55        922
    56         57
    57         10
    63          0
    65         17
    66         15
    67        165
    68         97
    69        116
    70         13
    71          1
    77         27
    78          5
    79         47
    80         14
    81        627
    82         52
    83         32
    84          2
    91         25
    92          3
    93         21
    94         17
    95        133
    96        999
    97        968
    98         80
    99          1
   103          0
   105          3
   107          6
   108          1
   109         17
   110         17
   111          7
   121          1
   122          1
   123         15
   124          2
   135          0
   136          2
   137          2
   192          2
   193          0
   194        155
   195         30