##TITLE=Library Entry 69817
##JCAMP-DX=Revision 4.10 
##DATA TYPE=MASS SPECTRUM
##SAMPLE DESCRIPTION=Exported from NIST MS Search
##NAMES=HP
##CAS NAME=Cyclohexane, 1-(cyclohexylmethyl)-2-methyl-, cis-
##MOLFORM=C14H26
##CAS REGISTRY NO=54824-04-3
##MP= -300
##BP= -300
##MW= 194
##$RETENTION INDEX=0
##$CONDENSED SPECTRUM=NO
##NPOINTS= 115
##XYDATA=(XY..XY) 1 
    35          2
    36          8
    37          2
    38          5
    39        156
    40         31
    41        543
    42         91
    43         82
    44         14
    45          2
    46          2
    47          2
    48          1
    49          2
    50          5
    51         14
    52         12
    53         81
    54         95
    55        861
    56         65
    57         23
    58          3
    59          2
    60          2
    61          2
    62          2
    63          3
    64          2
    65         18
    66         17
    67        202
    68         74
    69        144
    70         24
    71          6
    72          2
    73          1
    74          2
    75          2
    76          1
    77         22
    78          8
    79         37
    80         16
    81        176
    82        184
    83        284
    84         22
    85          2
    86          1
    87          1
    88          1
    89          1
    90          1
    91         12
    92          3
    93          8
    94          6
    95         60
    96        365
    97        999
    98         80
    99          5
   100          2
   101          2
   102          2
   103          2
   104          2
   105          3
   106          3
   107          4
   108          7
   109         54
   110         30
   111         33
   112         11
   113          4
   114          1
   115          2
   116          1
   117          1
   118          1
   119          2
   120          1
   121          3
   122          2
   123         10
   124         15
   125         14
   126          2
   127          2
   128          4
   129          1
   136          1
   137          5
   138          4
   139          1
   150          1
   151          2
   152          4
   153          1
   164          2
   165          3
   166          5
   167          1
   178          2
   179          9
   180          1
   193          1
   194        130
   195         21
   196          3
   197          1