##TITLE=Library Entry 69805
##JCAMP-DX=Revision 4.10 
##DATA TYPE=MASS SPECTRUM
##SAMPLE DESCRIPTION=Exported from NIST MS Search
##NAMES=HP
##CAS NAME=Cyclohexane, 1-(cyclohexylmethyl)-2-methyl-, trans-
##MOLFORM=C14H26
##CAS REGISTRY NO=54823-94-8
##MP= -300
##BP= -300
##MW= 194
##$RETENTION INDEX=0
##$CONDENSED SPECTRUM=NO
##NPOINTS= 124
##XYDATA=(XY..XY) 1 
    35          1
    36          1
    37          1
    38          4
    39        165
    40         31
    41        579
    42         97
    43         85
    44          3
    45          1
    46          1
    47          1
    48          1
    49          1
    50          3
    51         12
    52          9
    53         86
    54        102
    55        890
    56         71
    57         23
    58          1
    59          1
    60          1
    61          1
    62          1
    63          2
    64          1
    65         17
    66         18
    67        221
    68         76
    69        145
    70         26
    71          5
    72          1
    73          1
    74          1
    75          1
    76          1
    77         22
    78          6
    79         32
    80         14
    81        186
    82        177
    83        290
    84         23
    85          2
    86          1
    87          1
    88          1
    89          1
    90          1
    91         10
    92          2
    93          7
    94          5
    95         63
    96        508
    97        999
    98         82
    99          5
   100          1
   101          1
   102          1
   103          1
   104          1
   105          2
   106          1
   107          2
   108          5
   109         63
   110         26
   111         26
   112         10
   113          3
   114          1
   115          1
   116          1
   117          1
   118          1
   119          1
   120          1
   121          1
   122          2
   123         10
   124         10
   125          7
   126          1
   127          1
   128          1
   129          1
   130          1
   131          1
   134          1
   135          1
   136          1
   137          6
   138          4
   139          1
   140          1
   141          1
   149          1
   150          1
   151          3
   152          3
   153          1
   154          1
   164          1
   165          2
   166          4
   167          1
   178          1
   179          5
   180          1
   192          1
   193          1
   194         82
   195         13
   196          1
   197          1