##TITLE=Library Entry 44800
##JCAMP-DX=Revision 4.10 
##DATA TYPE=MASS SPECTRUM
##SAMPLE DESCRIPTION=R. RYHAGE KAROLINSKA INSTITUTET, STOCKHOLM
##NAMES=HP
##CAS NAME=Heptadecanoic acid, 15-methyl-, methyl ester
##MOLFORM=C19H38O2
##CAS REGISTRY NO=54833-55-5
##MP= -300
##BP= -300
##MW= 298
##$RETENTION INDEX=0
##$CONDENSED SPECTRUM=NO
##NPOINTS= 187
##XYDATA=(XY..XY) 1 
    15         12
    16          3
    17         24
    18        110
    26          2
    27         25
    28         13
    29        110
    30          4
    31          5
    39          9
    40          7
    41        300
    42         53
    43        350
    44         47
    45         13
    46          2
    52          2
    53         19
    54         24
    55        360
    56        110
    57        390
    58         23
    59         94
    60          6
    61          4
    64          2
    65          4
    66          2
    67         55
    68         26
    69        250
    70         81
    71        130
    72          8
    73         28
    74        999
    75        260
    76         13
    77          5
    78          2
    79         14
    80          6
    81         61
    82         22
    83        200
    84         54
    85         68
    86          5
    87        720
    88         71
    89          7
    93         16
    94          5
    95         59
    96         23
    97        170
    98         17
    99         17
   100          5
   101         84
   102         10
   103          3
   107         18
   108          4
   109         38
   110         13
   111         90
   112         17
   113         14
   114          4
   115         43
   116         16
   117          2
   121         29
   122          5
   123         27
   124          8
   125         52
   126          8
   127          8
   128          2
   129         87
   130         29
   131          3
   135         30
   136          5
   137         18
   138          6
   139         36
   140          6
   141          6
   142          2
   143        260
   144         27
   145          3
   151          8
   152          5
   153         23
   154          5
   155          3
   157         31
   158          5
   163         14
   164          2
   165          5
   166          3
   167         16
   168          3
   169          2
   171         20
   172          7
   177          9
   178          2
   179          4
   180          2
   181         10
   182          2
   183          2
   185         47
   186         15
   187          2
   191          6
   192          2
   193          3
   194          4
   195         14
   196          4
   197          2
   198          3
   199        120
   200         21
   201          5
   202         10
   207          2
   208          2
   209          8
   210          2
   211          2
   213         37
   214          7
   219         26
   220          5
   222          4
   223          2
   224          3
   225          2
   227         16
   228          7
   229          2
   233          5
   235          2
   236          3
   237         31
   238          6
   239          2
   241         69
   242         21
   243         16
   244          2
   247          2
   248          2
   249         13
   250          3
   251          9
   252          2
   255        110
   256         22
   257          3
   264          4
   265          6
   266          5
   267         40
   268          9
   269         65
   270         14
   271          2
   283          7
   284          3
   296          2
   297          6
   298        450
   299        110
   300         15
   301          2