##TITLE=Library Entry 19519
##JCAMP-DX=Revision 4.10 
##DATA TYPE=MASS SPECTRUM
##SAMPLE DESCRIPTION=Exported from NIST MS Search
##NAMES=HP
##CAS NAME=Cyclodeca[b]furan-2(3H)-one, 3a,4,5,6,7,8,9,11a-octahydro-3,6,10-
trimethyl-
##MOLFORM=C15H24O2
##CAS REGISTRY NO=54833-40-8
##MP= -300
##BP= -300
##MW= 236
##$RETENTION INDEX=0
##$CONDENSED SPECTRUM=NO
##NPOINTS= 91
##XYDATA=(XY..XY) 1 
    40         90
    41        980
    42        120
    43        150
    50         20
    51         70
    52         30
    53        300
    54         80
    55        999
    56        100
    57         70
    63         20
    65         80
    66         30
    67        400
    68        300
    69        480
    70         50
    71         40
    72         20
    74         20
    75         20
    77        100
    78         20
    79        160
    80         50
    81        400
    82        160
    83        120
    84         70
    85         20
    91         90
    92         20
    93        160
    94         90
    95        360
    96         90
    97        100
    98         40
   105         40
   106         20
   107        180
   108         50
   109        200
   110         40
   111         80
   112         70
   113         20
   119         30
   120         20
   121         80
   122         40
   123        150
   124        190
   125        100
   126         20
   133         20
   135         60
   136         50
   137        130
   138        100
   139        150
   140        150
   141         20
   147         40
   149         30
   150         20
   151        190
   152         40
   153         30
   161         20
   162         40
   163        170
   164         20
   165        740
   166         80
   167         40
   168         20
   177         30
   179        420
   180         70
   181         20
   192         20
   193        150
   194         30
   208         30
   221         60
   222         20
   236        400
   237         60