##TITLE=Library Entry 24289
##JCAMP-DX=Revision 4.10 
##DATA TYPE=MASS SPECTRUM
##SAMPLE DESCRIPTION=Exported from NIST MS Search
##NAMES=HP
##CAS NAME=Eicosane, 10-methyl-
##MOLFORM=C21H44
##CAS REGISTRY NO=54833-23-7
##MP= -300
##BP= -300
##MW= 296
##$RETENTION INDEX=2042
##$CONDENSED SPECTRUM=NO
##NPOINTS= 136
##XYDATA=(XY..XY) 1 
    38          2
    39         46
    40         11
    41        376
    42        103
    43        821
    44         29
    45          1
    50          1
    51          2
    52          1
    53         17
    54         20
    55        258
    56        150
    57        999
    58         48
    59          1
    63          1
    64          1
    65          2
    66          2
    67         21
    68         21
    69        123
    70         91
    71        595
    72         34
    73          1
    74          1
    77          2
    78          1
    79          3
    80          1
    81          8
    82         21
    83         73
    84         57
    85        430
    86         29
    87          1
    91          1
    92          1
    93          1
    94          1
    95          3
    96         14
    97         67
    98         36
    99        146
   100         12
   101          1
   102          1
   103          1
   104          1
   105          1
   106          1
   107          1
   108          1
   109          1
   110          8
   111         41
   112         24
   113         85
   114          8
   115          1
   117          1
   118          1
   119          1
   120          1
   121          1
   122          1
   123          1
   124          3
   125         23
   126         25
   127         32
   128          3
   129          1
   131          1
   133          1
   135          1
   137          1
   138          1
   139          6
   140         16
   141         12
   142          1
   143          1
   151          1
   152          1
   153          1
   154         86
   155         55
   156          6
   157          1
   165          1
   166          1
   167          1
   168         71
   169         51
   170          6
   171          1
   180          1
   181          1
   182          3
   183          5
   184          1
   185          1
   195          1
   196          2
   197          4
   198          1
   210          2
   211          4
   212          1
   224          2
   225          3
   226          1
   238          2
   239          3
   240          1
   252          1
   253          3
   254          1
   266          2
   267          4
   268          1
   280          1
   281          6
   282          2
   283          1
   294          1
   295          1
   296          1
   297          1