##TITLE=Library Entry 71909
##JCAMP-DX=Revision 4.10 
##DATA TYPE=MASS SPECTRUM
##SAMPLE DESCRIPTION=R.SELF AGRICULTURAL RES., FOOD RES. INSTITUTE, NORWICH,
 U.K.
##NAMES=HP
##CAS NAME=D-Alloisoleucine, N-acetyl-
##MOLFORM=C8H15NO3
##CAS REGISTRY NO=54831-20-8
##MP= -300
##BP= -300
##MW= 173
##$RETENTION INDEX=0
##$CONDENSED SPECTRUM=NO
##NPOINTS= 43
##XYDATA=(XY..XY) 1 
    26         11
    27        117
    30        259
    39         76
    40         13
    41        270
    42         47
    43        942
    44         49
    45         31
    46         24
    53         14
    54         20
    55         35
    56         65
    57        365
    58         62
    60        129
    67         11
    68         11
    69         68
    70         29
    71         68
    72         30
    74        170
    75         94
    76         23
    82         18
    84         25
    86        445
    87         25
    96         45
    99        999
   100         56
   114         15
   116         10
   117        523
   118         26
   126         17
   128        317
   129         41
   130         10
   155         10