##TITLE=Library Entry 52761
##JCAMP-DX=Revision 4.10 
##DATA TYPE=MASS SPECTRUM
##SAMPLE DESCRIPTION=A.ZAMOJSKI POLISH ACADEMY OF SCIENCES, WARSAW, POLAND
##NAMES=HP
##CAS NAME=2H-Pyran-2-carboxylic acid, 3,6-dihydro-6-methoxy-, [4-(1-methyle
thyl)cyclohexyl]methyl ester
##MOLFORM=C17H28O4
##CAS REGISTRY NO=54833-59-9
##MP= -300
##BP= -300
##MW= 296
##$RETENTION INDEX=0
##$CONDENSED SPECTRUM=NO
##NPOINTS= 49
##XYDATA=(XY..XY) 1 
    41        370
    42         70
    43        220
    44         80
    45         60
    53        140
    54         60
    55        490
    56         60
    57        310
    58         60
    67        120
    68         60
    69        350
    70         50
    71        270
    78         60
    79         70
    80         50
    81        820
    82        160
    83        999
    84        220
    85        110
    95        330
    96         90
    97        190
    98         50
    99        110
   108         70
   109         60
   112         30
   113        780
   114        100
   123        100
   126         95
   127        300
   137        100
   138        190
   139        300
   140        100
   141         60
   149         95
   157        110
   158        120
   264         25
   265          5
   295          5
   296          5