##TITLE=Library Entry 53333
##JCAMP-DX=Revision 4.10 
##DATA TYPE=MASS SPECTRUM
##SAMPLE DESCRIPTION=D.HENNEBERG, MAX-PLANCK INSTITUTE, MULHEIM, WEST GERMAN
Y
##NAMES=HP
##CAS NAME=1H-Indene, 2,3,3a,4,7,7a-hexahydro-2,2,4,4,7,7-hexamethyl-, trans
-
##MOLFORM=C15H26
##CAS REGISTRY NO=54832-81-4
##MP= -300
##BP= -300
##MW= 206
##$RETENTION INDEX=0
##$CONDENSED SPECTRUM=NO
##NPOINTS= 136
##XYDATA=(XY..XY) 1 
    25          1
    26          2
    27         73
    28         10
    29        116
    30          2
    32          2
    34          0
    35          2
    38          1
    39         87
    40         15
    41        437
    42         20
    43        185
    44          0
    45          0
    47          2
    48          2
    50          3
    51         21
    52          9
    53         84
    54         13
    55        357
    56         19
    57         86
    58         10
    59          4
    60          6
    61          3
    63          6
    64          9
    65         45
    66         16
    67        113
    68         16
    69        326
    70         18
    71         15
    72          3
    73          3
    74          6
    75          6
    76          3
    77        103
    78         24
    79        104
    80         23
    81        135
    82         59
    83        999
    84         64
    85          8
    86          1
    87          2
    88          6
    89          6
    90          3
    91        142
    92         21
    93        132
    94         26
    95        227
    96        289
    97        108
    98         10
   100          1
   101          2
   102          1
   103         14
   104          8
   105        101
   106         21
   107        285
   108         40
   109        175
   110         46
   111         50
   112          3
   113          1
   115         15
   116          8
   117         15
   118          4
   119         70
   120         24
   121        417
   122        122
   123        201
   124         32
   125          3
   126          1
   127          3
   128          9
   129         10
   130          4
   131          7
   132          3
   133         23
   134          9
   135        464
   136         58
   137        170
   138         16
   139          1
   140          1
   141          2
   143          2
   146          0
   147         11
   148          3
   149         58
   150        239
   151         32
   152          2
   159          4
   160          2
   161          4
   162          5
   163         79
   164         14
   165          1
   173          0
   175         10
   176          4
   178          4
   187          0
   189          5
   191        842
   192        124
   193          9
   194          0
   206         76
   207          7
   208          0