##TITLE=Library Entry 52793
##JCAMP-DX=Revision 4.10 
##DATA TYPE=MASS SPECTRUM
##SAMPLE DESCRIPTION=Exported from NIST MS Search
##NAMES=HP
##CAS NAME=Cyclohexane, 1,1'-(1,5-pentanediyl)bis-
##MOLFORM=C17H32
##CAS REGISTRY NO=54833-31-7
##MP= -300
##BP= -300
##MW= 236
##$RETENTION INDEX=0
##$CONDENSED SPECTRUM=NO
##NPOINTS= 131
##XYDATA=(XY..XY) 1 
    36          1
    37          1
    38          2
    39         93
    40         19
    41        493
    42         53
    43         76
    44          3
    45          1
    46          1
    47          1
    48          1
    49          1
    50          2
    51          5
    52          5
    53         49
    54         84
    55        633
    56         48
    57         19
    58          1
    59          1
    60          1
    61          1
    62          1
    63          1
    64          1
    65          8
    66          9
    67        194
    68         42
    69        107
    70         11
    71          6
    72          1
    73          1
    74          1
    75          1
    76          1
    77          8
    78          2
    79         17
    80          8
    81         78
    82        740
    83        999
    84         70
    85          4
    86          1
    87          1
    88          1
    89          1
    90          1
    91          3
    92          1
    93          3
    94          3
    95         27
    96        115
    97         73
    98          6
    99          1
   100          1
   101          1
   102          1
   103          1
   104          1
   105          1
   106          1
   107          1
   108          3
   109         35
   110         14
   111          8
   112          1
   113          1
   114          1
   115          1
   116          1
   117          1
   118          1
   119          1
   120          1
   121          1
   122          1
   123          4
   124          6
   125          3
   126          1
   127          1
   128          1
   134          1
   135          1
   136          1
   137          3
   138          2
   139          6
   140          1
   141          1
   149          1
   150          1
   151          1
   152         18
   153         30
   154          4
   155          1
   156          1
   165          1
   166          1
   167          1
   168          1
   169          1
   178          1
   179          1
   180          1
   181          1
   192          1
   193          1
   194          1
   195          1
   207          1
   208          1
   209          1
   234          1
   235          1
   236         44
   237          8
   238          1
   239          1