##TITLE=Library Entry 28545
##JCAMP-DX=Revision 4.10 
##DATA TYPE=MASS SPECTRUM
##SAMPLE DESCRIPTION=Drug Lab
##NAMES=HP
##CAS NAME=Ephedrine, TMS derivative
##MOLFORM=C13H23NOSi
##CAS REGISTRY NO=54833-35-1
##MP= -300
##BP= -300
##MW= 237
##$RETENTION INDEX=0
##$CONDENSED SPECTRUM=NO
##NPOINTS= 88
##XYDATA=(XY..XY) 1 
    39          3
    41          2
    42         12
    43         15
    44          5
    45         22
    46          1
    47          5
    50          1
    51          5
    52          1
    53          1
    54          1
    55          3
    56         23
    57         12
    58        999
    59         47
    60          2
    61          3
    63          3
    65          4
    68          1
    70          2
    71          2
    72          2
    73         93
    74         11
    75         23
    76          3
    77         16
    78          6
    79          4
    85          1
    88         40
    89         10
    90          5
    91         23
    92          2
    94          1
   100          1
   102          2
   103          7
   104          6
   105         17
   106          5
   107          1
   115         16
   116          5
   117         20
   118          5
   119          1
   121          2
   129          1
   130          7
   131         10
   132         13
   133         10
   134          1
   135          5
   137          1
   144          2
   145          3
   146          7
   147          3
   148         18
   149         34
   150          5
   151          1
   161          1
   163         30
   164          8
   165          4
   175          1
   177          2
   179         32
   180          6
   181          1
   191         12
   192          2
   193          5
   205          1
   206          2
   207          1
   220          1
   222         23
   223          4
   224          1