##TITLE=Library Entry 34561
##JCAMP-DX=Revision 4.10 
##DATA TYPE=MASS SPECTRUM
##SAMPLE DESCRIPTION=D.HENNEBERG, MAX-PLANCK INSTITUTE, MULHEIM, WEST GERMAN
Y
##NAMES=HP
##CAS NAME=Tricyclo[4.3.0.0(7,9)]nonane, 2,2,5,5,8,8-hexamethyl-, (1.alpha.,
6.beta.,7.alpha.,9.alpha.)-
##MOLFORM=C15H26
##CAS REGISTRY NO=54832-82-5
##MP= -300
##BP= -300
##MW= 206
##$RETENTION INDEX=0
##$CONDENSED SPECTRUM=NO
##NPOINTS= 139
##XYDATA=(XY..XY) 1 
    24          2
    25          4
    26         20
    27        215
    28         32
    29        268
    30          8
    32          2
    33          1
    34          1
    35          3
    38          5
    39        213
    40         41
    41        981
    42         43
    43        617
    44          5
    46          3
    48          4
    49          3
    50         13
    51         59
    52         25
    53        177
    54         22
    55        618
    56        105
    57        456
    58         24
    59          6
    60          6
    61          3
    62          6
    63         15
    64         16
    65         86
    66         40
    67        290
    68         36
    69        999
    70         61
    71         94
    72          6
    73          7
    74          5
    75         14
    76          5
    77        233
    78         55
    79        290
    80         44
    81        384
    82        106
    83        227
    84         18
    85         10
    86          4
    89         13
    90         13
    91        280
    92         39
    93        392
    94        190
    95        790
    96        107
    97         60
    98          4
    99          2
   100          2
   101          1
   102          5
   103         26
   104         11
   105        194
   106         47
   107        644
   108         78
   109        402
   110         98
   111        218
   112         19
   113          8
   115         18
   116         10
   117         24
   118          7
   119        128
   120         57
   121        791
   122        110
   123        163
   124         72
   125          3
   126          1
   127          1
   128          6
   129          8
   130          7
   131         11
   132          4
   133         37
   134         18
   135        969
   136        230
   137        456
   138         48
   139          1
   142          0
   143          2
   144          0
   145          7
   146          1
   147         12
   148          9
   149         36
   150         47
   151          4
   152          1
   158          0
   159          2
   160          0
   161         10
   163        213
   164         24
   165          0
   173          0
   175         10
   176          5
   177          4
   178         10
   189          3
   190          7
   191        485
   192         61
   193          4
   204          3
   206         43
   207          5