##TITLE=Library Entry 78113
##JCAMP-DX=Revision 4.10 
##DATA TYPE=MASS SPECTRUM
##SAMPLE DESCRIPTION=Exported from NIST MS Search
##NAMES=HP
##CAS NAME=Carbamic acid, (1-phenylethyl)-, 3-methyloctyl ester
##MOLFORM=C18H29NO2
##CAS REGISTRY NO=54833-47-5
##MP= -300
##BP= -300
##MW= 291
##$RETENTION INDEX=0
##$CONDENSED SPECTRUM=NO
##NPOINTS= 51
##XYDATA=(XY..XY) 1 
    41        450
    42        200
    43        560
    44        220
    45         70
    50         30
    51        100
    52         40
    53         70
    54         20
    55        790
    56        100
    57        380
    58         30
    59         30
    69        190
    70        760
    71        550
    72         30
    73        450
    74         30
    77        210
    78         70
    79        190
    83        140
    84         50
    85        180
    86         20
    96         30
    97        280
    98         50
   103         50
   104        100
   105        999
   106        620
   107         40
   115        170
   116         30
   120         50
   126        220
   127         40
   129         20
   132        180
   133         20
   150        270
   151         20
   164        130
   165        200
   166        300
   177         30
   276          1