##TITLE=Library Entry 82017
##JCAMP-DX=Revision 4.10 
##DATA TYPE=MASS SPECTRUM
##SAMPLE DESCRIPTION=R. I. REED UNIVERSITY OF GLASGOW
##NAMES=HP
##CAS NAME=Pyrrolo[2,3-b]indole, 1-benzoyl-1,2,3,3a,8,8a-hexahydro-3a,8-dime
thyl-, (3aS-cis)-
##MOLFORM=C19H20N2O
##CAS REGISTRY NO=54833-65-7
##MP= -300
##BP= -300
##MW= 292
##$RETENTION INDEX=0
##$CONDENSED SPECTRUM=NO
##NPOINTS= 166
##XYDATA=(XY..XY) 1 
    37          3
    38          8
    42          8
    43          4
    50         24
    51         15
    52          4
    57         18
    61          4
    63          1
    64          4
    65          5
    67         45
    68         22
    69        235
    70         46
    71         23
    72          7
    73          6
    74          9
    75         10
    76         54
    77        277
    78         27
    79         23
    80          5
    81         70
    82         29
    83         68
    84          7
    85          2
    86          3
    89          6
    90          2
    91         41
    92          4
    93         20
    94         10
    95         96
    96         36
    97         71
    98         26
    99         16
   100          7
   101          5
   102          9
   103         30
   104         92
   105        999
   106        107
   107         27
   108          9
   109         64
   110         21
   111         35
   112         17
   113         12
   114          4
   115         48
   116         16
   117         39
   118         17
   119         76
   120          9
   121         12
   122          5
   123         34
   124         11
   125          2
   126          5
   127          4
   128         29
   129         23
   130         49
   131         73
   132         34
   133         29
   134          7
   135         26
   136          4
   137         13
   138          5
   139         12
   140          3
   141         26
   142         29
   143         60
   144        515
   145        187
   146         52
   147         19
   148         17
   149         20
   150          3
   151         24
   152          6
   153         11
   154          9
   155         18
   156         41
   157         53
   158        233
   159        247
   160         54
   161         91
   162         24
   163         11
   164          4
   165         23
   166         12
   167          8
   168          7
   169         40
   170         17
   171         23
   172         29
   173          7
   174          5
   175          2
   176          4
   177          5
   178         10
   179         13
   180         16
   181         36
   182         11
   183          1
   184          2
   185         11
   186          8
   187         24
   188         16
   189          3
   190          8
   191          9
   192          8
   193         13
   194         11
   195          2
   196          8
   197          1
   215          2
   216         15
   217          7
   218          5
   219         26
   220          5
   221          2
   231         22
   232          4
   236          7
   243         13
   262          5
   263         20
   264        524
   265        181
   266         34
   267          8
   268          1
   269         12
   290          7
   291         19
   292        424
   293        172
   294         34
   295          5