##TITLE=Library Entry 51121
##JCAMP-DX=Revision 4.10 
##DATA TYPE=MASS SPECTRUM
##SAMPLE DESCRIPTION=MYCOTOXINS MASS SPECTRAL DATA BANK, L.R. DUSOLD ET AL,
 FDA, USA
##NAMES=HP
##CAS NAME=Trichothec-9-ene-3,4,7,8,15-pentol, 12,13-epoxy-, 4,15-diacetate,
 (3.alpha.,4.beta.)-
##MOLFORM=C19H26O9
##CAS REGISTRY NO=54831-24-2
##MP= -300
##BP= -300
##MW= 398
##$RETENTION INDEX=0
##$CONDENSED SPECTRUM=NO
##NPOINTS= 86
##XYDATA=(XY..XY) 1 
    39        294
    41        357
    42         88
    44        892
    45        176
    46        117
    51         78
    52         44
    53        362
    54         88
    55        357
    56         58
    57        230
    80        289
    81        382
    82        999
    83        431
    84        176
    85        254
    87         83
   196        117
   197        284
   198         83
   199        166
   200        161
   201        406
   202        421
   203        362
   204        117
   205        240
   206         68
   207        112
   213        254
   214        250
   215        166
   217        338
   218        372
   219        426
   220        230
   221         88
   223         53
   224         68
   225         58
   227         63
   229        181
   230        151
   231        382
   232        225
   233         98
   235         83
   237         68
   239        362
   240         68
   242        156
   243        343
   244         73
   245         83
   247        250
   248         73
   249        122
   257        122
   259         83
   260        352
   261        406
   262        205
   263         83
   267         98
   273        186
   277        372
   278        333
   279        117
   291        102
   292        328
   293         73
   305         98
   307        328
   308         93
   319         53
   320        421
   321        274
   322         68
   338        436
   339        279
   362        117
   398         29
   399         14