##TITLE=Library Entry 23762
##JCAMP-DX=Revision 4.10 
##DATA TYPE=MASS SPECTRUM
##SAMPLE DESCRIPTION=Exported from NIST MS Search
##NAMES=HP
##CAS NAME=Butane, 1-(1-bromo-1-methylethoxy)-
##MOLFORM=C7H15BrO
##CAS REGISTRY NO=54833-04-4
##MP= -300
##BP= -300
##MW= 194
##$RETENTION INDEX=0
##$CONDENSED SPECTRUM=NO
##NPOINTS= 87
##XYDATA=(XY..XY) 1 
    14          1
    15          7
    18          4
    26          7
    27         73
    28         47
    29        172
    30          8
    31         27
    32          6
    36          2
    37          1
    38          4
    39         58
    40         10
    41        347
    42         43
    43         30
    44          8
    45         42
    46          1
    50          2
    51          4
    52          1
    53          4
    54          2
    55         30
    56        197
    57        999
    58         72
    59         41
    60          2
    63          1
    65          2
    66          2
    69          4
    71          5
    72          2
    73          5
    74          1
    75          3
    76          1
    77          9
    78          2
    79          2
    80          3
    81          2
    82          3
    83          2
    85          2
    91          3
    92          1
    93          8
    94         14
    95          8
    97          1
   101         29
   102          3
   103          2
   104          3
   105          3
   106          2
   107         10
   108          2
   109          8
   114          6
   115          4
   117          2
   118          2
   119          2
   120          4
   121        210
   122         11
   123        192
   124          7
   135          2
   137          3
   139          3
   141          1
   152          1
   165          4
   166         10
   167          4
   194          3
   195          1
   196          4
   198          2