##TITLE=Library Entry 25344
##JCAMP-DX=Revision 4.10 
##DATA TYPE=MASS SPECTRUM
##SAMPLE DESCRIPTION=W. VAN HOEVEN, UNIV. OF CALIFORNIA, BERKELEY, USA
##NAMES=HP
##CAS NAME=Heptadecane, 2,6,10,15-tetramethyl-
##MOLFORM=C21H44
##CAS REGISTRY NO=54833-48-6
##MP= -300
##BP= -300
##MW= 296
##$RETENTION INDEX=1889
##$CONDENSED SPECTRUM=NO
##NPOINTS= 98
##XYDATA=(XY..XY) 1 
    40         12
    41        228
    42         68
    43        582
    44         25
    50          2
    51          3
    52          2
    53         18
    54         11
    55        291
    56        191
    57        999
    58         56
    65          4
    66          2
    67         21
    68         18
    69        145
    70        114
    71        745
    72         45
    77          4
    78          1
    79          5
    80          1
    81         16
    82          9
    83         60
    84         35
    85        436
    86         31
    91          4
    93          4
    95          9
    96          8
    97         41
    98         14
    99        109
   100          9
   105          3
   107          3
   109          4
   110          5
   111         37
   112         42
   113         91
   114          9
   119          2
   120          1
   121          3
   122          1
   123          3
   124          1
   125          7
   126         15
   127         45
   128          5
   135          1
   136          1
   137          1
   138          1
   139          2
   140         11
   141         42
   142          5
   153          1
   154          5
   155         16
   156          3
   168          1
   169          9
   170          4
   178          4
   182          7
   183         18
   184          4
   196          1
   197          5
   198          1
   210          5
   211         13
   212          3
   224          1
   225          2
   238          1
   239          5
   240          1
   252          1
   253          1
   266          2
   267          3
   268          1
   280          1
   281          3
   282          1
   296          8
   297          3