##TITLE=Library Entry 75872
##JCAMP-DX=Revision 4.10 
##DATA TYPE=MASS SPECTRUM
##SAMPLE DESCRIPTION=R.SELF FOOD RESEARCH INSTITUTE, NORWICH, U.K.
##NAMES=HP
##CAS NAME=Hexadecanoic acid, 2-ethyl-, methyl ester
##MOLFORM=C19H38O2
##CAS REGISTRY NO=54833-54-4
##MP= -300
##BP= -300
##MW= 298
##$RETENTION INDEX=0
##$CONDENSED SPECTRUM=NO
##NPOINTS= 55
##XYDATA=(XY..XY) 1 
    28         40
    29        131
    31          7
    32         21
    39         52
    40         27
    41        342
    42         59
    43        386
    44         21
    45         32
    53         34
    54         35
    55        285
    56         46
    57        160
    59         75
    67         49
    68         23
    69        123
    70         47
    71         61
    72         23
    73         46
    74         76
    81         30
    83        109
    84         22
    85         45
    87        322
    88         37
    95         19
    97         63
    98         21
   101         64
   102        999
   103         64
   111         27
   112         17
   115        276
   116         32
   129         37
   143         32
   157         84
   158         16
   171         85
   185         34
   199         24
   213         29
   227         70
   241         51
   269         32
   270         45
   298        128
   299         29