##TITLE=Library Entry 4049
##JCAMP-DX=Revision 4.10 
##DATA TYPE=MASS SPECTRUM
##SAMPLE DESCRIPTION=D.HENNEBERG, MAX-PLANCK INSTITUTE, MULHEIM, WEST GERMAN
Y
##NAMES=HP
##CAS NAME=Tricyclo[4.3.0.0(7,9)]non-3-ene, 2,2,5,5,8,8-hexamethyl-, (1.alph
a.,6.beta.,7.alpha.,9.alpha.)-
##MOLFORM=C15H24
##CAS REGISTRY NO=54832-80-3
##MP= -300
##BP= -300
##MW= 204
##$RETENTION INDEX=0
##$CONDENSED SPECTRUM=NO
##NPOINTS= 158
##XYDATA=(XY..XY) 1 
    24          2
    25          3
    26          7
    27        210
    28         19
    29        220
    30          4
    31          1
    32          4
    34          1
    35          2
    36          1
    37          7
    38          7
    39        274
    40         38
    41        999
    42         50
    43        359
    45          2
    46          1
    48          3
    49          2
    50          9
    51         94
    52         29
    53        198
    54         26
    55        553
    56         36
    57         68
    58         18
    59          8
    60          4
    61          3
    63         31
    64         29
    65        135
    66         30
    67        221
    68         43
    69        795
    70         54
    71         48
    72         39
    73         20
    74          5
    75         19
    76         15
    77        316
    78         70
    79        308
    80         42
    81        160
    82         32
    83        227
    84         22
    85          9
    86          8
    87         18
    88          7
    89         20
    91        456
    92         58
    93        198
    94        175
    95        538
    96         51
    97         28
    98          4
   100          3
   101          8
   102         13
   103         48
   104         24
   105        517
   106         71
   107        278
   108         47
   109         64
   110        617
   111         67
   112          5
   115         95
   116         40
   117         84
   118         29
   119        627
   120        118
   121        279
   122         45
   123         36
   124          3
   125          4
   126          4
   127         26
   128         66
   129         78
   130         32
   131         93
   132         29
   133        946
   134        131
   135        215
   136         48
   137         11
   138          2
   139          5
   140          6
   141         35
   142         26
   143         51
   144         37
   145         85
   146         42
   147        308
   148         94
   149         21
   150          2
   151          1
   152          5
   153          5
   154          2
   155          7
   156          8
   157         25
   158         37
   159        156
   160         40
   161        325
   162         50
   163          5
   165          1
   168          1
   170          3
   171          3
   172          9
   173         52
   174         40
   175         22
   176          6
   177          0
   181          0
   183          2
   185          5
   186          3
   187         25
   188         17
   189        878
   190        126
   191         14
   193          1
   198          1
   200          0
   202          7
   203          2
   204         52
   205          9