##TITLE=Library Entry 20702
##JCAMP-DX=Revision 4.10 
##DATA TYPE=MASS SPECTRUM
##SAMPLE DESCRIPTION=Exported from NIST MS Search
##NAMES=HP
##CAS NAME=1,1-Dicyclohexylpentane
##MOLFORM=C17H32
##CAS REGISTRY NO=54833-30-6
##MP= -300
##BP= -300
##MW= 236
##$RETENTION INDEX=0
##$CONDENSED SPECTRUM=NO
##NPOINTS= 141
##XYDATA=(XY..XY) 1 
    36          1
    37          2
    38          3
    39        154
    40         28
    41        861
    42         76
    43        213
    44          7
    45          1
    46          1
    47          1
    48          1
    49          1
    50          3
    51         11
    52         10
    53         95
    54        192
    55        999
    56         78
    57        113
    58          5
    59          1
    60          1
    61          1
    62          1
    63          2
    64          1
    65         22
    66         17
    67        316
    68         75
    69        371
    70         32
    71        133
    72          8
    73          1
    74          1
    75          1
    76          1
    77         31
    78          8
    79         54
    80         20
    81        180
    82        361
    83        949
    84         67
    85         44
    86          3
    87          1
    88          1
    89          1
    90          1
    91         17
    92          4
    93         13
    94          6
    95         80
    96        286
    97        779
    98         62
    99          3
   100          1
   101          1
   102          1
   103          1
   104          1
   105          3
   106          1
   107          4
   108          5
   109        115
   110         45
   111        183
   112         16
   113          1
   114          1
   115          1
   116          1
   117          1
   118          1
   119          1
   120          1
   121          2
   122          1
   123         18
   124         16
   125          4
   126          1
   127          1
   128          1
   129          1
   130          1
   131          1
   132          1
   133          1
   134          1
   135          2
   136          1
   137          4
   138          2
   139          3
   140          1
   141          1
   142          1
   143          1
   149          1
   150          1
   151          2
   152        449
   153        313
   154         36
   155          2
   156          1
   163          1
   164          1
   165          3
   166          1
   167          1
   177          1
   178          9
   179         51
   180          7
   181          1
   191          1
   192          1
   193          2
   194          1
   195          1
   206          1
   207          1
   208          1
   235          1
   236          8
   237          2
   238          1
   239          1
   240          1
   241          1