##TITLE=Library Entry 25809
##JCAMP-DX=Revision 4.10 
##DATA TYPE=MASS SPECTRUM
##SAMPLE DESCRIPTION=GULF R. ' D. CO., PITTSBURGH, PA, USA
##NAMES=HP
##CAS NAME=3-Heptene, 2,2,3,5,5,6,6-heptamethyl-
##MOLFORM=C14H28
##CAS REGISTRY NO=54845-26-0
##MP= -300
##BP= -300
##MW= 196
##$RETENTION INDEX=0
##$CONDENSED SPECTRUM=NO
##NPOINTS= 132
##XYDATA=(XY..XY) 1 
    13          1
    14         15
    15         50
    16          3
    25          1
    26          7
    27        174
    28         65
    29        340
    30          8
    31          4
    37          2
    38          5
    39        156
    40         18
    41        616
    42         38
    43        427
    44         15
    45         17
    46          0
    50          4
    51         15
    52          7
    53         73
    54         13
    55        286
    56         39
    57        999
    58         51
    59         32
    60          2
    61          1
    62          2
    63         10
    64          3
    65         38
    66         16
    67        135
    68         24
    69        555
    70         77
    71         64
    72         18
    73          5
    74          1
    75          2
    76          1
    77         51
    78         11
    79         50
    80         10
    81         99
    82         30
    83        901
    84        127
    85        107
    86         14
    87         14
    88          1
    89          1
    91         38
    92          6
    93         29
    94          8
    95         63
    96         16
    97        184
    98         24
    99         75
   100         10
   101          8
   102          1
   103          2
   104          1
   105          4
   106          2
   107         16
   108          8
   109         84
   110         19
   111         50
   112         14
   113          8
   114          2
   115          2
   116          0
   117          1
   119          4
   120          1
   121          9
   122          4
   123         84
   124         29
   125         61
   126         13
   127         20
   128          4
   129          1
   133          1
   135          3
   136          2
   137         14
   138         66
   139        800
   140         95
   141         13
   142          1
   143          0
   149          1
   151          7
   152          2
   153          5
   154          3
   155         17
   156          2
   163          0
   165          7
   166          1
   167          2
   168          4
   169          2
   170          0
   179          1
   180          2
   181         16
   182          9
   183          2
   194          0
   195          0
   196          2
   197          1