##TITLE=Library Entry 10398
##JCAMP-DX=Revision 4.10 
##DATA TYPE=MASS SPECTRUM
##SAMPLE DESCRIPTION=Exported from NIST MS Search
##NAMES=HP
##CAS NAME=Cyclohexanol, 3-methyl-2-(1-methylethyl)-, acetate, (1.alpha.,2.a
lpha.,3.alpha.)-
##MOLFORM=C12H22O2
##CAS REGISTRY NO=54845-18-0
##MP= -300
##BP= -300
##MW= 198
##$RETENTION INDEX=0
##$CONDENSED SPECTRUM=NO
##NPOINTS= 42
##XYDATA=(XY..XY) 1 
    41        239
    42         36
    43        999
    44         42
    45         18
    53         40
    54         18
    55        237
    56         38
    57        116
    58          8
    67        179
    68         46
    69        118
    70         24
    71         60
    77         20
    79         40
    80         38
    81        325
    82        365
    83        225
    84         26
    85         36
    86          6
    91         10
    93         18
    94        124
    95        994
    96        167
    97         46
    99         10
   100         20
   109         60
   110         20
   111         10
   113         72
   123        468
   124         44
   137         20
   138        488
   139         56