##TITLE=Library Entry 87222
##JCAMP-DX=Revision 4.10 
##DATA TYPE=MASS SPECTRUM
##SAMPLE DESCRIPTION=Exported from NIST MS Search
##NAMES=HP
##CAS NAME=Cyclohexane, [2-(pentyloxy)ethyl]-
##MOLFORM=C13H26O
##CAS REGISTRY NO=54852-75-4
##MP= -300
##BP= -300
##MW= 198
##$RETENTION INDEX=0
##$CONDENSED SPECTRUM=NO
##NPOINTS= 76
##XYDATA=(XY..XY) 1 
    15          5
    17          9
    18         38
    26          6
    27         98
    28         68
    29        185
    30          9
    31         23
    32          2
    36          4
    38          3
    39         90
    40         18
    41        408
    42        124
    43        612
    44         51
    45         30
    50          2
    51          7
    52          4
    53         47
    54        121
    55        553
    56         43
    57         54
    58         13
    59          6
    60         18
    61         10
    65         11
    66         33
    67        510
    68        175
    69        692
    70        225
    71        530
    72         31
    73          6
    77         11
    78          4
    79         30
    80         54
    81        775
    82        925
    83        223
    84         15
    85          9
    86          4
    87          7
    89          6
    91          5
    93          9
    94          4
    95        138
    96         24
    97         18
    98          4
    99          4
   101         19
   102          3
   103          5
   107          3
   108          6
   109        413
   110        999
   111        248
   112         19
   125          7
   126          3
   127          4
   130          3
   141          2
   143          4
   155          4