##TITLE=Library Entry 20480
##JCAMP-DX=Revision 4.10 
##DATA TYPE=MASS SPECTRUM
##SAMPLE DESCRIPTION=D. BAK HARTWICK COLLEGE, ONEONTA, NEW YORK, USA
##NAMES=HP
##CAS NAME=1,2-Cyclobutanedicarboxylic acid, 1-cyano-, dimethyl ester, trans
-
##MOLFORM=C9H11NO4
##CAS REGISTRY NO=54852-72-1
##MP= -300
##BP= -300
##MW= 197
##$RETENTION INDEX=0
##$CONDENSED SPECTRUM=NO
##NPOINTS= 84
##XYDATA=(XY..XY) 1 
    15        783
    26        139
    27        613
    29        376
    30        129
    31        110
    33         38
    34         19
    36         13
    37         17
    38         32
    39        185
    41        172
    42        214
    43        253
    44         73
    45         61
    46         13
    50         35
    51         93
    52        232
    53        475
    54        282
    55        999
    56         99
    57         40
    58        102
    59        409
    60         38
    61         21
    64         13
    66         21
    67         36
    68         79
    69         75
    70         29
    71         33
    72         27
    73         25
    74        120
    75         25
    76         15
    78         35
    79        318
    80        818
    81        179
    82        100
    83         50
    84         33
    85        129
    86         65
    87         38
    88         20
    94         60
    95         27
    96         25
    97         38
    98         19
   106         27
   107        133
   108        201
   109         64
   110         69
   111         46
   112         83
   113         38
   114         33
   115         23
   117         18
   122         12
   123         12
   124         30
   125         12
   129         24
   137         12
   138         36
   139         48
   140         36
   141         24
   142         24
   143         24
   145         12
   165         12
   166         12