##TITLE=Library Entry 44878
##JCAMP-DX=Revision 4.10 
##DATA TYPE=MASS SPECTRUM
##SAMPLE DESCRIPTION=Exported from NIST MS Search
##NAMES=HP
##CAS NAME=Cyclohexanebutanoic acid, .alpha.,4-dimethyl-
##MOLFORM=C12H22O2
##CAS REGISTRY NO=54852-77-6
##MP= -300
##BP= -300
##MW= 198
##$RETENTION INDEX=0
##$CONDENSED SPECTRUM=NO
##NPOINTS= 140
##XYDATA=(XY..XY) 1 
    14          2
    15          2
    17          2
    18          7
    26          1
    27         43
    28         28
    29         70
    30          4
    31          4
    32          5
    38          1
    39         53
    40          9
    41        177
    42         21
    43         55
    44          3
    45         25
    46          2
    47          2
    50          2
    51          7
    52          4
    53         35
    54         27
    55         60
    56         53
    57         54
    58          5
    59          8
    60          7
    61          2
    63          2
    64          1
    65         11
    66          4
    67         72
    68         32
    69        227
    70         27
    71         13
    72          2
    73         34
    74        999
    75         38
    76          7
    77         17
    78          4
    79         23
    80          8
    81         92
    82         16
    83         78
    84         10
    85          5
    86          2
    87        177
    88         14
    89          2
    91         13
    92          4
    93         27
    94         21
    95         69
    96         19
    97        217
    98         25
    99          8
   100          2
   101         38
   102          7
   103          6
   104          2
   105          7
   106         12
   107         18
   108         11
   109         22
   110         17
   111         29
   112          5
   113          2
   114          3
   115          4
   116          2
   117          3
   118          1
   119          4
   120          5
   121         33
   122         92
   123         26
   124         16
   125        265
   126         27
   127          3
   128          4
   129          2
   130          2
   131          1
   132          3
   133          4
   134          4
   135          4
   136          3
   137          4
   138          4
   139          1
   140          1
   141        377
   142         35
   143          4
   147         14
   148          4
   149         15
   150          4
   151          4
   152          2
   165         18
   166          3
   167          4
   169          2
   170          2
   172          2
   174          1
   175          2
   176          1
   177          4
   178          3
   179          5
   180         13
   181          3
   191          1
   198         31
   199          6
   200          4
   204          5
   205          1
   206          1