##TITLE=Library Entry 86544
##JCAMP-DX=Revision 4.10 
##DATA TYPE=MASS SPECTRUM
##SAMPLE DESCRIPTION=B.WEBSTER ICI PHARMACEUTICALS DIVISION, ALDERLEY PARK C
HESHIRE
##NAMES=HP
##CAS NAME=Propanamide, N-[4-[(1-formylethenyl)oxy]phenyl]-
##MOLFORM=C12H13NO3
##CAS REGISTRY NO=54852-62-9
##MP= -300
##BP= -300
##MW= 219
##$RETENTION INDEX=0
##$CONDENSED SPECTRUM=NO
##NPOINTS= 53
##XYDATA=(XY..XY) 1 
    39         56
    40          9
    41         21
    42         29
    43         88
    44         21
    45         21
    46         22
    50         14
    51         27
    52         41
    53         47
    54         14
    55         24
    57        174
    63         14
    64          9
    65         24
    71         53
    72        118
    77         12
    78          7
    79         10
    80         41
    81         59
    82          9
    93         76
    94         12
   105         12
   106          7
   107         13
   108        103
   109        999
   110         94
   115          7
   123         14
   133         12
   134         12
   135         14
   136          9
   137          7
   144         26
   151         21
   161          9
   162         56
   163         74
   164         12
   165        265
   166         29
   180          6
   218          7
   219        109
   220         13