##TITLE=Library Entry 83880
##JCAMP-DX=Revision 4.10 
##DATA TYPE=MASS SPECTRUM
##SAMPLE DESCRIPTION=Exported from NIST MS Search
##NAMES=HP
##CAS NAME=1,3-Propanediol, 2,2-dichloro-1-phenyl-
##MOLFORM=C9H10Cl2O2
##CAS REGISTRY NO=54852-70-9
##MP= -300
##BP= -300
##MW= 220
##$RETENTION INDEX=0
##$CONDENSED SPECTRUM=NO
##NPOINTS= 143
##XYDATA=(XY..XY) 1 
    14         16
    15         22
    16          3
    17          6
    18         29
    25          1
    26          6
    27         22
    28        155
    29         48
    30          9
    31         14
    32         37
    35          9
    36         68
    37         12
    38         38
    39         51
    40          7
    41         14
    42         11
    43         19
    44          5
    45          6
    47          3
    48          5
    49         30
    50        125
    51        164
    52         49
    53         14
    54          3
    55         10
    57          5
    59          2
    60          3
    61         13
    62         19
    63         45
    64         11
    65         45
    66          5
    69          5
    71          3
    73         11
    74         32
    75         26
    76         28
    77        453
    78        116
    79        294
    80         31
    81          5
    82          6
    83          4
    84          2
    85          6
    86          5
    87          5
    88          2
    89         57
    90         42
    91        250
    92         40
    93          7
    94          4
    95          2
    96          9
    97          4
    98          7
    99          9
   100          2
   101         16
   102         31
   103         90
   104         28
   105        527
   106        264
   107        999
   108         78
   109          6
   110          1
   111          2
   112          5
   113          2
   114          4
   115          7
   116          2
   117          3
   118         17
   119         68
   120         42
   121         20
   122          8
   123          1
   124          1
   125        155
   126         37
   127         53
   128         13
   129          5
   130          2
   131         19
   132         29
   133          7
   134          1
   135          1
   136          4
   137         11
   138         25
   139         10
   140          4
   141          2
   147         22
   148         89
   149         13
   150          8
   151          2
   154         16
   155          5
   156          7
   157          2
   165         41
   166         46
   167         19
   168         16
   169          5
   171          2
   172         18
   173          5
   174         12
   175          3
   176          2
   179          2
   180          2
   181          1
   196          1
   198          2
   202          3
   204          2
   207          2
   220          7
   222          5