##TITLE=Library Entry 10315
##JCAMP-DX=Revision 4.10 
##DATA TYPE=MASS SPECTRUM
##SAMPLE DESCRIPTION=STC 0004
##NAMES=HP
##CAS NAME=6,8-Nonadien-2-one, 8-methyl-5-(1-methylethyl)-, (E)-
##MOLFORM=C13H22O
##CAS REGISTRY NO=54868-48-3
##MP= -300
##BP= -300
##MW= 194
##$RETENTION INDEX=1738
##$CONDENSED SPECTRUM=NO
##NPOINTS= 91
##XYDATA=(XY..XY) 1 
    15         55
    27         86
    29         75
    38          5
    39        138
    40          4
    41        261
    42         22
    43        999
    44         33
    45         15
    50         12
    51         42
    52         24
    53        100
    54         13
    55        104
    56         19
    57         19
    58         26
    59          7
    62          3
    63         15
    64          7
    65         56
    66         22
    67         84
    68         29
    69         69
    70         10
    71         75
    72          5
    77        146
    78         38
    79        169
    80         34
    81        153
    82         24
    83         34
    84          7
    85          3
    89          9
    91        152
    92         47
    93        923
    94        136
    95         90
    96         13
    97         14
    98          5
   103          7
   104          2
   105         51
   106         12
   107         76
   108         71
   109         50
   110          8
   111         30
   112          4
   115          6
   117          5
   118          3
   119         19
   120         11
   121        285
   122         43
   123         78
   124         12
   125         37
   126         11
   128          2
   131          2
   133         25
   134          7
   135         13
   136        294
   137         53
   138          6
   139         11
   142          4
   149          5
   151         26
   152          5
   157          5
   159          4
   161         10
   176          6
   179          8
   194         89
   195         15