##TITLE=Library Entry 80752
##JCAMP-DX=Revision 4.10 
##DATA TYPE=MASS SPECTRUM
##SAMPLE DESCRIPTION=NIST Mass Spectrometry Data Center, 2010
##NAMES=HP
##CAS NAME=(4S,4aR,6R)-4,4a-Dimethyl-6-(prop-1-en-2-yl)-1,2,3,4,4a,5,6,7-oct
ahydronaphthalene
##MOLFORM=C15H24
##CAS REGISTRY NO=54868-40-5
##MP= -300
##BP= -300
##MW= 204
##$RETENTION INDEX=0
##$CONDENSED SPECTRUM=NO
##NPOINTS= 89
##XYDATA=(XY..XY) 1 
    26          3
    27         13
    29         24
    35          2
    39         64
    40         14
    41        152
    42         16
    43         33
    44         16
    50         10
    51         15
    52         15
    53         79
    54          6
    55         89
    57          5
    59          2
    61          3
    63          8
    64          6
    65         54
    66         14
    67         80
    68         13
    69         61
    70          4
    71         10
    76          6
    77        136
    78         36
    79        156
    80        149
    81         77
    82         15
    83         11
    85          4
    86          6
    89          6
    91        230
    92         48
    93        239
    94        192
    95        136
    96         18
    99          2
   103         27
   104         13
   105        999
   106        150
   107        259
   108        109
   109         95
   110         23
   111         15
   115         31
   117         44
   118         11
   119        152
   120         57
   121        258
   122         58
   123         34
   124        149
   125         13
   129          7
   131         18
   132          8
   133        171
   134         12
   135         22
   136         50
   137          8
   142          3
   145         24
   147         84
   148         64
   149         22
   150          4
   161         81
   162         15
   163         30
   164          3
   175          7
   176         11
   189         93
   190         20
   204         51
   205         13