##TITLE=Library Entry 6760
##JCAMP-DX=Revision 4.10 
##DATA TYPE=MASS SPECTRUM
##SAMPLE DESCRIPTION=T. BRYCE UNILEVER RESEARCH COLWORTH/WELWYN, BEDFORD U.K
.
##NAMES=HP
##CAS NAME=1-Butanamine, 3-methyl-N-(3-methylbutyl)-N-nitro-
##MOLFORM=C10H22N2O2
##CAS REGISTRY NO=54889-51-9
##MP= -300
##BP= -300
##MW= 202
##$RETENTION INDEX=0
##$CONDENSED SPECTRUM=NO
##NPOINTS= 35
##XYDATA=(XY..XY) 1 
    38         14
    39        125
    40         34
    41        389
    42        437
    43        999
    44        578
    45         24
    53         23
    54         20
    55        151
    56        248
    57        304
    58         26
    67          9
    68         14
    69        421
    70        117
    71         82
    84        140
    85         18
    86         21
    89        173
    98        543
    99        118
   100        293
   101         22
   112         18
   113         40
   114         20
   133         21
   140         40
   145         50
   156        157
   157         28