##TITLE=Library Entry 38353
##JCAMP-DX=Revision 4.10 
##DATA TYPE=MASS SPECTRUM
##SAMPLE DESCRIPTION=Exported from NIST MS Search
##NAMES=HP
##CAS NAME=Pentane, 2,2'-[ethylidenebis(oxy)]bis-
##MOLFORM=C12H26O2
##CAS REGISTRY NO=54889-47-3
##MP= -300
##BP= -300
##MW= 202
##$RETENTION INDEX=0
##$CONDENSED SPECTRUM=NO
##NPOINTS= 32
##XYDATA=(XY..XY) 1 
    27        111
    28        125
    29        179
    30          6
    31         33
    41        227
    42        185
    43        832
    44        123
    45        654
    46         17
    55        341
    56         17
    57         17
    58         12
    59         42
    61         27
    69         26
    70        215
    71        999
    72         68
    73         57
    86          8
    87         15
    89         17
    97        133
    98          9
    99         22
   114         21
   115        618
   131          5
   159         28