##TITLE=Library Entry 97251
##JCAMP-DX=Revision 4.10 
##DATA TYPE=MASS SPECTRUM
##SAMPLE DESCRIPTION=Exported from NIST MS Search
##NAMES=HP
##CAS NAME=Oxiranecarboxylic acid, 3-ethyl-3-phenyl-, ethyl ester, trans-
##MOLFORM=C13H16O3
##CAS REGISTRY NO=54889-88-2
##MP= -300
##BP= -300
##MW= 220
##$RETENTION INDEX=0
##$CONDENSED SPECTRUM=NO
##NPOINTS= 63
##XYDATA=(XY..XY) 1 
    41        130
    43         87
    44         20
    50         63
    51        193
    52         50
    53         28
    55         46
    57        293
    58         15
    60         48
    61         22
    62         22
    63         72
    64         11
    65         91
    69         17
    74          7
    75         24
    76         65
    77        350
    78        124
    79         63
    89         65
    90         46
    91        698
    92         61
   102         48
   103        159
   104         67
   105        193
   106         17
   107         33
   115        235
   116         89
   117        999
   118        174
   119        100
   128         24
   129         65
   130         15
   131        196
   132         26
   133        154
   134         22
   135        217
   136         28
   145         76
   146        613
   147        222
   148         30
   158         48
   159         39
   163         80
   164         20
   174         48
   175         22
   191         61
   192         26
   205         43
   220         93
   221         26
   222          2