##TITLE=Library Entry 51925
##JCAMP-DX=Revision 4.10 
##DATA TYPE=MASS SPECTRUM
##SAMPLE DESCRIPTION=Exported from NIST MS Search
##NAMES=HP
##CAS NAME=1,1'-Bicyclohexyl, 2-butyl-
##MOLFORM=C16H30
##CAS REGISTRY NO=54889-99-5
##MP= -300
##BP= -300
##MW= 222
##$RETENTION INDEX=0
##$CONDENSED SPECTRUM=NO
##NPOINTS= 134
##XYDATA=(XY..XY) 1 
    36          1
    37          1
    38          4
    39        158
    40         29
    41        758
    42         68
    43        171
    44          6
    45          1
    46          1
    47          1
    48          1
    49          1
    50          3
    51         13
    52         11
    53        102
    54        155
    55        722
    56         62
    57        149
    58          7
    59          1
    60          1
    61          1
    62          1
    63          3
    64          2
    65         26
    66         24
    67        362
    68         78
    69        394
    70         32
    71         52
    72          4
    73          1
    74          1
    75          1
    76          1
    77         37
    78         10
    79         70
    80         30
    81        241
    82        275
    83        999
    84         73
    85          7
    86          1
    87          1
    88          1
    89          1
    90          1
    91         21
    92          4
    93         19
    94         11
    95        125
    96        293
    97        349
    98         28
    99          2
   100          1
   101          1
   102          1
   103          1
   104          1
   105          4
   106          1
   107          7
   108          8
   109        128
   110         28
   111          9
   112          1
   113          1
   114          1
   115          1
   116          1
   117          1
   118          1
   119          1
   120          1
   121          4
   122          5
   123         17
   124          6
   125          5
   126          1
   127          1
   128          1
   129          1
   130          1
   131          1
   132          1
   133          1
   134          1
   135          2
   136          1
   137          5
   138        411
   139        349
   140         37
   141          2
   142          1
   149          1
   150          1
   151          3
   152          6
   153          4
   154          1
   155          1
   156          1
   163          1
   164          7
   165         62
   166          9
   167          1
   177          1
   178          1
   179          1
   180          1
   181          1
   193          1
   194          1
   195          1
   196          1
   220          1
   221          1
   222         20
   223          4
   224          1