##TITLE=Library Entry 24029
##JCAMP-DX=Revision 4.10 
##DATA TYPE=MASS SPECTRUM
##SAMPLE DESCRIPTION=KONINKLIJKE SHELL LABORATORIUM AMSTERDAM
##NAMES=HP
##CAS NAME=Hexanoic acid, 2-ethyl-2-propyl-, methyl ester
##MOLFORM=C12H24O2
##CAS REGISTRY NO=54889-60-0
##MP= -300
##BP= -300
##MW= 200
##$RETENTION INDEX=0
##$CONDENSED SPECTRUM=NO
##NPOINTS= 122
##XYDATA=(XY..XY) 1 
    31         30
    33         12
    36          0
    37          3
    38         11
    39        285
    40         54
    41        846
    42         95
    43        955
    44         36
    45         80
    46          1
    48          0
    49          0
    50          7
    51         25
    52         15
    53        127
    54         38
    55        697
    56         76
    57        999
    58         45
    59        289
    60          9
    61          4
    62          0
    63          4
    64          1
    65         20
    66         10
    67         75
    68         23
    69        267
    70        110
    71        578
    72         32
    73         88
    74         10
    75          1
    76          0
    77         17
    78          4
    79         18
    80          4
    81         39
    82         13
    83        152
    84         27
    85        631
    86         41
    87         68
    88         24
    89          2
    90          0
    91          5
    92          3
    93          4
    94          1
    95         15
    96          6
    97         66
    98         54
    99        119
   100         12
   101         82
   102         14
   103          1
   104          0
   105          0
   107          1
   108          0
   109          6
   110          3
   111         35
   112         16
   113         15
   114          8
   115        533
   116         37
   117          3
   121          0
   122          0
   123          1
   124          1
   125         10
   126          6
   127          8
   128          2
   129         50
   130          5
   131          0
   137          1
   138          1
   139          8
   140         56
   141        542
   142         61
   143         66
   144        396
   145         33
   146          3
   153          1
   154          0
   155          1
   156          1
   157         89
   158        265
   159         25
   160          2
   167          0
   169          3
   170          1
   171         74
   172         50
   173          5
   185          8
   186          0
   199          0
   200          1
   201          0