##TITLE=Library Entry 57996
##JCAMP-DX=Revision 4.10 
##DATA TYPE=MASS SPECTRUM
##SAMPLE DESCRIPTION=Exported from NIST MS Search
##NAMES=HP
##CAS NAME=Nonanoic acid, 2,4-dimethyl-, methyl ester
##MOLFORM=C12H24O2
##CAS REGISTRY NO=54889-61-1
##MP= -300
##BP= -300
##MW= 200
##$RETENTION INDEX=0
##$CONDENSED SPECTRUM=NO
##NPOINTS= 60
##XYDATA=(XY..XY) 1 
    14          3
    15         13
    27         45
    29         61
    32          8
    39         29
    40          8
    41        110
    42         32
    43        105
    45         16
    53         16
    54          3
    55        110
    56         35
    57        161
    58         16
    59         65
    60          3
    66          3
    67          8
    68          3
    69         97
    70         19
    71         65
    72          3
    73         48
    74         16
    81         13
    83         16
    84          3
    85         16
    87         65
    88        999
    89         32
    95         13
    97         29
    98          3
    99          3
   101        306
   102         65
   103          3
   111         13
   112          3
   113         24
   115         16
   125          3
   126         16
   129         65
   130          3
   139          3
   141          3
   143          3
   153          3
   155          3
   157         32
   158          8
   169         29
   185          3
   200          8