##TITLE=Library Entry 60923
##JCAMP-DX=Revision 4.10 
##DATA TYPE=MASS SPECTRUM
##SAMPLE DESCRIPTION=Exported from NIST MS Search
##NAMES=HP
##CAS NAME=Benzene, 1,1'-[(1-ethyl-1,2-ethanediyl)bis(oxymethylene)]bis-
##MOLFORM=C18H22O2
##CAS REGISTRY NO=54889-79-1
##MP= -300
##BP= -300
##MW= 270
##$RETENTION INDEX=0
##$CONDENSED SPECTRUM=NO
##NPOINTS= 119
##XYDATA=(XY..XY) 1 
    14         12
    15          4
    16          3
    17         15
    18         68
    19          1
    25          1
    26          6
    27         25
    28        192
    29         31
    30          2
    31         33
    32         42
    36          3
    37         11
    38         18
    39         42
    40          8
    41         22
    42         64
    43         22
    44          9
    45         18
    46          1
    47          1
    48          1
    49          8
    50         65
    51        138
    52         35
    53         10
    54          2
    55         17
    56          9
    57         22
    58          7
    59         79
    60          5
    61         10
    62          7
    63         19
    64          6
    65         67
    66          6
    71          3
    72         11
    73         19
    74         24
    75         13
    76         16
    77        364
    78         60
    79         60
    80          5
    85          2
    86          2
    87          2
    88          1
    89         34
    90         21
    91        999
    92        286
    93         21
    94          5
    99          1
   101          3
   103          3
   104         13
   105        448
   106        303
   107        200
   108         53
   109          5
   115          2
   117          5
   118          6
   119          9
   120          9
   121         13
   122         46
   123         15
   124          1
   129          1
   131          3
   132          2
   133          3
   134          2
   135         17
   136         16
   137          3
   145         13
   146          2
   147          3
   148          3
   149         38
   150          7
   151          2
   152          1
   161          4
   162          5
   163          7
   164          6
   165          5
   166          1
   167          3
   173          2
   176          2
   177         12
   178          6
   179        104
   180         31
   181          8
   182          4
   183          1
   197          2
   211          2
   212          2
   216          3