##TITLE=Library Entry 40744
##JCAMP-DX=Revision 4.10 
##DATA TYPE=MASS SPECTRUM
##SAMPLE DESCRIPTION=Exported from NIST MS Search
##NAMES=HP
##CAS NAME=Octane, 1-(1-ethoxyethoxy)-
##MOLFORM=C12H26O2
##CAS REGISTRY NO=54889-49-5
##MP= -300
##BP= -300
##MW= 202
##$RETENTION INDEX=0
##$CONDENSED SPECTRUM=NO
##NPOINTS= 58
##XYDATA=(XY..XY) 1 
    14         10
    15         24
    16          2
    17          7
    18         27
    19          8
    26         17
    27        101
    28        131
    29        222
    30         14
    31         96
    32         21
    39         42
    40         14
    41        304
    42        130
    43        441
    44        109
    45        489
    46         30
    47         43
    53         14
    54         19
    55        206
    56        189
    57        432
    58         25
    59         14
    60          2
    61         15
    67         23
    68         42
    69        120
    70        120
    71        345
    72         64
    73        999
    74         44
    75        305
    81         16
    82         31
    83        100
    84         96
    85         20
    89         16
    97         12
    99          7
   103         30
   110         21
   111         11
   112         28
   113         71
   128          4
   141         27
   157        110
   173          6
   187        203