##TITLE=Library Entry 60924
##JCAMP-DX=Revision 4.10 
##DATA TYPE=MASS SPECTRUM
##SAMPLE DESCRIPTION=Exported from NIST MS Search
##NAMES=HP
##CAS NAME=Benzene, 1,1'-[(1-methyl-1,3-propanediyl)bis(oxymethylene)]bis-
##MOLFORM=C18H22O2
##CAS REGISTRY NO=54889-80-4
##MP= -300
##BP= -300
##MW= 270
##$RETENTION INDEX=0
##$CONDENSED SPECTRUM=NO
##NPOINTS= 114
##XYDATA=(XY..XY) 1 
    39         70
    40         19
    41         34
    42         11
    43         80
    44         18
    45         36
    46          4
    47          3
    48          2
    49         12
    50        100
    51        206
    52         55
    53         17
    54          4
    55         49
    56         46
    57         18
    58          4
    59          3
    60          4
    61         10
    62         12
    63         30
    64          9
    65         87
    66          9
    67          3
    68          2
    69          8
    70          9
    71         15
    72         16
    73         21
    74         36
    75         20
    76         23
    77        546
    78        100
    79        135
    80         13
    81          3
    82          2
    83          3
    84          4
    85          5
    86          4
    87          6
    88          1
    89         32
    90         32
    91        999
    92        283
    93         23
    94         10
    95          2
    96          1
    97          4
    98          2
    99          3
   100          2
   101          7
   102          2
   103          3
   104         37
   105        578
   106        474
   107        470
   108        142
   109         12
   115          4
   117         12
   118         25
   119         13
   120         45
   121         30
   122         72
   123         26
   124          3
   127          3
   128          3
   129          3
   131         11
   132          5
   133          9
   134          6
   135         12
   136         11
   137          3
   143          3
   144          3
   145          6
   146         11
   147         13
   148          5
   149          3
   150          6
   158          3
   160          3
   161         55
   162         45
   163         27
   164         18
   165         10
   167          8
   173          9
   176          4
   177         15
   178         11
   179        104
   180         19
   181          7
   219          6