##TITLE=Library Entry 35603
##JCAMP-DX=Revision 4.10 
##DATA TYPE=MASS SPECTRUM
##SAMPLE DESCRIPTION=Chemical Concepts
##NAMES=HP
##CAS NAME=5,6-Decanediol
##MOLFORM=C10H22O2
##CAS REGISTRY NO=54884-84-3
##MP= -300
##BP= -300
##MW= 174
##$RETENTION INDEX=0
##$CONDENSED SPECTRUM=NO
##NPOINTS= 63
##XYDATA=(XY..XY) 1 
    26          2
    27         47
    28         12
    29         79
    30          3
    31         31
    39         27
    40          4
    41        231
    42         34
    43        142
    44         32
    45         59
    47          4
    51          2
    53          9
    54          4
    55         97
    56         12
    57        171
    58         27
    59          5
    60          9
    61          3
    65          2
    67         13
    68         18
    69        999
    70         81
    71         45
    72          8
    73          9
    74          5
    75          2
    77          2
    79          3
    81         40
    82         12
    83         25
    84          3
    85         21
    86        452
    87        550
    88         32
    89          6
    91          1
    95          4
    97          7
    99         15
   100          8
   101          4
   111          2
   113          3
   117         83
   118          5
   127          3
   129          1
   139          4
   140          1
   156          2
   157         14
   158          1
   174          4