##TITLE=Library Entry 52153
##JCAMP-DX=Revision 4.10 
##DATA TYPE=MASS SPECTRUM
##SAMPLE DESCRIPTION=Exported from NIST MS Search
##NAMES=HP
##CAS NAME=1,1-Dicyclohexylbutane
##MOLFORM=C16H30
##CAS REGISTRY NO=54890-00-5
##MP= -300
##BP= -300
##MW= 222
##$RETENTION INDEX=0
##$CONDENSED SPECTRUM=NO
##NPOINTS= 134
##XYDATA=(XY..XY) 1 
    37          1
    38          3
    39        150
    40         26
    41        754
    42         66
    43        133
    44          1
    45          1
    46          1
    48          1
    49          1
    50          3
    51         11
    52          9
    53         85
    54        155
    55        790
    56         62
    57        143
    58          7
    59          1
    60          1
    61          1
    62          1
    63          2
    64          1
    65         22
    66         15
    67        252
    68         53
    69        353
    70         28
    71         54
    72          3
    73          1
    74          1
    75          1
    76          1
    77         28
    78          8
    79         43
    80         15
    81        137
    82        303
    83        999
    84         70
    85          6
    86          1
    87          1
    88          1
    89          1
    90          1
    91         14
    92          3
    93         10
    94          4
    95         60
    96        194
    97        372
    98         30
    99          1
   100          1
   101          1
   102          1
   103          1
   104          1
   105          3
   106          1
   107          3
   108          5
   109        126
   110         24
   111          9
   112          1
   113          1
   114          1
   115          1
   116          1
   117          1
   118          1
   119          1
   120          1
   121          2
   122          1
   123         10
   124          2
   125          4
   126          1
   127          1
   128          1
   129          1
   130          1
   131          1
   132          1
   133          1
   134          1
   135          1
   136          1
   137          4
   138        418
   139        288
   140         31
   141          2
   142          1
   143          1
   149          1
   150          1
   151          1
   152          1
   153          1
   154          1
   155          1
   156          1
   163          1
   164          1
   165          2
   166          1
   167          1
   177          1
   178          6
   179         46
   180          7
   181          1
   191          1
   192          1
   193          2
   194          1
   195          1
   220          1
   221          1
   222          8
   223          2
   224          1