##TITLE=Library Entry 42608
##JCAMP-DX=Revision 4.10 
##DATA TYPE=MASS SPECTRUM
##SAMPLE DESCRIPTION=S. MARKEY UDIV. OF COLO. MED. CTR., DENVER, COLORADO, U
SA
##NAMES=HP
##CAS NAME=Hexanoic acid, 2-[(trimethylsilyl)oxy]-, trimethylsilyl ester
##MOLFORM=C12H28O3Si2
##CAS REGISTRY NO=54890-07-2
##MP= -300
##BP= -300
##MW= 276
##$RETENTION INDEX=1289
##$CONDENSED SPECTRUM=NO
##NPOINTS= 59
##XYDATA=(XY..XY) 1 
    39         19
    40          7
    41         84
    42          6
    43         84
    44         52
    45        229
    46          5
    47         47
    55         53
    57         17
    58         34
    59        145
    60         14
    61         36
    66          6
    67          2
    69         79
    72         32
    73        999
    74         93
    75        255
    76         12
    77         10
    85         15
    99          6
   101         28
   102          2
   103         82
   113          2
   115         44
   116          9
   117         20
   119         13
   129         30
   131         50
   132          7
   133        129
   134         11
   135          6
   143         15
   147        487
   148         69
   149         56
   150          5
   159        476
   160         66
   161         25
   169          3
   171          7
   175          2
   187         11
   190         15
   208          2
   217          9
   233         76
   234         14
   261         41
   262          9