##TITLE=Library Entry 52158
##JCAMP-DX=Revision 4.10 
##DATA TYPE=MASS SPECTRUM
##SAMPLE DESCRIPTION=Exported from NIST MS Search
##NAMES=HP
##CAS NAME=1,2-Dicyclohexylbutane
##MOLFORM=C16H30
##CAS REGISTRY NO=54890-01-6
##MP= -300
##BP= -300
##MW= 222
##$RETENTION INDEX=0
##$CONDENSED SPECTRUM=NO
##NPOINTS= 131
##XYDATA=(XY..XY) 1 
    37          2
    38          3
    39        171
    40         31
    41        846
    42         78
    43        126
    44          4
    45          1
    46          1
    47          1
    48          1
    49          1
    50          3
    51         11
    52          9
    53         95
    54        139
    55        895
    56        109
    57        119
    58          6
    59          1
    60          1
    61          1
    62          1
    63          2
    64          1
    65         19
    66         14
    67        283
    68         49
    69        430
    70         35
    71         39
    72          2
    73          1
    74          1
    75          1
    76          1
    77         22
    78          6
    79         36
    80         15
    81        122
    82        479
    83        999
    84         71
    85          5
    86          1
    87          1
    88          1
    89          1
    90          1
    91         10
    92          2
    93          6
    94          3
    95         50
    96        164
    97        350
    98         29
    99          1
   100          1
   101          1
   102          1
   103          1
   104          1
   105          2
   106          1
   107          2
   108          3
   109         91
   110         23
   111         77
   112          7
   113          1
   114          1
   115          1
   116          1
   117          1
   118          1
   119          1
   120          1
   121          1
   122          1
   123         15
   124         48
   125        101
   126         11
   127          1
   128          1
   129          1
   130          1
   131          1
   132          1
   133          1
   134          1
   135          1
   136          1
   137         13
   138        230
   139        158
   140         17
   141          1
   142          1
   143          1
   144          1
   145          1
   146          1
   147          1
   148          1
   149          1
   150          1
   151          3
   152          1
   153          1
   163          1
   164          1
   165          1
   166          1
   178          1
   179          2
   180          1
   181          1
   191          1
   192         39
   193        195
   194         31
   195          2
   196          1