##TITLE=Library Entry 40169
##JCAMP-DX=Revision 4.10 
##DATA TYPE=MASS SPECTRUM
##SAMPLE DESCRIPTION=A.Pleshkova, Nesmeyanov Inst.Org.Elem.Cpds, Moscow
##NAMES=HP
##CAS NAME=1-Phenylcarbamidoyl-2-dimethylcarbamidoyl-3,3-dimethyldiaziridine
##MOLFORM=C13H18N4O2
##CAS REGISTRY NO=54897-26-6
##MP= -300
##BP= -300
##MW= 262
##$RETENTION INDEX=0
##$CONDENSED SPECTRUM=NO
##NPOINTS= 28
##XYDATA=(XY..XY) 1 
    44        165
    45        173
    46          8
    51         45
    52         39
    53          9
    58         72
    59          7
    72        999
    73         47
    77         45
    91        143
    92         39
    93         46
    98         35
    99         83
   113         22
   119        375
   120         51
   128          7
   143        219
   144         45
   164        119
   165          9
   191         22
   247         19
   262         21
   263          3