##TITLE=Library Entry 52163
##JCAMP-DX=Revision 4.10 
##DATA TYPE=MASS SPECTRUM
##SAMPLE DESCRIPTION=Exported from NIST MS Search
##NAMES=HP
##CAS NAME=2,2-Dicyclohexylbutane
##MOLFORM=C16H30
##CAS REGISTRY NO=54890-02-7
##MP= -300
##BP= -300
##MW= 222
##$RETENTION INDEX=0
##$CONDENSED SPECTRUM=NO
##NPOINTS= 128
##XYDATA=(XY..XY) 1 
    36          1
    37          2
    38          4
    39        170
    40         29
    41        837
    42         59
    43        157
    44          6
    45          1
    46          1
    47          1
    48          1
    49          1
    50          3
    51         14
    52         10
    53        104
    54         69
    55        867
    56         64
    57        328
    58         15
    59          1
    60          1
    61          1
    62          1
    63          3
    64          1
    65         22
    66         16
    67        190
    68         55
    69        426
    70         46
    71        100
    72          6
    73          1
    74          1
    75          1
    76          1
    77         30
    78          8
    79         46
    80         25
    81        180
    82        157
    83        999
    84         72
    85          5
    86          1
    87          1
    88          1
    89          1
    90          1
    91         18
    92          3
    93         13
    94          4
    95         58
    96         96
    97        622
    98         49
    99          2
   100          1
   101          1
   102          1
   103          1
   104          1
   105          4
   106          1
   107          5
   108          8
   109        269
   110         44
   111         62
   112          6
   113          1
   114          1
   115          1
   116          1
   117          1
   118          1
   119          1
   120          1
   121          2
   122          1
   123         40
   124          7
   125          9
   126          1
   127          1
   128          1
   129          1
   130          1
   131          1
   132          1
   133          1
   134          1
   135          1
   136          1
   137          6
   138        554
   139        501
   140         54
   141          3
   142          1
   147          1
   148          1
   149          1
   150          1
   151          2
   152          1
   153          1
   163          1
   164          1
   165          1
   166          1
   177          1
   178          1
   179          1
   180          1
   191          1
   192          1
   193         14
   194          2
   207          1
   208          1