##TITLE=Library Entry 52093
##JCAMP-DX=Revision 4.10 
##DATA TYPE=MASS SPECTRUM
##SAMPLE DESCRIPTION=V.Zaikin,Inst.Petrochem.Synth.,RAS,Moscow
##NAMES=HP
##CAS NAME=3-Methyl-2-butenoic acid, phenyl ester
##MOLFORM=C11H12O2
##CAS REGISTRY NO=54897-52-8
##MP= -300
##BP= -300
##MW= 176
##$RETENTION INDEX=0
##$CONDENSED SPECTRUM=NO
##NPOINTS= 56
##XYDATA=(XY..XY) 1 
    25          4
    26         23
    27        112
    28          3
    29        145
    30          4
    39        209
    40         64
    41         94
    42         20
    43         20
    50         32
    51         57
    52         38
    53         58
    54         30
    55        338
    56         24
    57          8
    58          2
    59          2
    60          5
    61          3
    62          6
    63         20
    64          9
    65         50
    66         22
    67         22
    68          4
    69          6
    70          4
    71          4
    73          3
    74          3
    75          7
    76          3
    77         22
    78         12
    79         42
    80          6
    81          4
    82         57
    83        999
    84         48
    85         11
    89          2
    90          2
    91         17
    92          8
    93         13
    94         57
    95          5
   161          4
   176         19
   177          3