##TITLE=Library Entry 62120
##JCAMP-DX=Revision 4.10 
##DATA TYPE=MASS SPECTRUM
##SAMPLE DESCRIPTION=Exported from NIST MS Search
##NAMES=HP
##CAS NAME=Ethanol, 2,2-dichloro-2-(phenylmethoxy)-, propanoate
##MOLFORM=C12H14Cl2O3
##CAS REGISTRY NO=54890-05-0
##MP= -300
##BP= -300
##MW= 276
##$RETENTION INDEX=0
##$CONDENSED SPECTRUM=NO
##NPOINTS= 125
##XYDATA=(XY..XY) 1 
    14          3
    15          5
    16          1
    17          2
    18          5
    19          3
    26          5
    27         25
    28         21
    29          8
    30          1
    31          7
    32          3
    36          1
    37          1
    38          2
    39         19
    40          2
    41          8
    42          2
    43          9
    44          6
    45         71
    46          2
    49          1
    50          7
    51         22
    52          7
    53          3
    54          1
    55          3
    56          1
    60          1
    61         25
    62         22
    63         32
    64         11
    65         73
    66          4
    73          3
    74          2
    75          2
    76          3
    77         41
    78         12
    79         34
    80          2
    82          1
    83          2
    85          1
    86          1
    87          4
    89         31
    90         38
    91        999
    92        101
    93          7
    96          2
    97         94
    98          3
    99         63
   100         15
   101         11
   103          2
   104         35
   105         89
   106         52
   107        208
   108         20
   109          4
   110          2
   111          1
   115          2
   116          1
   117          1
   119          2
   120          3
   121          3
   122          2
   123          2
   125         63
   126          5
   127         23
   128          2
   129          2
   133         14
   134        223
   135         25
   136         73
   137          8
   138          1
   139          1
   141          1
   143          2
   145          1
   147          1
   149          1
   151          2
   152          5
   153          1
   155          3
   157          2
   159          1
   161          1
   163          3
   168          1
   169         74
   170          7
   171         48
   172          4
   173          8
   174          1
   176          1
   177          1
   181          1
   183          1
   184          1
   197          1
   207          2
   220          2
   222          1
   276          7
   277          1
   278          5
   280          1