##TITLE=Library Entry 27524
##JCAMP-DX=Revision 4.10 
##DATA TYPE=MASS SPECTRUM
##SAMPLE DESCRIPTION=G.D. ROBERTS & E. WHITE, V SMITH KLINE CORP PHILA., PA.
, USA
##NAMES=HP
##CAS NAME=Propanoic acid, silver(1+) salt
##MOLFORM=C3H5AgO2
##CAS REGISTRY NO=5489-14-5
##MP= -300
##BP= -300
##MW= 180
##$RETENTION INDEX=0
##$CONDENSED SPECTRUM=NO
##NPOINTS= 92
##XYDATA=(XY..XY) 1 
    18         11
    23         10
    26         75
    27        220
    28        432
    29        413
    30         53
    31         27
    32         79
    40         10
    41         18
    42         42
    43         38
    44        250
    45        392
    46         44
    47         26
    51         13
    53         31
    54         22
    55        170
    56        198
    57        999
    58         43
    65         10
    67         15
    69         15
    71         10
    72         16
    73        432
    74        610
    75         36
    76         13
    77         26
    81         12
    83         13
    85         11
    95         11
    97         11
   101         11
   105         10
   107        310
   109        305
   115         28
   119         15
   128         16
   129         32
   135         48
   136         11
   137         40
   138         10
   139         14
   141         35
   149         92
   150         10
   151         67
   153         55
   202         11
   203         19
   205         18
   214        300
   215         50
   216        525
   217         90
   218        269
   219         46
   230         29
   231          9
   232         51
   233         14
   234         14
   235          7
   287        402
   288         16
   289        738
   290         26
   291        380
   292         15
   331         11
   333         25
   335         11
   360          1
   362          2
   364          1
   429          0
   431          0
   433          0
   435          0
   467          0
   469          2
   471          2
   473          0