##TITLE=Library Entry 78786
##JCAMP-DX=Revision 4.10 
##DATA TYPE=MASS SPECTRUM
##SAMPLE DESCRIPTION=A.A.Kutin, Moscow, Russia
##NAMES=HP
##CAS NAME=Oxazol-5(4H)-one, 4-dichloromethylene-2-phenyl-
##MOLFORM=C10H5Cl2NO2
##CAS REGISTRY NO=54902-24-8
##MP= -300
##BP= -300
##MW= 241
##$RETENTION INDEX=0
##$CONDENSED SPECTRUM=NO
##NPOINTS= 119
##XYDATA=(XY..XY) 1 
    35         10
    36          6
    37         16
    38         37
    39         35
    40          5
    41          1
    42          1
    43          2
    44          3
    45          0
    47         49
    49         29
    50        169
    51        387
    52         22
    53         10
    54          1
    55          0
    56          0
    57          0
    59         11
    60          2
    61         10
    62         14
    63         16
    64          4
    65          2
    66          0
    67          1
    69          0
    70          0
    71          0
    73         61
    74         55
    75         61
    77        946
    78         50
    82         18
    84          6
    85         10
    86          5
    87         14
    88          4
    89          4
    90          0
    91          0
    92          0
    94          7
    96          4
    97          0
    98          1
    99          4
   100          1
   101          1
   102          1
   103          9
   105        999
   106         72
   108         83
   110         58
   111          4
   112          9
   113          0
   114          1
   115          1
   119          0
   120          6
   121          5
   122          1
   123          1
   124          0
   125          0
   126          0
   127          2
   128          0
   130          0
   134          1
   135          0
   136          0
   138          0
   148          0
   149          0
   150          0
   151          0
   157          0
   158          0
   159          0
   161          0
   162         29
   163          3
   164          9
   165          0
   166          0
   179          0
   181          0
   183          0
   184          0
   185          0
   186          0
   197          0
   199          0
   204          0
   206          0
   207          0
   212          0
   213          0
   215          0
   219          0
   224          0
   238          0
   240          0
   241        298
   242         37
   243        197
   244         22
   245         31
   246          3
   247          0