##TITLE=Library Entry 38211
##JCAMP-DX=Revision 4.10 
##DATA TYPE=MASS SPECTRUM
##SAMPLE DESCRIPTION=Chemical Concepts
##NAMES=HP
##CAS NAME=Butanal, 4-[(tetrahydro-2H-pyran-2-yl)oxy]-
##MOLFORM=C9H16O3
##CAS REGISTRY NO=54911-85-2
##MP= -300
##BP= -300
##MW= 172
##$RETENTION INDEX=1322
##$CONDENSED SPECTRUM=NO
##NPOINTS= 87
##XYDATA=(XY..XY) 1 
    26         23
    27        254
    28        120
    29        129
    30          6
    31        108
    33          0
    36          0
    37          2
    38          6
    39        132
    40         38
    41        658
    42        175
    43        416
    44         67
    45         28
    46          0
    47         24
    48          0
    49          1
    50          3
    51          6
    52          4
    53         21
    54         15
    55        156
    56        174
    57        117
    58          8
    59          9
    60          4
    61          0
    62          0
    63          0
    65          3
    66          1
    67        108
    68         13
    69         17
    70         32
    71        999
    72         46
    73          6
    74          3
    75          0
    77          0
    78          0
    79          2
    80          0
    81          1
    82          3
    83         28
    84         73
    85        655
    86         37
    87         20
    88          5
    89          2
    90          0
    91         11
    92          0
    93          3
    97          2
    98          6
    99          1
   100         28
   101        106
   102          6
   103          2
   105          0
   110          0
   112          0
   114          3
   115          1
   116          0
   123          0
   126          6
   127          0
   128          3
   129          0
   142          0
   144          1
   154          1
   155          0
   171          0
   172          0