##TITLE=Library Entry 109338
##JCAMP-DX=Revision 4.10 
##DATA TYPE=MASS SPECTRUM
##SAMPLE DESCRIPTION=NIST Mass Spectrometry Data Center, 1994
##NAMES=HP
##CAS NAME=Imidazole, TBDMS derivative
##MOLFORM=C9H18N2Si
##CAS REGISTRY NO=54925-64-3
##MP= -300
##BP= -300
##MW= 182
##$RETENTION INDEX=0
##$CONDENSED SPECTRUM=NO
##NPOINTS= 78
##XYDATA=(XY..XY) 1 
    14          2
    15         17
    26          4
    27         49
    28         57
    29        169
    30         10
    31         36
    32          4
    38          9
    39         66
    40         34
    41        168
    42         48
    43        322
    44         54
    45        118
    46         10
    47          5
    51          5
    53         29
    54         34
    55         80
    56         50
    57        135
    58        109
    59        152
    60         19
    61          5
    62          5
    65          3
    66         10
    67         24
    68        103
    69         65
    70        251
    71         46
    72        122
    73        257
    74         24
    75         11
    81          9
    82         40
    83         32
    84         45
    85         18
    86          9
    93          1
    94          3
    95         32
    96         12
    97          1
    98        915
    99        453
   100         68
   101         15
   109         10
   111        133
   112         18
   113         10
   125        999
   126        828
   127        132
   128         29
   139          8
   140          7
   151          9
   152          3
   155        141
   156         22
   157          8
   165          5
   167         43
   168          9
   169          5
   182        252
   183         46
   184         14