##TITLE=Library Entry 76751
##JCAMP-DX=Revision 4.10 
##DATA TYPE=MASS SPECTRUM
##SAMPLE DESCRIPTION=Chemical Concepts
##NAMES=HP
##CAS NAME=Benzene, (5-methyl-4-hexenyl)-
##MOLFORM=C13H18
##CAS REGISTRY NO=54928-28-8
##MP= -300
##BP= -300
##MW= 174
##$RETENTION INDEX=0
##$CONDENSED SPECTRUM=NO
##NPOINTS= 88
##XYDATA=(XY..XY) 1 
    26          9
    27        252
    28         37
    29        202
    30          6
    37          4
    38         16
    39        297
    40         50
    41        856
    42         60
    43        100
    44          6
    45          2
    50         35
    51        140
    52         41
    53        116
    54         28
    55        636
    56         47
    57         25
    58          3
    62         11
    63         54
    64         16
    65        217
    66         23
    67        119
    68         27
    69        365
    70         39
    71          8
    73          3
    74          7
    75         12
    76         13
    77        164
    78         85
    79        107
    80         14
    81         68
    82         83
    83        243
    84         19
    85          5
    86          3
    87          5
    89         35
    90         17
    91        663
    92        473
    93         49
    94          5
    95          9
    96         21
    97          4
    98          3
    99          8
   100          3
   101          4
   102         15
   103         86
   104        999
   105        335
   106         40
   107         10
   115         54
   116         29
   117        318
   118        280
   119         33
   120          5
   121          3
   127          8
   128         18
   129         24
   130         12
   131        122
   132         17
   133          7
   134          5
   135          4
   145         12
   146          6
   174        486
   175         85
   176          7