##TITLE=Library Entry 23143
##JCAMP-DX=Revision 4.10 
##DATA TYPE=MASS SPECTRUM
##SAMPLE DESCRIPTION=Exported from NIST MS Search
##NAMES=HP
##CAS NAME=1,3-Propanediol, 2-methyl-, dipropanoate
##MOLFORM=C10H18O4
##CAS REGISTRY NO=54932-83-1
##MP= -300
##BP= -300
##MW= 202
##$RETENTION INDEX=0
##$CONDENSED SPECTRUM=NO
##NPOINTS= 51
##XYDATA=(XY..XY) 1 
    14          1
    15          3
    17          1
    18          6
    26          5
    27         40
    28         36
    29        193
    30          6
    31         13
    32          2
    39         10
    40          2
    41         17
    42         24
    43         20
    44          2
    45         11
    53          3
    54         11
    55         57
    56         27
    57        999
    58         35
    59          4
    69          5
    70          3
    71         35
    72         61
    73         13
    74         15
    75         72
    76          3
    84          2
    85          2
    86         27
    87         15
    89          6
    99         15
   100         12
   101          9
   102          4
   113          2
   115         10
   126          2
   127          5
   128         27
   129         13
   131         34
   132          2
   145          3