##TITLE=Library Entry 36221
##JCAMP-DX=Revision 4.10 
##DATA TYPE=MASS SPECTRUM
##SAMPLE DESCRIPTION=Exported from NIST MS Search
##NAMES=HP
##CAS NAME=Cyclohexane, 1,1'-(1-methylethylidene)bis-
##MOLFORM=C15H28
##CAS REGISTRY NO=54934-90-6
##MP= -300
##BP= -300
##MW= 208
##$RETENTION INDEX=0
##$CONDENSED SPECTRUM=NO
##NPOINTS= 108
##XYDATA=(XY..XY) 1 
    36          1
    37          2
    38          4
    39        165
    40         31
    41        790
    42         53
    43        234
    44          8
    45          1
    46          1
    47          1
    48          1
    49          1
    50          3
    51         12
    52          9
    53         92
    54         70
    55        586
    56         59
    57        224
    58         10
    59          1
    60          1
    61          1
    62          1
    63          2
    64          1
    65         17
    66         44
    67        170
    68         53
    69        999
    70         63
    71         11
    72          1
    73          1
    74          1
    75          1
    76          1
    77         20
    78          5
    79         33
    80         37
    81        196
    82        325
    83        490
    84         35
    85          1
    86          1
    87          1
    88          1
    89          1
    90          1
    91         11
    92          2
    93          7
    94          3
    95         46
    96         33
    97         47
    98          4
    99          1
   100          1
   101          1
   102          1
   103          1
   104          1
   105          2
   106          1
   107          2
   108          1
   109         75
   110          8
   111         10
   112          1
   113          1
   114          1
   115          1
   116          1
   117          1
   118          1
   119          1
   120          1
   121          1
   122          1
   123          5
   124        631
   125        812
   126         78
   127          4
   128          1
   129          1
   130          1
   131          1
   132          1
   133          1
   134          1
   135          1
   136          1
   137          1
   138          1
   139          1
   192          1
   193          1
   194          1
   195          1