##TITLE=Library Entry 17458
##JCAMP-DX=Revision 4.10 
##DATA TYPE=MASS SPECTRUM
##SAMPLE DESCRIPTION=Exported from NIST MS Search
##NAMES=HP
##CAS NAME=Propanoic acid, 2,2-dichloro-, 1,2-ethanediyl ester
##MOLFORM=C8H10Cl4O4
##CAS REGISTRY NO=54934-49-5
##MP= -300
##BP= -300
##MW= 310
##$RETENTION INDEX=0
##$CONDENSED SPECTRUM=NO
##NPOINTS= 153
##XYDATA=(XY..XY) 1 
    12          2
    13          3
    14         12
    15         37
    16          3
    17         15
    18         64
    19         19
    25          4
    26         43
    27        160
    28        177
    29         46
    30          6
    31         61
    32         23
    33          5
    35         12
    36         71
    37          5
    38         26
    39          5
    40          4
    41         30
    42         26
    43         96
    44         91
    45        999
    46         25
    47          7
    48          7
    49         23
    50         10
    51         11
    52          3
    53         13
    54          7
    55         15
    56          4
    57          5
    58          4
    59          4
    60         11
    61        194
    62        156
    63        115
    64         54
    65         21
    66          1
    69          2
    71          7
    72          3
    73          6
    75          1
    76         10
    77        116
    78         12
    79         44
    80          3
    81          5
    82          6
    83         34
    84          5
    85         22
    86          3
    87         18
    88          1
    89        142
    90        124
    91         85
    92         44
    93         15
    94          3
    95          4
    96         21
    97        931
    98         36
    99        610
   100         18
   101         96
   102          4
   103         13
   104          8
   105          6
   106         20
   107         38
   108         16
   109         14
   110          7
   111         10
   112          3
   113          7
   114          1
   115          7
   116          2
   117         15
   118         18
   119          4
   120          4
   121         42
   122          5
   123         17
   124          2
   125        105
   126          7
   127         79
   128          6
   129         19
   130          1
   131          1
   132          1
   133         96
   134         19
   135         42
   136          5
   137          4
   141         12
   142          4
   143         10
   144          1
   145          3
   149          5
   152          3
   155         20
   156         11
   157         13
   158          6
   159          3
   160          4
   162          2
   168         10
   169        210
   170         23
   171        130
   172         12
   173         23
   174          7
   175          1
   180         26
   181          3
   183          4
   185          3
   187          1
   189          2
   191          1
   195          4
   196          3
   198          3
   199          1
   200          1
   202          1
   207          1
   212          1