##TITLE=Library Entry 19292
##JCAMP-DX=Revision 4.10 
##DATA TYPE=MASS SPECTRUM
##SAMPLE DESCRIPTION=Exported from NIST MS Search
##NAMES=HP
##CAS NAME=Cyclohexane, 1-(cyclohexylmethyl)-4-ethyl-, cis-
##MOLFORM=C15H28
##CAS REGISTRY NO=54934-95-1
##MP= -300
##BP= -300
##MW= 208
##$RETENTION INDEX=0
##$CONDENSED SPECTRUM=NO
##NPOINTS= 126
##XYDATA=(XY..XY) 1 
    37          2
    38          5
    39        206
    40         38
    41        865
    42         80
    43        132
    44          5
    45          1
    46          1
    47          1
    48          1
    49          1
    50          3
    51         14
    52         12
    53        115
    54        157
    55        999
    56         78
    57         52
    58          2
    59          1
    60          1
    61          1
    62          1
    63          2
    64          1
    65         24
    66         22
    67        305
    68         95
    69        757
    70         62
    71         10
    72          1
    73          1
    74          1
    75          1
    76          1
    77         32
    78          8
    79         53
    80         25
    81        261
    82        420
    83        715
    84         64
    85          6
    86          1
    87          1
    88          1
    89          1
    90          1
    91         14
    92          3
    93         12
    94          6
    95        144
    96        132
    97        272
    98         24
    99          1
   100          1
   101          1
   102          1
   103          1
   104          1
   105          2
   106          1
   107          4
   108          3
   109         64
   110        291
   111        620
   112         57
   113          3
   114          1
   115          1
   116          1
   117          1
   118          1
   119          1
   120          1
   121          2
   122          2
   123         28
   124         54
   125         54
   126          6
   127          1
   128          1
   129          1
   130          1
   131          1
   132          1
   133          1
   134          1
   135          2
   136          2
   137         13
   138          4
   139          1
   149          1
   150          1
   151          2
   152          1
   153          1
   154          1
   155          1
   163          1
   164          1
   165          1
   166          1
   167          1
   177          1
   178         14
   179         84
   180         16
   181          1
   206          1
   207          1
   208        209
   209         36
   210          3
   211          1