##TITLE=Library Entry 44835
##JCAMP-DX=Revision 4.10 
##DATA TYPE=MASS SPECTRUM
##SAMPLE DESCRIPTION=W. KELLY UNILEVER RESEARCH COLWORTH/WELWYN, BEDFORD U.K
.
##NAMES=HP
##CAS NAME=Heptadecanoic acid, 3-methyl-, methyl ester
##MOLFORM=C19H38O2
##CAS REGISTRY NO=54934-56-4
##MP= -300
##BP= -300
##MW= 298
##$RETENTION INDEX=0
##$CONDENSED SPECTRUM=NO
##NPOINTS= 133
##XYDATA=(XY..XY) 1 
    26          1
    27         21
    28          2
    29         80
    30          1
    31          3
    32          0
    39         18
    40          4
    41        187
    42         42
    43        237
    44          9
    45          6
    53          9
    54         12
    55        197
    56         47
    57        167
    58          8
    59         59
    60          2
    61          2
    65          2
    66          1
    67         23
    68         15
    69        141
    70         24
    71         71
    72          4
    73         37
    74        999
    75        299
    76         14
    77          3
    79          4
    80          1
    81         17
    82         12
    83         77
    84         14
    85         37
    86          3
    87         39
    88          3
    91          1
    93          4
    94          2
    95         13
    96          8
    97         97
    98         23
    99          9
   100          2
   101        909
   102         62
   103          6
   107          3
   109          7
   110          5
   111         29
   112         14
   113          7
   114          2
   115         15
   116          2
   121          2
   123          3
   124          3
   125         12
   126          4
   127          3
   129         11
   130          3
   135          2
   137          1
   138          1
   139          7
   140          2
   141          2
   143         15
   144          3
   149          2
   151          1
   152          1
   153          4
   154          1
   155          1
   157         41
   158          5
   163          1
   166          1
   167          2
   168          1
   169          1
   171          6
   172          2
   177          1
   181          2
   182          1
   185         15
   186          2
   195          2
   196          2
   199         12
   200          2
   213         13
   214          2
   222          1
   223          1
   224         20
   225          4
   227          6
   228          1
   241         27
   242          5
   247          1
   251          1
   255         34
   256          7
   257          1
   265          1
   266          1
   267         41
   268          9
   269          4
   283         19
   284          3
   297          2
   298        108
   299         27
   300          4