##TITLE=Library Entry 19490
##JCAMP-DX=Revision 4.10 
##DATA TYPE=MASS SPECTRUM
##SAMPLE DESCRIPTION=Exported from NIST MS Search
##NAMES=HP
##CAS NAME=Cyclohexane, 1-(cyclohexylmethyl)-2-ethyl-, cis-
##MOLFORM=C15H28
##CAS REGISTRY NO=54934-93-9
##MP= -300
##BP= -300
##MW= 208
##$RETENTION INDEX=0
##$CONDENSED SPECTRUM=NO
##NPOINTS= 125
##XYDATA=(XY..XY) 1 
    36          1
    37          2
    38          5
    39        217
    40         41
    41        967
    42        115
    43        157
    44          6
    45          1
    46          1
    47          1
    48          1
    49          1
    50          4
    51         16
    52         13
    53        123
    54        153
    55        999
    56        101
    57         61
    58          3
    59          1
    60          1
    61          1
    62          1
    63          3
    64          1
    65         28
    66         25
    67        312
    68         89
    69        778
    70         71
    71         12
    72          1
    73          1
    74          1
    75          1
    76          1
    77         34
    78          9
    79         57
    80         25
    81        257
    82        174
    83        613
    84         51
    85          5
    86          1
    87          1
    88          1
    89          1
    90          1
    91         17
    92          3
    93         12
    94          7
    95        123
    96        169
    97        457
    98         40
    99          2
   100          1
   101          1
   102          1
   103          1
   104          1
   105          3
   106          1
   107          4
   108          6
   109        108
   110        219
   111        835
   112         81
   113          5
   114          1
   115          1
   116          1
   117          1
   118          1
   119          1
   120          1
   121          2
   122          3
   123         50
   124         15
   125         13
   126          6
   127          2
   128          1
   129          1
   130          1
   131          1
   132          1
   133          1
   134          1
   135          2
   136          1
   137         16
   138         13
   139          8
   140          1
   149          1
   150          1
   151          5
   152          3
   153          1
   164          1
   165          3
   166          2
   167          1
   177          1
   178         28
   179        382
   180         59
   181          5
   205          1
   206          1
   207          1
   208         99
   209         16
   210          2