##TITLE=Library Entry 3687
##JCAMP-DX=Revision 4.10 
##DATA TYPE=MASS SPECTRUM
##SAMPLE DESCRIPTION=Exported from NIST MS Search
##NAMES=HP
##CAS NAME=Cyclopentane, 1,1'-[3-(2-cyclopentylethylidene)-1,5-pentanediyl]b
is-
##MOLFORM=C22H38
##CAS REGISTRY NO=54934-71-3
##MP= -300
##BP= -300
##MW= 302
##$RETENTION INDEX=0
##$CONDENSED SPECTRUM=NO
##NPOINTS= 167
##XYDATA=(XY..XY) 1 
    36          1
    37          4
    38          7
    39        156
    40         41
    41        999
    42        130
    43         70
    44          6
    45          1
    48          1
    49          1
    50          5
    51         13
    52         11
    53        112
    54         72
    55        602
    56         54
    57        140
    58          7
    59          1
    60          1
    61          1
    62          1
    63          3
    64          1
    65         39
    66         50
    67        652
    68        169
    69        470
    70         59
    71         23
    72          2
    73          1
    74          1
    75          1
    76          1
    77         60
    78         18
    79        144
    80        120
    81        582
    82        833
    83        590
    84         46
    85          3
    86          1
    89          1
    90          1
    91         54
    92         12
    93         75
    94         80
    95        544
    96        128
    97        169
    98         14
    99          1
   102          1
   103          3
   104          3
   105         14
   106          4
   107         32
   108         19
   109        210
   110         39
   111         59
   112          5
   113          1
   115          2
   116          1
   117          4
   118          1
   119          4
   120          2
   121         52
   122         42
   123        261
   124         49
   125         62
   126          6
   127          1
   128          1
   129          1
   130          1
   131          1
   132          1
   133          2
   134          2
   135         43
   136         39
   137         80
   138        222
   139        193
   140         22
   141          2
   142          1
   143          1
   144          1
   145          1
   146          1
   147          1
   148          1
   149         19
   150         15
   151         45
   152         12
   153          3
   154          1
   155          1
   159          1
   160          1
   161          1
   162          1
   163         33
   164          8
   165          6
   166          1
   167          1
   175          1
   176          1
   177          4
   178          3
   179          2
   180          1
   189          1
   190          1
   191          3
   192          7
   193          1
   201          1
   202          1
   203          1
   204          4
   205         22
   206          8
   207          2
   208          1
   215          1
   216          1
   217          1
   218          1
   219          1
   220         61
   221         20
   222          3
   223          1
   229          1
   230          1
   231          2
   232          1
   233          2
   234          1
   245          1
   246          1
   259          1
   274          1
   298          1
   300          1
   301          1
   302         55
   303         13
   304          2
   305          1