##TITLE=Library Entry 54506
##JCAMP-DX=Revision 4.10 
##DATA TYPE=MASS SPECTRUM
##SAMPLE DESCRIPTION=A.A.Kutin, Moscow, Russia
##NAMES=HP
##CAS NAME=Pyrido[3,4-b]indole, 1,9-dimethyl-4-(1-methyl-2-pyrrolidinyl)-
##MOLFORM=C18H21N3
##CAS REGISTRY NO=54932-49-9
##MP= -300
##BP= -300
##MW= 279
##$RETENTION INDEX=0
##$CONDENSED SPECTRUM=NO
##NPOINTS= 189
##XYDATA=(XY..XY) 1 
    33          0
    39         46
    41         93
    42        323
    44         65
    45          5
    50         19
    51         30
    52         12
    53         12
    54         27
    55         45
    56         62
    57         13
    58          5
    59          4
    60          1
    61          4
    62         14
    63         35
    64         13
    65         14
    66          8
    67         10
    68         26
    69         14
    70          7
    71          6
    74         12
    75         28
    76         20
    77         32
    78          8
    79          3
    80          6
    82        103
    84        999
    86         10
    87         16
    88         17
    89         21
    90         17
    91         13
    92         11
    93          4
    94          3
    96          8
    97         21
    98          5
    99          8
   100          9
   101         17
   102         18
   103         18
   104         20
   105          8
   106          1
   107          1
   108          2
   109         11
   111         38
   112         10
   113         23
   114         16
   115         29
   116         13
   117         40
   118         24
   119          9
   120          7
   121          1
   123          7
   124         11
   125         28
   126         32
   127         42
   128         23
   129         10
   130         15
   132          9
   134          0
   135          1
   137          9
   138         26
   139         96
   140         53
   141         27
   142         13
   143          6
   144          3
   145          3
   146          3
   150          7
   151         33
   152         45
   153         33
   154         80
   155         26
   156          5
   157          1
   158          1
   160          0
   161          1
   162          2
   163          4
   164         26
   165         35
   166         43
   167         78
   168         46
   169         15
   170          4
   171          0
   173          0
   175          1
   176          5
   177         17
   178         38
   179         49
   180         63
   181         46
   182         16
   183          4
   184          0
   187         10
   188          3
   189          4
   190         13
   191         27
   192         37
   193         42
   194         47
   195        103
   196        218
   197         47
   198          6
   202          1
   203          5
   204         15
   205         32
   206         41
   207         37
   208         20
   209         33
   210         43
   211          6
   214          0
   216          3
   217          9
   218         17
   219         43
   220         66
   221        126
   222        456
   223        260
   224         51
   225          6
   229          0
   230          3
   231          4
   232          7
   233         20
   234         23
   235        110
   236         73
   237         28
   238          6
   241          0
   244          1
   245          1
   246          3
   247         12
   248         11
   249         16
   250         15
   251         10
   260          1
   261          2
   262          8
   263         13
   264         24
   265         12
   266          1
   275          3
   276          9
   278         87
   279        621
   280        111
   281         13