##TITLE=Library Entry 70149
##JCAMP-DX=Revision 4.10 
##DATA TYPE=MASS SPECTRUM
##SAMPLE DESCRIPTION=Exported from NIST MS Search
##NAMES=HP
##CAS NAME=2,3-Nonadecanediol
##MOLFORM=C19H40O2
##CAS REGISTRY NO=54934-55-3
##MP= -300
##BP= -300
##MW= 300
##$RETENTION INDEX=0
##$CONDENSED SPECTRUM=NO
##NPOINTS= 121
##XYDATA=(XY..XY) 1 
    31         54
    32          2
    39         81
    41        596
    42        160
    43        696
    44        151
    45        254
    47         24
    53         45
    54        103
    55        896
    56        248
    57        393
    58        303
    59        181
    60         21
    61         24
    63         21
    65         24
    66         90
    67        278
    68        236
    69        939
    70        203
    71        727
    72        193
    73        100
    74         21
    75         84
    79         30
    80         45
    81        266
    82        496
    83        969
    84        151
    85        475
    86        112
    87         60
    89         24
    91         24
    93         21
    94         21
    95        254
    96        466
    97        999
    98        172
    99        193
   100         60
   101         21
   103         21
   105         21
   109        145
   110        197
   111        221
   112        121
   113        133
   114         36
   115         21
   122         21
   123        121
   124        145
   125        354
   126         72
   127         84
   128         24
   136         24
   137         84
   138        112
   139        193
   140         54
   141         66
   149         54
   151         36
   152         60
   153        121
   154         60
   155         60
   165         24
   166         48
   167         69
   168         30
   169         36
   179         24
   180         54
   181         51
   182         21
   183         21
   194         54
   195         24
   196         24
   197         24
   208         72
   209         21
   210         24
   211         18
   213         24
   222         84
   223         24
   224         24
   225         24
   226         24
   227         36
   236        303
   237         69
   238         30
   239         36
   240         18
   241         84
   253         51
   254        121
   255        560
   257         21
   264         30
   267         21
   268         72
   269        181
   270         42
   271         24
   282         42
   300          6