##TITLE=Library Entry 71953
##JCAMP-DX=Revision 4.10 
##DATA TYPE=MASS SPECTRUM
##SAMPLE DESCRIPTION=Div. of Experiment Therapeutics WRAIR, WRAMC, Washingto
n DC 20307
##NAMES=HP
##CAS NAME=N-[Carboxymethyl]maleamic acid
##MOLFORM=C6H7NO5
##CAS REGISTRY NO=54930-24-4
##MP= -300
##BP= -300
##MW= 173
##$RETENTION INDEX=0
##$CONDENSED SPECTRUM=NO
##NPOINTS= 54
##XYDATA=(XY..XY) 1 
    41         71
    42        112
    43         68
    44        126
    45        456
    46         39
    47         19
    48         15
    49          9
    51          3
    52         32
    53        197
    54        605
    55        436
    56        228
    57         81
    58         19
    59         18
    60         52
    68         11
    69         14
    70         30
    71        155
    72         62
    73         15
    74        103
    75        105
    76         58
    80         14
    81         41
    82        162
    83         47
    84        360
    85         36
    86         57
    88         13
    98        147
    99        999
   100        129
   101         21
   110        266
   111        110
   112         14
   113         22
   128        398
   129        174
   130         18
   137         15
   138          3
   155         33
   156         18
   173         10
   174         19
   175          2