##TITLE=Library Entry 34378
##JCAMP-DX=Revision 4.10 
##DATA TYPE=MASS SPECTRUM
##SAMPLE DESCRIPTION=Exported from NIST MS Search
##NAMES=HP
##CAS NAME=1,1'-Bicyclohexyl, 2-propyl-, cis-
##MOLFORM=C15H28
##CAS REGISTRY NO=54934-88-2
##MP= -300
##BP= -300
##MW= 208
##$RETENTION INDEX=0
##$CONDENSED SPECTRUM=NO
##NPOINTS= 126
##XYDATA=(XY..XY) 1 
    37          2
    38          5
    39        232
    40         44
    41        987
    42         93
    43        184
    44          7
    45          1
    46          1
    47          1
    48          1
    49          1
    50          5
    51         21
    52         17
    53        138
    54        192
    55        818
    56         72
    57        144
    58          7
    59          1
    60          1
    61          1
    62          1
    63          4
    64          2
    65         37
    66         31
    67        427
    68         95
    69        999
    70         66
    71         16
    72          1
    73          1
    74          1
    75          1
    76          1
    77         50
    78         14
    79         85
    80         43
    81        322
    82        593
    83        941
    84         67
    85          4
    86          1
    87          1
    88          1
    89          1
    90          1
    91         27
    92          5
    93         22
    94         12
    95        160
    96        126
    97         71
    98          6
    99          1
   100          1
   101          1
   102          1
   103          2
   104          1
   105          5
   106          1
   107          8
   108          6
   109        105
   110         16
   111          9
   112          2
   113          1
   114          1
   115          2
   116          1
   117          1
   118          1
   119          1
   120          1
   121          4
   122          5
   123         19
   124        508
   125        648
   126         64
   127          3
   128          1
   129          1
   130          1
   131          1
   132          1
   133          1
   134          1
   135          2
   136          1
   137          4
   138         17
   139         12
   140          1
   141          1
   149          1
   150          1
   151          6
   152          2
   153          1
   163          1
   164         11
   165         87
   166         13
   167          1
   176          1
   177          1
   178          1
   179          1
   180          1
   181          1
   206          1
   207          1
   208         82
   209         14
   210          1