##TITLE=Library Entry 80750
##JCAMP-DX=Revision 4.10 
##DATA TYPE=MASS SPECTRUM
##SAMPLE DESCRIPTION=Exported from NIST MS Search
##NAMES=HP
##CAS NAME=Benzeneethanol, .alpha.-phenyl-, benzoate
##MOLFORM=C21H18O2
##CAS REGISTRY NO=54934-51-9
##MP= -300
##BP= -300
##MW= 302
##$RETENTION INDEX=0
##$CONDENSED SPECTRUM=NO
##NPOINTS= 127
##XYDATA=(XY..XY) 1 
    15          5
    17         17
    18         74
    26          6
    27         31
    31         29
    32          2
    37          6
    38         16
    39         68
    40         22
    41         23
    42         10
    43         18
    44         24
    45         17
    46          8
    47          4
    49          3
    50         42
    51        130
    52         29
    53         18
    54          4
    55         21
    56         13
    57         19
    58         18
    59          2
    61          4
    62         11
    63         35
    64         13
    65         68
    66         45
    67          6
    68          3
    69         10
    70          5
    71          6
    72         16
    73         13
    74         23
    75         18
    76         37
    77        469
    78         78
    79        405
    80         40
    81          7
    82          5
    83          7
    84         11
    85          5
    86          3
    87          4
    88          9
    89         44
    90         21
    91        177
    92        497
    93        762
    94        105
    95         10
    96          4
    97          4
    98          3
   101          3
   102         16
   103         42
   104         16
   105        999
   106         95
   107        810
   108         99
   109         13
   110          6
   111          3
   112         13
   113          4
   115         18
   116          4
   117         27
   118         36
   119          6
   122        113
   123         10
   126          4
   127          5
   128          6
   129          4
   131          4
   139          7
   141          3
   149          3
   150         10
   151         14
   152         23
   153         12
   154          3
   158          3
   162          3
   163          3
   164          4
   165         74
   166         26
   167          6
   168          3
   176        143
   177         15
   178         91
   179        153
   180        218
   181         51
   182          8
   183          7
   186         31
   187          4
   196          6
   197          4
   198          6
   199          6
   208         12
   211        147
   212         23
   213          3
   282          4