##TITLE=Library Entry 20956
##JCAMP-DX=Revision 4.10 
##DATA TYPE=MASS SPECTRUM
##SAMPLE DESCRIPTION=Exported from NIST MS Search
##NAMES=HP
##CAS NAME=1,2,4-Trithiolane, 3,5-bis(1-methylethyl)-
##MOLFORM=C8H16S3
##CAS REGISTRY NO=54934-99-5
##MP= -300
##BP= -300
##MW= 208
##$RETENTION INDEX=1450
##$CONDENSED SPECTRUM=NO
##NPOINTS= 45
##XYDATA=(XY..XY) 1 
    41        190
    42         30
    43        190
    45        569
    46        120
    47        150
    48         20
    49         10
    50         20
    51         30
    52         10
    53        120
    54        110
    55        999
    56        130
    57         30
    58         40
    59        240
    60        150
    61         30
    64         10
    69         40
    71         90
    72         20
    73        210
    74         10
    75         10
    76         10
    85         30
    86         20
    87        200
    88        729
    89         80
    90         40
   101         20
   102         10
   109         50
   120         40
   142         20
   143        130
   144         20
   145         10
   165         30
   208        130
   210         20