##TITLE=Library Entry 30775
##JCAMP-DX=Revision 4.10 
##DATA TYPE=MASS SPECTRUM
##SAMPLE DESCRIPTION=DC-14-5
##NAMES=HP
##CAS NAME=1,3-Dioxolane, 4-hexyl-2,2-dimethyl-5-octyl-
##MOLFORM=C19H38O2
##CAS REGISTRY NO=54934-58-6
##MP= -300
##BP= -300
##MW= 298
##$RETENTION INDEX=0
##$CONDENSED SPECTRUM=NO
##NPOINTS= 53
##XYDATA=(XY..XY) 1 
    41         10
    42         20
    43        250
    44         20
    55         70
    56         70
    57        230
    58        130
    59        999
    60         40
    67         30
    68         50
    69        230
    70         70
    71        160
    72         10
    81         30
    82         40
    83        340
    84         40
    85        130
    86         10
    95         30
    96         50
    97        320
    98         80
    99         40
   109         30
   110         10
   111        180
   112         20
   113         30
   124         30
   125         80
   126         30
   127         20
   128         10
   139         20
   141         40
   142         10
   153         10
   155         10
   156         10
   169         20
   185         80
   186         10
   213         70
   214         10
   241        220
   242         20
   283        730
   284        150
   285         20