##TITLE=Library Entry 96644
##JCAMP-DX=Revision 4.10 
##DATA TYPE=MASS SPECTRUM
##SAMPLE DESCRIPTION=Exported from NIST MS Search
##NAMES=HP
##CAS NAME=Heptadecanoic acid, 3-oxo-, methyl ester
##MOLFORM=C18H34O3
##CAS REGISTRY NO=54934-65-5
##MP= -300
##BP= -300
##MW= 298
##$RETENTION INDEX=0
##$CONDENSED SPECTRUM=NO
##NPOINTS= 209
##XYDATA=(XY..XY) 1 
    12          1
    13          1
    14          2
    15         22
    16          2
    17         20
    18         98
    20          2
    24          1
    25          2
    26          9
    27         34
    28         28
    29        100
    30          3
    31         23
    32         16
    33          3
    37          1
    38          2
    39         25
    40          8
    41        203
    42         41
    43        281
    44          9
    45          5
    50          3
    51          2
    52          2
    53         14
    54         22
    55        188
    56         44
    57        219
    58         19
    59         73
    60          3
    61          1
    65          3
    66          3
    67         36
    68         20
    69         92
    70         25
    71         97
    72          6
    73          2
    74        117
    75         13
    76          1
    77          3
    78          2
    79         11
    80         12
    81         34
    82         20
    83         55
    84         91
    85         53
    86          5
    87          7
    88         17
    89          1
    91          3
    92          2
    93          9
    94         16
    95         38
    96         17
    97         53
    98         44
    99         10
   100          2
   101         86
   102          5
   103          3
   104          1
   105          2
   106          1
   107          6
   108          8
   109         22
   110          9
   111         22
   112         17
   113          4
   114          2
   115          2
   116        999
   117        306
   118         19
   119          4
   120          1
   121          8
   122          7
   123         11
   124          7
   125         10
   126          6
   127          2
   128          2
   129        219
   130         22
   131          3
   135          7
   136          4
   137          5
   138          5
   139          5
   140         16
   141          4
   142          1
   143         30
   144          7
   145          1
   149          3
   150          3
   151          3
   152          5
   153          5
   154         17
   155          3
   157          4
   158         25
   159          2
   160          1
   163          2
   164          2
   165          2
   166          2
   167          3
   168          5
   169          2
   171          8
   172         11
   173          2
   177          1
   178          1
   179          1
   180          9
   181          3
   182          7
   183          2
   185         12
   186          3
   187          1
   191          1
   192          1
   193          1
   194          1
   195          2
   196          1
   197          1
   199          2
   200          4
   201          1
   204          1
   205          2
   206         23
   207          7
   208          1
   209          1
   210          1
   211          1
   213          3
   214          3
   215          1
   219          1
   220          7
   221          2
   222          1
   223          2
   224          4
   225         88
   226         17
   227          3
   228          2
   229          1
   237          1
   238          1
   239          1
   240          1
   241          2
   242          3
   243          1
   248          3
   249          1
   251          1
   252          1
   253          1
   255          6
   256          3
   257          1
   262          1
   265          1
   266          1
   267          7
   268          1
   269          3
   270          2
   280         19
   281          4
   282          1
   283          1
   297          1
   298         33
   299          8
   300          1