##TITLE=Library Entry 19489
##JCAMP-DX=Revision 4.10 
##DATA TYPE=MASS SPECTRUM
##SAMPLE DESCRIPTION=Exported from NIST MS Search
##NAMES=HP
##CAS NAME=Cyclohexane, 1-(cyclohexylmethyl)-2-ethyl-, trans-
##MOLFORM=C15H28
##CAS REGISTRY NO=54934-92-8
##MP= -300
##BP= -300
##MW= 208
##$RETENTION INDEX=0
##$CONDENSED SPECTRUM=NO
##NPOINTS= 121
##XYDATA=(XY..XY) 1 
    36          1
    37          2
    38          5
    39        221
    40         41
    41        958
    42        118
    43        161
    44          6
    45          1
    46          1
    47          1
    48          1
    49          1
    50          4
    51         16
    52         13
    53        123
    54        155
    55        999
    56        104
    57         59
    58          3
    59          1
    60          1
    61          1
    62          1
    63          3
    64          1
    65         28
    66         25
    67        323
    68         91
    69        748
    70         71
    71         13
    72          1
    73          1
    74          1
    75          1
    76          1
    77         37
    78         10
    79         58
    80         25
    81        269
    82        186
    83        584
    84         50
    85          6
    86          1
    87          1
    88          1
    89          1
    90          1
    91         16
    92          3
    93         13
    94          7
    95        121
    96        220
    97        414
    98         35
    99          2
   100          1
   101          1
   102          1
   103          1
   104          1
   105          3
   106          1
   107          4
   108          6
   109        121
   110        323
   111        901
   112         83
   113          4
   114          1
   115          1
   116          1
   117          1
   118          1
   119          1
   120          1
   121          2
   122          3
   123         44
   124         14
   125         11
   126          8
   127          2
   128          1
   135          1
   136          1
   137         15
   138          9
   139          4
   140          1
   141          1
   149          1
   150          1
   151          4
   152          3
   153          1
   154          1
   163          1
   164          1
   165          3
   166          2
   167          1
   177          1
   178         31
   179        338
   180         52
   181          4
   182          1
   207          1
   208         60
   209         10
   210          1