##TITLE=Library Entry 44502
##JCAMP-DX=Revision 4.10 
##DATA TYPE=MASS SPECTRUM
##SAMPLE DESCRIPTION=W. KELLY UNILEVER RESEARCH COLWORTH/WELWYN, BEDFORD U.K
.
##NAMES=HP
##CAS NAME=Heptadecanoic acid, 9-methyl-, methyl ester
##MOLFORM=C19H38O2
##CAS REGISTRY NO=54934-57-5
##MP= -300
##BP= -300
##MW= 298
##$RETENTION INDEX=0
##$CONDENSED SPECTRUM=NO
##NPOINTS= 170
##XYDATA=(XY..XY) 1 
    26         18
    27         61
    29        344
    30         25
    31         14
    33         11
    34         43
    36          7
    39         32
    40        796
    41        319
    42         69
    43        527
    44        613
    45         25
    50          7
    51         14
    52          7
    53         21
    54         30
    55        412
    56        111
    57        441
    58         22
    59         82
    60          7
    63          7
    66          7
    67         50
    68         39
    69        351
    70         64
    71        182
    72         18
    73         21
    74        999
    75        261
    76         18
    77         14
    78          7
    79         25
    80         14
    81         68
    82         25
    83        179
    84         57
    85        133
    86         14
    87        739
    88         64
    89         11
    91         14
    93         32
    94          7
    95         65
    96         32
    97        172
    98         57
    99         32
   100         11
   101        133
   102         18
   103          7
   104          7
   105         14
   106         11
   107         21
   108         11
   109         47
   110         32
   111        119
   112         29
   113          7
   114         11
   115        107
   116         36
   117          7
   119         11
   120          7
   121         21
   122          7
   123         32
   124         11
   125         54
   126         21
   127         11
   129        119
   130         90
   131         14
   132          7
   133         11
   134          7
   135        119
   136         18
   137         14
   138          7
   139         21
   140         41
   141         11
   143        280
   144         43
   145          7
   147          7
   148          7
   149         25
   150          7
   151         11
   152         25
   153        165
   154         43
   155         14
   157        111
   158         65
   159         32
   163         14
   164          7
   165         11
   166         18
   167         21
   168         11
   169          7
   171         43
   172          7
   177          7
   179          7
   180         14
   181         11
   183         11
   185        115
   186         18
   192         14
   193          7
   194         11
   195          7
   196          7
   199        297
   200         43
   201         11
   205          7
   206          7
   207          7
   208          7
   209         11
   210          7
   213         30
   214         11
   223          7
   224          7
   225          7
   227          7
   233          7
   241         18
   242         11
   243          7
   248         11
   249         30
   251          7
   255        108
   256         30
   265          7
   266         11
   267         32
   268          7
   269         25
   270          7
   283         14
   297          7
   298        287
   299         64
   300         14