##TITLE=Library Entry 96593
##JCAMP-DX=Revision 4.10 
##DATA TYPE=MASS SPECTRUM
##SAMPLE DESCRIPTION=Exported from NIST MS Search
##NAMES=HP
##CAS NAME=Benzoic acid, 2-(cyanohydroxymethyl)-, ethyl ester
##MOLFORM=C11H11NO3
##CAS REGISTRY NO=54932-68-2
##MP= -300
##BP= -300
##MW= 205
##$RETENTION INDEX=0
##$CONDENSED SPECTRUM=NO
##NPOINTS= 38
##XYDATA=(XY..XY) 1 
    43         20
    44         20
    45         33
    50         67
    51        162
    52         16
    54         30
    56          6
    62         30
    63        118
    64         16
    65         30
    74          3
    75          3
    76         30
    77        237
    78         94
    79         30
    88         33
    89        254
    90         61
   104         30
   105        976
   106        338
   107         27
   114         27
   115        440
   116        999
   117        118
   122          6
   131         33
   132        338
   133        593
   134         61
   161          3
   177         50
   205        559
   206         50