##TITLE=Library Entry 39930
##JCAMP-DX=Revision 4.10 
##DATA TYPE=MASS SPECTRUM
##SAMPLE DESCRIPTION=Tox21 Consortium/NIST Mass Spectrometry Data Center, 20
12
##NAMES=HP
##CAS NAME=Pronethalol, TMS derivative
##MOLFORM=C18H27NOSi
##CAS REGISTRY NO=54934-74-6
##MP= -300
##BP= -300
##MW= 301
##$RETENTION INDEX=0
##$CONDENSED SPECTRUM=NO
##NPOINTS= 128
##XYDATA=(XY..XY) 1 
    15          1
    27          6
    28          5
    29          2
    30        101
    31          2
    39          3
    40          1
    41         17
    42          7
    43         36
    44          7
    45         31
    46          2
    47          7
    50          1
    51          2
    53          1
    54          1
    55          3
    56          9
    57          7
    58          7
    59          8
    60          2
    61          4
    62          1
    63          2
    65          1
    68          1
    70         12
    72        999
    73        248
    74         23
    75         47
    76          5
    77          6
    78          1
    86          2
    87          3
    88          2
    89          3
    90          1
    91          1
    98          1
    99          1
   100          2
   101          5
   102          3
   103          1
   104          1
   113          2
   114          3
   115         20
   116         15
   117          2
   118          1
   125          1
   126          7
   127         30
   128         26
   129          7
   130          2
   131          1
   138          1
   139         17
   140          7
   141         39
   142          7
   143          5
   144          1
   145          1
   150          2
   151          8
   152         36
   153         56
   154         35
   155         28
   156          7
   157          1
   158          2
   165          3
   166          3
   167         14
   168         15
   169          6
   170          4
   171          2
   178          3
   179          3
   180          4
   181          4
   182          1
   183          6
   184          2
   185          3
   186          1
   193          1
   194          3
   195          2
   196          7
   197          3
   198          2
   199         36
   200          7
   201          2
   210          5
   211          3
   212          6
   213         26
   214          7
   215          5
   216          1
   226          1
   227          4
   228          1
   229         87
   230         45
   231         10
   232          2
   241          1
   242          1
   243          1
   284          1
   286         13
   287          3
   288          1
   301          2