##TITLE=Library Entry 34380
##JCAMP-DX=Revision 4.10 
##DATA TYPE=MASS SPECTRUM
##SAMPLE DESCRIPTION=Exported from NIST MS Search
##NAMES=HP
##CAS NAME=Cyclohexane, 1,1'-propylidenebis-
##MOLFORM=C15H28
##CAS REGISTRY NO=54934-91-7
##MP= -300
##BP= -300
##MW= 208
##$RETENTION INDEX=0
##$CONDENSED SPECTRUM=NO
##NPOINTS= 124
##XYDATA=(XY..XY) 1 
    36          1
    37          2
    38          4
    39        211
    40         38
    41        986
    42         92
    43        131
    44          5
    45          1
    46          1
    47          1
    48          1
    49          1
    50          4
    51         16
    52         13
    53        121
    54        151
    55        918
    56         75
    57        140
    58          7
    59          1
    60          1
    61          1
    62          1
    63          3
    64          2
    65         27
    66         23
    67        321
    68         75
    69        999
    70         63
    71         13
    72          1
    73          1
    74          1
    75          1
    76          1
    77         35
    78          9
    79         52
    80         24
    81        216
    82        613
    83        946
    84         66
    85          3
    86          1
    87          1
    88          1
    89          1
    90          1
    91         16
    92          3
    93         10
    94          5
    95         98
    96         59
    97        111
    98          9
    99          1
   100          1
   101          1
   102          1
   103          1
   104          1
   105          3
   106          1
   107          4
   108          2
   109         46
   110          8
   111         16
   112          2
   113          1
   114          1
   115          1
   116          1
   117          1
   118          1
   119          1
   120          1
   121          2
   122          2
   123         16
   124        595
   125        566
   126         55
   127          3
   128          1
   129          1
   130          1
   131          1
   132          1
   133          1
   134          1
   135          1
   136          1
   137          5
   138          1
   139          1
   149          1
   150          1
   151          1
   152          1
   163          1
   164          1
   165          2
   166          1
   167          1
   177          1
   178         11
   179         95
   180         14
   181          1
   205          1
   206          1
   207          1
   208         17
   209          3
   210          1