##TITLE=Library Entry 3434
##JCAMP-DX=Revision 4.10 
##DATA TYPE=MASS SPECTRUM
##SAMPLE DESCRIPTION=Exported from NIST MS Search
##NAMES=HP
##CAS NAME=1,1'-Bicyclohexyl, 2-propyl-, trans-
##MOLFORM=C15H28
##CAS REGISTRY NO=54934-89-3
##MP= -300
##BP= -300
##MW= 208
##$RETENTION INDEX=0
##$CONDENSED SPECTRUM=NO
##NPOINTS= 125
##XYDATA=(XY..XY) 1 
    36          1
    37          2
    38          5
    39        234
    40         44
    41        999
    42         97
    43        185
    44          7
    45          1
    46          1
    47          1
    48          1
    49          1
    50          5
    51         20
    52         17
    53        139
    54        190
    55        837
    56         79
    57        144
    58          7
    59          1
    60          1
    61          1
    62          1
    63          4
    64          1
    65         37
    66         32
    67        438
    68         98
    69        978
    70         67
    71         17
    72          1
    73          1
    74          1
    75          1
    76          1
    77         51
    78         14
    79         88
    80         42
    81        321
    82        458
    83        946
    84         69
    85          5
    86          1
    87          1
    88          1
    89          1
    90          1
    91         27
    92          5
    93         23
    94         13
    95        163
    96        163
    97         87
    98          8
    99          1
   100          1
   101          1
   102          1
   103          2
   104          1
   105          5
   106          1
   107          9
   108          8
   109        139
   110         22
   111         13
   112          3
   113          1
   114          1
   115          1
   116          1
   117          1
   118          1
   119          1
   120          1
   121          4
   122          5
   123         21
   124        643
   125        710
   126         71
   127          4
   128          1
   129          1
   130          1
   131          1
   132          1
   133          1
   134          1
   135          2
   136          1
   137          5
   138          9
   139          6
   140          1
   141          1
   149          1
   150          1
   151          5
   152          2
   153          1
   163          1
   164          7
   165         69
   166         10
   167          1
   178          1
   179          2
   180          1
   206          1
   207          1
   208         40
   209          7
   210          1
   211          1