##TITLE=Library Entry 33403
##JCAMP-DX=Revision 4.10 
##DATA TYPE=MASS SPECTRUM
##SAMPLE DESCRIPTION=T.A.BLAZER DU PONT, GIBBSTOWN, N.J., USA
##NAMES=HP
##CAS NAME=Acetic acid, trifluoro-, bicyclo[2.2.1]hept-2-yl ester
##MOLFORM=C9H11F3O2
##CAS REGISTRY NO=54934-98-4
##MP= -300
##BP= -300
##MW= 208
##$RETENTION INDEX=0
##$CONDENSED SPECTRUM=NO
##NPOINTS= 62
##XYDATA=(XY..XY) 1 
    14          7
    15         73
    16         20
    25          9
    26         55
    27        355
    28        124
    29        158
    31         35
    37         15
    38         45
    39        488
    40        115
    41        469
    42         62
    43         60
    44        114
    45         34
    47         15
    50         63
    51         95
    52         37
    53        223
    54        119
    55        251
    56         16
    57         16
    58         45
    62         10
    63         24
    65        129
    66        992
    67        810
    68        999
    69        474
    70         11
    73         10
    77        118
    78         37
    79        751
    80         65
    81         75
    82         10
    83         15
    85         11
    91         78
    92         14
    93        119
    94        933
    95        588
    96         42
    97         83
    98         10
   108          6
   111          6
   125         12
   139         21
   153         16
   166         63
   167         17
   168         10
   208         16