##TITLE=Library Entry 19289
##JCAMP-DX=Revision 4.10 
##DATA TYPE=MASS SPECTRUM
##SAMPLE DESCRIPTION=Exported from NIST MS Search
##NAMES=HP
##CAS NAME=Cyclohexane, 1-(cyclohexylmethyl)-4-ethyl-, trans-
##MOLFORM=C15H28
##CAS REGISTRY NO=54934-94-0
##MP= -300
##BP= -300
##MW= 208
##$RETENTION INDEX=0
##$CONDENSED SPECTRUM=NO
##NPOINTS= 132
##XYDATA=(XY..XY) 1 
    37          2
    38          5
    39        207
    40         39
    41        870
    42         76
    43        131
    44          5
    45          1
    46          1
    47          1
    48          1
    49          1
    50          3
    51         14
    52         12
    53        121
    54        161
    55        999
    56         75
    57         50
    58          2
    59          1
    60          1
    61          1
    62          1
    63          2
    64          1
    65         26
    66         23
    67        311
    68         90
    69        771
    70         63
    71         10
    72          1
    73          1
    74          1
    75          1
    76          1
    77         32
    78          9
    79         55
    80         28
    81        279
    82        333
    83        648
    84         59
    85          7
    86          1
    87          1
    88          1
    89          1
    90          1
    91         14
    92          3
    93         12
    94          6
    95        140
    96        135
    97        283
    98         24
    99          1
   100          1
   101          1
   102          1
   103          1
   104          1
   105          2
   106          1
   107          4
   108          3
   109         64
   110        382
   111        663
   112         59
   113          3
   114          1
   115          1
   116          1
   117          1
   118          1
   119          1
   120          1
   121          2
   122          3
   123         28
   124         46
   125         43
   126          5
   127          1
   128          1
   129          1
   130          1
   131          1
   132          1
   133          1
   134          1
   135          2
   136          2
   137         11
   138          3
   139          1
   140          1
   141          1
   142          1
   143          1
   144          1
   145          1
   149          1
   150          1
   151          2
   152          1
   153          1
   154          1
   155          1
   163          1
   164          1
   165          1
   166          1
   167          1
   177          1
   178         19
   179         84
   180         15
   181          1
   182          1
   207          1
   208        152
   209         25
   210          2
   211          1