##TITLE=Library Entry 81867
##JCAMP-DX=Revision 4.10 
##DATA TYPE=MASS SPECTRUM
##SAMPLE DESCRIPTION=D. LIPKIN, CHEM. DEP., WASHINGTON UNIV., ST. LOUIS, MO.
,
##NAMES=HP
##CAS NAME=3-(2-Benzoxyethyl)-1-methyluracil
##MOLFORM=C14H14N2O4
##CAS REGISTRY NO=54932-20-6
##MP= -300
##BP= -300
##MW= 274
##$RETENTION INDEX=0
##$CONDENSED SPECTRUM=NO
##NPOINTS= 16
##XYDATA=(XY..XY) 1 
    77        390
    82        360
    83        150
    84        160
   105        999
   106        230
   126         80
   127         80
   139         70
   151        200
   152        640
   153        180
   169        210
   231        780
   232        100
   274         80