##TITLE=Library Entry 3129
##JCAMP-DX=Revision 4.10 
##DATA TYPE=MASS SPECTRUM
##SAMPLE DESCRIPTION=Exported from NIST MS Search
##NAMES=HP
##CAS NAME=2(1H)-Pyrimidinone, 5-(acetyloxy)tetrahydro-4-hydroxy-1,3-dimethy
l-
##MOLFORM=C8H14N2O4
##CAS REGISTRY NO=54932-86-4
##MP= -300
##BP= -300
##MW= 202
##$RETENTION INDEX=0
##$CONDENSED SPECTRUM=NO
##NPOINTS= 39
##XYDATA=(XY..XY) 1 
    28        100
    29        140
    30        250
    31        180
    39        150
    40        720
    41        999
    42        900
    43        100
    55        100
    56        250
    57        200
    58        250
    59        400
    60        999
    68        150
    71        110
    72         80
    73        100
    84        150
    85         70
    86        220
    87         50
    99         70
   100        150
   101        160
   113        130
   114        130
   117        210
   125        999
   126        210
   141        670
   142        650
   143        200
   184         30
   185         80
   186         10
   202         50
   203         14