##TITLE=Library Entry 23528
##JCAMP-DX=Revision 4.10 
##DATA TYPE=MASS SPECTRUM
##SAMPLE DESCRIPTION=NIST Mass Spectrometry Data Center, 1994
##NAMES=HP
##CAS NAME=4-Methyloctanoic acid
##MOLFORM=C9H18O2
##CAS REGISTRY NO=54947-74-9
##MP= -300
##BP= -300
##MW= 158
##$RETENTION INDEX=2104
##$CONDENSED SPECTRUM=NO
##NPOINTS= 55
##XYDATA=(XY..XY) 1 
    15         31
    17         10
    26         30
    27        461
    28        131
    29        510
    30         30
    38         16
    39        365
    40         61
    41        811
    42        179
    43        777
    44         39
    45        234
    50         13
    51         32
    52          9
    53        100
    54         43
    55        783
    56        233
    57        999
    58         57
    59        105
    60        352
    61         39
    65         14
    67         36
    68         15
    69        151
    70         33
    71         24
    72         14
    73        676
    74        196
    75         15
    77         10
    79         11
    81         28
    82         16
    83        260
    84         24
    85         65
    87         12
    95          7
    96         13
    97         48
    98          7
    99        305
   100         40
   101        306
   102         22
   125         12
   129         34