##TITLE=Library Entry 22911
##JCAMP-DX=Revision 4.10 
##DATA TYPE=MASS SPECTRUM
##SAMPLE DESCRIPTION=Institute of Organic Chemistry, Novosibirsk, USSR 1988
##NAMES=HP
##CAS NAME=Vinyltris(isopropylideneaminoxy)silane
##MOLFORM=C11H21N3O3Si
##CAS REGISTRY NO=54948-34-4
##MP= -300
##BP= -300
##MW= 271
##$RETENTION INDEX=0
##$CONDENSED SPECTRUM=NO
##NPOINTS= 38
##XYDATA=(XY..XY) 1 
    26         30
    27         62
    28         97
    29         40
    30         38
    31         51
    39         51
    40         28
    41         31
    42         86
    43        301
    44         10
    45          9
    54         41
    55         30
    56        999
    57         51
    89         47
   102         18
   103         30
   111          9
   112         10
   118          9
   134         22
   144        211
   145         18
   146          9
   160         17
   189          9
   199        347
   200         50
   201         19
   244          5
   245          0
   256          5
   257          0
   271          9
   272          1