##TITLE=Library Entry 73903
##JCAMP-DX=Revision 4.10 
##DATA TYPE=MASS SPECTRUM
##SAMPLE DESCRIPTION=R.T.HOLMAN,UNIVERSITY OF MINNESOTA
##NAMES=HP
##CAS NAME=1,3-Dioxane, 4-methyl-2-pentadecyl-
##MOLFORM=C20H40O2
##CAS REGISTRY NO=54950-57-1
##MP= -300
##BP= -300
##MW= 312
##$RETENTION INDEX=0
##$CONDENSED SPECTRUM=NO
##NPOINTS= 150
##XYDATA=(XY..XY) 1 
    26          1
    27         11
    28          6
    29         32
    30          1
    31         11
    32          1
    38          1
    39          8
    40          2
    41         60
    42         19
    43        117
    44         11
    45         16
    46          1
    47          1
    51          1
    53          4
    54          9
    55        333
    56         28
    57         58
    58          4
    59          1
    60          1
    61          1
    63          1
    65          1
    66          2
    67         15
    68         12
    69         32
    70         12
    71         29
    72         35
    73         16
    74          3
    75          1
    77          1
    78          1
    79          2
    80          3
    81         14
    82         19
    83         26
    84          6
    85         11
    86          1
    87          3
    88          2
    89          6
    90          1
    91          9
    92          1
    93          1
    94          1
    95         15
    96         12
    97         17
    98          5
    99          3
   100          1
   101        999
   102         56
   103          6
   104          1
   105          1
   107          1
   108          1
   109          8
   110          4
   111          8
   112          3
   113          2
   114          3
   115          1
   116         35
   117          8
   118          1
   119          1
   121          1
   122          1
   123          4
   124          2
   125          3
   126          1
   127          7
   128          1
   129          2
   135          1
   136          1
   137          2
   138          1
   139          1
   140          1
   141          1
   143          1
   149          1
   151          1
   152          1
   153          1
   154          1
   155          1
   156          1
   165          1
   166          1
   167          1
   168          1
   169          1
   179          1
   180          1
   181          1
   183          1
   184          1
   185          1
   193          1
   194          2
   195          1
   196          2
   197          1
   198          1
   210          1
   211          1
   212          1
   219          1
   220          1
   221          1
   222          6
   223          4
   224          1
   225          1
   238          1
   239         17
   240          4
   241          1
   257          2
   258          1
   267          1
   268          3
   269          1
   284          2
   285          1
   286          1
   297          1
   298          1
   310          1
   311         29
   312          8
   313          1