##TITLE=Library Entry 23917
##JCAMP-DX=Revision 4.10 
##DATA TYPE=MASS SPECTRUM
##SAMPLE DESCRIPTION=BAY 0132
##NAMES=HP
##CAS NAME=4-Phenyl-4-piperidinecarboxylic acid, TMS derivative
##MOLFORM=C15H23NO2Si
##CAS REGISTRY NO=54964-92-0
##MP= -300
##BP= -300
##MW= 277
##$RETENTION INDEX=0
##$CONDENSED SPECTRUM=NO
##NPOINTS= 92
##XYDATA=(XY..XY) 1 
    41         10
    42        280
    43        140
    44         20
    45         70
    47         30
    51         10
    52         10
    53         20
    55         10
    56        150
    57        999
    58         45
    59         15
    61         20
    63         10
    65         10
    68         10
    69         10
    70         15
    71         10
    72         10
    73        280
    74         30
    75        140
    76         20
    77         50
    78         20
    79         20
    80         15
    81         10
    82         40
    83         10
    86         10
    89         10
    91         80
    92         10
    96         10
   100          5
   101          5
   102         25
   103        160
   104         35
   105         20
   106          5
   109         10
   114         10
   115         50
   116         30
   117         30
   118         15
   120         10
   127         10
   128         25
   129         30
   130         40
   131         90
   132         20
   135         15
   141         10
   143         20
   144         30
   145         20
   147         10
   155          5
   156          5
   157          5
   158         80
   159         50
   160         50
   170         50
   171         10
   175          5
   186          5
   187        150
   188         30
   205         40
   206         10
   218         10
   219          5
   221         20
   232         20
   233         15
   234         30
   235          5
   262         70
   263         15
   264          5
   276          5
   277        180
   278         40
   279         10