##TITLE=Library Entry 19789
##JCAMP-DX=Revision 4.10 
##DATA TYPE=MASS SPECTRUM
##SAMPLE DESCRIPTION=CARL DJERASSI DEPT OF CHEM STANFORD UNIV STANFORD CALIF
 94305
##NAMES=HP
##CAS NAME=2-Butynoic acid, 4-cyclobutyl-4-oxo-, ethyl ester
##MOLFORM=C10H12O3
##CAS REGISTRY NO=54966-51-7
##MP= -300
##BP= -300
##MW= 180
##$RETENTION INDEX=0
##$CONDENSED SPECTRUM=NO
##NPOINTS= 34
##XYDATA=(XY..XY) 1 
    41         20
    43         10
    44         30
    45         10
    50         10
    51         10
    52         20
    53        190
    54         30
    55        999
    56         40
    66         10
    67         10
    72         10
    73         20
    77         30
    78         10
    79        100
    80         40
    81         10
    82         40
    83        100
    95         10
    96         10
    98         10
   106         20
   107         40
   108         30
   123         10
   125         20
   135         50
   136         10
   151         10
   179         10