##TITLE=Library Entry 107161
##JCAMP-DX=Revision 4.10 
##DATA TYPE=MASS SPECTRUM
##SAMPLE DESCRIPTION=CARL DJERASSI DEPT OF CHEM STANFORD UNIV STANFORD CALIF
 94305
##NAMES=HP
##CAS NAME=Aspidofractinin-6-one, 17-methoxy-
##MOLFORM=C20H24N2O2
##CAS REGISTRY NO=54965-82-1
##MP= -300
##BP= -300
##MW= 324
##$RETENTION INDEX=0
##$CONDENSED SPECTRUM=NO
##NPOINTS= 154
##XYDATA=(XY..XY) 1 
    35         40
    36         10
    37         20
    38         10
    39        171
    40         70
    41        222
    42        252
    43        111
    44         60
    47         50
    49         50
    50         20
    51         80
    52         50
    53        131
    54        101
    55        151
    56         90
    57         70
    58         20
    62         10
    63         50
    64         20
    65         60
    66         20
    67        151
    68         50
    69         20
    70         30
    71         10
    72         10
    75         10
    76         30
    77        121
    78         30
    79         30
    80         50
    81         30
    82         20
    83         10
    84        161
    85         10
    86        101
    87         10
    88         10
    89         40
    90         30
    91         50
    92         10
    93         30
    94         70
    95        111
    96         30
    97         10
    98         10
    99         10
   100         10
   101         10
   102         20
   103         40
   104         20
   105         20
   106         20
   107         10
   108         40
   109         10
   110         20
   111         10
   112         10
   113         10
   114         20
   115         70
   116         20
   117         30
   118         10
   119         10
   120         10
   121         10
   122         30
   123        999
   124        121
   125         10
   126         10
   127         50
   128         30
   129         20
   130         40
   131         20
   132         10
   133         20
   134         20
   136         50
   137         70
   138        262
   139         50
   140         20
   141         60
   142         20
   143         20
   144         30
   145         10
   148         10
   150         30
   151         10
   152         10
   154         40
   155         10
   156         10
   158         50
   159         10
   160         20
   162         30
   167         30
   168         20
   169         10
   170         20
   171         20
   172         20
   173        111
   174        515
   175         60
   180         10
   182         10
   183         10
   184         20
   185         20
   186        242
   187        171
   188        222
   189         20
   196         20
   197         20
   198         20
   199         20
   200         10
   201         10
   210         20
   211         20
   212         70
   213         20
   224         10
   225         10
   239         20
   253         10
   267         10
   268         20
   295         10
   296        161
   297         10
   322         10
   323         10
   324        303
   325         50