##TITLE=Library Entry 60454
##JCAMP-DX=Revision 4.10 
##DATA TYPE=MASS SPECTRUM
##SAMPLE DESCRIPTION=A.A.Kutin, Moscow, Russia
##NAMES=HP
##CAS NAME=4-Azatetracyclo[5.3.2.0(2,6).0(8,10)]dodec-11-en-3,5-dione, 4-(3-
chlorophenyl)-
##MOLFORM=C17H14ClNO2
##CAS REGISTRY NO=54962-38-8
##MP= -300
##BP= -300
##MW= 299
##$RETENTION INDEX=0
##$CONDENSED SPECTRUM=NO
##NPOINTS= 141
##XYDATA=(XY..XY) 1 
    34          0
    35         15
    36         11
    37         25
    38        103
    39        564
    40         82
    41         70
    43         14
    44         20
    45         18
    47          2
    48          2
    49         13
    50        100
    51        198
    52         87
    53         69
    54        138
    55         29
    56          5
    58         19
    59          7
    61         25
    62         72
    63        238
    64         79
    65        255
    66         38
    67          8
    68         11
    70          9
    71          5
    72         10
    73         27
    74         33
    75         76
    76         36
    77        126
    78         84
    79         21
    80         11
    81          8
    82         18
    83          2
    84          7
    85          9
    86          9
    87         17
    88         16
    89        103
    90        187
    91        999
    92        925
    93         50
    94          2
    96          2
    98         18
    99         13
   100         10
   102         27
   103         47
   104          8
   105          7
   106          1
   108          1
   109          0
   110          4
   111         40
   113         11
   114         17
   115        156
   116         67
   117        304
   118        172
   119         12
   121          0
   122          1
   123          2
   124         12
   125         72
   126         15
   127         32
   128         11
   129          6
   130          1
   131         17
   132          1
   134          0
   136          2
   137         28
   138          9
   139          9
   140          6
   141          2
   143          2
   144         15
   145         12
   146          9
   147          1
   149          1
   150          2
   151         21
   153         69
   155         30
   156          3
   158          1
   162          4
   163         25
   164          5
   165          9
   166          2
   169          0
   170          0
   171          1
   172         21
   173          2
   178          3
   179          2
   180          3
   181          1
   193          1
   204          0
   206          6
   207         30
   208          7
   209          9
   210          1
   221          1
   243          0
   265          0
   269          0
   292          0
   295          1
   296          6
   297          8
   298         13
   299         37
   300          8
   301         10
   302          1