##TITLE=Library Entry 18429
##JCAMP-DX=Revision 4.10 
##DATA TYPE=MASS SPECTRUM
##SAMPLE DESCRIPTION=CARL DJERASSI DEPT OF CHEM STANFORD UNIV STANFORD CALIF
 94305
##NAMES=HP
##CAS NAME=2-Pentynoic acid, 4-oxo-, ethyl ester
##MOLFORM=C7H8O3
##CAS REGISTRY NO=54966-49-3
##MP= -300
##BP= -300
##MW= 140
##$RETENTION INDEX=0
##$CONDENSED SPECTRUM=NO
##NPOINTS= 25
##XYDATA=(XY..XY) 1 
    29        240
    32         10
    37         10
    38         20
    39         30
    42         30
    43        460
    44         40
    45         50
    52         60
    53        999
    54         40
    66         20
    67         90
    68         20
    69         20
    80         40
    81         30
    95        340
    96         80
    97         30
    98         10
   111         20
   125        360
   126         20