##TITLE=Library Entry 55489
##JCAMP-DX=Revision 4.10 
##DATA TYPE=MASS SPECTRUM
##SAMPLE DESCRIPTION=CARL DJERASSI DEPT OF CHEM STANFORD UNIV STANFORD CALIF
 94305
##NAMES=HP
##CAS NAME=2H-Pyran, tetrahydro-2-[(1-methyl-4-phenyl-2-butynyl)oxy]-
##MOLFORM=C16H20O2
##CAS REGISTRY NO=54966-32-4
##MP= -300
##BP= -300
##MW= 244
##$RETENTION INDEX=0
##$CONDENSED SPECTRUM=NO
##NPOINTS= 101
##XYDATA=(XY..XY) 1 
    41        350
    42         60
    43        350
    44        130
    45        100
    47         10
    49         10
    50         90
    51        170
    52         60
    53        150
    54        130
    55        360
    56        300
    57        160
    58         30
    59         10
    61         20
    62         40
    63        130
    64         30
    65        150
    66         40
    67        130
    68         20
    69        110
    70         20
    71         20
    72         10
    73         10
    74         40
    75         40
    76         30
    77        130
    78         60
    79         30
    80         10
    81         20
    82         10
    83        140
    84        250
    85        999
    86         60
    87         30
    88         20
    89        100
    90         20
    91        280
    92         40
    93         20
    94         10
    95         10
    96         10
    97         10
    98         10
    99         30
   100         10
   101        140
   102         70
   103         40
   104         10
   105         40
   106         20
   107         20
   108         10
   111         10
   113         20
   114         40
   115        870
   116        470
   117        170
   118         20
   125         40
   126         20
   127        210
   128        920
   129        380
   130         40
   131         30
   132         10
   139         30
   140         10
   141        250
   142        300
   143        590
   144        290
   145        160
   146         20
   153         20
   154         10
   155         20
   156         20
   157         30
   158         20
   159        110
   160        190
   161         30
   169         20
   170         10
   183         10
   244         10