##TITLE=Library Entry 18687
##JCAMP-DX=Revision 4.10 
##DATA TYPE=MASS SPECTRUM
##SAMPLE DESCRIPTION=CARL DJERASSI DEPT OF CHEM STANFORD UNIV STANFORD CALIF
 94305
##NAMES=HP
##CAS NAME=Ethanamine, N-cyclopentylidene-
##MOLFORM=C7H13N
##CAS REGISTRY NO=54966-05-1
##MP= -300
##BP= -300
##MW= 111
##$RETENTION INDEX=0
##$CONDENSED SPECTRUM=NO
##NPOINTS= 28
##XYDATA=(XY..XY) 1 
    40        110
    41        560
    42        210
    43         20
    44         80
    50         20
    51         40
    52         60
    53         80
    54        999
    55        840
    56         90
    65         30
    66         10
    67        140
    68         60
    69         40
    80         30
    81         20
    82        660
    83        200
    84         10
    94         20
    96        410
    97         20
   110        150
   111        340
   112         90