##TITLE=Library Entry 52378
##JCAMP-DX=Revision 4.10 
##DATA TYPE=MASS SPECTRUM
##SAMPLE DESCRIPTION=SHELL OIL CO., HOUSTON, TEXAS, USA
##NAMES=HP
##CAS NAME=4-Isopropyldicyclohexylmethane
##MOLFORM=C16H30
##CAS REGISTRY NO=54965-61-6
##MP= -300
##BP= -300
##MW= 222
##$RETENTION INDEX=0
##$CONDENSED SPECTRUM=NO
##NPOINTS= 149
##XYDATA=(XY..XY) 1 
    37          2
    38          4
    39        172
    40         33
    41        784
    42         58
    43        333
    44         11
    45          0
    46          0
    47          0
    48          0
    49          0
    50          3
    51         11
    52          9
    53        103
    54        144
    55        843
    56         58
    57         77
    58          3
    59          0
    60          0
    61          0
    62          0
    63          2
    64          1
    65         29
    66         25
    67        320
    68         77
    69        418
    70         31
    71          9
    72          0
    73          0
    74          0
    75          0
    76          0
    77         37
    78         10
    79         67
    80         40
    81        232
    82        181
    83        999
    84         72
    85          6
    86          0
    87          0
    88          0
    89          1
    90          0
    91         17
    92          3
    93         15
    94         12
    95        146
    96        167
    97        835
    98         68
    99          2
   100          0
   101          1
   102          0
   103          1
   104          0
   105          2
   106          0
   107          6
   108          5
   109        104
   110         12
   111         46
   112          4
   113          0
   114          0
   115          1
   116          0
   117          1
   118          0
   119          0
   120          0
   121          6
   122         11
   123         80
   124         39
   125         63
   126          6
   127          0
   128          0
   129          0
   130          0
   131          0
   132          0
   133          0
   134          0
   135         13
   136          4
   137         24
   138          7
   139          3
   140          0
   141          0
   142          0
   143          0
   144          0
   145          0
   146          0
   147          0
   148          0
   149          4
   150          5
   151          2
   152          0
   153          0
   154          0
   155          0
   156          0
   157          0
   158          0
   159          0
   160          0
   161          0
   162          0
   163          1
   164          0
   165          1
   166          0
   167          0
   177          1
   178        227
   179        332
   180         98
   181         11
   182          0
   183          0
   192          0
   193          1
   194          0
   207          1
   208          0
   220          0
   221          0
   222         72
   223         12
   224          1
   225          0