##TITLE=Library Entry 84429
##JCAMP-DX=Revision 4.10 
##DATA TYPE=MASS SPECTRUM
##SAMPLE DESCRIPTION=C.M.WILLIAMS/M.W.CROUCH VET. ADMIN. HOSP., GAINESVILLE,
 FLA
##NAMES=HP
##CAS NAME=Benzenepropanoic acid, 4-(acetyloxy)-, methyl ester
##MOLFORM=C12H14O4
##CAS REGISTRY NO=54965-55-8
##MP= -300
##BP= -300
##MW= 222
##$RETENTION INDEX=0
##$CONDENSED SPECTRUM=NO
##NPOINTS= 80
##XYDATA=(XY..XY) 1 
    14         27
    15        136
    16         13
    17         23
    18          7
    26         10
    27         30
    28          6
    29         20
    30          3
    31          6
    32          1
    38         17
    39         68
    40         17
    41         20
    42         20
    43        258
    44         10
    45         10
    50         20
    51         47
    52         34
    53         20
    54          3
    55         20
    59         34
    60          6
    61          6
    62         13
    63         37
    64         17
    65         57
    66         17
    67          6
    74         10
    75          6
    76          6
    77         74
    78         57
    79         17
    81         10
    89         17
    90         13
    91         98
    92         23
    93         10
    94         30
    95         10
   103         27
   104         13
   105         13
   106         17
   107        999
   108         88
   109         13
   119         54
   120        469
   121        108
   122         13
   123         23
   133          6
   134         10
   136          1
   137         23
   147         13
   148         10
   149         61
   150         13
   164         13
   165          6
   166          6
   180        612
   181         74
   182         13
   191         61
   192         13
   222         95
   223         17
   224          3