##TITLE=Library Entry 25515
##JCAMP-DX=Revision 4.10 
##DATA TYPE=MASS SPECTRUM
##SAMPLE DESCRIPTION=Exported from NIST MS Search
##NAMES=HP
##CAS NAME=Octadecane, 2,6,10,14-tetramethyl-
##MOLFORM=C22H46
##CAS REGISTRY NO=54964-82-8
##MP= -300
##BP= -300
##MW= 310
##$RETENTION INDEX=1960
##$CONDENSED SPECTRUM=NO
##NPOINTS= 60
##XYDATA=(XY..XY) 1 
    55        212
    56        219
    57        999
    58         65
    69        161
    70        146
    71        996
    72         58
    83         65
    84        230
    85        761
    86         58
    97         95
    98         47
    99        318
   100         25
   111         47
   112        183
   113        318
   114         22
   126         73
   127        183
   128         22
   139         14
   141        109
   142          3
   154        117
   155        282
   156         29
   168         11
   169         65
   170          7
   182        102
   183        197
   184         29
   197         29
   198         65
   199         14
   211          3
   212         18
   213          3
   224         65
   225        183
   226         25
   238          7
   239         11
   252         29
   253         65
   254         14
   266          7
   267         14
   280          7
   281         14
   282          3
   294          3
   295         29
   296          7
   310         95
   311         22
   312          3