##TITLE=Library Entry 56324
##JCAMP-DX=Revision 4.10 
##DATA TYPE=MASS SPECTRUM
##SAMPLE DESCRIPTION=CARL DJERASSI DEPT OF CHEM STANFORD UNIV STANFORD CALIF
 94305
##NAMES=HP
##CAS NAME=1,2-Ethanediamine, N,N'-dimethyl-N,N'-bis(1-methylethyl)-
##MOLFORM=C10H24N2
##CAS REGISTRY NO=54966-00-6
##MP= -300
##BP= -300
##MW= 172
##$RETENTION INDEX=0
##$CONDENSED SPECTRUM=NO
##NPOINTS= 35
##XYDATA=(XY..XY) 1 
    27         90
    28         50
    29         10
    30         40
    39         30
    40         10
    41        110
    42        190
    43        160
    44        650
    45        160
    54         10
    55         10
    56        110
    57         30
    58        110
    68         10
    69         10
    70         30
    71        110
    72         20
    82         10
    84         40
    85         10
    86        999
    87        999
    88        240
    89         10
    98         10
    99         10
   100         80
   101         10
   113         20
   172         40
   173         10