##TITLE=Library Entry 85707
##JCAMP-DX=Revision 4.10 
##DATA TYPE=MASS SPECTRUM
##SAMPLE DESCRIPTION=ATLANTIC REFINING CO., PHILADELPHIA, PA, USA
##NAMES=HP
##CAS NAME=Naphthalene, decahydro-1,4-dimethyl-5-octyl-
##MOLFORM=C20H38
##CAS REGISTRY NO=54964-83-9
##MP= -300
##BP= -300
##MW= 278
##$RETENTION INDEX=0
##$CONDENSED SPECTRUM=NO
##NPOINTS= 153
##XYDATA=(XY..XY) 1 
    37          3
    38          5
    39        119
    40         28
    41        589
    42         97
    43        397
    44         13
    50          5
    51         10
    52          8
    53         84
    54         51
    55        636
    56         69
    57        131
    58          6
    60          0
    61          1
    62          1
    63          3
    64          2
    65         25
    66         21
    67        370
    68        140
    69        358
    70         39
    71         41
    72          4
    73          1
    74          1
    75          2
    76          1
    77         56
    78         18
    79        126
    80         45
    81        543
    82        200
    83        305
    84         28
    85         22
    86          1
    89          2
    90          1
    91         54
    92         11
    93         73
    94         47
    95        587
    96        140
    97        175
    98         18
    99          4
   100          0
   103          3
   104          2
   105         18
   106          5
   107         50
   108         45
   109        999
   110        167
   111         64
   112          6
   113          1
   114          0
   115          3
   116          1
   117          4
   118          1
   119          5
   120          2
   121         24
   122         40
   123        177
   124         70
   125         23
   126          2
   127          1
   128          2
   129          2
   130          0
   131          2
   132          1
   133          2
   134          1
   135         20
   136         10
   137         32
   138          8
   139          5
   140          1
   141          2
   142          0
   143          1
   144          1
   145          1
   147          2
   148          1
   149         22
   150          6
   151         19
   152         14
   153          4
   154          2
   155          1
   158          0
   159          1
   160          0
   161          1
   162          1
   163         18
   164         77
   165        609
   166        103
   167         10
   168          1
   169          0
   176          2
   177          3
   178         13
   179         57
   180         11
   181          1
   191          1
   192         19
   193        230
   194         45
   195          4
   206          0
   207          5
   208          2
   218          1
   219          3
   220         20
   221         51
   223          9
   232          1
   233          1
   234          4
   235         16
   236          3
   249          6
   250          1
   263         28
   264          6
   276          3
   277          2
   278        251
   279         55
   280          6