##TITLE=Library Entry 10689
##JCAMP-DX=Revision 4.10 
##DATA TYPE=MASS SPECTRUM
##SAMPLE DESCRIPTION=CARL DJERASSI DEPT OF CHEM STANFORD UNIV STANFORD CALIF
 94305
##NAMES=HP
##CAS NAME=Ethanediamide, N,N'-dimethyl-N,N'-bis(1-methylethyl)-
##MOLFORM=C10H20N2O2
##CAS REGISTRY NO=54965-80-9
##MP= -300
##BP= -300
##MW= 200
##$RETENTION INDEX=0
##$CONDENSED SPECTRUM=NO
##NPOINTS= 37
##XYDATA=(XY..XY) 1 
    27         80
    28         80
    29         20
    30         40
    31         10
    32         10
    39         30
    40         10
    41        140
    42        100
    43        999
    44         30
    59         40
    60         20
    63         10
    70         20
    71         20
    72        680
    73         90
    74         10
    84         20
    85        100
    86         40
    87         10
   100        710
   101         80
   102         10
   142         30
   143         10
   149         10
   157        200
   158         30
   169         10
   170         10
   171         10
   185         20
   186         10