##TITLE=Library Entry 19501
##JCAMP-DX=Revision 4.10 
##DATA TYPE=MASS SPECTRUM
##SAMPLE DESCRIPTION=CARL DJERASSI DEPT OF CHEM STANFORD UNIV STANFORD CALIF
 94305
##NAMES=HP
##CAS NAME=2-Butynoic acid, 4-cyclohexyl-4-oxo-, ethyl ester
##MOLFORM=C12H16O3
##CAS REGISTRY NO=54966-50-6
##MP= -300
##BP= -300
##MW= 208
##$RETENTION INDEX=0
##$CONDENSED SPECTRUM=NO
##NPOINTS= 58
##XYDATA=(XY..XY) 1 
    41        580
    42         30
    43         60
    44        130
    45         30
    50         10
    51         20
    52         30
    53        280
    54         70
    55        999
    56         50
    65         20
    66         30
    67        120
    68         20
    69         10
    70         30
    77         50
    78         20
    79        110
    80         30
    81        110
    82         50
    83        530
    84         40
    91         40
    92         20
    93         20
    94         10
    95         10
    97         20
    98        270
    99         30
   105         40
   106         30
   107         60
   108         50
   109         10
   111         60
   112         60
   113         10
   119         10
   120         10
   123         10
   125         20
   126        560
   127         20
   133         20
   134         60
   135         40
   136         40
   151         10
   152         10
   162         30
   163         50
   164         30
   179         10