##TITLE=Library Entry 96926
##JCAMP-DX=Revision 4.10 
##DATA TYPE=MASS SPECTRUM
##SAMPLE DESCRIPTION=CARL DJERASSI DEPT OF CHEM STANFORD UNIV STANFORD CALIF
 94305
##NAMES=HP
##CAS NAME=3-Butenoic acid, 4-phenyl-, butyl ester
##MOLFORM=C14H18O2
##CAS REGISTRY NO=54966-44-8
##MP= -300
##BP= -300
##MW= 218
##$RETENTION INDEX=0
##$CONDENSED SPECTRUM=NO
##NPOINTS= 46
##XYDATA=(XY..XY) 1 
    41        340
    42         20
    43         30
    44         10
    45         10
    50         20
    51         60
    52         20
    53         10
    55         40
    56         20
    57        370
    58         20
    63         40
    64         10
    65         50
    74         10
    75         10
    76         10
    77         30
    78         10
    89         30
    90         10
    91        160
    92         20
   102         20
   103         10
   104         30
   105         10
   107         10
   114         10
   115        280
   116        130
   117        999
   118        140
   119         10
   120         10
   127         10
   144         20
   145         30
   146         10
   162         40
   163         20
   176         10
   218        140
   219         20