##TITLE=Library Entry 86545
##JCAMP-DX=Revision 4.10 
##DATA TYPE=MASS SPECTRUM
##SAMPLE DESCRIPTION=Exported from NIST MS Search
##NAMES=HP
##CAS NAME=Naphthalene, decahydro-2,6-dimethyl-3-octyl-
##MOLFORM=C20H38
##CAS REGISTRY NO=54964-85-1
##MP= -300
##BP= -300
##MW= 278
##$RETENTION INDEX=0
##$CONDENSED SPECTRUM=NO
##NPOINTS= 211
##XYDATA=(XY..XY) 1 
    16          3
    17          5
    18         21
    24          1
    25          2
    26         14
    27        128
    28         38
    29        283
    30          7
    31          2
    32          1
    36          1
    37          3
    38          4
    39         83
    40         21
    41        537
    42         67
    43        332
    44         12
    45          1
    48          1
    49          1
    50          3
    51          7
    52          5
    53         69
    54         58
    55        639
    56         77
    57        137
    58          7
    59          1
    60          1
    61          1
    62          1
    63          1
    64          1
    65         19
    66         13
    67        310
    68        118
    69        358
    70         51
    71         48
    72          4
    73          1
    74          1
    75          1
    76          1
    77         33
    78          9
    79         78
    80         30
    81        469
    82        109
    83        406
    84         37
    85         20
    86          1
    89          2
    90          1
    91         31
    92          8
    93         61
    94         35
    95        852
    96        114
    97        112
    98         13
    99          3
   100          1
   101          1
   102          1
   103          2
   104          1
   105          9
   106          4
   107         38
   108         45
   109        999
   110        156
   111         48
   112          6
   113          1
   114          1
   115          1
   116          1
   117          2
   118          1
   119          2
   120          1
   121         15
   122         18
   123        137
   124         21
   125          9
   126          2
   127          1
   128          1
   129          1
   130          1
   131          1
   132          1
   133          1
   134          1
   135         27
   136         15
   137         41
   138         41
   139         13
   140          3
   141          1
   142          1
   143          1
   144          1
   145          1
   146          1
   147          1
   148          1
   149         51
   150         10
   151         20
   152          4
   153          3
   154          1
   155          1
   156          1
   157          1
   158          1
   159          1
   160          1
   161          1
   162          1
   163         13
   164        196
   165        870
   166        122
   167         11
   168          4
   169          3
   170          2
   171          1
   172          1
   173          2
   174          1
   175          1
   176          1
   177          1
   178          1
   179          4
   180          2
   181          1
   182          1
   183          1
   184          1
   185          1
   186          1
   187          1
   188          1
   189          1
   190          1
   191          1
   192          1
   193          5
   194          2
   195          1
   196          1
   197          1
   198          1
   199          2
   200          2
   201          1
   202          3
   203          1
   204          1
   205          1
   206          1
   207          7
   208          3
   209          1
   219          1
   220          1
   221          3
   222          2
   223          1
   233          1
   234          1
   235          3
   236         20
   237          4
   238          1
   249          1
   250          1
   261          1
   262          1
   263          4
   264          1
   268          1
   269          1
   270          1
   271          1
   272          1
   273          1
   274          1
   276          1
   277          1
   278         40
   279          9
   280          1