##TITLE=Library Entry 28012
##JCAMP-DX=Revision 4.10 
##DATA TYPE=MASS SPECTRUM
##SAMPLE DESCRIPTION=CARL DJERASSI DEPT OF CHEM STANFORD UNIV STANFORD CALIF
 94305
##NAMES=HP
##CAS NAME=Butanamide, N-methyl-N-(1-methylethyl)-
##MOLFORM=C8H17NO
##CAS REGISTRY NO=54966-01-7
##MP= -300
##BP= -300
##MW= 143
##$RETENTION INDEX=0
##$CONDENSED SPECTRUM=NO
##NPOINTS= 22
##XYDATA=(XY..XY) 1 
    29         20
    30         40
    39         30
    40         20
    41        100
    42         70
    43        290
    44         50
    55         10
    56         40
    57         20
    58        999
    59         40
    71         70
    72         40
    73         60
    86         30
   100         40
   115         10
   128         70
   143        160
   144         10