##TITLE=Library Entry 89504
##JCAMP-DX=Revision 4.10 
##DATA TYPE=MASS SPECTRUM
##SAMPLE DESCRIPTION=CARL DJERASSI DEPT OF CHEM STANFORD UNIV STANFORD CALIF
 94305
##NAMES=HP
##CAS NAME=2-Piperidinecarboxylic acid, 1-formyl-
##MOLFORM=C7H11NO3
##CAS REGISTRY NO=54966-20-0
##MP= -300
##BP= -300
##MW= 157
##$RETENTION INDEX=0
##$CONDENSED SPECTRUM=NO
##NPOINTS= 13
##XYDATA=(XY..XY) 1 
    41        100
    42         80
    44         90
    54         70
    55        160
    56        230
    82         60
    84        240
   111         30
   112        999
   113        110
   157        130
   158         10