##TITLE=Library Entry 62973
##JCAMP-DX=Revision 4.10 
##DATA TYPE=MASS SPECTRUM
##SAMPLE DESCRIPTION=CARL DJERASSI DEPT OF CHEM STANFORD UNIV STANFORD CALIF
 94305
##NAMES=HP
##CAS NAME=Spirostan-3,15-diol, 3-(4-methylbenzenesulfonate), (3.beta.,5.alp
ha.,15.beta.,25R)-
##MOLFORM=C34H50O6S
##CAS REGISTRY NO=54965-90-1
##MP= -300
##BP= -300
##MW= 586
##$RETENTION INDEX=0
##$CONDENSED SPECTRUM=NO
##NPOINTS= 101
##XYDATA=(XY..XY) 1 
    41        140
    42         10
    43         30
    44         40
    50         60
    51         90
    52         30
    53         40
    55         80
    56         20
    57         30
    62         40
    63        130
    64         30
    65        360
    66         30
    67         50
    69         40
    74         20
    77        180
    78         30
    79        200
    80         50
    81         70
    83         20
    84         30
    89        130
    90        110
    91        999
    92        110
    93         40
    95         30
    97         30
   105         60
   106         20
   107        400
   108        240
   109         40
   111         20
   115         50
   117         20
   119         30
   120         20
   121         30
   123         20
   126         80
   128         20
   129         40
   131         30
   133         20
   135         20
   139         90
   140         20
   141         30
   142         20
   143         60
   144         30
   145         40
   147         20
   149         20
   153         20
   155         70
   157         30
   158         20
   159         30
   165         20
   167         20
   168        100
   169         30
   171         40
   172        880
   173         70
   174         50
   179         20
   181         20
   182         30
   185         20
   195         30
   197         40
   198         70
   199         30
   211         30
   212         10
   213         10
   237         50
   238         10
   239         10
   251         40
   252         60
   253        110
   254         40
   255         20
   257         40
   280         20
   282         90
   283         40
   299         60
   300         20
   342         20
   378         20
   414         20