##TITLE=Library Entry 81533
##JCAMP-DX=Revision 4.10 
##DATA TYPE=MASS SPECTRUM
##SAMPLE DESCRIPTION=Exported from NIST MS Search
##NAMES=HP
##CAS NAME=Benzo[f]quinoline-2-carbonitrile, 1-benzoyl-1,2-dihydro-
##MOLFORM=C21H14N2O
##CAS REGISTRY NO=54964-81-7
##MP= -300
##BP= -300
##MW= 310
##$RETENTION INDEX=0
##$CONDENSED SPECTRUM=NO
##NPOINTS= 23
##XYDATA=(XY..XY) 1 
    63         70
    74         70
    75         80
    76        170
    77        520
    78         50
    89         90
   103         20
   105        999
   106         80
   126         40
   131        120
   150         40
   151         80
   152         70
   153         20
   177         40
   178         80
   179        600
   180         70
   204         20
   205         20
   310         70