##TITLE=Library Entry 97388
##JCAMP-DX=Revision 4.10 
##DATA TYPE=MASS SPECTRUM
##SAMPLE DESCRIPTION=Chemical Concepts
##NAMES=HP
##CAS NAME=2-Butenoic acid, 4-phenyl-, ethyl ester
##MOLFORM=C12H14O2
##CAS REGISTRY NO=54966-42-6
##MP= -300
##BP= -300
##MW= 190
##$RETENTION INDEX=0
##$CONDENSED SPECTRUM=NO
##NPOINTS= 101
##XYDATA=(XY..XY) 1 
    26         11
    27        106
    29        293
    30          9
    31          2
    37          3
    38         12
    39        123
    40          9
    41         14
    42          4
    43          9
    44          2
    45          7
    49          0
    50         35
    51         88
    52         27
    53          9
    54          1
    55         35
    56          3
    57         78
    58         16
    59         22
    60          2
    61          8
    62         24
    63         75
    64         12
    65         85
    66          6
    67          2
    68          2
    69          1
    70          0
    71          0
    72         11
    73          1
    74         13
    75         18
    76         16
    77         67
    78         35
    79         32
    80          3
    83          1
    84          2
    85          3
    86          3
    87          9
    88          6
    89         65
    90         11
    91        259
    92         23
    95          0
    99          2
   101          2
   102         24
   103         33
   104         39
   105         46
   106          3
   107         82
   108          5
   109          0
   113          4
   114          7
   115        644
   116        282
   117        999
   118        132
   119          7
   120          6
   127         92
   128         14
   129          3
   130          0
   131          7
   132          1
   133        123
   134         12
   135        194
   136         18
   137          1
   143          6
   144        214
   145        305
   146         29
   147          5
   148         12
   157          0
   161         37
   162         88
   163          8
   175          0
   189          1
   190        591
   191         76
   192          5