##TITLE=Library Entry 52409
##JCAMP-DX=Revision 4.10 
##DATA TYPE=MASS SPECTRUM
##SAMPLE DESCRIPTION=CARL DJERASSI DEPT OF CHEM STANFORD UNIV STANFORD CALIF
 94305
##NAMES=HP
##CAS NAME=Cyclohexanebutanoic acid, .gamma.-oxo-, ethyl ester
##MOLFORM=C12H20O3
##CAS REGISTRY NO=54966-52-8
##MP= -300
##BP= -300
##MW= 212
##$RETENTION INDEX=0
##$CONDENSED SPECTRUM=NO
##NPOINTS= 46
##XYDATA=(XY..XY) 1 
    41        520
    42         70
    43        100
    44         10
    45        100
    51         20
    52         10
    53         80
    54         70
    55        780
    56        110
    57         50
    67        100
    68         30
    69         20
    73         90
    74         70
    75         20
    77         20
    79         30
    81         40
    82         20
    83        999
    84         80
    85        140
    98         10
    99         10
   101        700
   102         60
   107         30
   110         10
   111        240
   112         20
   124         30
   125         10
   129        490
   130         40
   131         10
   144         40
   149         10
   157         40
   166         60
   167        190
   168         20
   171         10
   212         50