##TITLE=Library Entry 36488
##JCAMP-DX=Revision 4.10 
##DATA TYPE=MASS SPECTRUM
##SAMPLE DESCRIPTION=T.A.BLAZER DU PONT, GIBBSTOWN, N.J., USA
##NAMES=HP
##CAS NAME=Acetic acid, trifluoro-, 1-butene-1,4-diyl ester
##MOLFORM=C8H6F6O4
##CAS REGISTRY NO=54965-25-2
##MP= -300
##BP= -300
##MW= 280
##$RETENTION INDEX=0
##$CONDENSED SPECTRUM=NO
##NPOINTS= 133
##XYDATA=(XY..XY) 1 
    13          0
    14         10
    15         36
    16          6
    24          1
    25          3
    26         48
    27        251
    28         80
    29        153
    30          9
    31         71
    33          8
    36          2
    37         13
    38         33
    39        293
    40         53
    41        245
    42         98
    43         69
    44         43
    45         49
    46         11
    47         56
    48          2
    49          7
    50         71
    51         71
    52         59
    53        437
    54         70
    55         90
    56          8
    57         48
    58          4
    59        118
    60          7
    61          2
    63          1
    64          2
    65          3
    66          2
    67          7
    68         15
    69        999
    70         49
    71         20
    72         24
    73         32
    74          3
    75          1
    76          1
    77          6
    78         18
    79          3
    80          2
    81          3
    82          2
    83          4
    84          4
    85          5
    86          2
    87          4
    88          1
    89         16
    90          3
    91         74
    92          4
    93          3
    94          2
    95         14
    96          3
    97        223
    98          9
    99        125
   100          4
   101          3
   103          2
   104          1
   105          2
   106          1
   107          2
   108          2
   109          5
   110          2
   111          3
   112         30
   113          4
   114          1
   115          4
   116          2
   117          3
   118          1
   119          4
   120          1
   121          3
   122          2
   123          3
   124          3
   125         61
   126          4
   127         11
   131          1
   132          1
   133          1
   134          1
   135         12
   136          3
   137          4
   138         23
   139         38
   140         25
   141          2
   142          1
   143          1
   145          1
   147          1
   148          1
   149          2
   150          1
   151          2
   152          2
   153        242
   154         22
   155          4
   166        506
   167        265
   168         20
   169          2
   183          9
   211          2
   212          0