##TITLE=Library Entry 3365
##JCAMP-DX=Revision 4.10 
##DATA TYPE=MASS SPECTRUM
##SAMPLE DESCRIPTION=Exported from NIST MS Search
##NAMES=HP
##CAS NAME=Cyclohexane, 1,1,3-trimethyl-2-(3-methylpentyl)-
##MOLFORM=C15H30
##CAS REGISTRY NO=54965-05-8
##MP= -300
##BP= -300
##MW= 210
##$RETENTION INDEX=0
##$CONDENSED SPECTRUM=NO
##NPOINTS= 122
##XYDATA=(XY..XY) 1 
    26         14
    27        327
    28         60
    29        629
    30         14
    37          2
    38          5
    39        225
    40         45
    41        999
    42        158
    43        457
    44         15
    45          1
    46          1
    50          3
    51         16
    52         10
    53        125
    54         42
    55        805
    56        490
    57        563
    58         24
    59          1
    60          1
    62          1
    63          3
    64          1
    65         25
    66         16
    67        151
    68         91
    69        976
    70        596
    71        301
    72         16
    73          1
    75          1
    76          1
    77         32
    78          6
    79         38
    80         10
    81        104
    82         81
    83        455
    84        180
    85        119
    86          7
    89          1
    90          1
    91         21
    92          3
    93         16
    94          7
    95         86
    96         44
    97        228
    98         60
    99         27
   100          2
   103          1
   104          1
   105          4
   106          1
   107          8
   108          3
   109         57
   110         24
   111        223
   112         54
   113         14
   114          1
   115          1
   117          1
   119          1
   120          1
   121          4
   122          3
   123         44
   124         30
   125        269
   126        197
   127         31
   128          2
   133          1
   135          2
   136          2
   137         13
   138          7
   139         23
   140        117
   141         21
   142          2
   149          1
   150          1
   151          4
   152          2
   153          4
   154          9
   155          2
   163          1
   165          3
   166          3
   167          3
   168          2
   177          1
   179          3
   181          5
   182          7
   183          1
   191          3
   193         10
   195         86
   196         14
   197          1
   206          2
   208          9
   210        184
   211         32
   212          3