##TITLE=Library Entry 67432
##JCAMP-DX=Revision 4.10 
##DATA TYPE=MASS SPECTRUM
##SAMPLE DESCRIPTION=B.A.PAWSON HOFFMANN-LA ROCHE INC., NUTLEY, NEW JERSEY,
 USA
##NAMES=HP
##CAS NAME=3-Cyclohexeneethanol, .beta.,4-dimethyl-, 4-methylbenzenesulfonat
e
##MOLFORM=C17H24O3S
##CAS REGISTRY NO=54965-15-0
##MP= -300
##BP= -300
##MW= 308
##$RETENTION INDEX=0
##$CONDENSED SPECTRUM=NO
##NPOINTS= 23
##XYDATA=(XY..XY) 1 
    41         90
    55         50
    65         60
    67         60
    68         70
    77         40
    79        140
    81         80
    91        240
    92        100
    93        320
    94        999
    95        160
   107        190
   108         70
   121        210
   136        500
   137         70
   149         40
   155         70
   173         40
   266         10
   308         20