##TITLE=Library Entry 31312
##JCAMP-DX=Revision 4.10 
##DATA TYPE=MASS SPECTRUM
##SAMPLE DESCRIPTION=DR. C. C. VAN DE SANDE, STATE UNIVERSITY OF GENT, BELGI
UM
##NAMES=HP
##CAS NAME=Propanenitrile, 3-(methylthio)-
##MOLFORM=C4H7NS
##CAS REGISTRY NO=54974-63-9
##MP= -300
##BP= -300
##MW= 101
##$RETENTION INDEX=0
##$CONDENSED SPECTRUM=NO
##NPOINTS= 39
##XYDATA=(XY..XY) 1 
    32         42
    33          7
    34         11
    35        150
    36          4
    37         12
    38         13
    39         23
    40         15
    41         24
    42         30
    43         12
    44         40
    45        240
    46        100
    47        150
    48         59
    49         14
    50         14
    51         35
    52         51
    53         15
    54        150
    55         33
    56          6
    57         30
    58         33
    59         34
    60         13
    61        999
    62         35
    63         55
    64          4
    73         25
    74         10
   100          6
   101        450
   102         25
   103         20