##TITLE=Library Entry 33939
##JCAMP-DX=Revision 4.10 
##DATA TYPE=MASS SPECTRUM
##SAMPLE DESCRIPTION=A.Pleshkova, Nesmeyanov Inst.Org.Elem.Cpds, Moscow
##NAMES=HP
##CAS NAME=3,3-Bis(carbmethoxy)diaziridine
##MOLFORM=C5H8N2O4
##CAS REGISTRY NO=54972-13-3
##MP= -300
##BP= -300
##MW= 160
##$RETENTION INDEX=0
##$CONDENSED SPECTRUM=NO
##NPOINTS= 37
##XYDATA=(XY..XY) 1 
    15        731
    16         56
    26         31
    27        147
    28        168
    29        219
    30        143
    31        144
    32         28
    33        175
    34          6
    40         45
    41        103
    42         39
    43        123
    44         53
    45        105
    46          5
    59        703
    60         39
    68         55
    69        999
    70        524
    71        167
    72         47
    73         24
    85        103
    86         44
    87         25
    99         25
   100        135
   101        302
   102         27
   103          4
   115         25
   129        117
   130          9