##TITLE=Library Entry 19988
##JCAMP-DX=Revision 4.10 
##DATA TYPE=MASS SPECTRUM
##SAMPLE DESCRIPTION=A.Pleshkova, Nesmeyanov Inst.Org.Elem.Cpds, Moscow
##NAMES=HP
##CAS NAME=3,3-Diaziridinedicarboxylic acid, 1-methyl-, dimethyl ester
##MOLFORM=C6H10N2O4
##CAS REGISTRY NO=54972-15-5
##MP= -300
##BP= -300
##MW= 174
##$RETENTION INDEX=0
##$CONDENSED SPECTRUM=NO
##NPOINTS= 42
##XYDATA=(XY..XY) 1 
    41        123
    42        451
    43        483
    44        151
    45        203
    46         11
    53         43
    54         77
    55        999
    56        186
    57        103
    58        186
    59        769
    60        103
    61         33
    69        397
    70         59
    71         39
    72          6
    86         51
    87        503
    88         37
    89          6
    99        137
   100         59
   101         85
   102          9
   114         23
   115         47
   116          9
   127        423
   128         33
   129          9
   142         24
   143         39
   144          8
   158        109
   159        509
   160         39
   161          7
   174          9
   175          1