##TITLE=Library Entry 20010
##JCAMP-DX=Revision 4.10 
##DATA TYPE=MASS SPECTRUM
##SAMPLE DESCRIPTION=Chemical Concepts
##NAMES=HP
##CAS NAME=1-Naphthalenol, decahydro-4a-methyl-
##MOLFORM=C11H20O
##CAS REGISTRY NO=54972-52-0
##MP= -300
##BP= -300
##MW= 168
##$RETENTION INDEX=0
##$CONDENSED SPECTRUM=NO
##NPOINTS= 119
##XYDATA=(XY..XY) 1 
    26          5
    27        193
    28         30
    29        319
    30         10
    31         55
    38          4
    39        243
    40         48
    41        685
    42         78
    43        374
    44        228
    45         44
    46          2
    47          1
    48          5
    49          9
    50          7
    51         31
    52         18
    53        178
    54         91
    55        999
    56        128
    57        352
    58         42
    59         15
    60          6
    61          2
    62          3
    63         11
    64          4
    65         59
    66         75
    67        817
    68        292
    69        414
    70        112
    71        108
    72         38
    73         14
    74          1
    75          2
    76          2
    77         95
    78         25
    79        291
    80        145
    81        654
    82        278
    83        195
    84         47
    85         23
    86          3
    87          4
    88          1
    89          4
    91         80
    92         21
    93        300
    94        231
    95        407
    96        421
    97        555
    98         72
    99         16
   100          4
   101          6
   102          1
   103          3
   104          1
   105         14
   106          5
   107        164
   108        334
   109        362
   110         44
   111        263
   112         27
   113          4
   114          1
   115          2
   116          1
   117          2
   118          1
   119          4
   120          4
   121        257
   122         90
   123         14
   124         19
   125        202
   126         19
   127         13
   128          2
   129          1
   131          1
   133          3
   134          5
   135        629
   136         71
   137          6
   138          1
   139          2
   140          1
   141          0
   148          1
   149         11
   150        422
   151         67
   152          6
   153         77
   154          8
   155          0
   166          1
   167          2
   168         21
   169          3