##TITLE=Library Entry 50664
##JCAMP-DX=Revision 4.10 
##DATA TYPE=MASS SPECTRUM
##SAMPLE DESCRIPTION=G.A.M.S., PARIS, FRANCE.
##NAMES=HP
##CAS NAME=Cyclohexane, [2-(heptylthio)ethyl]-
##MOLFORM=C15H30S
##CAS REGISTRY NO=54986-32-2
##MP= -300
##BP= -300
##MW= 242
##$RETENTION INDEX=0
##$CONDENSED SPECTRUM=NO
##NPOINTS= 162
##XYDATA=(XY..XY) 1 
    25          1
    26         10
    27        105
    28         30
    29        190
    30          4
    32          3
    33          2
    34          4
    35          6
    36          0
    37          1
    38          3
    39         79
    40         14
    41        425
    42         60
    43        179
    44         11
    45         34
    46         17
    47         48
    48          5
    49          4
    50          5
    51          5
    52          3
    53         43
    54         83
    55        478
    56         94
    57        161
    58         11
    59         13
    61        176
    62         10
    63          9
    64          1
    65         10
    66         31
    67        339
    68        179
    69        214
    70         78
    71         10
    72          1
    73         10
    74          4
    75         15
    76         12
    77         11
    78          4
    79         25
    80         60
    81        999
    82        440
    83         78
    84          5
    85          6
    86          1
    87         18
    88          3
    89          9
    90          0
    91          5
    92          1
    93          6
    94          2
    95        168
    96         23
    97         37
    98         68
    99         10
   100          1
   101          4
   102          1
   103          3
   104          1
   105          3
   106          0
   107          2
   108          7
   109        121
   110        670
   111         88
   112          5
   113          1
   114          1
   115          2
   116          0
   117          2
   118          0
   119          0
   120          0
   121          0
   122          0
   123          0
   124          2
   125          0
   126          0
   127          0
   128          0
   129          1
   130          8
   131         82
   132         19
   133          9
   134          1
   135          0
   136          0
   137          0
   138          0
   139          0
   140          0
   141          1
   142         22
   143        191
   144         21
   145         22
   146          4
   147          2
   148          0
   149          0
   154          0
   155          0
   156          0
   157          9
   158          1
   159         23
   160          2
   161          1
   162          0
   163          0
   164          0
   165          0
   166          1
   171          4
   172          0
   173          0
   177          0
   178          0
   179          0
   180          0
   185          0
   186          0
   187          0
   192          1
   193          0
   199          2
   200          0
   201          0
   213          3
   214          0
   215          0
   227          0
   228          0
   229          0
   242        178
   243         33
   244         11
   245          1
   246          0