##TITLE=Library Entry 71689
##JCAMP-DX=Revision 4.10 
##DATA TYPE=MASS SPECTRUM
##SAMPLE DESCRIPTION=Chemical Concepts
##NAMES=HP
##CAS NAME=1,4-Dioxacyclohexadecane-5,16-dione
##MOLFORM=C14H24O4
##CAS REGISTRY NO=54982-83-1
##MP= -300
##BP= -300
##MW= 256
##$RETENTION INDEX=0
##$CONDENSED SPECTRUM=NO
##NPOINTS= 148
##XYDATA=(XY..XY) 1 
    26         10
    27        123
    28          4
    29        185
    30          5
    31         22
    39         86
    41        549
    42        119
    43        152
    44         37
    45         76
    53         33
    54         76
    55        526
    56        111
    57         70
    58         47
    59         23
    60         31
    61         43
    65          7
    66          7
    67        159
    68         90
    69        305
    70         65
    71         71
    72          7
    73         30
    74         12
    77          5
    78          5
    79         60
    80         46
    81        116
    82         59
    83        208
    84        403
    85         56
    86        744
    87        268
    88         17
    89          2
    91         10
    92          3
    93         68
    94         47
    95         65
    96         72
    97        174
    98        999
    99        344
   100         43
   101         29
   104         44
   105         15
   106         11
   107         38
   108         33
   109         50
   110         58
   111        221
   112        282
   113         71
   114         10
   115         35
   117         21
   119         11
   120          9
   121         29
   122         18
   123         47
   124         33
   125         79
   126         33
   127         24
   128          5
   129         32
   130          6
   131         11
   132          3
   133         11
   134         13
   135        127
   136         16
   137         30
   138         50
   139         20
   140          8
   141         48
   142          7
   144          8
   145         40
   146          9
   147         10
   148         23
   149         67
   150         26
   151         22
   152         74
   153         40
   154          6
   155        129
   156         16
   157          7
   158         18
   159        126
   160         16
   165         10
   166         93
   167         59
   168         18
   169         17
   170          5
   171         11
   172         35
   173        274
   174         28
   175          7
   176         13
   177         12
   180          8
   182          8
   183         10
   185         25
   193          5
   194         94
   195         38
   196         26
   197        165
   198         23
   199         35
   200          8
   208          6
   210         29
   213        764
   214        107
   215         11
   224          6
   226          8
   227         17
   228         32
   238         70
   239         13
   255          8
   256        229
   257         44