##TITLE=Library Entry 78162
##JCAMP-DX=Revision 4.10 
##DATA TYPE=MASS SPECTRUM
##SAMPLE DESCRIPTION=Exported from NIST MS Search
##NAMES=HP
##CAS NAME=Benzene, (1,3,3-trimethylnonyl)-
##MOLFORM=C18H30
##CAS REGISTRY NO=54986-44-6
##MP= -300
##BP= -300
##MW= 246
##$RETENTION INDEX=0
##$CONDENSED SPECTRUM=NO
##NPOINTS= 78
##XYDATA=(XY..XY) 1 
    14          3
    15          2
    16          3
    26          2
    27         32
    29         48
    32         13
    39         19
    40          5
    41         93
    42         10
    43        184
    44         23
    51         10
    52          3
    53          8
    54          2
    55         36
    56         28
    57        202
    58         10
    63          2
    65          8
    67          4
    69         21
    70         10
    71        193
    72         11
    77         43
    78         17
    79         48
    80          4
    83          6
    84          5
    85        131
    86          9
    91         70
    92          7
    99         11
   102          3
   103         29
   104         42
   105        999
   106        104
   107          6
   111          7
   112          2
   115          7
   116          2
   117         15
   118         16
   119         22
   120         53
   126         23
   127         54
   128          9
   129          4
   131          5
   140         14
   141         14
   142          2
   143          2
   145         11
   146          2
   147          2
   159         24
   160         14
   161         26
   162          4
   190          1
   229          1
   231          2
   232          1
   244          4
   245          1
   246         69
   247         14
   248          1