##TITLE=Library Entry 114716
##JCAMP-DX=Revision 4.10 
##DATA TYPE=MASS SPECTRUM
##SAMPLE DESCRIPTION=G. Lange, Inst. Org. Chem., Univ. Wurzburg, Wurzburg, G
ermany
##NAMES=HP
##CAS NAME=5H-Tetrazole-5-thione, 1,4-dihydro-1,4-dimethyl-
##MOLFORM=C3H6N4S
##CAS REGISTRY NO=54986-14-0
##MP= -300
##BP= -300
##MW= 130
##$RETENTION INDEX=0
##$CONDENSED SPECTRUM=NO
##NPOINTS= 34
##XYDATA=(XY..XY) 1 
    36          9
    38          6
    39         11
    40         35
    41         31
    42        157
    43         73
    44         61
    45         76
    46        131
    47         23
    48          8
    53         14
    55          6
    57          5
    58         18
    59         11
    60         37
    61        175
    62          5
    63          7
    65          7
    69        221
    70         30
    71          6
    72        124
    73        327
    74        210
    75         21
    76         27
    87          8
   130        999
   131         55
   132         45