##TITLE=Library Entry 60878
##JCAMP-DX=Revision 4.10 
##DATA TYPE=MASS SPECTRUM
##SAMPLE DESCRIPTION=Exported from NIST MS Search
##NAMES=HP
##CAS NAME=3-Pentanone, 1-cyclohexyl-5-phenyl-
##MOLFORM=C17H24O
##CAS REGISTRY NO=54986-38-8
##MP= -300
##BP= -300
##MW= 244
##$RETENTION INDEX=0
##$CONDENSED SPECTRUM=NO
##NPOINTS= 134
##XYDATA=(XY..XY) 1 
    39        210
    40         35
    41        490
    42         54
    43         86
    44          6
    45          4
    49          2
    50         30
    51         97
    52         31
    53         82
    54         56
    55        458
    56         40
    57         41
    58          4
    59          1
    60          2
    61          2
    62          6
    63         29
    64          8
    65        102
    66         15
    67        100
    68         26
    69        166
    70         21
    71          8
    72          2
    73          3
    74          6
    75          7
    76          9
    77        156
    78         72
    79        124
    80         16
    81         63
    82         12
    83         90
    84          8
    85          2
    86          1
    87          1
    88          1
    89         16
    90         11
    91        999
    92        106
    93         40
    94         24
    95        135
    96        116
    97        107
    98         10
    99          1
   101          2
   102         11
   103         66
   104        308
   105        532
   106         59
   107         10
   108          3
   109          5
   110          9
   111         13
   112          2
   113          1
   115         13
   116          3
   117          9
   118          3
   119          7
   120         16
   121        239
   122        105
   123          9
   124          1
   125          1
   126          1
   127          3
   128          7
   129         12
   130        305
   131         55
   132          8
   133        146
   134         19
   135         14
   136          2
   137          2
   138          3
   139         46
   140          5
   141          2
   142          1
   143          8
   144          3
   145          4
   146          5
   147         10
   148        343
   149        146
   150         15
   151          2
   152          1
   153          1
   155          1
   157          1
   159          2
   160          1
   161         47
   162          7
   163          1
   166          1
   169          1
   183          1
   198          1
   199          1
   200          1
   201          1
   202          1
   215          3
   216          1
   226         11
   227          2
   228          1
   242          1
   243          1
   244         10
   245          3