##TITLE=Library Entry 4779
##JCAMP-DX=Revision 4.10 
##DATA TYPE=MASS SPECTRUM
##SAMPLE DESCRIPTION=Exported from NIST MS Search
##NAMES=HP
##CAS NAME=3H-Indol-3-one, 2-[(1,2-dimethyl-3-piperidinyl)methyl]-
##MOLFORM=C16H20N2O
##CAS REGISTRY NO=54986-55-9
##MP= -300
##BP= -300
##MW= 256
##$RETENTION INDEX=0
##$CONDENSED SPECTRUM=NO
##NPOINTS= 136
##XYDATA=(XY..XY) 1 
    26         22
    27        110
    28        105
    29        101
    30         77
    31         28
    38         28
    39        165
    40         35
    41         22
    42        999
    43        132
    44        176
    45         22
    50         28
    51         39
    52         35
    53        103
    54         66
    55        198
    56        452
    57        982
    58        165
    59         66
    62         66
    63        158
    64         44
    65         55
    66         33
    67         46
    68        123
    69        105
    70        386
    71        242
    72        165
    73         22
    74         22
    75         30
    76         28
    77         48
    78         22
    79         22
    80         30
    81         39
    82        136
    83         88
    84        573
    85        507
    86         48
    87         33
    88         99
    89        728
    90        150
    91         33
    94        108
    95         28
    96        198
    97        194
    98        286
    99         28
   101         22
   102         22
   103         37
   108         33
   109         44
   110        304
   111        286
   112        375
   113         48
   114        154
   115        139
   116        253
   117        154
   118         59
   124         50
   125         24
   126         26
   127         28
   128         44
   129         39
   130        132
   131         50
   138         55
   139         33
   140         44
   141         44
   142         44
   143        181
   144        938
   145        154
   146         88
   147         44
   154         90
   155         33
   156         44
   157         28
   158         26
   159         28
   160         24
   166         22
   167         30
   168         66
   169         22
   170        121
   171         64
   172         28
   173         28
   180         33
   181         44
   182         41
   184         83
   185         88
   186         28
   187         28
   196         33
   197         22
   198         55
   199        105
   200         28
   210         33
   211         88
   212         22
   213         30
   214         22
   223         28
   226         28
   237         22
   238         22
   239         41
   240         22
   241        518
   242        130
   243         19
   256        750
   257        165
   258         22