##TITLE=Library Entry 97957
##JCAMP-DX=Revision 4.10 
##DATA TYPE=MASS SPECTRUM
##SAMPLE DESCRIPTION=C.J.W.BROOKS CHEM. DEPT., THE UNIVERSITY GLASGOW, U.K.
##NAMES=HP
##CAS NAME=1,3,2-Dioxaborolan-4-one, 2-cyclohexyl-5-phenyl-
##MOLFORM=C14H17BO3
##CAS REGISTRY NO=54986-49-1
##MP= -300
##BP= -300
##MW= 244
##$RETENTION INDEX=0
##$CONDENSED SPECTRUM=NO
##NPOINTS= 102
##XYDATA=(XY..XY) 1 
    40         25
    41        190
    42         30
    43         25
    44         15
    45          5
    50         30
    51         80
    52         25
    53         60
    54         35
    55        270
    56         25
    57          5
    61          5
    62         20
    63         75
    64         45
    65         30
    66         20
    67         80
    68         10
    69         12
    72          5
    73         15
    74         10
    75         20
    76         15
    77        140
    78         35
    79         70
    80         20
    81         65
    82        190
    83        355
    84         25
    88         20
    89        250
    90        720
    91        260
    92         90
    93         10
    94          5
   102          5
   103         25
   104         60
   105        165
   106         15
   107         25
   108          5
   109          5
   115         15
   116         35
   117        330
   118        999
   119        100
   120         45
   121         15
   128         10
   129         30
   130         30
   131         15
   132         25
   133         60
   134         10
   135          5
   141          5
   142          5
   143         25
   144         25
   145          5
   146         10
   147         45
   148         40
   149         55
   157         10
   158         10
   159         10
   161         10
   162         40
   163          7
   171         10
   172         10
   174         15
   175         50
   176          5
   186          5
   187         10
   188         10
   193          5
   194         10
   199        100
   200        450
   201         70
   202         10
   215          5
   228         15
   229         25
   230          5
   243         10
   244         45
   245          7