##TITLE=Library Entry 48043
##JCAMP-DX=Revision 4.10 
##DATA TYPE=MASS SPECTRUM
##SAMPLE DESCRIPTION=Chemical Concepts
##NAMES=HP
##CAS NAME=2-(2-Methoxycarbonylethylamino)nicotinic acid, methyl ester
##MOLFORM=C11H14N2O4
##CAS REGISTRY NO=54980-86-8
##MP= -300
##BP= -300
##MW= 238
##$RETENTION INDEX=0
##$CONDENSED SPECTRUM=NO
##NPOINTS= 135
##XYDATA=(XY..XY) 1 
    25          8
    26        260
    27        992
    28        814
    29        737
    30        176
    31        408
    33        155
    34          5
    35          2
    36          4
    37        164
    38        463
    39        759
    40        196
    41        292
    42        725
    43        400
    44         49
    45        312
    46         11
    47          5
    48          3
    49         35
    50        301
    51        592
    52        638
    53        324
    54         90
    55        542
    56         43
    57         29
    58         36
    59        732
    60         62
    61         13
    62         22
    63        121
    64        376
    65        446
    66        371
    67        209
    68         50
    69         48
    70         39
    71          7
    73         19
    74         34
    75         50
    76        158
    77        148
    78        999
    79        593
    80         97
    81         21
    82         12
    83          6
    84          4
    85          7
    87         31
    88          7
    89         11
    90         69
    91        163
    92        388
    93        433
    94        256
    95         30
    96         11
    97          6
   100          2
   101          4
   102         27
   103         47
   104         26
   105        118
   106        595
   107         64
   108         25
   109         11
   110          2
   116          4
   117         54
   118        184
   119        302
   120        190
   121        194
   122         27
   123         11
   124          6
   125          2
   129          4
   131         11
   132          6
   133        678
   134         66
   135         16
   136         19
   137         12
   138         10
   139          2
   145         92
   146         28
   147        534
   148         60
   149         39
   150          4
   151         37
   152        120
   153         14
   161          6
   163         29
   164          5
   165        221
   166         21
   167          2
   173         56
   174          7
   175         22
   176          3
   177         44
   178          8
   179        220
   180         25
   181          3
   191         10
   192          1
   205          9
   206          3
   207         25
   208          4
   223          8
   224          1
   238         56
   239          9