##TITLE=Library Entry 76565
##JCAMP-DX=Revision 4.10 
##DATA TYPE=MASS SPECTRUM
##SAMPLE DESCRIPTION=Exported from NIST MS Search
##NAMES=HP
##CAS NAME=1-Undecene, 11,11-diethoxy-
##MOLFORM=C15H30O2
##CAS REGISTRY NO=54986-31-1
##MP= -300
##BP= -300
##MW= 242
##$RETENTION INDEX=0
##$CONDENSED SPECTRUM=NO
##NPOINTS= 70
##XYDATA=(XY..XY) 1 
    14         10
    15         17
    16          8
    17          7
    18         26
    19          8
    26         24
    27         89
    28        128
    29        214
    30         13
    31        112
    32         20
    39         63
    41        241
    42         45
    43        108
    44         57
    45         73
    46         29
    47        220
    53         36
    54         63
    55        235
    56         26
    57        169
    58         31
    59         32
    67        185
    68        138
    69        114
    70         27
    71         33
    72         47
    73         24
    75        288
    79         66
    80         44
    81        124
    82        112
    83         93
    85        476
    86         42
    93         49
    94         31
    95        144
    96         56
    97         25
    98         21
    99         31
   100         54
   103        999
   104         59
   107         33
   108         33
   109         91
   111         42
   121         48
   125         31
   135         23
   139         61
   150         25
   152         12
   153         14
   167          3
   168          3
   169          3
   197        224
   202          8
   213          4