##TITLE=Library Entry 96228
##JCAMP-DX=Revision 4.10 
##DATA TYPE=MASS SPECTRUM
##SAMPLE DESCRIPTION=AP-2133
##NAMES=HP
##CAS NAME=Thiophene, 2-(decylthio)-
##MOLFORM=C14H24S2
##CAS REGISTRY NO=54986-42-4
##MP= -300
##BP= -300
##MW= 256
##$RETENTION INDEX=0
##$CONDENSED SPECTRUM=NO
##NPOINTS= 115
##XYDATA=(XY..XY) 1 
    12          1
    13          0
    14          4
    15          9
    16          4
    25          0
    26          7
    27        200
    28         58
    29        397
    30         10
    32          7
    33          1
    34          2
    35          2
    37          9
    38         19
    39        215
    40         38
    41        618
    42         81
    43        819
    44         32
    45        208
    46         12
    47         20
    48          0
    49          1
    50          4
    51         10
    52          5
    53         47
    54         15
    55        283
    56         37
    57        416
    58         55
    59         15
    60          7
    61          6
    62          0
    63          2
    64          2
    65          7
    66          3
    67         21
    68          6
    69         75
    70         31
    71        538
    72         38
    73         20
    74          2
    75          0
    76          5
    77          8
    78          3
    79          4
    80          0
    81         18
    82         27
    83         37
    84         24
    85        100
    86         11
    87         15
    88          6
    89          3
    90          2
    91          2
    92          0
    93          0
    94          0
    95          3
    96          4
    97         29
    98          5
    99          5
   100          0
   101          5
   102          0
   103          1
   104          0
   108          0
   109          3
   110          4
   111          5
   112          0
   113          1
   114          6
   115        192
   116        999
   117         99
   118         97
   119          7
   120          2
   121          2
   122          2
   123          3
   124          4
   125          1
   126          0
   127          3
   128          1
   129         77
   130          8
   241          2
   254          0
   255          4
   256        487
   257         92
   258         52
   259          8
   260          2
   261          0