##TITLE=Library Entry 15223
##JCAMP-DX=Revision 4.10 
##DATA TYPE=MASS SPECTRUM
##SAMPLE DESCRIPTION=TAT 0648
##NAMES=HP
##CAS NAME=8H-5,12b-(Iminoethano)-1H-phenanthro[3,2-d][1,3]dioxin, 2,3,4,4a,
5,6-hexahydro-15-methyl-, [4aR-(4a.alpha.,5.alpha.,12b.alpha.)]-
##MOLFORM=C19H25NO2
##CAS REGISTRY NO=54984-45-1
##MP= -300
##BP= -300
##MW= 299
##$RETENTION INDEX=0
##$CONDENSED SPECTRUM=NO
##NPOINTS= 107
##XYDATA=(XY..XY) 1 
    41        207
    42        575
    43        287
    44        999
    45         92
    46         11
    50         46
    51         92
    52         46
    53         80
    54         46
    55        103
    56         69
    57         92
    58        161
    59        230
    60         92
    61         11
    63         69
    64         46
    65        103
    66         34
    67         69
    68         57
    69         34
    70         92
    71         11
    77        126
    78         57
    79         80
    80         46
    81         57
    82        115
    83         23
    89         57
    91        149
    92         23
    94         80
    95         34
    96         46
   102         46
   103         57
   104         34
   105         57
   106         34
   107         46
   108         46
   109         34
   115        195
   116         69
   117         69
   120         57
   121         57
   122         57
   127         80
   128        172
   129        126
   130         57
   131         57
   139         57
   141        184
   142         92
   143         69
   144         57
   145         46
   146         46
   147         11
   148         57
   150        276
   151         57
   152         80
   153         80
   154         57
   155         92
   156         46
   157         46
   158         46
   159         57
   160         46
   165         57
   166         34
   167         57
   168         46
   169         57
   170         46
   171         46
   172         46
   181         46
   182         69
   183         80
   184         57
   185         11
   198         46
   201         57
   210         80
   211         69
   212        103
   213         11
   231         92
   232         11
   240         46
   242         46
   268         92
   269         57
   298         69
   299        149
   300         46