##TITLE=Library Entry 24069
##JCAMP-DX=Revision 4.10 
##DATA TYPE=MASS SPECTRUM
##SAMPLE DESCRIPTION=T. BRYCE UNILEVER RESEARCH COLWORTH/WELWYN, BEDFORD U.K
.
##NAMES=HP
##CAS NAME=1-Heptanamine, N-heptyl-N-nitroso-
##MOLFORM=C14H30N2O
##CAS REGISTRY NO=54986-34-4
##MP= -300
##BP= -300
##MW= 242
##$RETENTION INDEX=0
##$CONDENSED SPECTRUM=NO
##NPOINTS= 55
##XYDATA=(XY..XY) 1 
    30        170
    31         22
    39         49
    41        295
    42        181
    43        700
    44        310
    45         41
    53         14
    54         18
    55        260
    56        160
    57        999
    58         80
    59         13
    67         13
    68         16
    69         70
    70        120
    71         52
    73         10
    74         50
    81          9
    82         10
    83         16
    84        120
    85         75
    86         10
    87         10
    97         16
    98         60
    99         14
   112         36
   114         13
   126        110
   127         38
   128        100
   129         13
   140         11
   141        280
   142         52
   143         21
   145         46
   154         19
   155         14
   157         47
   158         35
   168         38
   178          7
   197          4
   212         50
   213         12
   225        230
   226         40
   242         11