##TITLE=Library Entry 71189
##JCAMP-DX=Revision 4.10 
##DATA TYPE=MASS SPECTRUM
##SAMPLE DESCRIPTION=R. GREENHALGH, AGRIC. CAN., PLANT RES. CENT., OTTAWA, C
AN.
##NAMES=HP
##CAS NAME=7-Acetyldeoxynivalenol
##MOLFORM=C17H22O7
##CAS REGISTRY NO=54996-64-4
##MP= -300
##BP= -300
##MW= 338
##$RETENTION INDEX=0
##$CONDENSED SPECTRUM=NO
##NPOINTS= 41
##XYDATA=(XY..XY) 1 
    53        584
    55        866
    67        515
    69        628
    77        654
    79        885
    91        560
    97        463
    98        999
   107        570
   108        477
   109        402
   121        274
   125        258
   135        357
   136        404
   137        496
   145        120
   151        312
   161        113
   163        299
   175        172
   181        171
   189         86
   201         65
   203        179
   217         41
   219         38
   231        190
   232         29
   249        406
   250         97
   260         36
   265         87
   278         96
   279         16
   290          2
   296          5
   308          2
   338         28
   339          4