##TITLE=Library Entry 27796
##JCAMP-DX=Revision 4.10 
##DATA TYPE=MASS SPECTRUM
##SAMPLE DESCRIPTION=NIST Mass Spectrometry Data Center, 1998.
##NAMES=HP
##CAS NAME=Ethanamine, 2-hydrazino-N,N-dimethyl-2-oxo-
##MOLFORM=C4H11N3O
##CAS REGISTRY NO=55-85-6
##MP= -300
##BP= -300
##MW= 117
##$RETENTION INDEX=0
##$CONDENSED SPECTRUM=NO
##NPOINTS= 39
##XYDATA=(XY..XY) 1 
    14          3
    15         20
    16          2
    26          2
    27         10
    28         28
    29         37
    30        105
    31         39
    32         15
    33          1
    38          1
    39          3
    40         15
    41         33
    42        247
    43         70
    44        107
    45         19
    46          4
    53          1
    54          2
    55          3
    56         27
    57         37
    58        999
    59         61
    71          2
    72          5
    73          2
    74          2
    78          1
    83          1
    84          1
    85          1
    99          1
   100          1
   117         29
   118          2