##TITLE=Library Entry 83132
##JCAMP-DX=Revision 4.10 
##DATA TYPE=MASS SPECTRUM
##SAMPLE DESCRIPTION=Japan AIST/NIMC Database- Spectrum MS-IW-4162
##NAMES=HP
##CAS NAME=S,S'-Trimethylene bis(methanethiosulfonate)
##MOLFORM=C5H12O4S4
##CAS REGISTRY NO=55-96-9
##MP= -300
##BP= -300
##MW= 264
##$RETENTION INDEX=0
##$CONDENSED SPECTRUM=NO
##NPOINTS= 79
##XYDATA=(XY..XY) 1 
    14          1
    15         31
    16          1
    26          1
    27          8
    28          9
    29          2
    32          2
    33          1
    34          2
    35          3
    38          1
    39         16
    40          2
    41        113
    42          9
    43          4
    44          9
    45         68
    46         30
    47         26
    48          9
    49          2
    55          1
    57          2
    58          9
    59         36
    60         17
    61         27
    62          2
    63         31
    64         64
    65         32
    66          6
    67          1
    69          1
    71         10
    72         21
    73         74
    74         10
    75          5
    76          2
    77          8
    78         29
    79         58
    80         17
    81          9
    82          1
    83          1
    85          1
    87          1
    89          1
    91          1
    93          3
    95          3
    96          2
    97          1
   103          4
   104          2
   105         83
   106        999
   107         59
   108         95
   109          4
   110          2
   120          1
   121          1
   123          1
   125          9
   138          1
   139          3
   149          1
   153          5
   180          2
   185        228
   186         15
   187         31
   188          1
   189          1