##TITLE=Library Entry 75079
##JCAMP-DX=Revision 4.10 
##DATA TYPE=MASS SPECTRUM
##SAMPLE DESCRIPTION=VERIFIN - Methodology B4-1983
##NAMES=HP
##CAS NAME=Isoflurophate
##MOLFORM=C6H14FO3P
##CAS REGISTRY NO=55-91-4
##MP= -300
##BP= -300
##MW= 184
##$RETENTION INDEX=927
##$CONDENSED SPECTRUM=NO
##NPOINTS= 9
##XYDATA=(XY..XY) 1 
    39         30
    41         60
    42         30
    43         50
    69         20
   101        999
   127        830
   141          2
   169          5