##TITLE=Library Entry 1396
##JCAMP-DX=Revision 4.10 
##DATA TYPE=MASS SPECTRUM
##SAMPLE DESCRIPTION=Japan AIST/NIMC Database- Spectrum MS-NW- 637
##NAMES=HP
##CAS NAME=Picrolonic acid
##MOLFORM=C10H8N4O5
##CAS REGISTRY NO=550-74-3
##MP= -300
##BP= -300
##MW= 264
##$RETENTION INDEX=0
##$CONDENSED SPECTRUM=NO
##NPOINTS= 162
##XYDATA=(XY..XY) 1 
    12          2
    13          1
    14          9
    15         15
    16          9
    17          3
    18          9
    25          3
    26         35
    27         51
    28         73
    29          9
    30        999
    31          4
    32          3
    36          1
    37         49
    38         81
    39        262
    40         41
    41         54
    42         39
    43         77
    44         34
    45          2
    46         23
    47          3
    48          1
    49          6
    50        129
    51         79
    52         77
    53         23
    54         12
    55         11
    56          2
    57          2
    60          3
    61         26
    62        103
    63        415
    64        169
    65         14
    66          5
    67         65
    68          8
    69          2
    70          4
    71          1
    73          6
    74         37
    75         77
    76         75
    77         21
    78         60
    79         17
    80        118
    81          7
    82          1
    83         51
    84          3
    85          1
    86          2
    87          7
    88         24
    89        152
    90        683
    91         55
    92         23
    93          3
    94          3
    95          1
    96          1
    97          1
   101          2
   102         12
   103          5
   104          7
   105         14
   106         60
   107          7
   108          2
   109          3
   115          2
   116          3
   117          4
   118         27
   119          9
   120         15
   121          2
   122         61
   123          6
   128          1
   129          3
   130          3
   131         50
   132          6
   133          2
   134         53
   135          9
   136        615
   137         46
   138          5
   139          1
   143          1
   144          5
   145          4
   146          1
   147         15
   148          9
   149          2
   150         23
   151          3
   156          1
   157          2
   158          1
   159          1
   160          4
   161         17
   162          2
   163          1
   164         20
   165          3
   172          1
   173          2
   174          2
   175          1
   176          4
   177        866
   178         86
   179          9
   180          1
   185          1
   186          1
   187          1
   188          1
   189          1
   190          1
   201          1
   202          3
   203         11
   204         22
   205          4
   216          2
   217          5
   218          3
   219          9
   220          2
   230          1
   231          3
   232         89
   233        315
   234         39
   235          6
   245          1
   246          1
   247          9
   248         72
   249          9
   250          1
   264         34
   265          4