##TITLE=Library Entry 17693
##JCAMP-DX=Revision 4.10 
##DATA TYPE=MASS SPECTRUM
##SAMPLE DESCRIPTION=NIST Mass Spectrometry Data Center, 1994
##NAMES=HP
##CAS NAME=Methyl 3-(4-chlorophenylthio)-2-methylpropionate
##MOLFORM=C11H13ClO2S
##CAS REGISTRY NO=55009-84-2
##MP= -300
##BP= -300
##MW= 244
##$RETENTION INDEX=0
##$CONDENSED SPECTRUM=NO
##NPOINTS= 125
##XYDATA=(XY..XY) 1 
    15        696
    16         14
    26         32
    27        167
    28         34
    29        161
    30         24
    31         44
    33          7
    36          7
    37         15
    38         59
    39        401
    40         65
    41        560
    42        145
    43         52
    44          7
    45        999
    46         52
    47         65
    49         17
    50        131
    51         89
    52          8
    53         13
    54          8
    55         54
    56         11
    57         35
    58         71
    59        659
    60         28
    61         29
    62         45
    63        188
    64         19
    65         43
    69        271
    70         16
    71         38
    72         39
    73        279
    74         97
    75        246
    76         39
    77         75
    78         26
    79         19
    80         16
    81         38
    82        102
    83         15
    84         17
    85         38
    86          9
    87         26
    88          7
    89         17
    91         14
    93         20
    97          9
    99        161
   100         41
   101        293
   102         29
   103         14
   105         13
   106         14
   107         69
   108        583
   109        144
   110         41
   111         50
   112         27
   113         23
   114          9
   115         22
   116         16
   117         10
   118          7
   121         65
   122         47
   123         15
   124          7
   125         21
   127          9
   131          5
   133          8
   134         26
   135         24
   139         16
   143        367
   144        252
   145        157
   146         97
   147         24
   148         18
   149         74
   150         78
   151         16
   155         13
   157        987
   158        108
   159        372
   160         36
   161         18
   169          9
   171          7
   183         22
   184        190
   185        162
   186         89
   187         67
   188          9
   197         10
   199          6
   213         29
   214          6
   215         11
   244        531
   245         78
   246        182
   247         28
   248         11