##TITLE=Library Entry 13142
##JCAMP-DX=Revision 4.10 
##DATA TYPE=MASS SPECTRUM
##SAMPLE DESCRIPTION=Exported from NIST MS Search
##NAMES=HP
##CAS NAME=.alpha.-d-Arabinopyranose, 2-deoxy-2-fluoro-, triacetate
##MOLFORM=C11H15FO7
##CAS REGISTRY NO=55000-57-2
##MP= -300
##BP= -300
##MW= 278
##$RETENTION INDEX=0
##$CONDENSED SPECTRUM=NO
##NPOINTS= 64
##XYDATA=(XY..XY) 1 
    41          6
    42         18
    43        999
    44         24
    45          6
    46          1
    51          2
    55          5
    57          3
    59          2
    60          7
    61          1
    68          7
    69          7
    71          8
    72          7
    73          8
    75          8
    82          2
    84          1
    85          5
    86         12
    87          4
    88         70
    89         12
    96          6
    97          7
    98          2
    99         29
   100          3
   102         13
   103         50
   104          4
   105          1
   113          5
   114          8
   115         12
   116         18
   117         70
   118          5
   126          2
   128          4
   130         28
   131         80
   132         12
   133          2
   145         35
   146          5
   147          3
   156          8
   157          5
   158         12
   159          6
   163          7
   170          4
   175          1
   176        185
   177         15
   178          2
   205          7
   215          6
   219         50
   220          5
   235          2