##TITLE=Library Entry 11713
##JCAMP-DX=Revision 4.10 
##DATA TYPE=MASS SPECTRUM
##SAMPLE DESCRIPTION=C.M.WILLIAMS VETERANS ADMIN. HOSP., GAINESVILLE, FLORID
A, USA
##NAMES=HP
##CAS NAME=Benzeneacetic acid, .alpha.,3-bis(acetyloxy)-, methyl ester
##MOLFORM=C13H14O6
##CAS REGISTRY NO=55000-32-3
##MP= -300
##BP= -300
##MW= 266
##$RETENTION INDEX=0
##$CONDENSED SPECTRUM=NO
##NPOINTS= 74
##XYDATA=(XY..XY) 1 
    14         28
    15        247
    16         17
    17        178
    27         28
    28        114
    29         34
    30          5
    31         14
    32         56
    38         23
    39         74
    40         14
    41         40
    42         40
    43        999
    44         57
    45         34
    50         28
    51          5
    52         14
    55         23
    56         14
    57         11
    58          8
    59         57
    60         17
    61          5
    62         11
    63         28
    64         20
    65         63
    66         23
    67         25
    77         69
    78         25
    79         23
    80          8
    81         17
    92         11
    93         56
    94         25
    95         80
   105         25
   106         11
   107         20
   121        172
   122        120
   123        609
   124         57
   134         23
   135          8
   136          8
   137         34
   149         11
   150         34
   163         17
   164         11
   165        275
   166         34
   181         25
   182        258
   183         34
   192        132
   193         17
   207         57
   208          8
   224        189
   225         28
   234         20
   235          5
   266         40
   267          5
   268          2