##TITLE=Library Entry 25398
##JCAMP-DX=Revision 4.10 
##DATA TYPE=MASS SPECTRUM
##SAMPLE DESCRIPTION=E.D.MCCARTHY CALIFORNIA UNIV., BERKELEY, U.S.A
##NAMES=HP
##CAS NAME=Hexadecane, 2,6,10-trimethyl-
##MOLFORM=C19H40
##CAS REGISTRY NO=55000-52-7
##MP= -300
##BP= -300
##MW= 268
##$RETENTION INDEX=1727
##$CONDENSED SPECTRUM=NO
##NPOINTS= 72
##XYDATA=(XY..XY) 1 
    41        200
    42         63
    43        509
    44         18
    53         12
    54          9
    55        181
    56        187
    57        999
    58         41
    67         18
    68         14
    69        112
    70        101
    71        781
    72         41
    79          3
    81         14
    82         12
    83         60
    84         58
    85        278
    86         20
    95         12
    96         16
    97         58
    98         20
    99         83
   100          7
   109          7
   110          9
   111         36
   112        243
   113        181
   114         14
   123          5
   124          3
   125          9
   126         40
   127         61
   128          5
   137          3
   139          3
   140          5
   141         27
   142          3
   151          3
   152          3
   153          3
   154         23
   155         41
   156          5
   168          3
   169          7
   182         70
   183        214
   184         30
   185          3
   196          3
   197          9
   210          1
   211          5
   224          5
   225         10
   238          5
   239         14
   240          1
   252          3
   253         25
   254          3
   268         14
   269          3