##TITLE=Library Entry 63693
##JCAMP-DX=Revision 4.10 
##DATA TYPE=MASS SPECTRUM
##SAMPLE DESCRIPTION=Chemical Concepts
##NAMES=HP
##CAS NAME=4-Oxaheptamethylene bis(p-toluenesulfonate)
##MOLFORM=C20H26O7S2
##CAS REGISTRY NO=55005-96-4
##MP= -300
##BP= -300
##MW= 442
##$RETENTION INDEX=0
##$CONDENSED SPECTRUM=NO
##NPOINTS= 142
##XYDATA=(XY..XY) 1 
    34          1
    36          1
    37          1
    38          5
    39         61
    40         12
    41        207
    42         49
    43         32
    44          9
    45         23
    46          2
    47          1
    48          6
    50          9
    51         21
    52          8
    53          7
    54          5
    55         23
    56        105
    57        117
    58         38
    59         45
    60          3
    61          2
    62          7
    63         33
    64         21
    65        201
    66         12
    67          7
    68          4
    69         30
    70         21
    71         56
    72          3
    73         20
    74          3
    75          4
    76          3
    77         39
    78         11
    79         26
    80          9
    81          3
    82          1
    83         23
    84          4
    85          5
    86          5
    87         22
    89         66
    90         89
    91        999
    92        121
    93         11
    94          1
    95          2
    96          1
    97         33
    98         81
    99         23
   100          2
   101          1
   103          1
   104          2
   105          9
   106          4
   107         55
   108         27
   109          5
   110          1
   111          3
   113          2
   114          1
   115         18
   116          3
   117          6
   118          3
   119          2
   120          3
   121          3
   122          1
   123          3
   124          6
   125          1
   128          1
   129          1
   130          1
   131          7
   132          2
   133          6
   134          1
   138          1
   139         19
   140          4
   141          2
   147          2
   148          3
   149          1
   152          1
   153          1
   154         15
   155        650
   156         60
   157         39
   158          3
   159          1
   165          3
   166          1
   167          1
   169          1
   171         10
   172         69
   173         62
   174          9
   175          3
   178          1
   181          1
   182          1
   185          7
   186          1
   212        102
   213        704
   214         87
   215         38
   216          4
   227          1
   229          1
   231          3
   242          1
   243          2
   262          1
   270         47
   271         23
   272          5
   273          1
   384          1
   442         10
   443          2
   444          1