##TITLE=Library Entry 2168
##JCAMP-DX=Revision 4.10 
##DATA TYPE=MASS SPECTRUM
##SAMPLE DESCRIPTION=RADIAN CORP
##NAMES=HP
##CAS NAME=Cyclopropanecarbonitrile
##MOLFORM=C4H5N
##CAS REGISTRY NO=5500-21-0
##MP= -300
##BP= -300
##MW= 67
##$RETENTION INDEX=645
##$CONDENSED SPECTRUM=NO
##NPOINTS= 31
##XYDATA=(XY..XY) 1 
    12          2
    13          3
    14         10
    15          9
    24          3
    25         14
    26         75
    27        182
    28         57
    32          7
    36         15
    37        106
    38        152
    39        397
    40        224
    41        999
    42         30
    44          2
    48          2
    49          7
    50         18
    51         64
    52        149
    53          7
    62         18
    63         42
    64        113
    65         33
    66        232
    67        283
    68         15