##TITLE=Library Entry 100196
##JCAMP-DX=Revision 4.10 
##DATA TYPE=MASS SPECTRUM
##SAMPLE DESCRIPTION=Exported from NIST MS Search
##NAMES=HP
##CAS NAME=Benzoic acid, 2,5-dimethyl-, (2,4-dimethylphenyl)methyl ester
##MOLFORM=C18H20O2
##CAS REGISTRY NO=55000-48-1
##MP= -300
##BP= -300
##MW= 268
##$RETENTION INDEX=0
##$CONDENSED SPECTRUM=NO
##NPOINTS= 101
##XYDATA=(XY..XY) 1 
    69          1
    70          2
    71          1
    73          1
    74          3
    75          5
    76          6
    77         90
    78         34
    79         47
    80          3
    81          1
    83          1
    84          1
    85          1
    86          1
    87          1
    88          1
    89          9
    90          5
    91         79
    92          9
    93          7
    94          1
    98          1
   101          2
   102          9
   103         55
   104         44
   105         82
   106         10
   107          5
   108          1
   112          1
   113          1
   114          1
   115         17
   116          9
   117         44
   118        458
   119        999
   120         99
   121          5
   122          1
   129          1
   130          1
   131          1
   132         11
   133        201
   134         26
   135         13
   136          1
   141          1
   147          1
   148          1
   149         13
   150          5
   151          1
   152          2
   153          2
   154          1
   155          1
   162          3
   163          1
   165          1
   167          2
   168          1
   178          1
   179          1
   180          1
   181          1
   191          1
   192          1
   193          1
   194          2
   195          1
   206          1
   207          1
   208          1
   209          9
   210          2
   221          1
   222          1
   223          5
   224          1
   233          1
   234          1
   235          2
   236          1
   237          1
   238          1
   250          4
   251          1
   252          1
   253          3
   254          1
   266          1
   267          1
   268         27
   269          6
   270          1