##TITLE=Library Entry 66746
##JCAMP-DX=Revision 4.10 
##DATA TYPE=MASS SPECTRUM
##SAMPLE DESCRIPTION=M. IKEDA
##NAMES=HP
##CAS NAME=Pyridinium, 1-[[(4-chlorophenyl)sulfonyl]amino]-, hydroxide, inne
r salt
##MOLFORM=C11H9ClN2O2S
##CAS REGISTRY NO=55000-35-6
##MP= -300
##BP= -300
##MW= 268
##$RETENTION INDEX=0
##$CONDENSED SPECTRUM=NO
##NPOINTS= 101
##XYDATA=(XY..XY) 1 
    41         40
    42         70
    44         40
    50        280
    51        300
    52        370
    53         70
    61         50
    62         80
    63        270
    64        150
    65        260
    66        760
    67         80
    73         40
    74        110
    75        460
    76        100
    77         40
    78        110
    79        740
    80        690
    81         50
    85         60
    87         30
    89         50
    90        200
    91         40
    92         20
    93        999
    94        110
    95         20
    96         20
    98         30
    99         30
   100         20
   101         20
   102         50
   103         20
   105         20
   107         20
   108         30
   109         20
   110         20
   111        310
   112         50
   113        110
   114         30
   115         40
   116         20
   117         20
   124         20
   125        680
   126         60
   127        250
   128         60
   129         20
   130         30
   131         30
   133         20
   138         20
   139         20
   140         20
   141        230
   142         30
   143         20
   144         20
   149         30
   150         20
   151         20
   152         20
   154         20
   155         20
   157        150
   158         20
   159         40
   160         20
   161         20
   162         20
   167         30
   168        100
   169        230
   170         40
   175         60
   176         20
   177         20
   189         20
   191         50
   193         20
   202         20
   203        140
   204        860
   205        140
   206        250
   207         30
   267         90
   268        590
   269        120
   270        220
   271         40
   272         20