##TITLE=Library Entry 20445
##JCAMP-DX=Revision 4.10 
##DATA TYPE=MASS SPECTRUM
##SAMPLE DESCRIPTION=Exported from NIST MS Search
##NAMES=HP
##CAS NAME=11-Hexadecenoic acid, methyl ester
##MOLFORM=C17H32O2
##CAS REGISTRY NO=55000-42-5
##MP= -300
##BP= -300
##MW= 268
##$RETENTION INDEX=1886
##$CONDENSED SPECTRUM=NO
##NPOINTS= 142
##XYDATA=(XY..XY) 1 
    15         59
    17         14
    18         17
    26         10
    27         65
    28         45
    29        161
    30         14
    31         17
    32          7
    39         91
    40          7
    41        595
    42        122
    43        315
    44         21
    45         35
    53         56
    54        175
    55        999
    56        248
    57        175
    58         21
    59        175
    60         10
    65         24
    66         17
    67        300
    68        210
    69        600
    70        168
    71         98
    72         21
    73         49
    74        656
    75         98
    77         21
    78         17
    79         66
    80         49
    81        255
    82        217
    83        485
    84        506
    85         88
    87        470
    88         52
    91         25
    92         14
    93         60
    94         70
    95        220
    96        470
    97        480
    98        426
    99         66
   100         14
   101         84
   102         17
   105         21
   106         10
   107         42
   108         49
   109        143
   110        242
   111        224
   112        105
   113         49
   114         56
   115         80
   116         21
   119         49
   120         21
   121         63
   122         31
   123        168
   124        146
   125        136
   126         35
   127         49
   128         73
   129         56
   130         21
   133         42
   134         56
   135         49
   136         31
   137         77
   138        150
   139        105
   140         24
   141        105
   142         24
   143         56
   144         14
   147         21
   148         31
   149         28
   151         77
   152        260
   153         91
   154         28
   155         38
   157         21
   158         10
   161         28
   162         21
   163         21
   164         14
   165         56
   166         60
   167         28
   168         14
   169         17
   171         24
   172         21
   176         14
   177         10
   179         35
   180         28
   181         21
   182         10
   183         14
   185         21
   186         14
   189         14
   192         70
   193         56
   194        224
   195         63
   196         10
   197         14
   218         45
   219         21
   225         21
   236        400
   237        238
   238         52
   239         17
   250         14
   268        175
   269         49