##TITLE=Library Entry 71848
##JCAMP-DX=Revision 4.10 
##DATA TYPE=MASS SPECTRUM
##SAMPLE DESCRIPTION=J.VOTH UNIV. OF CALIFORNIA, DAVIS, CALIFORNIA, 95616, U
SA
##NAMES=HP
##CAS NAME=2(3H)-Furanone, 5-butyldihydro-4-methyl-, cis-
##MOLFORM=C9H16O2
##CAS REGISTRY NO=55013-32-6
##MP= -300
##BP= -300
##MW= 156
##$RETENTION INDEX=1340
##$CONDENSED SPECTRUM=NO
##NPOINTS= 77
##XYDATA=(XY..XY) 1 
    12          1
    15         61
    17          2
    18          7
    19          9
    26         27
    27        331
    28         62
    29        269
    30          7
    31         12
    37          4
    38         13
    39        190
    40         39
    41        370
    42        392
    43        394
    44         61
    45         21
    50         15
    51         22
    52          9
    53         47
    54         21
    55        158
    56         87
    57        116
    58         19
    59          4
    60          2
    61          1
    62          2
    63          4
    65          6
    66          3
    67         18
    68         18
    69        204
    70        126
    71        264
    72         16
    73          4
    74          1
    77          3
    78          1
    79          3
    81         11
    82          3
    83         15
    84          7
    85         45
    86         19
    87        146
    88          9
    91          1
    95          7
    96         33
    97          7
    98          9
    99        999
   100         59
   101          7
   109          1
   110          2
   112          1
   113         12
   114         39
   115          3
   127          3
   128         18
   129          1
   138          7
   141          2
   155          3
   156         13
   157          2