##TITLE=Library Entry 27890
##JCAMP-DX=Revision 4.10 
##DATA TYPE=MASS SPECTRUM
##SAMPLE DESCRIPTION=ORMSBG,9(9)861(1974); BUDZIKIEWICZ
##NAMES=HP
##CAS NAME=1-Propanamine, N,N-dimethyl-3-(methylseleno)-
##MOLFORM=C6H15NSe
##CAS REGISTRY NO=55021-84-6
##MP= -300
##BP= -300
##MW= 181
##$RETENTION INDEX=0
##$CONDENSED SPECTRUM=NO
##NPOINTS= 21
##XYDATA=(XY..XY) 1 
    30         40
    39         30
    41         60
    42        140
    43         20
    44         40
    56         10
    57         20
    58        999
    70         30
    71         10
    72         10
    84         60
    92         30
    94         40
   108         30
   120         10
   122         10
   136         10
   166         40
   181        100