##TITLE=Library Entry 1312
##JCAMP-DX=Revision 4.10 
##DATA TYPE=MASS SPECTRUM
##SAMPLE DESCRIPTION=ORMSBG,9(9)861(1974); BUDZIKIEWICZ
##NAMES=HP
##CAS NAME=1-Butanamine, 4-(methylthio)-
##MOLFORM=C5H13NS
##CAS REGISTRY NO=55021-77-7
##MP= -300
##BP= -300
##MW= 119
##$RETENTION INDEX=0
##$CONDENSED SPECTRUM=NO
##NPOINTS= 28
##XYDATA=(XY..XY) 1 
    30        999
    39         50
    40         10
    41        100
    42         60
    43        210
    44         50
    45        130
    46         20
    47         50
    48         60
    49         40
    55         60
    56         50
    57         30
    58         10
    59         20
    61        210
    70         50
    71         20
    72        250
    73         40
    74         60
    75         40
    87        190
   102         80
   104        130
   119        450