##TITLE=Library Entry 109584
##JCAMP-DX=Revision 4.10 
##DATA TYPE=MASS SPECTRUM
##SAMPLE DESCRIPTION=Humboldt-Universitat zu Berlin, Department of Chemistry
, Analytical Group
##NAMES=HP
##CAS NAME=2-[1-(4-Chlorobenzyl)-1,4-dihydropyridin-4-ylidene]indan-1,3-dion
e
##MOLFORM=C21H14ClNO2
##CAS REGISTRY NO=55022-36-1
##MP= -300
##BP= -300
##MW= 347
##$RETENTION INDEX=0
##$CONDENSED SPECTRUM=NO
##NPOINTS= 106
##XYDATA=(XY..XY) 1 
    17          2
    18          6
    26          1
    27          2
    28          4
    29          1
    36          2
    37          1
    38          4
    39         20
    40          2
    41          2
    43          1
    44          3
    49          1
    50         16
    51         15
    52          3
    53          1
    61          1
    62         10
    63         45
    64          8
    65          9
    66          1
    70          2
    73          8
    74          8
    75         18
    76         28
    77         11
    78          4
    79          1
    83          1
    85          1
    86          4
    87          8
    88          6
    89        133
    90         47
    91          6
    97          1
    98          2
    99         49
   100          4
   101         17
   102          2
   104          5
   105          3
   106          1
   111          3
   112          2
   113         12
   114          3
   115          2
   116          1
   123          2
   125        999
   126         82
   127        328
   128         26
   129          1
   137          7
   138         11
   139         52
   140         17
   141          2
   149          1
   150          5
   151          4
   152          3
   153          1
   164          6
   165          4
   166         32
   167          7
   168          1
   176          1
   177          1
   178          1
   179          0
   194          3
   195          1
   207          1
   222         14
   223          4
   224          1
   226          0
   227          0
   241          0
   251          0
   252          0
   253          1
   254          1
   255          0
   282          0
   288          0
   311          0
   312          1
   313          0
   345          0
   347         46
   348         11
   349         15
   350          3
   351          0