##TITLE=Library Entry 72533
##JCAMP-DX=Revision 4.10 
##DATA TYPE=MASS SPECTRUM
##SAMPLE DESCRIPTION=Exported from NIST MS Search
##NAMES=HP
##CAS NAME=Spirostan-3-one, cyclic 1,2-ethanediyl acetal, (5.alpha.,20.beta.
,25R)-
##MOLFORM=C29H46O4
##CAS REGISTRY NO=55028-81-4
##MP= -300
##BP= -300
##MW= 458
##$RETENTION INDEX=0
##$CONDENSED SPECTRUM=NO
##NPOINTS= 102
##XYDATA=(XY..XY) 1 
    41         80
    42         50
    43         80
    45         20
    53         30
    55        170
    56         30
    57         50
    67         70
    68         20
    69        200
    70         40
    71         20
    73         20
    77         20
    79         70
    81         90
    82         10
    83         30
    86         60
    87         20
    91         50
    92         10
    93         70
    94         10
    95         60
    96         10
    97         40
    99        999
   100        120
   101         30
   105         60
   106         10
   107         60
   108         10
   109         40
   110         10
   111         10
   112         70
   113         10
   115         60
   117         10
   119         40
   120         10
   121         50
   122         40
   123         30
   124         10
   125        400
   126         80
   127         10
   131         10
   133         20
   135         10
   138         10
   139        960
   140        130
   141         10
   143         10
   145         30
   147         30
   157         10
   159         10
   161         40
   167         10
   168         50
   201         10
   213         10
   215         50
   253         10
   256         10
   267         20
   271         10
   275         10
   276         30
   282         30
   283         20
   287         20
   289         20
   315        180
   316         60
   317         10
   327         10
   329         80
   330         20
   344        380
   345        120
   346         20
   359         10
   386        110
   387         40
   388         40
   389         80
   390         30
   399         40
   400         10
   401         10
   428         30
   443         30
   458        120
   459         50
   460         20