##TITLE=Library Entry 30768
##JCAMP-DX=Revision 4.10 
##DATA TYPE=MASS SPECTRUM
##SAMPLE DESCRIPTION=TAT 0306
##NAMES=HP
##CAS NAME=Morphinan, 6,7-didehydro-3-methoxy-17-methyl-, (14.alpha.)-
##MOLFORM=C18H23NO
##CAS REGISTRY NO=55028-44-9
##MP= -300
##BP= -300
##MW= 269
##$RETENTION INDEX=0
##$CONDENSED SPECTRUM=NO
##NPOINTS= 56
##XYDATA=(XY..XY) 1 
    58         70
    59        999
    60        150
    61         30
    70         80
    71         10
    77         60
    78         10
    82         80
    83         10
    91         60
    92         10
    94         70
    95         20
    96         60
    97         10
   105         60
   106         10
   115         80
   116         20
   121         40
   122         50
   123         10
   128         70
   129         60
   130         10
   141         50
   147         70
   148        340
   149         40
   150         10
   158         70
   159         10
   165         60
   171         60
   172         60
   173         10
   174         50
   179         50
   203        220
   204         30
   210        100
   211         80
   212         70
   213         20
   214         60
   215         10
   226         70
   227         10
   254        160
   255         20
   267         20
   268        210
   269        810
   270        180
   271         20