##TITLE=Library Entry 29145
##JCAMP-DX=Revision 4.10 
##DATA TYPE=MASS SPECTRUM
##SAMPLE DESCRIPTION=R. I. REED UNIVERSITY OF GLASGOW
##NAMES=HP
##CAS NAME=1H-Indol-2-ol, 3-[2-(dimethylamino)ethyl]-5-ethoxy-2,3-dihydro-1,
3-dimethyl-
##MOLFORM=C16H26N2O2
##CAS REGISTRY NO=55028-69-8
##MP= -300
##BP= -300
##MW= 278
##$RETENTION INDEX=0
##$CONDENSED SPECTRUM=NO
##NPOINTS= 196
##XYDATA=(XY..XY) 1 
    42        126
    43         10
    44        125
    45        238
    46         19
    54         13
    55         25
    56         67
    57         29
    58        999
    59         80
    62          3
    63         14
    65         17
    66         10
    67         15
    68         11
    69         16
    70         42
    71         80
    72        140
    73         55
    74          9
    75          2
    76          3
    77         64
    78         12
    79         25
    80         18
    81         34
    82         17
    83         29
    84         31
    85          6
    87          4
    88          4
    89         20
    90         15
    91         50
    92          4
    93         15
    94         18
    95         37
    96         11
    97         25
    98         11
    99         15
   100          2
   101          4
   102          7
   103         23
   104         14
   105         23
   106         15
   107         23
   108         26
   109         40
   110          6
   111         27
   112         15
   113          2
   115         21
   116         25
   117         51
   118         30
   119         20
   120         19
   121         14
   122         14
   123         13
   124         16
   125         18
   126          1
   127          9
   128         16
   129         22
   130         57
   131         52
   132        157
   133         56
   134         38
   135         29
   136          9
   137         20
   139         23
   141         15
   142         17
   143         25
   144         50
   145         52
   146         64
   147         59
   148         70
   149         49
   150         37
   151         26
   152         16
   153          9
   154          7
   155          7
   156         17
   157         29
   158         23
   159         53
   160        405
   161        151
   162         80
   163         42
   164         19
   165         19
   166          8
   167          8
   168          7
   169          9
   170          9
   171         12
   172         23
   173         38
   174         80
   175         40
   176        130
   177         68
   178         76
   179         60
   180         16
   181          6
   182          5
   183          3
   184          7
   185         35
   186         35
   187         28
   188        100
   189        337
   190        170
   191         53
   192         25
   193         12
   194          2
   195          2
   199         13
   200         12
   201         30
   202        125
   203         48
   204         82
   205        235
   206         86
   207         63
   208         14
   209          2
   212          2
   213          4
   214          5
   215         24
   216         70
   217         47
   218         22
   219         12
   220         28
   221          9
   229          9
   230         32
   231         37
   232         30
   233         17
   234          7
   235          2
   236          2
   242          3
   243          7
   244         17
   245        359
   246        116
   247         17
   248          7
   249          9
   250         79
   251         23
   252          4
   253          1
   257          2
   258          7
   259         28
   260        208
   261         69
   262         22
   263         17
   264          7
   265          1
   275          2
   276         13
   277         54
   278        279
   279         74
   280          1