##TITLE=Library Entry 28828
##JCAMP-DX=Revision 4.10 
##DATA TYPE=MASS SPECTRUM
##SAMPLE DESCRIPTION=ORMSBG,9(9)861(1974); BUDZIKIEWICZ
##NAMES=HP
##CAS NAME=1-Butanamine, N,N-dimethyl-4-(methylseleno)-
##MOLFORM=C7H17NSe
##CAS REGISTRY NO=55021-85-7
##MP= -300
##BP= -300
##MW= 195
##$RETENTION INDEX=0
##$CONDENSED SPECTRUM=NO
##NPOINTS= 27
##XYDATA=(XY..XY) 1 
    30         30
    39         20
    41         30
    42         90
    43         20
    44         30
    45         10
    46         10
    53         10
    55         40
    56         30
    57         10
    58        999
    70         10
    71         30
    72         20
    84         20
    92         10
    94         30
    98         20
   100        150
   108         40
   122         10
   134         20
   152         10
   180         20
   195         90