##TITLE=Library Entry 68068
##JCAMP-DX=Revision 4.10 
##DATA TYPE=MASS SPECTRUM
##SAMPLE DESCRIPTION=CONTINENTAL OIL CO., PONCA CITY, OKLA, USA
##NAMES=HP
##CAS NAME=Cyclohexene, 1-methyl-4-(1-methylethyl)-
##MOLFORM=C10H18
##CAS REGISTRY NO=5502-88-5
##MP= -300
##BP= -300
##MW= 138
##$RETENTION INDEX=1025
##$CONDENSED SPECTRUM=NO
##NPOINTS= 98
##XYDATA=(XY..XY) 1 
    14         10
    15         79
    16          2
    25          1
    26         20
    27        353
    28         89
    29        161
    30          4
    36          0
    37          5
    38         19
    39        312
    40         70
    41        450
    42         51
    43        119
    44          6
    47          1
    48          2
    49          4
    50         19
    51         65
    52         35
    53        191
    54         39
    55        306
    56         28
    57         25
    58          4
    59          2
    60          2
    61          2
    62          5
    63         19
    64          7
    65         58
    66         60
    67        488
    68        605
    69        187
    70         40
    71          5
    73          2
    74          3
    75          5
    76          4
    77        110
    78         30
    79        150
    80         47
    81        311
    82        170
    83         51
    84          7
    85          1
    87          2
    88          3
    89          6
    90          0
    91         73
    92         13
    93         58
    94        101
    95        999
    96        161
    97         13
    98          2
   102          1
   103          3
   104          1
   105          8
   106          1
   107          6
   108          2
   109         33
   110         13
   111          1
   112          1
   115          2
   117          1
   118          0
   119          3
   120          0
   121          4
   122          1
   123        137
   124         14
   125          0
   129          0
   133          0
   134          1
   135          0
   136          1
   137          3
   138        272
   139         30
   140          1