##TITLE=Library Entry 8563
##JCAMP-DX=Revision 4.10 
##DATA TYPE=MASS SPECTRUM
##SAMPLE DESCRIPTION=F.G.JIMENZ INSTITUTO DE QUIMICA, CUIDAD UNIV., PISO, ME
XICO.
##NAMES=HP
##CAS NAME=4H-Pyran-4-one, 3,5-diacetyltetrahydro-2,6-dimethyl-
##MOLFORM=C11H16O4
##CAS REGISTRY NO=55030-66-5
##MP= -300
##BP= -300
##MW= 212
##$RETENTION INDEX=0
##$CONDENSED SPECTRUM=NO
##NPOINTS= 18
##XYDATA=(XY..XY) 1 
    27         50
    28         60
    29        145
    39        125
    41        180
    42         60
    43        999
    44        140
    69        315
    84         75
    85        230
   111         85
   125         50
   135         30
   153         30
   169         35
   212         30
   213          0