##TITLE=Library Entry 34090
##JCAMP-DX=Revision 4.10 
##DATA TYPE=MASS SPECTRUM
##SAMPLE DESCRIPTION=Exported from NIST MS Search
##NAMES=HP
##CAS NAME=2-Butenoic acid, 2-propenylidene ester
##MOLFORM=C11H14O4
##CAS REGISTRY NO=55030-70-1
##MP= -300
##BP= -300
##MW= 210
##$RETENTION INDEX=0
##$CONDENSED SPECTRUM=NO
##NPOINTS= 33
##XYDATA=(XY..XY) 1 
    15          8
    25          5
    26         32
    27         69
    28         50
    29         29
    37         14
    38         23
    39        164
    40         40
    41        232
    42         23
    43         10
    44          8
    45         37
    53          8
    55         49
    56         45
    57          8
    68         65
    69        999
    70         47
    71         16
    75          4
    85          6
    86        104
    87          8
   125          5
   126         36
   138          6
   141         19
   210          1
   211          1