##TITLE=Library Entry 20718
##JCAMP-DX=Revision 4.10 
##DATA TYPE=MASS SPECTRUM
##SAMPLE DESCRIPTION=Exported from NIST MS Search
##NAMES=HP
##CAS NAME=Cyclohexane, 1,1'-hexylidenebis-
##MOLFORM=C18H34
##CAS REGISTRY NO=55030-20-1
##MP= -300
##BP= -300
##MW= 250
##$RETENTION INDEX=0
##$CONDENSED SPECTRUM=NO
##NPOINTS= 156
##XYDATA=(XY..XY) 1 
    36          1
    37          2
    38          3
    39        140
    40         26
    41        874
    42         73
    43        291
    44         10
    45          1
    46          1
    47          1
    48          1
    49          1
    50          3
    51          9
    52          8
    53         88
    54        188
    55        999
    56         82
    57        149
    58          7
    59          1
    60          1
    61          1
    62          1
    63          2
    64          1
    65         21
    66         19
    67        335
    68         82
    69        411
    70         35
    71         87
    72          5
    73          1
    74          1
    75          1
    76          1
    77         29
    78          9
    79         54
    80         22
    81        199
    82        372
    83        927
    84         72
    85        121
    86          8
    87          1
    88          1
    89          1
    90          1
    91         16
    92          3
    93         14
    94          6
    95         82
    96        326
    97        721
    98         57
    99          8
   100          1
   101          1
   102          1
   103          1
   104          1
   105          3
   106          1
   107          4
   108          6
   109        112
   110         35
   111        344
   112         32
   113          2
   114          1
   115          1
   116          1
   117          1
   118          1
   119          1
   120          1
   121          2
   122          2
   123         21
   124         28
   125         76
   126          8
   127          1
   128          1
   129          1
   130          1
   131          1
   132          1
   133          1
   134          1
   135          2
   136          1
   137         10
   138         15
   139          4
   140          1
   141          1
   142          1
   143          1
   144          1
   145          1
   146          1
   147          1
   148          1
   149          1
   150          1
   151          1
   152          2
   153          3
   154          1
   155          1
   156          1
   157          1
   158          1
   159          1
   160          1
   161          1
   162          1
   163          1
   164          1
   165          4
   166        439
   167        295
   168         37
   169          3
   170          1
   171          1
   177          1
   178         10
   179         53
   180          8
   181          1
   182          1
   183          1
   191          1
   192          1
   193          3
   194          1
   206          1
   207          1
   208          1
   248          1
   249          1
   250          6
   251          1
   252          1
   253          1