##TITLE=Library Entry 98322
##JCAMP-DX=Revision 4.10 
##DATA TYPE=MASS SPECTRUM
##SAMPLE DESCRIPTION=Exported from NIST MS Search
##NAMES=HP
##CAS NAME=Benzene, (1-hexyl-1-heptenyl)-
##MOLFORM=C19H30
##CAS REGISTRY NO=55030-46-1
##MP= -300
##BP= -300
##MW= 258
##$RETENTION INDEX=0
##$CONDENSED SPECTRUM=NO
##NPOINTS= 143
##XYDATA=(XY..XY) 1 
    38          3
    39         86
    40         10
    41        276
    42         23
    43        185
    44          7
    45          1
    50          5
    51         23
    52          7
    53         10
    54          5
    55         97
    56          8
    57         22
    58          1
    62          2
    63         10
    64          3
    65         25
    66          5
    67         27
    68          5
    69         55
    70          4
    71          5
    72          1
    74          1
    75          3
    76          6
    77         55
    78         21
    79         15
    81         25
    82          3
    83         12
    84          1
    85          3
    86          1
    87          2
    88          1
    89          8
    90          3
    91        499
    92         39
    93          3
    94          1
    95         24
    96          3
    97          7
    98          1
    99          4
   101          2
   102         19
   103         50
   104         26
   105         96
   106         12
   107          1
   108          1
   109          7
   111          1
   112          1
   113          3
   115        144
   116         48
   117        543
   118        999
   119        114
   120          8
   121          1
   123          2
   125          1
   126          1
   127         23
   128         82
   129        131
   130         45
   131        197
   132         29
   133          5
   134          1
   135          1
   139          2
   140          1
   141         16
   142         10
   143         33
   144         14
   145         31
   146          5
   147          2
   151          1
   152          2
   153          3
   154          2
   155          4
   156          2
   157          5
   158          3
   159          5
   160          1
   161          1
   165          1
   166          1
   167          1
   169          1
   170          1
   171          3
   172          2
   173        229
   174         37
   175          5
   176          2
   177          1
   179          1
   181          1
   183          1
   184          1
   185          1
   186          1
   187          3
   188         57
   189          9
   190          2
   191          3
   192          1
   201         26
   202          2
   203          1
   213          2
   214          1
   215          2
   216          1
   228          1
   230          1
   248          1
   256          2
   257          3
   258        114
   259         23
   260          2