##TITLE=Library Entry 20724
##JCAMP-DX=Revision 4.10 
##DATA TYPE=MASS SPECTRUM
##SAMPLE DESCRIPTION=Exported from NIST MS Search
##NAMES=HP
##CAS NAME=Cyclohexane, 1,1'-(2-propyl-1,3-propanediyl)bis-
##MOLFORM=C18H34
##CAS REGISTRY NO=55030-21-2
##MP= -300
##BP= -300
##MW= 250
##$RETENTION INDEX=0
##$CONDENSED SPECTRUM=NO
##NPOINTS= 144
##XYDATA=(XY..XY) 1 
    36          1
    37          2
    38          3
    39        134
    40         26
    41        768
    42         97
    43        205
    44          7
    49          1
    50          2
    51          7
    52          6
    53         78
    54        114
    55        999
    56         77
    57         87
    58          4
    59          1
    60          1
    61          1
    62          1
    63          1
    64          1
    65         15
    66         13
    67        194
    68         50
    69        344
    70         49
    71         89
    72          5
    73          1
    74          1
    75          1
    76          1
    77         17
    78          5
    79         31
    80         13
    81        131
    82        147
    83        903
    84         68
    85         41
    86          3
    87          1
    88          1
    89          1
    90          1
    91          8
    92          2
    93          6
    94          3
    95         54
    96        144
    97        671
    98         54
    99          3
   100          1
   101          1
   102          1
   103          1
   104          1
   105          1
   106          1
   107          2
   108          2
   109         57
   110         21
   111        301
   112         27
   113          1
   114          1
   115          1
   116          1
   117          1
   118          1
   119          1
   120          1
   121          1
   122          1
   123         30
   124         12
   125         87
   126          9
   127          1
   128          1
   129          1
   130          1
   131          1
   132          1
   133          1
   134          1
   135          3
   136          1
   137         20
   138          4
   139          6
   140          1
   141          1
   142          1
   143          1
   144          1
   145          1
   146          1
   147          1
   148          1
   149          1
   150          1
   151         16
   152        147
   153        204
   154         24
   155          2
   156          1
   163          1
   164          1
   165          4
   166         10
   167          9
   168          1
   169          1
   176          1
   177          1
   178          1
   179          2
   180          1
   191          1
   192          1
   193          3
   194          1
   205          1
   206         79
   207        254
   208         42
   209          3
   210          1
   220          1
   221          1
   249          1
   250         11
   251          2