##TITLE=Library Entry 13023
##JCAMP-DX=Revision 4.10 
##DATA TYPE=MASS SPECTRUM
##SAMPLE DESCRIPTION=G.W.A.MILNE NAT. INST. OF HEALTH, MARYLAND, USA
##NAMES=HP
##CAS NAME=1,2-Benzenediol, 3-fluoro-, diacetate
##MOLFORM=C10H9FO4
##CAS REGISTRY NO=55030-67-6
##MP= -300
##BP= -300
##MW= 212
##$RETENTION INDEX=0
##$CONDENSED SPECTRUM=NO
##NPOINTS= 26
##XYDATA=(XY..XY) 1 
    28         40
    39         20
    42         30
    43        999
    44         40
    50         20
    51         50
    52         30
    70         40
    77         20
    80         30
    81         20
    82         20
    99         20
   105         40
   110        310
   111         30
   127         50
   129        110
   152         80
   170        410
   171         40
   182         20
   194         20
   212        140
   213         20