##TITLE=Library Entry 57988
##JCAMP-DX=Revision 4.10 
##DATA TYPE=MASS SPECTRUM
##SAMPLE DESCRIPTION=Exported from NIST MS Search
##NAMES=HP
##CAS NAME=Decanoic acid, 2,8-dimethyl-, methyl ester
##MOLFORM=C13H26O2
##CAS REGISTRY NO=55030-52-9
##MP= -300
##BP= -300
##MW= 214
##$RETENTION INDEX=0
##$CONDENSED SPECTRUM=NO
##NPOINTS= 87
##XYDATA=(XY..XY) 1 
    14          3
    15         16
    16          3
    26          2
    27         45
    28          8
    29        105
    30          2
    31          3
    32          3
    33          3
    39         24
    40          8
    41        174
    42         40
    43        121
    44          8
    45          3
    53         16
    54          3
    55        169
    56         52
    57        177
    58          8
    59         68
    60          2
    61          3
    65          2
    67         16
    68          3
    69        145
    70         24
    71         32
    72          3
    73         19
    74          8
    77          2
    78          2
    79          3
    81          3
    82          3
    83         89
    84         13
    85         19
    87         40
    88        999
    89         35
    90          3
    91          2
    93          2
    95          8
    96          2
    97         48
    98         16
    99          8
   101        540
   102         32
   103          2
   107          3
   109         13
   111         16
   112          8
   113          3
   115         61
   116          3
   125         16
   126          3
   129          8
   135          8
   143         48
   144          3
   153         29
   154          2
   155         13
   157        177
   158         24
   159          3
   167          8
   168          2
   171         29
   172          3
   183         32
   184          3
   185          8
   199          8
   214         48
   215          3