##TITLE=Library Entry 64212
##JCAMP-DX=Revision 4.10 
##DATA TYPE=MASS SPECTRUM
##SAMPLE DESCRIPTION=Exported from NIST MS Search
##NAMES=HP
##CAS NAME=1H-Benzimidazol-4-ol, 5-chloro-1-(phenylmethyl)-
##MOLFORM=C14H11ClN2O
##CAS REGISTRY NO=55030-35-8
##MP= -300
##BP= -300
##MW= 258
##$RETENTION INDEX=0
##$CONDENSED SPECTRUM=NO
##NPOINTS= 13
##XYDATA=(XY..XY) 1 
    65        120
    66         10
    75         60
    91        999
    92        120
   110         50
   180        100
   181         80
   182         80
   258        370
   259         60
   260        120
   261         20