##TITLE=Library Entry 73117
##JCAMP-DX=Revision 4.10 
##DATA TYPE=MASS SPECTRUM
##SAMPLE DESCRIPTION=Exported from NIST MS Search
##NAMES=HP
##CAS NAME=1-Propanamine, N,N-dimethyl-3-[(2,2,3-trimethyl-1-pyrrolidinyl)ox
y]-
##MOLFORM=C12H26N2O
##CAS REGISTRY NO=55030-54-1
##MP= -300
##BP= -300
##MW= 214
##$RETENTION INDEX=0
##$CONDENSED SPECTRUM=NO
##NPOINTS= 40
##XYDATA=(XY..XY) 1 
    39        140
    40         46
    41        328
    42        351
    43        125
    44        375
    53         78
    54         46
    55        446
    56        343
    57         75
    58        593
    59        120
    68         93
    69        240
    70        515
    71        114
    82         46
    83         78
    84        343
    85        393
    86         96
    96        151
    97        164
    98        409
    99        549
   100        999
   101        387
   102         90
   112        334
   113         43
   114        515
   115         93
   125         81
   126        137
   127        156
   128        171
   129        203
   130        179
   131         28