##TITLE=Library Entry 63817
##JCAMP-DX=Revision 4.10 
##DATA TYPE=MASS SPECTRUM
##SAMPLE DESCRIPTION=Exported from NIST MS Search
##NAMES=HP
##CAS NAME=1H-Benzimidazol-4-ol, 1-(phenylmethyl)-
##MOLFORM=C14H12N2O
##CAS REGISTRY NO=55030-15-4
##MP= -300
##BP= -300
##MW= 224
##$RETENTION INDEX=0
##$CONDENSED SPECTRUM=NO
##NPOINTS= 12
##XYDATA=(XY..XY) 1 
    51         50
    65        100
    66         10
    76         50
    77         50
    91        999
    92        120
   120         50
   146        100
   147         80
   224        440
   225         70