##TITLE=Library Entry 12344
##JCAMP-DX=Revision 4.10 
##DATA TYPE=MASS SPECTRUM
##SAMPLE DESCRIPTION=Exported from NIST MS Search
##NAMES=HP
##CAS NAME=Decanedioic acid, 3,8-dioxo-, dimethyl ester
##MOLFORM=C12H18O6
##CAS REGISTRY NO=55030-37-0
##MP= -300
##BP= -300
##MW= 258
##$RETENTION INDEX=0
##$CONDENSED SPECTRUM=NO
##NPOINTS= 170
##XYDATA=(XY..XY) 1 
    12          2
    13          2
    15        181
    17          8
    18         37
    25          3
    26         22
    27        115
    28        107
    29        200
    30         14
    31        100
    32          9
    37          2
    38          6
    39         92
    40         24
    41        185
    42        138
    43        999
    44         30
    45         30
    46          2
    47          2
    48          3
    49          2
    50          7
    51         12
    52         12
    53         46
    54         25
    55        246
    56        115
    57        135
    58         77
    59        454
    60         17
    61          5
    62          4
    63          6
    64          2
    65          9
    66          9
    67         42
    68        138
    69        250
    70         42
    71         69
    72         15
    73         12
    74        131
    75         13
    76          2
    77         21
    78          7
    79        100
    80         22
    81        152
    82         38
    83        192
    84        227
    85         62
    86          7
    87         15
    88         15
    89          2
    91          4
    92          2
    93          6
    94          4
    95         17
    96         15
    97        196
    98         58
    99         25
   100         19
   101        573
   102         33
   103          5
   105          3
   106          4
   107         92
   108         24
   109         41
   110        169
   111        358
   112         32
   113          8
   114          5
   115         18
   116        450
   117         54
   118          7
   119          2
   120          2
   121          5
   122          8
   123         18
   124         35
   125        158
   126         25
   127         62
   128          8
   129        219
   130         92
   131          8
   132          2
   134          2
   135          8
   136          2
   137          4
   138         10
   139        127
   140         40
   141          7
   142        846
   143        492
   144         46
   145          7
   148          4
   149          5
   150         11
   151         11
   152         19
   153        169
   154         19
   155         13
   156         23
   157         22
   158          5
   159          2
   163          2
   164          2
   165          2
   167         22
   168         31
   169         22
   170          4
   171          2
   172          2
   176          5
   177          3
   180          4
   181          2
   182         35
   183          5
   184          7
   185        100
   186         12
   187          2
   193          2
   194         28
   195         52
   196          8
   197          2
   198          4
   200          4
   208         26
   209          9
   210          2
   212          2
   225          2
   226         28
   227         33
   228          5
   230          2
   240         26
   241          4
   258          5
   259          2