##TITLE=Library Entry 87381
##JCAMP-DX=Revision 4.10 
##DATA TYPE=MASS SPECTRUM
##SAMPLE DESCRIPTION=E.A.CARESS THE GEORGE WASHINGTON UNIV., WASHINGTON D.C.
 USA
##NAMES=HP
##CAS NAME=Carbonic acid, ethyl 3-(1-methylethoxy)phenyl ester
##MOLFORM=C12H16O4
##CAS REGISTRY NO=55030-17-6
##MP= -300
##BP= -300
##MW= 224
##$RETENTION INDEX=0
##$CONDENSED SPECTRUM=NO
##NPOINTS= 9
##XYDATA=(XY..XY) 1 
   109         95
   110        999
   137         25
   138         60
   152         35
   182         35
   183         10
   224         75
   225         18