##TITLE=Library Entry 24019
##JCAMP-DX=Revision 4.10 
##DATA TYPE=MASS SPECTRUM
##SAMPLE DESCRIPTION=Exported from NIST MS Search
##NAMES=HP
##CAS NAME=Tridecane, 4,8-dimethyl-
##MOLFORM=C15H32
##CAS REGISTRY NO=55030-62-1
##MP= -300
##BP= -300
##MW= 212
##$RETENTION INDEX=1407
##$CONDENSED SPECTRUM=NO
##NPOINTS= 89
##XYDATA=(XY..XY) 1 
    26         14
    27        265
    28         40
    29        389
    30          9
    31          1
    37          3
    38          5
    39        127
    40         26
    41        514
    42        180
    43        923
    44         30
    49          1
    50          3
    51          6
    52          3
    53         33
    54         17
    55        246
    56        155
    57        999
    58         44
    59          1
    62          1
    63          1
    65          4
    66          2
    67         16
    68         11
    69         76
    70        175
    71        467
    72         28
    73          1
    77          3
    78          1
    79          3
    80          1
    81          4
    82          2
    83         19
    84         46
    85        289
    86         19
    87          1
    91          1
    93          1
    95          1
    96          9
    97         37
    98        135
    99        101
   100          7
   109          1
   110          1
   111          5
   112         24
   113         38
   114          3
   124          1
   125          2
   126          3
   127         15
   128          1
   139          1
   140         35
   141         97
   142         11
   143          1
   153          1
   154          1
   155          4
   156          1
   168         11
   169         55
   170          8
   171          1
   182          3
   183          9
   184          1
   185          1
   196          1
   197         13
   198          2
   211          1
   212          8
   213          1