##TITLE=Library Entry 31281
##JCAMP-DX=Revision 4.10 
##DATA TYPE=MASS SPECTRUM
##SAMPLE DESCRIPTION=Exported from NIST MS Search
##NAMES=HP
##CAS NAME=1-Propanone, 3-[[(methylthio)methyl]sulfonyl]-1-phenyl-
##MOLFORM=C11H14O3S2
##CAS REGISTRY NO=55030-38-1
##MP= -300
##BP= -300
##MW= 258
##$RETENTION INDEX=0
##$CONDENSED SPECTRUM=NO
##NPOINTS= 18
##XYDATA=(XY..XY) 1 
    45         35
    50         27
    51        101
    55         30
    61        999
    62         31
    63         49
    77        229
    78         27
    79         20
   105        180
   106         14
   133         10
   134         10
   147        200
   148         21
   151        143
   194        172