##TITLE=Library Entry 27902
##JCAMP-DX=Revision 4.10 
##DATA TYPE=MASS SPECTRUM
##SAMPLE DESCRIPTION=FLO 0040
##NAMES=HP
##CAS NAME=1H-Indole-3-ethanamine, 1-(acetyloxy)-5-methoxy-N,N-dimethyl-
##MOLFORM=C15H20N2O3
##CAS REGISTRY NO=55030-13-2
##MP= -300
##BP= -300
##MW= 276
##$RETENTION INDEX=0
##$CONDENSED SPECTRUM=NO
##NPOINTS= 148
##XYDATA=(XY..XY) 1 
    12          5
    13          2
    15         73
    17          7
    18         30
    26          4
    27         17
    28          1
    29         17
    30         52
    31          4
    37          1
    38          4
    39         19
    40          5
    41         17
    42         72
    43        108
    44         44
    45          5
    46          1
    50          7
    51         15
    52          8
    53          5
    54          2
    55          3
    56          6
    57         15
    58        999
    59         41
    60          1
    61          1
    62          6
    63         18
    64          5
    65          9
    66          2
    67          2
    68          1
    69          1
    70          1
    71          2
    72          2
    73          2
    74          4
    75          7
    76          6
    77         17
    78         10
    79          4
    80          2
    81          1
    82          1
    85          1
    86          3
    87          2
    88          3
    89         20
    90         10
    91         48
    92          5
    93          2
    94          1
    95          1
    97          1
    98          1
    99          1
   100          1
   101          3
   102          9
   103         10
   104          7
   105          4
   106          3
   107          1
   108          1
   113          1
   114          2
   115          7
   116         14
   117         21
   118          8
   119          8
   120          4
   121          1
   122          1
   123          1
   126          1
   127          1
   128          4
   129          5
   130         12
   131          6
   132          3
   133          2
   134          1
   135          6
   136          1
   141          1
   142          2
   143          4
   144         15
   145         19
   146          8
   147          3
   148          2
   149          1
   155          1
   156          2
   157          2
   158          8
   159         20
   160         51
   161         11
   162          2
   163          4
   164          1
   170          1
   171          2
   172          3
   173         24
   174         13
   175          3
   176          2
   177          1
   186          1
   187          3
   188          3
   189          2
   190          1
   201          2
   202          7
   203          8
   204          2
   205          1
   212          1
   213          2
   214          2
   215         24
   216          6
   217          2
   244          1
   245          2
   246          1
   259          1
   260          3
   261          1