##TITLE=Library Entry 36790
##JCAMP-DX=Revision 4.10 
##DATA TYPE=MASS SPECTRUM
##SAMPLE DESCRIPTION=A. SELVA INST. OF CHEM., POLYTECHNIC OF MILAN, MILAN, I
TALY
##NAMES=HP
##CAS NAME=1H-Indole, 2-(1,1-dimethyl-2-propenyl)-6-(3-methyl-2-butenyl)-
##MOLFORM=C18H23N
##CAS REGISTRY NO=55045-00-6
##MP= -300
##BP= -300
##MW= 253
##$RETENTION INDEX=0
##$CONDENSED SPECTRUM=NO
##NPOINTS= 99
##XYDATA=(XY..XY) 1 
    39         50
    40         10
    41        490
    42         40
    43         40
    44         50
    51         30
    53         70
    55         20
    57         10
    63         20
    64         10
    65         30
    67         40
    69        999
    70         60
    71         10
    75         10
    76         20
    77         70
    89         20
    90         40
    91         40
    92         20
   115         40
   116         20
   117         30
   118         10
   119         20
   127         20
   128         40
   129         20
   130         40
   131         10
   139         10
   140         10
   141         40
   142         30
   143         50
   144         10
   152         10
   153         20
   154        120
   155         60
   156         40
   157         10
   158         10
   165         10
   166         20
   167        100
   168        210
   169        480
   170        470
   171         60
   178         20
   179         10
   180         50
   181         50
   182        130
   183         50
   184        150
   185         40
   186         40
   191         10
   192         30
   193         20
   194         40
   195         30
   196         40
   197         10
   198         50
   199         10
   204         10
   205         10
   206         20
   207         20
   208         30
   209         10
   210         10
   211          5
   212          5
   220         20
   221         10
   222         40
   223         20
   224         10
   225          5
   226         70
   227         10
   236         20
   237         20
   238        460
   239        100
   240         20
   251         20
   252         30
   253        660
   254        120
   255         20