##TITLE=Library Entry 23045
##JCAMP-DX=Revision 4.10 
##DATA TYPE=MASS SPECTRUM
##SAMPLE DESCRIPTION=Exported from NIST MS Search
##NAMES=HP
##CAS NAME=1,2-Cyclopentanedicarboxylic acid, 4-(1,1-dimethylethyl)-, dimeth
yl ester, (1.alpha.,2.beta.,4.beta.)-
##MOLFORM=C13H22O4
##CAS REGISTRY NO=55044-87-6
##MP= -300
##BP= -300
##MW= 242
##$RETENTION INDEX=0
##$CONDENSED SPECTRUM=NO
##NPOINTS= 180
##XYDATA=(XY..XY) 1 
    12         16
    13         56
    14        125
    15        858
    16         67
    24          9
    25         23
    26        108
    27        413
    29        921
    30         81
    31        548
    33         16
    34          5
    35         13
    36          8
    37         20
    38         37
    39        361
    40         98
    41        817
    42        124
    43        423
    44         77
    45         83
    46         27
    47         29
    48         13
    49         22
    50        167
    51         68
    52         75
    53        123
    54         47
    55        378
    56        166
    57        999
    58         68
    59        111
    60          8
    61         10
    62         14
    63         29
    64         22
    65         92
    66        199
    67        391
    68        105
    69        212
    70         65
    71        118
    72         10
    73         12
    74         13
    75         12
    76         12
    77         87
    78         33
    79        118
    80         44
    81        140
    82         67
    83        112
    84         41
    85         76
    86         11
    87         30
    88          7
    89         10
    90          8
    91        111
    92         25
    93         86
    94         50
    95         95
    96         59
    97         77
    98         35
    99         19
   100         77
   101         11
   102          7
   103         13
   104         11
   105         49
   106         17
   107        143
   108         42
   109         79
   110         26
   111         71
   112         77
   113         31
   114         10
   115         24
   116          8
   117         14
   118          8
   119         45
   120         11
   121         48
   122         33
   123         98
   124         59
   125         52
   126        330
   127         62
   128         24
   129         14
   130          8
   131         10
   132          6
   133         13
   134         14
   135         56
   136         20
   137         17
   138         15
   139         27
   140         45
   141         25
   142         10
   143         13
   144          6
   145         17
   146          9
   147          8
   148          5
   149         23
   150         15
   151         32
   152         17
   153         41
   154         74
   155         42
   156         18
   157         11
   158          7
   159          8
   162          3
   163         15
   164          9
   165         13
   166          8
   167         64
   168         18
   169         13
   170         11
   171         10
   173          4
   174          1
   177          6
   178          7
   179          8
   180          5
   181         21
   182         23
   183         12
   184          5
   185         10
   186         67
   187          8
   194          4
   195          8
   196          7
   197          4
   198          6
   199          8
   200         11
   201          6
   208          2
   209          5
   210          8
   211         35
   212          8
   213          6
   214          4
   215          1
   242          5
   243          1