##TITLE=Library Entry 96238
##JCAMP-DX=Revision 4.10 
##DATA TYPE=MASS SPECTRUM
##SAMPLE DESCRIPTION=AP-2132
##NAMES=HP
##CAS NAME=Thiophene, 2-(nonylthio)-
##MOLFORM=C13H22S2
##CAS REGISTRY NO=55044-86-5
##MP= -300
##BP= -300
##MW= 242
##$RETENTION INDEX=0
##$CONDENSED SPECTRUM=NO
##NPOINTS= 165
##XYDATA=(XY..XY) 1 
    12          1
    13          0
    14          7
    15         11
    16          0
    25          0
    26          6
    27        190
    28          6
    29        345
    30          7
    32          2
    33          0
    34          1
    35          1
    36          0
    37          5
    38         18
    39        209
    40         27
    41        531
    42         64
    43        735
    44         27
    45        194
    46         10
    47         19
    48          0
    49          1
    50          4
    51          9
    52          6
    53         42
    54         12
    55        202
    56         27
    57        269
    58         44
    59         13
    60          6
    61          4
    62          0
    63          1
    64          2
    65          6
    66          3
    67         15
    68          5
    69         94
    70         27
    71        539
    72         37
    73         18
    74          2
    75          0
    76          4
    77          6
    78          2
    79          3
    80          0
    81         16
    82         25
    83         29
    84         20
    85         97
    86         10
    87         13
    88          6
    89          3
    90          2
    91          2
    92          0
    93          0
    95          1
    96          1
    97         24
    98          3
    99          2
   100          0
   101          4
   102          0
   103          1
   105          0
   106          0
   107          0
   108          0
   109          1
   110          3
   111          3
   112          0
   113          0
   114          7
   115        172
   116        999
   117         87
   118         87
   119          5
   120          2
   121          1
   122          1
   123          2
   124          1
   125          1
   126          0
   127          1
   128          0
   129         61
   130          6
   131          6
   132          0
   133          0
   134          0
   135          1
   137          1
   138          0
   139          0
   140          0
   141          2
   142          3
   143          3
   144          1
   145          0
   149          0
   151          0
   153          0
   155          0
   156          0
   157          2
   158          0
   159          0
   165          0
   166          0
   167          1
   168          0
   169          0
   170          0
   171          2
   172          0
   173          0
   181          1
   182          0
   183          0
   184          0
   185          0
   186          0
   187          0
   188          0
   195          0
   196          0
   197          0
   198          0
   199          0
   200          0
   209          0
   210          0
   213          0
   214          0
   227          0
   240          0
   241          4
   242        393
   243         64
   244         41
   245          6
   246          1