##TITLE=Library Entry 3666
##JCAMP-DX=Revision 4.10 
##DATA TYPE=MASS SPECTRUM
##SAMPLE DESCRIPTION=Exported from NIST MS Search
##NAMES=HP
##CAS NAME=1H-Indene, 5-butyl-6-hexyloctahydro-
##MOLFORM=C19H36
##CAS REGISTRY NO=55044-36-5
##MP= -300
##BP= -300
##MW= 264
##$RETENTION INDEX=0
##$CONDENSED SPECTRUM=NO
##NPOINTS= 163
##XYDATA=(XY..XY) 1 
    39        191
    40         40
    41        999
    42        109
    43        649
    44         21
    49          1
    50          4
    51         15
    52         13
    53        154
    54        144
    55        769
    56         88
    57        194
    58          9
    59          1
    60          1
    61          1
    62          1
    63          4
    64          2
    65         46
    66         49
    67        771
    68        152
    69        448
    70         45
    71         54
    72          4
    73          1
    74          1
    75          1
    76          1
    77         87
    78         23
    79        235
    80        111
    81        840
    82        213
    83        421
    84         36
    85         33
    86          2
    89          2
    90          2
    91         69
    92         17
    93        112
    94         67
    95        792
    96        123
    97        369
    98         33
    99          6
   100          1
   101          1
   102          1
   103          4
   104          2
   105         17
   106          6
   107         40
   108         21
   109        593
   110         87
   111        187
   112         19
   113          3
   114          1
   115          4
   116          2
   117          5
   118          2
   119          6
   120          9
   121        150
   122         37
   123        552
   124         69
   125        145
   126         16
   127          2
   128          2
   129          2
   130          1
   131          5
   132          2
   133          3
   134          2
   135         24
   136         29
   137        280
   138         46
   139         14
   140          3
   141          2
   142          1
   143          1
   144          1
   145          2
   146          1
   147          2
   148          1
   149          9
   150          6
   151        122
   152         57
   153          9
   154          3
   155          1
   156          1
   158          1
   159          1
   160          1
   161          1
   162          1
   163          3
   164          4
   165         36
   166          9
   167          2
   168          2
   169          1
   170          1
   171          1
   172          1
   173          1
   177          4
   178         81
   179        374
   180         91
   181         10
   182          3
   183          2
   191          1
   192          1
   193          7
   194          2
   195          1
   205          2
   206         64
   207        363
   208         63
   209          5
   220          1
   221         50
   222          9
   223          1
   235          1
   236          6
   237          1
   238          1
   239          1
   241          1
   249          1
   258          1
   259          1
   262          1
   263          2
   264         42
   265          9
   266          1