##TITLE=Library Entry 36316
##JCAMP-DX=Revision 4.10 
##DATA TYPE=MASS SPECTRUM
##SAMPLE DESCRIPTION=Exported from NIST MS Search
##NAMES=HP
##CAS NAME=Propanenitrile, 3-[(2,2-dimethyl-4,4-diphenyl-3-oxetanylidene)ami
no]-2-methyl-
##MOLFORM=C21H22N2O
##CAS REGISTRY NO=55044-22-9
##MP= -300
##BP= -300
##MW= 318
##$RETENTION INDEX=0
##$CONDENSED SPECTRUM=NO
##NPOINTS= 14
##XYDATA=(XY..XY) 1 
    68        160
    69        999
    70         93
    77        183
   105        199
   136        488
   137         85
   182         58
   190         46
   191         35
   192         78
   193         39
   260         58
   318         46