##TITLE=Library Entry 23032
##JCAMP-DX=Revision 4.10 
##DATA TYPE=MASS SPECTRUM
##SAMPLE DESCRIPTION=Exported from NIST MS Search
##NAMES=HP
##CAS NAME=1,2-Cyclopentanedicarboxylic acid, 4-(1,1-dimethylethyl)-, dimeth
yl ester, (1.alpha.,2.alpha.,4.beta.)-
##MOLFORM=C13H22O4
##CAS REGISTRY NO=55044-89-8
##MP= -300
##BP= -300
##MW= 242
##$RETENTION INDEX=0
##$CONDENSED SPECTRUM=NO
##NPOINTS= 208
##XYDATA=(XY..XY) 1 
    12          5
    13          9
    14         35
    15        749
    16         22
    24          1
    25          2
    26         15
    27        216
    28        198
    29        441
    30         29
    31        137
    32         81
    33         15
    34          2
    35          3
    36          2
    37          6
    38         15
    39        233
    40         60
    41        672
    42         52
    43        135
    44         57
    45         36
    46          6
    47          7
    48          3
    49          4
    50         34
    51         30
    52         24
    53        105
    54         24
    55        220
    56        130
    57        999
    58         47
    59        198
    60          7
    61          8
    62          5
    63         13
    64          9
    65         87
    66        135
    67        261
    68         69
    69        113
    70         55
    71         27
    72          5
    73          9
    74          6
    75          7
    76          8
    77         58
    78         18
    79         84
    80         21
    81         82
    82         23
    83         62
    84         17
    85         23
    86          3
    87         17
    88          4
    89          5
    90          7
    91         84
    92         20
    93         99
    94         27
    95         65
    96         22
    97         30
    98         24
    99         22
   100         29
   101          5
   102          3
   103          8
   104          5
   105         31
   106         12
   107        274
   108         35
   109         39
   110         11
   111         39
   112         17
   113        418
   114         26
   115          9
   116          3
   117          4
   118          3
   119         13
   120          4
   121         38
   122         24
   123        125
   124         71
   125         98
   126        270
   127         80
   128         13
   129          5
   130          2
   131          3
   132          2
   133          8
   134          5
   135         41
   136          9
   137          6
   138          5
   139         12
   140         18
   141          9
   142          3
   143          4
   144          2
   145         96
   146          8
   147          4
   148          2
   149          8
   150          7
   151         52
   152         22
   153         23
   154        272
   155        130
   156         15
   157          4
   158          3
   159          3
   160          2
   161          2
   162          2
   163         14
   164          4
   165         13
   166          6
   167         88
   168         13
   169          4
   170          2
   171          2
   172          1
   173          2
   174          1
   175          2
   176          1
   177          2
   178          3
   179          3
   180          9
   181         11
   182         65
   183         13
   184          5
   185         21
   186        323
   187        109
   188         13
   189          3
   190          1
   191          2
   192          2
   193          3
   194          2
   195         59
   196          8
   197          3
   198          1
   199          2
   200          4
   201          2
   202          1
   203          2
   204          1
   205          1
   207          2
   208          4
   209          3
   210         13
   211         95
   212         13
   213          3
   214          1
   215          1
   217          3
   218          1
   219          1
   220          1
   221          1
   222          1
   223          4
   224          4
   225          2
   227         18
   228          1
   242          8