##TITLE=Library Entry 7888
##JCAMP-DX=Revision 4.10 
##DATA TYPE=MASS SPECTRUM
##SAMPLE DESCRIPTION=KONINKLIJKE SHELL LABORATORIUM AMSTERDAM
##NAMES=HP
##CAS NAME=Tridecane, 6-propyl-
##MOLFORM=C16H34
##CAS REGISTRY NO=55045-10-8
##MP= -300
##BP= -300
##MW= 226
##$RETENTION INDEX=1496
##$CONDENSED SPECTRUM=NO
##NPOINTS= 84
##XYDATA=(XY..XY) 1 
    38          6
    39         93
    40         19
    41        600
    42        138
    43        999
    44         32
    48          3
    50          1
    51          4
    52          2
    53         33
    54         29
    55        304
    56        142
    57        995
    58         42
    59          0
    63          0
    64          3
    65          6
    66          3
    67         29
    68         19
    69        114
    70         95
    71        720
    72         39
    73          1
    77          4
    78          0
    79          5
    80          1
    81          8
    82         17
    83         58
    84         58
    85        474
    86         30
    87          0
    91          1
    93          0
    95          2
    96         10
    97         53
    98         31
    99        104
   100          8
   101          0
   109          0
   110          5
   111         24
   112         16
   113         61
   114          5
   115          0
   124          2
   125         14
   126        125
   127         72
   128          7
   138          0
   139          2
   140          9
   141         18
   142          2
   153          1
   154         92
   155         53
   156          6
   168          8
   169          6
   170          0
   182         85
   183         96
   184         13
   185          0
   196          1
   197          2
   198          0
   224          0
   225          0
   226          3
   227          0