##TITLE=Library Entry 23982
##JCAMP-DX=Revision 4.10 
##DATA TYPE=MASS SPECTRUM
##SAMPLE DESCRIPTION=Exported from NIST MS Search
##NAMES=HP
##CAS NAME=Heptadecane, 4-propyl-
##MOLFORM=C20H42
##CAS REGISTRY NO=55044-10-5
##MP= -300
##BP= -300
##MW= 282
##$RETENTION INDEX=0
##$CONDENSED SPECTRUM=NO
##NPOINTS= 138
##XYDATA=(XY..XY) 1 
    29        301
    30          1
    31          1
    32          1
    36          1
    37          1
    38          1
    39         44
    40         10
    41        383
    42         91
    43        728
    44         22
    45          1
    50          1
    51          1
    52          1
    53         17
    54         23
    55        285
    56        140
    57        999
    58         52
    59          2
    60          2
    61          2
    62          1
    63          1
    65          2
    66          2
    67         22
    68         17
    69        136
    70         74
    71        367
    72         19
    73          2
    74          4
    75          1
    76          1
    77          2
    78          1
    79          3
    80          1
    81          9
    82         11
    83         65
    84         29
    85        256
    86         25
    87          9
    88          1
    89          1
    91          1
    92          1
    93          1
    94          1
    95          4
    96          6
    97         37
    98        192
    99        101
   100          6
   101          1
   102          1
   103          1
   105          1
   107          1
   109          1
   110          3
   111         16
   112         12
   113         36
   114          3
   115          1
   121          1
   123          1
   124          2
   125          8
   126          6
   127         24
   128          3
   129          1
   137          1
   138          1
   139          3
   140          4
   141         18
   142          2
   143          1
   151          1
   152          1
   153          2
   154          3
   155         16
   156          2
   157          1
   158          1
   166          1
   167          1
   168          2
   169         12
   170          2
   171          1
   180          1
   181          1
   182          3
   183          9
   184          1
   185          1
   193          1
   194          1
   195          1
   196          1
   197          5
   198          1
   199          1
   207          1
   208          1
   209          1
   210          3
   211          6
   212          1
   213          1
   224          2
   225          3
   226          1
   227          1
   228          1
   238         75
   239        106
   240         17
   241          1
   242          1
   252          2
   253          3
   254          1
   255          1