##TITLE=Library Entry 7830
##JCAMP-DX=Revision 4.10 
##DATA TYPE=MASS SPECTRUM
##SAMPLE DESCRIPTION=KONINKLIJKE SHELL LABORATORIUM AMSTERDAM
##NAMES=HP
##CAS NAME=Tetradecane, 4-ethyl-
##MOLFORM=C16H34
##CAS REGISTRY NO=55045-14-2
##MP= -300
##BP= -300
##MW= 226
##$RETENTION INDEX=1548
##$CONDENSED SPECTRUM=NO
##NPOINTS= 98
##XYDATA=(XY..XY) 1 
    30          6
    32          1
    36          0
    37          0
    38          1
    39         55
    40         11
    41        404
    42        101
    43        999
    44         31
    45          0
    49          0
    50          0
    51          1
    52          1
    53         18
    54         18
    55        220
    56        115
    57        824
    58         35
    59          0
    63          0
    65          2
    66          1
    67         16
    68         10
    69         90
    70         55
    71        458
    72         24
    73          3
    74          0
    75          0
    76          0
    77          1
    78          0
    79          2
    80          0
    81          4
    82         10
    83         40
    84        170
    85        438
    86         27
    87          1
    91          0
    93          0
    95          1
    96          5
    97         27
    98         18
    99         90
   100          6
   101          0
   109          0
   110          3
   111         16
   112         10
   113         62
   114          5
   115          0
   124          2
   125          9
   126          6
   127         45
   128          4
   129          0
   138          1
   139          4
   140          5
   141         26
   142          3
   143          0
   147          0
   152          0
   153          2
   154          4
   155          8
   156          1
   166          0
   167          0
   168          3
   169          2
   170          0
   182         31
   183         30
   184          4
   185          0
   196         41
   197         60
   198          8
   199          0
   224          0
   225          0
   226          1
   227          0