##TITLE=Library Entry 24404
##JCAMP-DX=Revision 4.10 
##DATA TYPE=MASS SPECTRUM
##SAMPLE DESCRIPTION=KONINKLIJKE SHELL LABORATORIUM AMSTERDAM
##NAMES=HP
##CAS NAME=Tridecane, 5-propyl-
##MOLFORM=C16H34
##CAS REGISTRY NO=55045-11-9
##MP= -300
##BP= -300
##MW= 226
##$RETENTION INDEX=1502
##$CONDENSED SPECTRUM=NO
##NPOINTS= 88
##XYDATA=(XY..XY) 1 
    30          6
    32          1
    37          0
    38          1
    39         50
    40         10
    41        392
    42         85
    43        696
    44         23
    45          0
    50          0
    51          1
    52          1
    53         17
    54         16
    55        190
    56        102
    57        999
    58         43
    59          0
    65          2
    66          1
    67         16
    68         10
    69         75
    70         75
    71        640
    72         35
    73          1
    77          1
    78          0
    79          2
    80          0
    81          4
    82         14
    83         53
    84         39
    85        257
    86         16
    87          0
    91          0
    92          0
    93          0
    95          1
    96          5
    97         25
    98         14
    99         84
   100          6
   101          0
   109          0
   110          3
   111         15
   112         98
   113         81
   114          6
   115          0
   124          2
   125          9
   126          7
   127         32
   128          3
   129          0
   138          0
   139          4
   140          6
   141         10
   142          1
   152          0
   153          1
   154          4
   155          2
   156          0
   168         38
   169         29
   170          3
   171          0
   182         38
   183         39
   184          5
   185          0
   196          0
   197          1
   198          0
   225          0
   226          1
   227          0