##TITLE=Library Entry 33990
##JCAMP-DX=Revision 4.10 
##DATA TYPE=MASS SPECTRUM
##SAMPLE DESCRIPTION=S. MARKEY UNIV. OF COLO. MED. CTR., DENVER, COLORADO, U
SA
##NAMES=HP
##CAS NAME=L-Norleucine, N-(trifluoroacetyl)-, butyl ester
##MOLFORM=C12H20F3NO3
##CAS REGISTRY NO=55044-47-8
##MP= -300
##BP= -300
##MW= 283
##$RETENTION INDEX=1390
##$CONDENSED SPECTRUM=NO
##NPOINTS= 49
##XYDATA=(XY..XY) 1 
    15         27
    18         17
    26          6
    27        303
    29        726
    30         34
    31         10
    39        121
    40         17
    41        745
    42         69
    43        216
    44         33
    45         45
    51         33
    53         20
    54         12
    55         89
    56         71
    57        280
    58         11
    67         22
    68         18
    69        999
    70         83
    73         13
    77          7
    78         26
    82          5
    84         20
    96          7
    97         15
   114        135
   119         14
   126        129
   127          5
   130         10
   131         14
   139         13
   140         39
   152         12
   153         20
   154         13
   171         12
   182        310
   183         32
   184          3
   227          9
   228          1