##TITLE=Library Entry 36700
##JCAMP-DX=Revision 4.10 
##DATA TYPE=MASS SPECTRUM
##SAMPLE DESCRIPTION=Exported from NIST MS Search
##NAMES=HP
##CAS NAME=Propanenitrile, 3-[(3,3-dimethyl-4,4-diphenyl-2-oxetanylidene)ami
no]-2-methyl-
##MOLFORM=C21H22N2O
##CAS REGISTRY NO=55044-24-1
##MP= -300
##BP= -300
##MW= 318
##$RETENTION INDEX=0
##$CONDENSED SPECTRUM=NO
##NPOINTS= 33
##XYDATA=(XY..XY) 1 
    68        201
    69        999
    70         67
    75         43
    76         67
    77        335
    78         59
    89        154
    90         55
    91        320
    92         43
    94         47
    95        758
    96         86
   103        118
   104         67
   105        557
   106         59
   110         51
   136        434
   137         79
   181         51
   182        197
   183         79
   191         79
   192        201
   193        324
   194         79
   206         35
   207        150
   208        841
   209        142
   318         43