##TITLE=Library Entry 2474
##JCAMP-DX=Revision 4.10 
##DATA TYPE=MASS SPECTRUM
##SAMPLE DESCRIPTION=Exported from NIST MS Search
##NAMES=HP
##CAS NAME=Cyclopentane, (2-hexyloctyl)-
##MOLFORM=C19H38
##CAS REGISTRY NO=55044-77-4
##MP= -300
##BP= -300
##MW= 266
##$RETENTION INDEX=0
##$CONDENSED SPECTRUM=NO
##NPOINTS= 136
##XYDATA=(XY..XY) 1 
    36          1
    37          3
    38          5
    39        146
    40         32
    41        999
    42        151
    43        903
    44         29
    45          1
    49          1
    50          3
    51          7
    52          5
    53         72
    54         85
    55        723
    56        183
    57        825
    58         36
    59          1
    62          1
    63          2
    64          1
    65         14
    66         31
    67        244
    68        133
    69        656
    70        131
    71        433
    72         23
    73          1
    77         14
    78          4
    79         27
    80         10
    81         83
    82        174
    83        728
    84         92
    85        303
    86         21
    87          1
    91          8
    92          2
    93          7
    94          6
    95         84
    96         48
    97        607
    98         70
    99         97
   100          7
   103          1
   104          1
   105          2
   106          1
   107          2
   108          3
   109         26
   110         27
   111        372
   112         59
   113         50
   114          4
   115          1
   116          1
   117          1
   118          1
   119          1
   121          2
   122          3
   123         23
   124         23
   125        195
   126         36
   127         37
   128          4
   129          1
   131          1
   133          1
   135          1
   136          2
   137         14
   138         12
   139         41
   140         11
   141         16
   142          2
   149          1
   150          1
   151          3
   152         11
   153          9
   154         10
   155          2
   156          1
   165          1
   166          6
   167         10
   168          5
   169          3
   170          1
   177          1
   178          1
   179          9
   180        194
   181        208
   182        173
   183         91
   184         11
   185          1
   193          1
   194          6
   195          6
   196         10
   197          7
   198          1
   205          1
   207          1
   208          2
   209          3
   210          1
   211          1
   222          1
   223          1
   224          1
   234          1
   235          1
   236          1
   264          2
   265          1
   266          8
   267          2
   268          1