##TITLE=Library Entry 73389
##JCAMP-DX=Revision 4.10 
##DATA TYPE=MASS SPECTRUM
##SAMPLE DESCRIPTION=Exported from NIST MS Search
##NAMES=HP
##CAS NAME=Acetamide, N-(3-bromopropyl)-N-pentyl-
##MOLFORM=C10H20BrNO
##CAS REGISTRY NO=55044-64-9
##MP= -300
##BP= -300
##MW= 249
##$RETENTION INDEX=0
##$CONDENSED SPECTRUM=NO
##NPOINTS= 35
##XYDATA=(XY..XY) 1 
    82         70
    83         60
    84        270
    85        120
    86        280
    87        100
    88         50
    96         50
    98        400
    99        180
   100        999
   101        100
   112        849
   113        460
   114        140
   126        529
   127        240
   128        220
   130        250
   140        240
   142        260
   150        719
   151         50
   152        709
   154        420
   155         50
   169        499
   170        120
   171         90
   192        100
   194         90
   234         60
   236         60
   249         50
   251         50