##TITLE=Library Entry 10237
##JCAMP-DX=Revision 4.10 
##DATA TYPE=MASS SPECTRUM
##SAMPLE DESCRIPTION=Chemical Concepts
##NAMES=HP
##CAS NAME=2-Phenylethanamidine
##MOLFORM=C8H10N2
##CAS REGISTRY NO=5504-24-5
##MP= -300
##BP= -300
##MW= 134
##$RETENTION INDEX=0
##$CONDENSED SPECTRUM=NO
##NPOINTS= 88
##XYDATA=(XY..XY) 1 
    26         14
    27         49
    28         26
    29          8
    30          7
    31          5
    37         24
    38         55
    39        224
    40         26
    41         55
    42         23
    43        999
    44         50
    45          5
    49         10
    50        103
    51        180
    52         44
    53         16
    54         12
    55         13
    56          6
    57         16
    58          7
    59         13
    60          3
    61         27
    62         69
    63        173
    64         61
    65        265
    66         44
    67         11
    68          3
    69         10
    70          5
    71          8
    72          3
    73         11
    74         29
    75         27
    76         21
    77         92
    78         20
    79         15
    80          3
    81          5
    82          3
    83          6
    84          3
    85          7
    86         13
    87         16
    88         20
    89        275
    90        449
    91        829
    92        649
    93         88
    94          6
    95          4
    96          2
    97          5
    98          2
    99          2
   102          3
   103          2
   104         10
   105          7
   106         26
   107          6
   108          2
   109          2
   111          2
   114          8
   115         10
   116        272
   117        799
   118         82
   119          7
   121          2
   131          5
   132         20
   133        611
   134        216
   135         49
   136          4