##TITLE=Library Entry 73542
##JCAMP-DX=Revision 4.10 
##DATA TYPE=MASS SPECTRUM
##SAMPLE DESCRIPTION=Exported from NIST MS Search
##NAMES=HP
##CAS NAME=4H-1,3-Dithiin-4-one, 2-[1-(acetyloxy)ethyl]-2,6-dimethyl-
##MOLFORM=C10H14O3S2
##CAS REGISTRY NO=55044-92-3
##MP= -300
##BP= -300
##MW= 246
##$RETENTION INDEX=0
##$CONDENSED SPECTRUM=NO
##NPOINTS= 69
##XYDATA=(XY..XY) 1 
    26         16
    27         73
    28        193
    29        283
    32         40
    38         16
    39        166
    40        100
    41         83
    42         16
    43         66
    44         40
    45        166
    46          6
    47         33
    53         26
    55          6
    57         26
    58         66
    59        360
    60         26
    61         33
    64          6
    67         66
    69         33
    71         93
    72        216
    73        100
    74         66
    85         66
    87         26
    97          6
    98          6
    99          6
   100        999
   101        250
   102         66
   103         33
   111          6
   113          6
   115         26
   116         26
   131         66
   132         33
   133         50
   134          6
   135          6
   138          6
   139          6
   140          6
   141         93
   142         10
   143         10
   146        549
   147         40
   148         26
   151         10
   155         16
   159         33
   167          6
   168         16
   175         16
   184         16
   196         10
   203         33
   218         33
   246        200
   247         33
   248         16