##TITLE=Library Entry 9176
##JCAMP-DX=Revision 4.10 
##DATA TYPE=MASS SPECTRUM
##SAMPLE DESCRIPTION=RA-15
##NAMES=HP
##CAS NAME=Acetamide, N-[2-(acetyloxy)-2-phenylethyl]-
##MOLFORM=C12H15NO3
##CAS REGISTRY NO=55044-72-9
##MP= -300
##BP= -300
##MW= 221
##$RETENTION INDEX=0
##$CONDENSED SPECTRUM=NO
##NPOINTS= 142
##XYDATA=(XY..XY) 1 
    12          2
    13          2
    14         17
    15        145
    16          3
    17          9
    18         37
    25          1
    26          5
    27         22
    28        115
    29         19
    30        724
    31         60
    32         14
    37          2
    38          7
    39         43
    40          7
    41         20
    42         40
    43        999
    44         38
    45         67
    46          2
    47          1
    49          1
    50         25
    51         80
    52         21
    53          8
    54          7
    55         34
    56          5
    57          4
    58         38
    59         13
    60         32
    61          2
    62          7
    63         22
    64          7
    65         31
    66          3
    67          2
    68          1
    69          1
    70          2
    71          4
    72        200
    73        834
    74         39
    75          8
    76         10
    77        175
    78         53
    79        115
    80          9
    81          1
    82          1
    83          1
    84         17
    85          2
    86          3
    87          2
    88          2
    89         22
    90         17
    91         76
    92         11
    93          6
    94          1
    95          1
    97          1
    98          1
    99          1
   100         39
   101         11
   102        120
   103         42
   104         36
   105         82
   106         19
   107        360
   108         40
   109          4
   110          1
   113          1
   114          4
   115        270
   116         19
   117         25
   118         39
   119         35
   120        132
   121         15
   122          3
   123          1
   127          1
   128          5
   129          1
   130          1
   131          1
   132          2
   133          2
   134          8
   135          3
   136         12
   137          1
   138          1
   142          1
   143          1
   144          1
   145          1
   146          7
   147          3
   148          6
   149         36
   150          4
   151          1
   157          5
   158          1
   159          1
   160          1
   161         46
   162        140
   163         16
   164          3
   165          1
   177          1
   178         29
   179          5
   180          1
   190          4
   191          1
   194          1
   204          1
   205          1
   206          1
   221          7
   222          2
   223          1