##TITLE=Library Entry 11005
##JCAMP-DX=Revision 4.10 
##DATA TYPE=MASS SPECTRUM
##SAMPLE DESCRIPTION=CENTRE D'ETUDES NUCLEAIRES DE GRENOBLE, FRANCE.
##NAMES=HP
##CAS NAME=Bicyclo[2.2.1]heptane-2,3-dione, 5-(acetyloxy)-1,7,7-trimethyl-,
 endo-
##MOLFORM=C12H16O4
##CAS REGISTRY NO=55044-70-7
##MP= -300
##BP= -300
##MW= 224
##$RETENTION INDEX=0
##$CONDENSED SPECTRUM=NO
##NPOINTS= 78
##XYDATA=(XY..XY) 1 
    40         10
    41        110
    42         46
    43        999
    44        163
    45         18
    50         13
    51         26
    52         16
    53         69
    54         16
    55        162
    56         29
    57         29
    60          5
    63          9
    65         28
    66         13
    67         83
    68          7
    69        111
    70         13
    71          5
    72          2
    77         57
    78         19
    79         50
    80         10
    81         40
    82         13
    83         13
    84          7
    85        358
    86         20
    87          3
    91         46
    92          9
    93        147
    94         28
    95         20
    96          6
    97         14
    98          7
    99        257
   100         26
   105          5
   107         51
   108        387
   109        115
   110         12
   111         64
   112          7
   119          6
   121         49
   122         12
   125         25
   126         10
   127         53
   128          4
   131         17
   135          4
   136         55
   137         12
   139        110
   140         19
   141         16
   149          3
   153         69
   154         61
   155          9
   156          2
   163          2
   167          4
   182          3
   196         21
   197          2
   224         31
   225          7