##TITLE=Library Entry 8876
##JCAMP-DX=Revision 4.10 
##DATA TYPE=MASS SPECTRUM
##SAMPLE DESCRIPTION=Exported from NIST MS Search
##NAMES=HP
##CAS NAME=Tetradecane, 4,11-dimethyl-
##MOLFORM=C16H34
##CAS REGISTRY NO=55045-12-0
##MP= -300
##BP= -300
##MW= 226
##$RETENTION INDEX=1463
##$CONDENSED SPECTRUM=NO
##NPOINTS= 88
##XYDATA=(XY..XY) 1 
    26          9
    27        196
    28         22
    29        292
    30          7
    37          1
    38          2
    39         93
    40         20
    41        432
    42        117
    43        999
    44         33
    50          1
    51          3
    52          2
    53         29
    54         18
    55        269
    56        107
    57        534
    58         23
    63          1
    65          4
    66          2
    67         20
    68         15
    69         83
    70        315
    71        644
    72         35
    73          1
    77          3
    78          1
    79          3
    80          1
    81          6
    82          6
    83         32
    84         68
    85        262
    86         17
    87          1
    91          1
    93          1
    95          2
    96          3
    97         28
    98         17
    99         71
   100          5
   109          1
   110          2
   111         15
   112         11
   113         51
   114          4
   123          1
   124          1
   125          3
   126          4
   127         37
   128          3
   138          4
   139         21
   140          7
   141         22
   142          2
   153          2
   154         11
   155         26
   156          3
   167          1
   168          1
   169          4
   170          1
   182         36
   183        114
   184         17
   185          1
   196          3
   197          8
   198          1
   210          2
   211         11
   212          2
   226          5
   227          1