##TITLE=Library Entry 36699
##JCAMP-DX=Revision 4.10 
##DATA TYPE=MASS SPECTRUM
##SAMPLE DESCRIPTION=L.A.SINGER UNIV. OF CHICAGO, ILL, USA
##NAMES=HP
##CAS NAME=Propanenitrile, 2-[(3,3-dimethyl-4,4-diphenyl-2-oxetanylidene)ami
no]-2-methyl-
##MOLFORM=C21H22N2O
##CAS REGISTRY NO=55044-23-0
##MP= -300
##BP= -300
##MW= 318
##$RETENTION INDEX=0
##$CONDENSED SPECTRUM=NO
##NPOINTS= 48
##XYDATA=(XY..XY) 1 
    67         46
    68        196
    69        999
    70         40
    74         40
    75         40
    76         69
    77        380
    78         57
    89        138
    90         34
    91        334
    92         34
    94         34
    95        770
    96         57
   101         34
   102         46
   103         69
   104         34
   105        530
   106         34
   110         40
   128         92
   130         80
   131         80
   137         40
   139         46
   151         34
   152         92
   178        173
   179        149
   180         34
   181         34
   182        206
   183         69
   189         57
   190         46
   191         92
   192        160
   193        304
   194         69
   206         23
   207        149
   208        830
   209        149
   291         46
   318          6