##TITLE=Library Entry 7885
##JCAMP-DX=Revision 4.10 
##DATA TYPE=MASS SPECTRUM
##SAMPLE DESCRIPTION=Exported from NIST MS Search
##NAMES=HP
##CAS NAME=Tridecane, 7-propyl-
##MOLFORM=C16H34
##CAS REGISTRY NO=55045-09-5
##MP= -300
##BP= -300
##MW= 226
##$RETENTION INDEX=1495
##$CONDENSED SPECTRUM=NO
##NPOINTS= 91
##XYDATA=(XY..XY) 1 
    28         44
    29        459
    30         10
    37          1
    38          1
    39         90
    40         17
    41        529
    42        136
    43        999
    44         35
    45          1
    50          1
    51          3
    52          2
    53         31
    54         27
    55        304
    56        149
    57        957
    58         45
    59          1
    63          1
    64          1
    65          4
    66          3
    67         24
    68         15
    69        115
    70         91
    71        612
    72         36
    73          1
    77          3
    78          1
    79          4
    80          1
    81          6
    82         12
    83         52
    84         59
    85        523
    86         36
    87          1
    91          1
    92          1
    93          1
    94          1
    95          1
    96          7
    97         52
    98         29
    99        101
   100          8
   109          1
   110          4
   111         21
   112         20
   113         31
   114          3
   115          1
   124          1
   125          5
   126          8
   127         22
   128          2
   129          1
   138          1
   139          2
   140        190
   141        100
   142          9
   143          1
   152          1
   153          1
   154         10
   155          6
   156          1
   168          6
   169          5
   170          1
   181          1
   182         73
   183         87
   184         11
   185          1
   196          1
   197          3
   225          1
   226          2
   227          1