##TITLE=Library Entry 69589
##JCAMP-DX=Revision 4.10 
##DATA TYPE=MASS SPECTRUM
##SAMPLE DESCRIPTION=Exported from NIST MS Search
##NAMES=HP
##CAS NAME=1H-Indene, 2-butyl-4-hexyloctahydro-
##MOLFORM=C19H36
##CAS REGISTRY NO=55044-31-0
##MP= -300
##BP= -300
##MW= 264
##$RETENTION INDEX=0
##$CONDENSED SPECTRUM=NO
##NPOINTS= 197
##XYDATA=(XY..XY) 1 
    12          2
    13          2
    14          6
    15         23
    16          3
    17          2
    18          6
    19          1
    20          1
    24          1
    25          3
    26         19
    27        265
    28         66
    29        493
    30         11
    31          1
    32          1
    36          1
    37          4
    38          6
    39        135
    40         29
    41        841
    42         97
    43        415
    44         15
    45          1
    49          1
    50          4
    51         12
    52         10
    53        122
    54        194
    55        860
    56        226
    57        216
    58         11
    61          1
    62          1
    63          2
    64          1
    65         36
    66         39
    67        648
    68        159
    69        413
    70        146
    71         78
    72          5
    73          1
    74          1
    75          1
    76          1
    77         66
    78         20
    79        171
    80         83
    81        690
    82        372
    83        333
    84         79
    85         53
    86          3
    89          1
    90          1
    91         51
    92         12
    93         74
    94         42
    95        524
    96        999
    97        505
    98         78
    99         27
   100          2
   101          1
   102          1
   103          3
   104          2
   105         11
   106          4
   107         18
   108         24
   109        305
   110         66
   111        106
   112         31
   113          8
   114          1
   115          4
   116          1
   117          4
   118          1
   119          5
   120          4
   121        118
   122         20
   123        185
   124         42
   125         57
   126         19
   127          5
   128          2
   129          2
   130          1
   131          1
   132          1
   133          2
   134          1
   135         18
   136         10
   137         84
   138         30
   139         11
   140         25
   141          7
   142          1
   143          1
   144          1
   145          1
   146          1
   147          1
   148          1
   149          4
   150          3
   151         26
   152         38
   153          6
   154          3
   155          1
   156          1
   157          1
   158          1
   159          1
   161          1
   162          1
   163          2
   164          4
   165         33
   166        111
   167         19
   168         83
   169         20
   170          1
   171          1
   173          1
   175          1
   176          1
   177          9
   178         73
   179        231
   180        941
   181        142
   182         30
   183         27
   184          4
   185          1
   188          1
   189          1
   190          1
   191          2
   192          1
   193          9
   194          6
   195          1
   196          1
   197          1
   203          1
   204          1
   205          8
   206          7
   207         64
   208         13
   209          1
   210          1
   213          1
   217          1
   218          1
   219          1
   220          1
   221          2
   222          3
   223          1
   233          1
   235          1
   236          1
   249          1
   256          1
   258          1
   260          1
   261          1
   262          1
   263          1
   264         47
   265         10
   266          1