##TITLE=Library Entry 44931
##JCAMP-DX=Revision 4.10 
##DATA TYPE=MASS SPECTRUM
##SAMPLE DESCRIPTION=Exported from NIST MS Search
##NAMES=HP
##CAS NAME=Octadecanoic acid, 10-methyl-, methyl ester, (R)-
##MOLFORM=C20H40O2
##CAS REGISTRY NO=55044-28-5
##MP= -300
##BP= -300
##MW= 312
##$RETENTION INDEX=0
##$CONDENSED SPECTRUM=NO
##NPOINTS= 171
##XYDATA=(XY..XY) 1 
    15         29
    16          3
    17         16
    18         51
    26          3
    27         54
    28         24
    29        148
    30          3
    31          9
    39         58
    40         16
    41        408
    42        101
    43        619
    44         64
    45         21
    53         35
    54         32
    55        580
    56        129
    57        499
    58         32
    59        161
    60          8
    61          3
    65         11
    67         80
    68         43
    69        366
    70         77
    71        245
    72         19
    73         48
    74        999
    75        225
    76         16
    77         11
    78          3
    79         29
    80          9
    81         93
    82         40
    83        309
    84         80
    85        193
    86         16
    87        793
    88         80
    89         12
    93         37
    94         12
    95         80
    96         41
    97        232
    98         83
    99         45
   100         12
   101        116
   102         16
   103          1
   107         35
   108         11
   109         58
   110         19
   111        122
   112         35
   113         27
   114         16
   115         64
   116         32
   117          4
   121         38
   122         12
   123         43
   124         25
   125        100
   126         25
   127         16
   128         11
   129        187
   130        148
   131         16
   132         11
   135         21
   136          4
   137         25
   138         16
   139         64
   140         25
   141         19
   142          1
   143        480
   144         64
   145          8
   149        129
   150         16
   151         16
   152          4
   153         16
   154         19
   155         16
   157         61
   158         19
   159          1
   163         24
   165         12
   166         16
   167        188
   168         41
   169         11
   171        100
   172         90
   173         48
   174          4
   177         11
   179          4
   180        104
   181         48
   182          8
   183         19
   185         51
   186         12
   191          6
   193          6
   194          6
   195         12
   197          4
   199        262
   200         45
   201         11
   202          3
   205          4
   207          4
   209         11
   210          3
   213         32
   214         11
   215          4
   219          1
   237          4
   238          3
   239          3
   241         11
   247         12
   251          9
   255         25
   261          3
   262          8
   263         32
   264         11
   265         21
   266          3
   269        348
   270         67
   271          9
   279         16
   280         11
   281         77
   282         16
   283         59
   284         16
   295          8
   297         25
   298         11
   310          1
   311         16
   312        935
   313        290
   314         45
   315          3