##TITLE=Library Entry 78334
##JCAMP-DX=Revision 4.10 
##DATA TYPE=MASS SPECTRUM
##SAMPLE DESCRIPTION=R.L.FOLTZ BATTELLE MEMORIAL INST., COLUMBUS, OHIO, USA
##NAMES=HP
##CAS NAME=2-Butanol, 2-methyl-3-(nitroimino)-, benzoate (ester)
##MOLFORM=C12H14N2O4
##CAS REGISTRY NO=55044-69-4
##MP= -300
##BP= -300
##MW= 250
##$RETENTION INDEX=0
##$CONDENSED SPECTRUM=NO
##NPOINTS= 114
##XYDATA=(XY..XY) 1 
    13          3
    14         16
    15         49
    16          4
    17         39
    18          1
    24          1
    25          5
    26         26
    27         42
    28          1
    29         12
    30          5
    31          6
    32          1
    36          1
    37          8
    38         40
    39        102
    40        162
    41        366
    42         99
    43        213
    44         35
    45          5
    46         33
    47          6
    49          4
    50         49
    51        118
    52         34
    53          6
    54          0
    55          4
    56          1
    57          7
    58        105
    59        118
    60          7
    61          0
    62          3
    63          6
    64          2
    65          5
    66          2
    67          2
    68          5
    69         10
    70          2
    71          1
    73          5
    74         16
    75         11
    76         29
    77        384
    78        223
    79         20
    80          0
    82          4
    83         14
    84          6
    89          1
    90          0
    91         15
    92          1
    94          2
    96          1
    99          2
   100          5
   101          0
   102          3
   103         11
   104          9
   105        999
   106        115
   107          8
   115          5
   116          1
   117         11
   118         19
   119         10
   120          1
   121          1
   122         84
   123         41
   124          5
   128          0
   129          0
   131          4
   146          4
   147        109
   148         11
   149          9
   150          1
   151          1
   152          1
   153          2
   154          5
   155          0
   160          5
   162         19
   163         23
   164         63
   165          7
   172          0
   174          0
   182          0
   187          0
   204         10
   205          1
   211          0
   212          0
   250         43
   251          6