##TITLE=Library Entry 114553
##JCAMP-DX=Revision 4.10 
##DATA TYPE=MASS SPECTRUM
##SAMPLE DESCRIPTION=C.M.WILLIAMS VETERANS ADMIN. HOSP., GAINESVILLE, FLORID
A, USA
##NAMES=HP
##CAS NAME=1H-Indole-3-propanoic acid, 1-acetyl-, methyl ester
##MOLFORM=C14H15NO3
##CAS REGISTRY NO=55044-90-1
##MP= -300
##BP= -300
##MW= 245
##$RETENTION INDEX=0
##$CONDENSED SPECTRUM=NO
##NPOINTS= 75
##XYDATA=(XY..XY) 1 
    38         20
    39         86
    40         24
    41         57
    42         41
    43        508
    44         53
    45         41
    46         20
    50         32
    51         57
    52         24
    53         24
    54         49
    55        151
    56         16
    57         20
    58         12
    59         24
    61         36
    62         16
    63         41
    64         16
    65         32
    66        176
    67         20
    68          8
    69         32
    70          8
    71         20
    72          8
    73         24
    74         16
    75         28
    76         32
    77        118
    78         32
    79         90
    89         41
    90         24
    91         28
   102         53
   103         69
   104         24
   105         20
   115        118
   116         36
   117         41
   128         32
   129         69
   130        999
   131        110
   134         32
   135          8
   136         32
   142         53
   143        102
   144         82
   145         20
   146          8
   147         12
   148         16
   149         20
   170         16
   171          8
   172         41
   202         12
   203        204
   204         32
   214         28
   215          8
   216          4
   245        180
   246         32
   247          8