##TITLE=Library Entry 82529
##JCAMP-DX=Revision 4.10 
##DATA TYPE=MASS SPECTRUM
##SAMPLE DESCRIPTION=Div. of Experiment Therapeutics WRAIR, WRAMC, Washingto
n DC 20307
##NAMES=HP
##CAS NAME=o-Nitrobenzaldehyde isonicotinhydrazone
##MOLFORM=C13H10N4O3
##CAS REGISTRY NO=5505-71-5
##MP= -300
##BP= -300
##MW= 270
##$RETENTION INDEX=0
##$CONDENSED SPECTRUM=NO
##NPOINTS= 40
##XYDATA=(XY..XY) 1 
    41         17
    43          3
    44          9
    50         69
    51        572
    52         87
    53         16
    62         18
    63        117
    64         44
    65         39
    66          2
    74          9
    75         14
    76         35
    78        676
    79        101
    80          8
    86          2
    87          6
    89         30
    91         56
    92         29
    94          3
   102          7
   103          4
   104          4
   106        999
   107         55
   108          2
   119          7
   122        235
   123         16
   134          5
   135         19
   149          3
   224          9
   253          7
   270         30
   271          3