##TITLE=Library Entry 63323
##JCAMP-DX=Revision 4.10 
##DATA TYPE=MASS SPECTRUM
##SAMPLE DESCRIPTION=Exported from NIST MS Search
##NAMES=HP
##CAS NAME=Thiophene, 2-(1,1-dimethylethoxy)-5-(phenylmethyl)-
##MOLFORM=C15H18OS
##CAS REGISTRY NO=55059-20-6
##MP= -300
##BP= -300
##MW= 246
##$RETENTION INDEX=0
##$CONDENSED SPECTRUM=NO
##NPOINTS= 32
##XYDATA=(XY..XY) 1 
    40         71
    41        500
    45         71
    50         71
    51        100
    56        100
    57        214
    58        143
    63         29
    65        100
    71        214
    76         29
    77         29
    91        999
    92        143
   112         71
   113         71
   115         29
   129         29
   130         71
   131        100
   132         29
   147         14
   157         29
   161         29
   162         29
   189         71
   190        671
   191        143
   192         29
   231         29
   246         14