##TITLE=Library Entry 56597
##JCAMP-DX=Revision 4.10 
##DATA TYPE=MASS SPECTRUM
##SAMPLE DESCRIPTION=R RYHAGE MS-LAB KAROLINSKA INSTITUTET STOCKHOLM SWEDEN
##NAMES=HP
##CAS NAME=dl-Isoleucine, ethyl ester
##MOLFORM=C8H17NO2
##CAS REGISTRY NO=55056-62-7
##MP= -300
##BP= -300
##MW= 159
##$RETENTION INDEX=1114
##$CONDENSED SPECTRUM=NO
##NPOINTS= 23
##XYDATA=(XY..XY) 1 
    18         19
    27         29
    29         63
    30        102
    39         17
    41         54
    42         14
    43         15
    44         61
    46         18
    55         13
    56         54
    57         61
    58         17
    69        107
    70         30
    74        190
    75         13
    84         17
    86        999
    87         68
   102        204
   103         24