##TITLE=Library Entry 68828
##JCAMP-DX=Revision 4.10 
##DATA TYPE=MASS SPECTRUM
##SAMPLE DESCRIPTION=Exported from NIST MS Search
##NAMES=HP
##CAS NAME=10-Undecenoic acid, 2-methoxy-, methyl ester
##MOLFORM=C13H24O3
##CAS REGISTRY NO=55059-31-9
##MP= -300
##BP= -300
##MW= 228
##$RETENTION INDEX=0
##$CONDENSED SPECTRUM=NO
##NPOINTS= 132
##XYDATA=(XY..XY) 1 
    12          6
    15         87
    20          3
    26          6
    27         12
    28        122
    29        151
    30          9
    31          3
    32         29
    33         23
    38          6
    39        122
    40         33
    41        491
    42         52
    43        108
    44         17
    45        419
    46         15
    47         29
    48          6
    50          3
    51          9
    52          6
    53         70
    54         47
    55        480
    56         38
    57         70
    58        103
    59         87
    60          6
    61          5
    63          9
    65         17
    66         12
    67        430
    68         66
    69        320
    70         26
    71        297
    72         45
    73         23
    74         17
    75         47
    76          2
    77         23
    78          2
    79         52
    80         23
    81        866
    82         93
    83        122
    84         35
    85         44
    86         23
    87         58
    88          6
    89         20
    91         12
    92          3
    93         55
    94         26
    95        999
    96        105
    97         47
    98         20
    99         12
   100          9
   101          9
   102          4
   103         17
   104         81
   105          6
   107         29
   108          9
   109         70
   110         29
   111         29
   112         12
   113         17
   114          5
   115          5
   116          6
   117          9
   118          2
   119          2
   120          4
   121         17
   122         15
   123         12
   124          6
   125         12
   126          9
   127         17
   128          6
   129          4
   135         41
   136         58
   137        166
   138         29
   139          6
   140          6
   141          6
   146          5
   149          6
   150          6
   151          6
   153         12
   154          6
   155          5
   163          2
   164         35
   165          6
   166          6
   167          6
   168         15
   169        945
   170        157
   171         26
   172          9
   181          6
   196         58
   197         12
   198          5
   207          3
   209          3
   221          3
   222          3
   228         17
   229          3