##TITLE=Library Entry 57982
##JCAMP-DX=Revision 4.10 
##DATA TYPE=MASS SPECTRUM
##SAMPLE DESCRIPTION=Exported from NIST MS Search
##NAMES=HP
##CAS NAME=Undecanoic acid, 2,6-dimethyl-, methyl ester
##MOLFORM=C14H28O2
##CAS REGISTRY NO=55059-28-4
##MP= -300
##BP= -300
##MW= 228
##$RETENTION INDEX=0
##$CONDENSED SPECTRUM=NO
##NPOINTS= 69
##XYDATA=(XY..XY) 1 
    15         13
    27          3
    28         24
    29         65
    39         16
    40          3
    41        129
    42         29
    43        161
    44          2
    45          8
    53          8
    54          2
    55        194
    56         35
    57        165
    58          2
    59         48
    67          8
    68          8
    69         81
    70         13
    71         29
    72          2
    73         13
    74          8
    81          3
    82          2
    83         24
    84          2
    85          8
    87         73
    88        999
    89         32
    90          2
    95         11
    97         81
    98         16
    99          3
   101        339
   102         29
   103          2
   109          3
   111          8
   112          3
   113          3
   115         16
   123          2
   125         13
   126          8
   127          2
   129         32
   130          8
   131          2
   138         65
   139         13
   157         77
   158          8
   162          2
   169          3
   171          3
   179          3
   181          2
   185          8
   197         19
   198          2
   213          2
   228         48
   229          8