##TITLE=Library Entry 26791
##JCAMP-DX=Revision 4.10 
##DATA TYPE=MASS SPECTRUM
##SAMPLE DESCRIPTION=Div. of Experiment Therapeutics WRAIR, WRAMC, Washingto
n DC 20307
##NAMES=HP
##CAS NAME=5-[4-Chlorophenyl]-2,2-dimethyl-3-hexanone
##MOLFORM=C14H19ClO
##CAS REGISTRY NO=55058-76-9
##MP= -300
##BP= -300
##MW= 238
##$RETENTION INDEX=0
##$CONDENSED SPECTRUM=NO
##NPOINTS= 121
##XYDATA=(XY..XY) 1 
    41        493
    43        187
    45         12
    47         28
    49          1
    51          1
    53         42
    55         59
    57        999
    59          7
    61          3
    62          3
    63         41
    65         26
    67         18
    69         21
    71         24
    73         16
    74         17
    75         93
    77        162
    78          8
    79          4
    81         13
    84          1
    86          1
    87          6
    89         24
    91         27
    93          2
    95          8
    97          8
    99         12
   101         38
   102         47
   103        252
   104         45
   105         12
   109          8
   111         47
   112         18
   113         20
   115         53
   116         14
   117         12
   119          2
   121          1
   122          0
   123          2
   125        121
   127         47
   128          6
   129          4
   130          3
   131          3
   132          1
   133          0
   134          0
   136          5
   137         17
   138         17
   139        956
   141        481
   142         31
   143          6
   144          2
   145         10
   147         45
   149         10
   151          9
   153         63
   155         58
   156         10
   157          7
   158          2
   159          0
   160          0
   161          0
   162          0
   163          7
   165         62
   167         39
   168          1
   169          6
   170          2
   171          2
   172          2
   173          1
   175          1
   177          5
   179          6
   181        109
   182         29
   183         35
   184          8
   185          1
   187          3
   188          0
   190          1
   191          0
   193          3
   194          3
   195          3
   204          2
   205          5
   206          1
   208          0
   220          1
   221         15
   223         24
   224          1
   225          7
   226          1
   233          1
   234          0
   235          1
   236          0
   238         92
   239         13
   240         22
   241          4