##TITLE=Library Entry 39566
##JCAMP-DX=Revision 4.10 
##DATA TYPE=MASS SPECTRUM
##SAMPLE DESCRIPTION=CARL DJERASSI DEPT OF CHEM STANFORD UNIV STANFORD CALIF
 94305
##NAMES=HP
##CAS NAME=3,5-Cyclo-28,33-dinorgorgostan-24-one, 6-methoxy-, (3.beta.,5.alp
ha.,6.beta.)-
##MOLFORM=C29H46O2
##CAS REGISTRY NO=55064-56-7
##MP= -300
##BP= -300
##MW= 426
##$RETENTION INDEX=0
##$CONDENSED SPECTRUM=NO
##NPOINTS= 252
##XYDATA=(XY..XY) 1 
    41        310
    42         30
    43        870
    44         40
    45        130
    50         20
    51         10
    52         10
    53         70
    54         20
    55        400
    56         30
    57         30
    58         10
    59         60
    65         30
    66         20
    67        270
    68         50
    69        200
    70         20
    71        999
    72         50
    73         20
    74         10
    77        100
    78         30
    79        300
    80         60
    81        380
    82         40
    83         60
    84         30
    85         70
    86         10
    87         10
    91        280
    92         70
    93        350
    94        180
    95        410
    96         50
    97        120
    98         40
    99        290
   100         30
   101         10
   102         20
   103         20
   104         20
   105        340
   106        110
   107        380
   108        100
   109        180
   110         40
   111         90
   112         70
   113         80
   114         10
   115         70
   116         10
   117         90
   118         60
   119        210
   120        110
   121        280
   122         90
   123        150
   124         40
   125         40
   126         30
   127         30
   128         30
   129         50
   130         30
   131        160
   132         60
   133        300
   134        110
   135        190
   136         60
   137        160
   138         80
   139        370
   140         80
   141         60
   142         20
   143         80
   144         40
   145        260
   146        100
   147        260
   148         80
   149         90
   150         30
   151         30
   152         40
   153         20
   154         10
   155         40
   156         10
   157        100
   158         80
   159        250
   160        110
   161        180
   162         60
   163         60
   164         60
   165         30
   166         30
   167         30
   168         10
   169         30
   170         10
   171         70
   172         40
   173        110
   174         30
   175        100
   176         30
   177         50
   178         20
   179         50
   180         20
   181         10
   183         40
   184         30
   185         80
   186         50
   187        100
   188         30
   189         60
   190         30
   191        110
   192         20
   193         30
   197         50
   198         30
   199        100
   200         50
   201         90
   202         40
   203         40
   204         20
   205         30
   206         10
   207         20
   209         20
   211         60
   212         40
   213        160
   214         60
   215         70
   216         30
   217         30
   219         20
   225         40
   226         30
   227        140
   228        120
   229         70
   230         20
   231         70
   232         30
   233         20
   237         20
   239         60
   240         30
   241         50
   242         20
   243         20
   244         20
   245         40
   246         20
   251         20
   252         30
   253        490
   254        230
   255        180
   256         60
   257         30
   259         30
   260         20
   267         40
   268         20
   269         30
   270         20
   271         50
   272         20
   273        100
   274         30
   275         20
   281         60
   282         40
   283         40
   284         30
   285        230
   286        300
   287         80
   288         20
   289         50
   290         20
   293         20
   295         60
   296         60
   297         30
   299         20
   303         30
   308         40
   313         80
   314         30
   323         60
   324         20
   325         30
   327         20
   328         30
   330         20
   333         30
   339         30
   340         50
   341         30
   343         30
   351         60
   352         30
   353         40
   357         20
   368        220
   369        100
   370         40
   371        940
   372        280
   373         60
   379        100
   380         40
   381         30
   383         40
   384         40
   385         70
   386         30
   394        570
   395        200
   396         50
   397         30
   398         30
   411        510
   412        170
   413         50
   426        650
   427        210
   428         40