##TITLE=Library Entry 84758
##JCAMP-DX=Revision 4.10 
##DATA TYPE=MASS SPECTRUM
##SAMPLE DESCRIPTION=Japan AIST/NIMC Database- Spectrum MS-NW-9467
##NAMES=HP
##CAS NAME=p-Cresyl isovalerate
##MOLFORM=C12H16O2
##CAS REGISTRY NO=55066-56-3
##MP= -300
##BP= -300
##MW= 192
##$RETENTION INDEX=1389
##$CONDENSED SPECTRUM=NO
##NPOINTS= 60
##XYDATA=(XY..XY) 1 
    15          1
    26          1
    27         20
    28          3
    29         31
    38          2
    39         26
    40          3
    41         67
    42          6
    43         29
    44          1
    50          5
    51         14
    52          9
    53         12
    54          1
    55          9
    56          3
    57        238
    58          9
    62          1
    63          5
    64          1
    65         17
    66          2
    67          1
    69         17
    70          1
    74          1
    75          1
    77         48
    78         12
    79         27
    80         18
    81          2
    83          2
    84          2
    85         90
    86          5
    88          1
    89          3
    90         12
    91         36
    92          3
   105          8
   106          3
   107        129
   108        999
   109         97
   110          6
   121          1
   133          2
   135         16
   136          1
   149          3
   150          2
   177          1
   192         59
   193          8