##TITLE=Library Entry 23727
##JCAMP-DX=Revision 4.10 
##DATA TYPE=MASS SPECTRUM
##SAMPLE DESCRIPTION=NIST Mass Spectrometry Data Center, 1990.
##NAMES=HP
##CAS NAME=3-Hexanol, 2,2,5,5-tetramethyl-
##MOLFORM=C10H22O
##CAS REGISTRY NO=55073-86-4
##MP= -300
##BP= -300
##MW= 158
##$RETENTION INDEX=0
##$CONDENSED SPECTRUM=NO
##NPOINTS= 31
##XYDATA=(XY..XY) 1 
    15         10
    27         49
    28         37
    29        114
    31          9
    39         69
    41        244
    42         17
    43         84
    44         14
    45         36
    53         18
    55         39
    57        999
    58         40
    59         16
    67         10
    69        101
    70          9
    71         34
    82          8
    83         16
    84          9
    85         32
    86          8
    87        129
    88          6
   100         68
   101        163
   102         10
   125         15