##TITLE=Library Entry 99293
##JCAMP-DX=Revision 4.10 
##DATA TYPE=MASS SPECTRUM
##SAMPLE DESCRIPTION=A.SELVA INST. CHEM., POLYTECHNIC OF MILAN, MILAN, ITALY
##NAMES=HP
##CAS NAME=1,4,2-Dioxazole, 5-(4-nitrophenyl)-3-phenyl-
##MOLFORM=C14H10N2O4
##CAS REGISTRY NO=55076-23-8
##MP= -300
##BP= -300
##MW= 270
##$RETENTION INDEX=0
##$CONDENSED SPECTRUM=NO
##NPOINTS= 33
##XYDATA=(XY..XY) 1 
    37         10
    38         20
    39         50
    40         10
    41         30
    50         60
    51        160
    52         20
    62         20
    63         70
    64        160
    65         50
    74         10
    75         20
    76         60
    77        230
    78         20
    88         10
    89         20
    90         10
    91        250
    92         30
    93         10
   103         50
   104         30
   105        150
   106         10
   119        999
   120        100
   121         10
   270        210
   271         40
   272         10