##TITLE=Library Entry 58993
##JCAMP-DX=Revision 4.10 
##DATA TYPE=MASS SPECTRUM
##SAMPLE DESCRIPTION=A.A.Kutin, Moscow, Russia
##NAMES=HP
##CAS NAME=Andrographolide
##MOLFORM=C20H30O5
##CAS REGISTRY NO=5508-58-7
##MP= -300
##BP= -300
##MW= 350
##$RETENTION INDEX=2635
##$CONDENSED SPECTRUM=NO
##NPOINTS= 89
##XYDATA=(XY..XY) 1 
    39        270
    41        835
    42         44
    43        639
    44         92
    45         42
    51         33
    53        308
    55        698
    56         35
    57        312
    65        189
    66         40
    67        379
    68         82
    69        333
    71         40
    77        434
    78        179
    79        757
    80        137
    81        248
    82         46
    83         97
    85         25
    91        999
    92        149
    93        653
    94        116
    95        282
    96         14
    97        263
    98         25
   102         19
   103         50
   104         48
   105        679
   106         94
   107        548
   108        130
   109        221
   110         23
   111         69
   115        225
   116         52
   117        293
   118        101
   119        632
   120        208
   121        603
   122         92
   123        145
   128        204
   129        124
   130         84
   131        261
   132         50
   133        276
   134         69
   135        120
   137         61
   138         27
   141         78
   143         97
   144         25
   145        206
   146         48
   147        206
   148         35
   151         69
   157         86
   159        179
   160         54
   161        120
   163         21
   165         23
   167         48
   171         42
   173        122
   174         48
   175        103
   176         46
   181         21
   183         21
   185         21
   187        147
   274         16
   302         38
   332         50