##TITLE=Library Entry 61957
##JCAMP-DX=Revision 4.10 
##DATA TYPE=MASS SPECTRUM
##SAMPLE DESCRIPTION=A. OKU, DEP. CHEM., KYOTO INST. TECHNOL., KYOTO, JAPAN
##NAMES=HP
##CAS NAME=trans-1-Cyano-2-phenylcyclopropanol
##MOLFORM=C10H9NO
##CAS REGISTRY NO=5508-33-8
##MP= -300
##BP= -300
##MW= 159
##$RETENTION INDEX=0
##$CONDENSED SPECTRUM=NO
##NPOINTS= 12
##XYDATA=(XY..XY) 1 
    27        250
    43         70
    51        520
    77        520
    78        530
    91        999
   103        480
   104        520
   105        480
   130        820
   131        480
   159        500