##TITLE=Library Entry 67417
##JCAMP-DX=Revision 4.10 
##DATA TYPE=MASS SPECTRUM
##SAMPLE DESCRIPTION=Japan AIST/NIMC Database- Spectrum MS-IW-5030
##NAMES=HP
##CAS NAME=Diphenyl N,N'-(ethylenebis(oxy-p-phenylenetrimethylene))dicarbama
te
##MOLFORM=C34H36N2O6
##CAS REGISTRY NO=5508-93-0
##MP= -300
##BP= -300
##MW= 568
##$RETENTION INDEX=0
##$CONDENSED SPECTRUM=NO
##NPOINTS= 193
##XYDATA=(XY..XY) 1 
    15          2
    16          1
    17         27
    18         49
    25          2
    26         12
    27         27
    28         71
    29         10
    30         16
    31         11
    32          4
    33          1
    36          7
    37         14
    38         30
    39        114
    40         66
    41         42
    42         13
    43         34
    44         33
    45          3
    46          7
    47         47
    48          1
    49          5
    50         32
    51         42
    52         14
    53         23
    54          7
    55         82
    56         34
    57         15
    58         19
    59          1
    60          3
    61         10
    62         16
    63         40
    64         15
    65        186
    66        188
    67         21
    68          9
    69          9
    70          9
    71         10
    72          1
    73          5
    74         12
    75          9
    76         12
    77         82
    78         45
    79         44
    80          5
    81          9
    82          9
    83         14
    84          6
    85         10
    86          1
    87          1
    89         14
    90         14
    91        113
    92         17
    93         29
    94        999
    95         74
    96          9
    97          8
    98          2
    99          2
   101          1
   102          8
   103         40
   104         30
   105        115
   106         28
   107        183
   108         18
   109          5
   110          2
   111          5
   112          1
   113          2
   114          1
   115         46
   116         18
   117         59
   118         16
   119         32
   120         68
   121         36
   122          6
   123          3
   124          2
   125          3
   126          2
   127          6
   128          6
   129          4
   130          7
   131         32
   132         65
   133        355
   134        122
   135         61
   136          7
   137          2
   138          2
   139          2
   140          2
   141          3
   142          2
   143          6
   144          2
   145          6
   146         14
   147         46
   148         15
   149         10
   150          2
   151          1
   152          1
   153          1
   154          1
   155          1
   156          1
   157          2
   158          9
   159        103
   160         88
   161         73
   162         11
   163          2
   165          1
   167          1
   168          1
   169          1
   173          1
   174          5
   175          6
   176         87
   177         56
   178         10
   179          1
   180          1
   186          2
   187          2
   188          2
   189          2
   190          7
   191          1
   201          1
   202         13
   203        170
   204        219
   205         29
   206          3
   241          2
   253          3
   254          1
   255          1
   267          1
   268          1
   294          1
   297          1
   298          1
   308          2
   309          1
   310         37
   311         11
   312          2
   323          4
   324          9
   325          3
   335          2
   336          4
   337         14
   338          3
   339          1
   351          1
   352          2
   354          2
   362          1
   380        168
   381         40
   382          7
   396          1