##TITLE=Library Entry 46680
##JCAMP-DX=Revision 4.10 
##DATA TYPE=MASS SPECTRUM
##SAMPLE DESCRIPTION=A.A.Kutin, Moscow, Russia
##NAMES=HP
##CAS NAME=Pyridazin-3(2H)-one, 4-mercapto-5-methoxy-2-phenyl-
##MOLFORM=C11H10N2O2S
##CAS REGISTRY NO=5509-79-5
##MP= -300
##BP= -300
##MW= 234
##$RETENTION INDEX=0
##$CONDENSED SPECTRUM=NO
##NPOINTS= 111
##XYDATA=(XY..XY) 1 
    36          0
    37          4
    38         68
    39        120
    40         30
    41         20
    42         13
    43        158
    44         67
    45        205
    46         19
    47          2
    50         62
    51        392
    52         76
    53          7
    54         71
    55         14
    56          8
    57        145
    58        126
    59          7
    60          5
    62          6
    63         56
    64        139
    65         52
    66         10
    68          3
    69        175
    70         45
    71         28
    72         49
    73         43
    74         20
    75         12
    76         14
    77        999
    78         95
    79          1
    81          0
    82         10
    83          4
    84          1
    85        149
    86         90
    87         20
    88          8
    89          0
    90          7
    91        110
    92         56
    93        108
    94         36
    95          0
    96          0
    98          2
   100          0
   101        251
   102          9
   103         11
   104         61
   105         10
   108          2
   109         16
   110          1
   112          0
   113          1
   114         50
   115          1
   116          1
   117         12
   118         10
   119          5
   120         10
   121         13
   127          1
   128          3
   129         19
   134          3
   135         37
   136        157
   137          7
   138          0
   143          1
   144         22
   145          4
   146          3
   148         15
   149          1
   156          0
   160         19
   161          0
   163          4
   164          5
   172          2
   173          4
   175         31
   181          0
   187          6
   188          5
   189          5
   201         25
   202          1
   205          1
   211          0
   213          0
   233          7
   234        285
   235         27
   236          4