##TITLE=Library Entry 94871
##JCAMP-DX=Revision 4.10 
##DATA TYPE=MASS SPECTRUM
##SAMPLE DESCRIPTION=Div. of Experiment Therapeutics WRAIR, WRAMC, Washingto
n DC 20307
##NAMES=HP
##CAS NAME=2,4-Diamino-5-methyl-6-[2-naphthylthioacetamido]quinazoline
##MOLFORM=C21H19N5OS
##CAS REGISTRY NO=55096-60-1
##MP= -300
##BP= -300
##MW= 389
##$RETENTION INDEX=0
##$CONDENSED SPECTRUM=NO
##NPOINTS= 150
##XYDATA=(XY..XY) 1 
    41        133
    42        180
    43        339
    44        116
    45        398
    46         83
    47         34
    49         49
    50         76
    51        106
    52         57
    53         99
    54        131
    55         78
    56         26
    57         39
    58         80
    59        347
    60        104
    61         33
    62         39
    63         84
    64         25
    65         58
    66         47
    67         40
    68         18
    69        127
    70         45
    71          9
    72         26
    73         27
    74         60
    75         67
    76         60
    77         68
    78         60
    79         53
    80        115
    81         43
    82         62
    83         14
    84         53
    85         20
    86         87
    87         16
    88         10
    89         29
    90         24
    91         34
    92         37
    93         79
    94         59
    95         43
    96          7
    98          6
   101         16
   102         36
   103         39
   104        134
   105        135
   106        252
   107         98
   108        786
   109         56
   110        126
   111         18
   112         38
   113         63
   114        108
   115        999
   116        214
   117         45
   118         32
   119         46
   120         52
   121         50
   122         27
   123         12
   124         16
   126         78
   127         85
   128        126
   129         67
   130         20
   131         11
   132         31
   133         13
   134         77
   135         10
   136          7
   140          9
   141          6
   143          7
   144         60
   145         40
   146         97
   147        134
   148         78
   149        208
   150        211
   151        451
   152        164
   153        103
   154         36
   155         57
   156         45
   157         37
   158        162
   159        530
   160        800
   161        135
   162         55
   163         15
   164          7
   165         13
   167         10
   169          6
   170          8
   171        279
   172        112
   173        172
   174        111
   175         39
   176        151
   177         13
   178         43
   179         24
   185         10
   186         61
   187         55
   188        285
   189        259
   190         39
   192         14
   215         65
   216         33
   230         15
   231         10
   232          8
   233         30
   235         83
   236          7
   237         14
   254          8
   318         16
   388         39
   389        157
   390         38
   391          6