##TITLE=Library Entry 57984
##JCAMP-DX=Revision 4.10 
##DATA TYPE=MASS SPECTRUM
##SAMPLE DESCRIPTION=A.Pleshkova, Nesmeyanov Inst.Org.Elem.Cpds, Moscow
##NAMES=HP
##CAS NAME=10-Bromodecanoic acid, ethyl ester
##MOLFORM=C12H23BrO2
##CAS REGISTRY NO=55099-31-5
##MP= -300
##BP= -300
##MW= 278
##$RETENTION INDEX=0
##$CONDENSED SPECTRUM=NO
##NPOINTS= 99
##XYDATA=(XY..XY) 1 
    47          3
    48          1
    51          5
    53         28
    54         32
    55        337
    56         50
    57        103
    58          3
    59         12
    60        225
    61        179
    62          5
    67         50
    68         25
    69        212
    70        133
    71         50
    72          2
    73        210
    74         33
    75          7
    79         13
    80         23
    81         37
    82         23
    83        110
    84         46
    85         18
    86          5
    87         34
    88        999
    89         71
    90          6
    95         16
    96         11
    97         47
    98         38
    99          6
   101        438
   102         42
   107         21
   108          3
   109         19
   110         14
   111         22
   112          3
   115         46
   116          5
   117          7
   118          4
   119         14
   120          1
   121          8
   123          5
   124          3
   125          5
   126          1
   127          3
   128          2
   129         11
   135         15
   136          2
   137         13
   143         16
   144          2
   147          2
   149         19
   150          6
   151          8
   152          3
   153         21
   154          3
   157         23
   158          3
   164          2
   169          1
   181          2
   188          2
   189          1
   190          2
   191          3
   192          1
   193          3
   199         18
   200          2
   215          1
   217          1
   219          1
   221          3
   223          3
   233         67
   234          5
   235         80
   236          8
   237         17
   238          2
   278          2
   280          3