##TITLE=Library Entry 79285
##JCAMP-DX=Revision 4.10 
##DATA TYPE=MASS SPECTRUM
##SAMPLE DESCRIPTION=NIST Mass Spectrometry Data Center, 1994
##NAMES=HP
##CAS NAME=5-Chloropentyl benzoate
##MOLFORM=C12H15ClO2
##CAS REGISTRY NO=55092-47-2
##MP= -300
##BP= -300
##MW= 226
##$RETENTION INDEX=0
##$CONDENSED SPECTRUM=NO
##NPOINTS= 70
##XYDATA=(XY..XY) 1 
    12          1
    14          1
    15          9
    17          1
    18          3
    26         17
    27        158
    28         45
    29         84
    30          6
    31          1
    35          1
    36          2
    37          3
    38         13
    39        109
    40         22
    41        179
    42         61
    43         22
    44          5
    49         31
    50         86
    51        265
    52         17
    53         25
    54          3
    55        103
    56          6
    57          6
    61          2
    62          8
    63         20
    64          3
    65         15
    66          2
    67         45
    68        223
    69         68
    70          3
    73          2
    74         17
    75         19
    76          2
    77        555
    78         49
    79         65
    80          4
    85          2
    91          4
    92          2
    93          1
    94          3
   105        999
   106        101
   107          7
   108          0
   120          3
   122        244
   123        491
   124         38
   125          3
   135          9
   136          1
   139          0
   163          2
   191          8
   192          1
   226          6
   228          1