##TITLE=Library Entry 46447
##JCAMP-DX=Revision 4.10 
##DATA TYPE=MASS SPECTRUM
##SAMPLE DESCRIPTION=M.PINTO UNIV. DO PORTO, PORTO, PORTUGAL
##NAMES=HP
##CAS NAME=9H-Xanthen-9-one, 1,3-dihydroxy-4-methyl-
##MOLFORM=C14H10O4
##CAS REGISTRY NO=55092-48-3
##MP= -300
##BP= -300
##MW= 242
##$RETENTION INDEX=0
##$CONDENSED SPECTRUM=NO
##NPOINTS= 78
##XYDATA=(XY..XY) 1 
    26         70
    27        330
    29        260
    37         70
    38        280
    39        980
    40        110
    41        190
    42        240
    43        180
    50        630
    51        670
    52        210
    53        570
    54         70
    56        250
    61         80
    62        350
    63        900
    64        500
    65        630
    66        160
    67        120
    68         50
    69        790
    70         60
    74        330
    75        410
    76        420
    77        999
    78        150
    79        240
    80         50
    81         80
    83         50
    86        100
    87        170
    88        120
    89        250
    90         80
    91        170
    92        480
    93        220
    98         50
    99         50
   101        100
   102        160
   103        110
   104         90
   105         80
   109         50
   113         90
   114         80
   115        350
   116         60
   120         80
   121        300
   126         60
   127        220
   128        390
   129        190
   131         60
   137         90
   139        210
   141         70
   147        230
   157         80
   165         70
   167         70
   168         60
   171         80
   185        130
   197         50
   213        280
   214         60
   241        230
   242        610
   243        110