##TITLE=Library Entry 11046
##JCAMP-DX=Revision 4.10 
##DATA TYPE=MASS SPECTRUM
##SAMPLE DESCRIPTION=Exported from NIST MS Search
##NAMES=HP
##CAS NAME=2-Cyclopenten-1-one, 4-hydroxy-3-methyl-2-(2-propenyl)-
##MOLFORM=C9H12O2
##CAS REGISTRY NO=551-45-1
##MP= -300
##BP= -300
##MW= 152
##$RETENTION INDEX=0
##$CONDENSED SPECTRUM=NO
##NPOINTS= 56
##XYDATA=(XY..XY) 1 
    27        332
    28        217
    29        145
    31         65
    38         70
    39        539
    40         95
    41        467
    42         70
    43        999
    44         92
    45         65
    50        130
    51        245
    52        182
    53        417
    54        130
    55        245
    57         57
    65        217
    66        112
    67        417
    68         62
    69        170
    71        117
    77        350
    78        140
    79        689
    80        157
    81        425
    82        162
    83        130
    91        455
    92         92
    93        115
    94         70
    95        260
    96         72
   105        150
   106         57
   107        140
   108         95
   109        932
   110        120
   111        315
   119        115
   123        215
   124        190
   133         92
   134         70
   135         85
   137        345
   138         67
   151         70
   152        512
   153         57