##TITLE=Library Entry 18812
##JCAMP-DX=Revision 4.10 
##DATA TYPE=MASS SPECTRUM
##SAMPLE DESCRIPTION=Japan AIST/NIMC Database- Spectrum MS-NW-3753
##NAMES=HP
##CAS NAME=Dimetridazole
##MOLFORM=C5H7N3O2
##CAS REGISTRY NO=551-92-8
##MP= -300
##BP= -300
##MW= 141
##$RETENTION INDEX=1353
##$CONDENSED SPECTRUM=NO
##NPOINTS= 76
##XYDATA=(XY..XY) 1 
    12          1
    13          2
    14          7
    15        100
    16          1
    17          1
    18          3
    24          1
    25          6
    26         92
    27        215
    28        219
    29          9
    30         43
    31          1
    32          2
    37          5
    38         12
    39         21
    40         32
    41         34
    42        313
    43        119
    44          5
    46          6
    47          1
    50          2
    51         25
    52        155
    53        152
    54        999
    55         62
    56        127
    57          6
    58          4
    59          2
    60          1
    63          1
    64          2
    65          2
    66         11
    67         31
    68         31
    69          7
    70         21
    71          2
    72          1
    77          4
    78          1
    79          9
    80         64
    81         15
    82          2
    83          3
    84         15
    85          1
    93          4
    94         14
    95        584
    96         54
    97          3
   106          1
   108         10
   109          2
   110          1
   111         20
   112         15
   113          1
   124          5
   125         11
   126          1
   139          1
   140          2
   141        638
   142         43
   143          4