##TITLE=Library Entry 2786
##JCAMP-DX=Revision 4.10 
##DATA TYPE=MASS SPECTRUM
##SAMPLE DESCRIPTION=CARL DJERASSI DEPT OF CHEM STANFORD UNIV STANFORD CALIF
 94305
##NAMES=HP
##CAS NAME=2H-Benzocyclohepten-2-one, decahydro-4a-methyl-, trans-
##MOLFORM=C12H20O
##CAS REGISTRY NO=55103-64-5
##MP= -300
##BP= -300
##MW= 180
##$RETENTION INDEX=0
##$CONDENSED SPECTRUM=NO
##NPOINTS= 56
##XYDATA=(XY..XY) 1 
    41        999
    42        160
    43        200
    44         10
    51         20
    52         20
    53        290
    54        180
    55        850
    56        280
    57        200
    65         60
    66         40
    67        640
    68        330
    69        440
    70         80
    71         20
    77         80
    78         10
    79        150
    80         60
    81        610
    82        270
    83        210
    84        120
    85         10
    91         50
    93        100
    94         50
    95        320
    96        140
    97        110
    98         50
   105         10
   107         60
   108        270
   109        460
   110        150
   111        100
   112         40
   121         10
   122         50
   123        290
   124        100
   125        110
   133         20
   136         20
   137        110
   138         20
   147         20
   151        100
   152         20
   165         50
   180        260
   181         30