##TITLE=Library Entry 89790
##JCAMP-DX=Revision 4.10 
##DATA TYPE=MASS SPECTRUM
##SAMPLE DESCRIPTION=M.G.HORNING,INST.FOR LIPID RES,BAYLOR COLL.OF MED,HOUST
ON,TEX
##NAMES=HP
##CAS NAME=Phosphonic acid, [1-[(2,2-dimethylpropylidene)amino]ethyl]-, bis(
trimethylsilyl) ester
##MOLFORM=C13H32NO3PSi2
##CAS REGISTRY NO=55108-73-1
##MP= -300
##BP= -300
##MW= 337
##$RETENTION INDEX=0
##$CONDENSED SPECTRUM=NO
##NPOINTS= 70
##XYDATA=(XY..XY) 1 
    41        200
    42         90
    43         25
    44        260
    45         65
    46         10
    47         15
    53         15
    54         20
    55        100
    56         30
    57         35
    59         20
    61         10
    63         20
    67         10
    68         20
    69        150
    70         30
    71         45
    72         10
    73        250
    74         20
    75         60
    77         20
    78         20
    81         10
    82         30
    84         10
    96         90
    97         10
   110         10
   111         15
   112        999
   113         80
   119         10
   121         20
   131         10
   133         50
   134         10
   135         75
   136         10
   137         15
   147         80
   148         15
   149         15
   151         10
   195         85
   196         15
   197         10
   209         40
   210         35
   211        160
   212         25
   213         10
   225         65
   226        490
   227         90
   228         40
   237         20
   239         45
   240         10
   253         20
   254        420
   255         85
   256         40
   280         15
   322         66
   323         16
   324          7