##TITLE=Library Entry 66688
##JCAMP-DX=Revision 4.10 
##DATA TYPE=MASS SPECTRUM
##SAMPLE DESCRIPTION=CARL DJERASSI DEPT OF CHEM STANFORD UNIV STANFORD CALIF
 94305
##NAMES=HP
##CAS NAME=Acetic acid, (4-methoxycyclohexylidene)-, ethyl ester
##MOLFORM=C11H18O3
##CAS REGISTRY NO=55103-56-5
##MP= -300
##BP= -300
##MW= 198
##$RETENTION INDEX=0
##$CONDENSED SPECTRUM=NO
##NPOINTS= 70
##XYDATA=(XY..XY) 1 
    41        696
    42         60
    43        313
    44         30
    45        363
    46         10
    50         20
    51        111
    52         70
    53        333
    54         50
    55        242
    56         50
    57         30
    58        444
    59         60
    60         60
    61         20
    63         30
    65        202
    66        232
    67        282
    68        121
    69         60
    70         10
    71        151
    72         10
    77        494
    78         80
    79        363
    80         30
    81        191
    82         30
    83         30
    84         80
    85         20
    88         60
    89         10
    91        696
    92        353
    93        999
    94        333
    95        151
    97        161
    98         10
    99         20
   107         20
   109        121
   110        161
   111        191
   112        333
   113         20
   119         90
   120        202
   121        646
   122         80
   123         60
   124         60
   125         70
   137        262
   138        454
   139         50
   140         30
   152        171
   153        272
   154         20
   165         20
   166        898
   167         80
   198         40