##TITLE=Library Entry 48524
##JCAMP-DX=Revision 4.10 
##DATA TYPE=MASS SPECTRUM
##SAMPLE DESCRIPTION=CARL DJERASSI DEPT OF CHEM STANFORD UNIV STANFORD CALIF
 94305
##NAMES=HP
##CAS NAME=2H-Benzocyclohepten-2-one, 3,4,4a,5,6,7,8,9-octahydro-4a-methyl-,
 (S)-
##MOLFORM=C12H18O
##CAS REGISTRY NO=55103-71-4
##MP= -300
##BP= -300
##MW= 178
##$RETENTION INDEX=0
##$CONDENSED SPECTRUM=NO
##NPOINTS= 76
##XYDATA=(XY..XY) 1 
    40        200
    41        940
    42        120
    43        150
    44         10
    45         10
    50         90
    51        300
    52        200
    53        500
    54         90
    55        480
    56         30
    57         20
    58         10
    62         30
    63        120
    64         40
    65        340
    66        180
    67        560
    68        140
    69        130
    70         10
    74         10
    75         10
    76         10
    77        560
    78        190
    79        999
    80        270
    81        300
    82        180
    83         30
    89         10
    91        530
    92        100
    93        690
    94        270
    95        240
    96        140
    97        110
   103         50
   104         20
   105        120
   106         40
   107        580
   108        260
   109        120
   110         50
   115         20
   117         30
   118         10
   119         50
   120         20
   121        870
   122        370
   123        150
   124         40
   131         20
   132         10
   133         20
   134         20
   135        340
   136        870
   137        110
   145         30
   149         90
   150        280
   151         30
   160         30
   163        120
   164         20
   177         10
   178        570
   179        140