##TITLE=Library Entry 35077
##JCAMP-DX=Revision 4.10 
##DATA TYPE=MASS SPECTRUM
##SAMPLE DESCRIPTION=CARL DJERASSI DEPT OF CHEM STANFORD UNIV STANFORD CALIF
 94305
##NAMES=HP
##CAS NAME=2-Dodecene, 2-methyl-
##MOLFORM=C13H26
##CAS REGISTRY NO=55103-82-7
##MP= -300
##BP= -300
##MW= 182
##$RETENTION INDEX=0
##$CONDENSED SPECTRUM=NO
##NPOINTS= 32
##XYDATA=(XY..XY) 1 
    41        550
    42         60
    43        220
    44         10
    53         60
    54         30
    55        290
    56        690
    57        330
    58         10
    67         70
    68         90
    69        999
    70        230
    71         50
    72         20
    79         10
    81         30
    82         50
    83        150
    84         90
    85         30
    95         10
    96         10
    97         80
    98         20
   111         40
   112         10
   126         30
   154         10
   182        140
   183         20