##TITLE=Library Entry 19708
##JCAMP-DX=Revision 4.10 
##DATA TYPE=MASS SPECTRUM
##SAMPLE DESCRIPTION=CARL DJERASSI DEPT OF CHEM STANFORD UNIV STANFORD CALIF
 94305
##NAMES=HP
##CAS NAME=Gorgost-5-en-3-ol, (3.beta.)-, TMS derivative
##MOLFORM=C33H58OSi
##CAS REGISTRY NO=55103-85-0
##MP= -300
##BP= -300
##MW= 498
##$RETENTION INDEX=0
##$CONDENSED SPECTRUM=NO
##NPOINTS= 186
##XYDATA=(XY..XY) 1 
    41        475
    42         39
    43        920
    44         29
    45         29
    47         19
    53         69
    54          9
    55        999
    56         59
    57        396
    58         19
    59         39
    61         39
    65         19
    66          9
    67        297
    68         49
    69        861
    70        118
    71        356
    72         19
    73        891
    74         79
    75        643
    76         49
    77         79
    78         19
    79        217
    80         29
    81        455
    82        108
    83        683
    84         49
    85         19
    89         19
    91        198
    92         29
    93        277
    94         59
    95        346
    96         39
    97        366
    98        198
    99          9
   101         29
   103         19
   104          9
   105        227
   106         59
   107        277
   108         59
   109        178
   110         19
   111         49
   112          9
   115         39
   116         19
   117         69
   118         29
   119        227
   120        108
   121        158
   122         29
   123         59
   124          9
   125         19
   128          9
   129        603
   130         99
   131        128
   132         39
   133        227
   134         29
   135         79
   136          9
   137         19
   139         19
   141          9
   142          9
   143         99
   144         39
   145        168
   146         29
   147        118
   148         19
   149         49
   153         19
   155         29
   156          9
   157         59
   158         49
   159        158
   160         39
   161         69
   162         19
   163         29
   168         29
   169          9
   170         29
   171          9
   172         79
   173         19
   174         29
   175          9
   176          9
   181          9
   182          9
   183          9
   185         29
   186          9
   187         29
   188          9
   189         29
   195          9
   196          9
   197         19
   199         29
   200          9
   201         19
   203         19
   211         29
   212          9
   213         69
   214         19
   215         69
   216         29
   217         19
   218         69
   219          9
   227         29
   228         29
   229         19
   239         19
   240          9
   241         39
   242          9
   243         19
   253         39
   254         19
   255        138
   256         29
   257         69
   267         19
   268          9
   269          9
   270          9
   271         49
   272          9
   281         79
   282         29
   283        128
   284         29
   285          9
   295         19
   296         89
   297         19
   337         79
   338         19
   339         19
   342         19
   343         69
   344         59
   345         19
   346          9
   365         29
   366          9
   367         19
   368         19
   369         49
   370         19
   371         29
   372         29
   373         19
   385        128
   386         49
   387         29
   393         29
   400         29
   408         99
   409         39
   483         29
   484          9
   498        138
   499         49
   500         19