##TITLE=Library Entry 71378
##JCAMP-DX=Revision 4.10 
##DATA TYPE=MASS SPECTRUM
##SAMPLE DESCRIPTION=M.G.HORNING,INST.FOR LIPID RES,BAYLOR COLL.OF MED,HOUST
ON,TEX
##NAMES=HP
##CAS NAME=Phosphonic acid, [1-[(1-methylethylidene)amino]propyl]-, bis(trim
ethylsilyl) ester
##MOLFORM=C12H30NO3PSi2
##CAS REGISTRY NO=55108-65-1
##MP= -300
##BP= -300
##MW= 323
##$RETENTION INDEX=0
##$CONDENSED SPECTRUM=NO
##NPOINTS= 34
##XYDATA=(XY..XY) 1 
    41         46
    42         31
    43         13
    45         20
    56         41
    58         16
    59          7
    68         26
    70         14
    73         52
    74          7
    75         15
    77          9
    82          8
    96          8
    97         30
    98        999
    99        120
   121         10
   133         16
   135         27
   147         26
   195         13
   209          6
   211         15
   225         13
   226          7
   251         10
   267         10
   268         13
   294         10
   308         34
   309          9
   323         10