##TITLE=Library Entry 56878
##JCAMP-DX=Revision 4.10 
##DATA TYPE=MASS SPECTRUM
##SAMPLE DESCRIPTION=M.G.HORNING,INST.FOR LIPID RES,BAYLOR COLL.OF MED,HOUST
ON,TEX
##NAMES=HP
##CAS NAME=Phosphonic acid, [1-(acetylamino)pentyl]-, bis(trimethylsilyl) es
ter
##MOLFORM=C13H32NO4PSi2
##CAS REGISTRY NO=55108-84-4
##MP= -300
##BP= -300
##MW= 353
##$RETENTION INDEX=0
##$CONDENSED SPECTRUM=NO
##NPOINTS= 116
##XYDATA=(XY..XY) 1 
    40         10
    41         80
    42         40
    43        210
    44         60
    45         75
    47         20
    55         20
    56         50
    57         30
    58         10
    59         20
    60         10
    61         20
    67         20
    68         40
    69         50
    70         20
    71         10
    72         30
    73        400
    74         45
    75        140
    76         15
    77         35
    80         10
    82         15
    83         25
    84         65
    85         15
    86        999
    87         50
    96         15
    98         15
   102         10
   103         10
   105         10
   107         10
   110         10
   111        120
   112         10
   115         10
   116         10
   117         30
   119         15
   121         50
   122         10
   123         10
   127         10
   128        350
   129         40
   131         25
   133        120
   134         20
   135        160
   136         30
   137         30
   147        170
   148         30
   149         45
   150         10
   151         20
   165         10
   177         10
   179         10
   181         15
   195        270
   196         40
   197         30
   198         10
   200        150
   201         25
   202         10
   209         45
   210         30
   211        780
   212        130
   213         55
   214         10
   225         80
   226        820
   227        320
   228        140
   229         20
   237         10
   238         15
   252         10
   253         45
   254         60
   255         30
   256         10
   268         50
   269         15
   270         10
   279         60
   280         15
   281         50
   282         10
   294         10
   295         15
   296         20
   297        160
   298         50
   299         20
   310        160
   311         80
   312         25
   313         10
   324         30
   325         10
   338        200
   339         65
   340         25
   353         90
   354         45
   355         15