##TITLE=Library Entry 1124
##JCAMP-DX=Revision 4.10 
##DATA TYPE=MASS SPECTRUM
##SAMPLE DESCRIPTION=Chemical Concepts
##NAMES=HP
##CAS NAME=Hex-4-enylamine
##MOLFORM=C6H13N
##CAS REGISTRY NO=55108-01-5
##MP= -300
##BP= -300
##MW= 99
##$RETENTION INDEX=0
##$CONDENSED SPECTRUM=NO
##NPOINTS= 59
##XYDATA=(XY..XY) 1 
    26         12
    27        181
    28        147
    29        116
    30        999
    31         58
    37          6
    38         20
    39        243
    40         41
    41        228
    42        138
    43        288
    44        120
    45          8
    46          0
    49          1
    50         17
    51         32
    52         15
    53         83
    54         94
    55        172
    56        588
    57         66
    58          4
    61          1
    62          4
    63          7
    64          1
    65         21
    66         14
    67        630
    68         55
    69         13
    70        149
    71         10
    72          0
    74          1
    77          7
    78          2
    79         27
    80          6
    81         78
    82        546
    83         39
    84          6
    85          0
    86          0
    91          0
    93          0
    94          1
    95          0
    96          4
    97          0
    98         11
    99         37
   100         26
   101          3