##TITLE=Library Entry 89465
##JCAMP-DX=Revision 4.10 
##DATA TYPE=MASS SPECTRUM
##SAMPLE DESCRIPTION=M.G.HORNING,INST.FOR LIPID RES,BAYLOR COLL.OF MED,HOUST
ON,TEX
##NAMES=HP
##CAS NAME=Phosphonic acid, [2-methyl-1-[(1-methylethylidene)amino]propyl]-,
 bis(trimethylsilyl) ester
##MOLFORM=C13H32NO3PSi2
##CAS REGISTRY NO=55108-68-4
##MP= -300
##BP= -300
##MW= 337
##$RETENTION INDEX=0
##$CONDENSED SPECTRUM=NO
##NPOINTS= 53
##XYDATA=(XY..XY) 1 
    41         60
    42         80
    43         30
    44         10
    45         35
    46         10
    47         15
    53         10
    54         10
    55         90
    56         20
    57         10
    58         35
    59         10
    61         15
    63         50
    68         25
    69         20
    70         45
    73         95
    74         10
    75         45
    77         10
    78         35
    81         10
    82         20
    83         10
    84         50
    95         15
    96         20
    97         15
    98         75
   110         10
   111         15
   112        999
   113         80
   121         13
   124          8
   126         20
   133         18
   135         21
   147         32
   149          6
   162          8
   195         14
   209          9
   211         21
   219          8
   225         10
   281          7
   294         19
   295          7
   322         10