##TITLE=Library Entry 23728
##JCAMP-DX=Revision 4.10 
##DATA TYPE=MASS SPECTRUM
##SAMPLE DESCRIPTION=Japan AIST/NIMC Database- Spectrum MS-NW-9409
##NAMES=HP
##CAS NAME=Pentanoic acid, 4,4-dimethyl-3-oxo-, methyl ester
##MOLFORM=C8H14O3
##CAS REGISTRY NO=55107-14-7
##MP= -300
##BP= -300
##MW= 158
##$RETENTION INDEX=0
##$CONDENSED SPECTRUM=NO
##NPOINTS= 73
##XYDATA=(XY..XY) 1 
    14          4
    15         58
    18          1
    26          3
    27         41
    28         19
    29        246
    30          7
    31         31
    32         18
    33          8
    37          1
    38          4
    39         67
    40         11
    41        383
    42         47
    43        101
    44         11
    45          6
    50          3
    51          4
    52          1
    53          9
    54          2
    55         33
    56         55
    57        999
    58         45
    59         73
    60          2
    61          2
    65          2
    67          5
    68          1
    69        161
    70         11
    71         15
    73          9
    74        226
    75         13
    76          1
    79          1
    81          2
    82          1
    83         13
    84          2
    85         80
    86          4
    87          1
    97          1
    98          2
   100          3
   101        271
   102         11
   103         37
   104          1
   108          1
   109          1
   111         25
   112          2
   115          3
   123          1
   126          3
   127         11
   128          1
   130         69
   131          5
   138          1
   141          1
   143          3
   158         19
   159          3