##TITLE=Library Entry 53183
##JCAMP-DX=Revision 4.10 
##DATA TYPE=MASS SPECTRUM
##SAMPLE DESCRIPTION=CARL DJERASSI DEPT OF CHEM STANFORD UNIV STANFORD CALIF
 94305
##NAMES=HP
##CAS NAME=2(1H)-Naphthalenone, 4a,5,8,8a-tetrahydro-4,4a-dimethyl-, trans-
##MOLFORM=C12H16O
##CAS REGISTRY NO=55103-77-0
##MP= -300
##BP= -300
##MW= 176
##$RETENTION INDEX=0
##$CONDENSED SPECTRUM=NO
##NPOINTS= 86
##XYDATA=(XY..XY) 1 
    40        110
    41        560
    42         60
    43        170
    44         50
    45         40
    47         50
    48         30
    49         20
    50         50
    51        180
    52         90
    53        250
    54         50
    55        230
    56         90
    57         60
    58         90
    59         20
    60         10
    63         70
    64         40
    65        180
    66         70
    67        140
    68         40
    69        110
    70         20
    71         30
    73         20
    74         30
    75         20
    77        350
    78        140
    79        660
    80         80
    81        130
    82         30
    83        999
    84         70
    85        110
    87         20
    88         40
    89         20
    91        570
    92        230
    93        160
    94        630
    95        140
    96        200
    97         20
    98         40
   102         20
   103         40
   104         20
   105        280
   106        100
   107        370
   108         50
   109         60
   110         20
   115         70
   116         20
   117         70
   118         20
   119        270
   120         60
   121         60
   122        320
   123         40
   128         40
   129         20
   131         40
   132         40
   133        190
   134        740
   135        120
   143         60
   145         10
   146         10
   147         20
   148         40
   161        130
   162         10
   176        340
   177         60