##TITLE=Library Entry 20573
##JCAMP-DX=Revision 4.10 
##DATA TYPE=MASS SPECTRUM
##SAMPLE DESCRIPTION=CARL DJERASSI DEPT OF CHEM STANFORD UNIV STANFORD CALIF
 94305
##NAMES=HP
##CAS NAME=2(1H)-Benzocyclooctenone, decahydro-10a-methyl-, trans-
##MOLFORM=C13H22O
##CAS REGISTRY NO=55103-68-9
##MP= -300
##BP= -300
##MW= 194
##$RETENTION INDEX=0
##$CONDENSED SPECTRUM=NO
##NPOINTS= 70
##XYDATA=(XY..XY) 1 
    51         60
    52         50
    53        270
    54        210
    55        999
    56        250
    57        180
    58         20
    61         10
    65         70
    66         60
    67        600
    68        430
    69        530
    70        110
    71        120
    77         90
    78         30
    79        180
    80         80
    81        590
    82        740
    83        330
    84        140
    85         50
    91         70
    92         20
    93        130
    94        100
    95        540
    96        320
    97        210
    98        110
    99         30
   105         40
   106         30
   107         90
   108        110
   109        370
   110        520
   111        120
   112         50
   113         10
   119         30
   120         10
   121         70
   122         50
   123        270
   124        160
   125         70
   126         20
   133         20
   134         10
   135         10
   136        130
   137        100
   138         40
   139         10
   147         10
   148         10
   151         50
   152         80
   153         10
   161         20
   165         20
   166         20
   176         60
   179         50
   194        250
   195         30