##TITLE=Library Entry 53974
##JCAMP-DX=Revision 4.10 
##DATA TYPE=MASS SPECTRUM
##SAMPLE DESCRIPTION=M.G.HORNING,INST.FOR LIPID RES,BAYLOR COLL.OF MED,HOUST
ON,TEX
##NAMES=HP
##CAS NAME=Phosphonic acid, [3-[(1-methylethylidene)amino]propyl]-, bis(trim
ethylsilyl) ester
##MOLFORM=C12H30NO3PSi2
##CAS REGISTRY NO=55108-72-0
##MP= -300
##BP= -300
##MW= 323
##$RETENTION INDEX=0
##$CONDENSED SPECTRUM=NO
##NPOINTS= 131
##XYDATA=(XY..XY) 1 
    40         10
    41        160
    42        140
    43         60
    44         40
    45        120
    46         20
    47         40
    48         10
    52         10
    53         15
    54         15
    55         55
    56         35
    57         35
    58         30
    59         40
    60         10
    61         30
    62         10
    63         90
    65         10
    66         15
    67         15
    68         35
    69         30
    70        150
    71         40
    72         25
    73        360
    74         35
    75        210
    76         20
    77         35
    78         70
    79         15
    80         10
    81         25
    82         45
    83         50
    84        999
    85         65
    86         20
    91         10
    93         15
    94         15
    95         15
    96         75
    97         30
    98        160
    99         15
   103         10
   105         10
   107         10
   108         20
   109         10
   110         10
   112         45
   114         10
   115         10
   117         20
   119         15
   120         10
   121         40
   122         15
   123         15
   124         55
   125         10
   126        110
   127         15
   131         30
   132         15
   133         70
   134         15
   135        110
   136         20
   137         30
   147        200
   148         35
   149         30
   151         10
   155         35
   156         10
   163         10
   164         10
   165         10
   178         10
   179         40
   181         20
   192         10
   195         65
   196         15
   197         10
   207         10
   209         50
   210         20
   211         50
   212         10
   218         35
   224         20
   225        320
   226         80
   227         30
   228         10
   234         15
   237         55
   238         15
   239         15
   240        150
   241         35
   242         20
   250         10
   251         35
   252         15
   253         75
   254         25
   255         10
   267         90
   268         25
   269         10
   280         10
   281         10
   292         20
   294         30
   295         15
   299         10
   308        250
   309         65
   310         30
   323         65
   324         15