##TITLE=Library Entry 32170
##JCAMP-DX=Revision 4.10 
##DATA TYPE=MASS SPECTRUM
##SAMPLE DESCRIPTION=Exported from NIST MS Search
##NAMES=HP
##CAS NAME=1,4:5,12:6,11:7,10-Tetramethanodibenzo[b,h]biphenylene, eicosahyd
ro-
##MOLFORM=C24H32
##CAS REGISTRY NO=55101-93-4
##MP= -300
##BP= -300
##MW= 320
##$RETENTION INDEX=0
##$CONDENSED SPECTRUM=NO
##NPOINTS= 85
##XYDATA=(XY..XY) 1 
    27         70
    28         12
    29         42
    39        116
    40         32
    41        267
    42         22
    43         15
    51         55
    52         25
    53         96
    54         25
    55        111
    63         22
    65        111
    66        999
    67        555
    68         50
    69         20
    77        232
    78        101
    79        414
    80        202
    81        176
    82         32
    91        702
    92        232
    93        267
    94         70
    95        505
    96         45
    97         75
   103         45
   104         80
   105        176
   106        101
   107         45
   109         40
   115         99
   116         70
   117        308
   118         80
   119         68
   120         25
   121        156
   122         20
   127         20
   128        197
   129        540
   130        202
   131        292
   132         80
   133         70
   134         25
   141         55
   142         35
   143        141
   145         55
   146        106
   147         35
   153         10
   155         35
   157         96
   159         78
   160        202
   161         40
   169         30
   170         10
   171         20
   172         10
   173         10
   183         25
   185         15
   187         22
   197         20
   199         20
   212         15
   224         96
   225        424
   226        176
   227         30
   279         10
   320        282
   321         75
   322         10