##TITLE=Library Entry 45187
##JCAMP-DX=Revision 4.10 
##DATA TYPE=MASS SPECTRUM
##SAMPLE DESCRIPTION=Chemical Concepts
##NAMES=HP
##CAS NAME=1,3-Pentanediol, 2-methyl-, 1-propanoate
##MOLFORM=C9H18O3
##CAS REGISTRY NO=55109-53-0
##MP= -300
##BP= -300
##MW= 174
##$RETENTION INDEX=0
##$CONDENSED SPECTRUM=NO
##NPOINTS= 57
##XYDATA=(XY..XY) 1 
    25          0
    26          9
    27        102
    29        314
    30         11
    31        144
    33          0
    38          1
    39         27
    40          8
    41         99
    42        178
    43         69
    44          1
    45         29
    46          0
    47          0
    50          0
    51          0
    53          2
    55          1
    56         13
    57        944
    58         40
    59        359
    60         11
    61          0
    67          2
    71        205
    72         11
    73          3
    74          3
    75        999
    76         28
    77          2
    82          1
    83          2
    85         26
    86          1
    87          2
    88          0
    89          1
    97          0
    99          7
   100         24
   101          3
   114          0
   115         62
   116          9
   127         21
   128          1
   133         11
   134          0
   145         12
   146          0
   157          1
   175          0