##TITLE=Library Entry 72311
##JCAMP-DX=Revision 4.10 
##DATA TYPE=MASS SPECTRUM
##SAMPLE DESCRIPTION=CARL DJERASSI DEPT OF CHEM STANFORD UNIV STANFORD CALIF
 94305
##NAMES=HP
##CAS NAME=1,4-Dioxaspiro[4.5]decane, 8-ethoxy-
##MOLFORM=C10H18O3
##CAS REGISTRY NO=55103-52-1
##MP= -300
##BP= -300
##MW= 186
##$RETENTION INDEX=0
##$CONDENSED SPECTRUM=NO
##NPOINTS= 23
##XYDATA=(XY..XY) 1 
    41         50
    42         40
    43         30
    44         10
    45         10
    53         10
    55         70
    56         10
    57         40
    58         10
    59         60
    67         20
    69         10
    71         30
    85         20
    86        360
    87         70
    88         20
    99        999
   100         90
   110         10
   142         80
   187         10