##TITLE=Library Entry 7309
##JCAMP-DX=Revision 4.10 
##DATA TYPE=MASS SPECTRUM
##SAMPLE DESCRIPTION=P.F.CASALS, LAB. PHYSCHIM. PHOTOCHIM. ORG., UNIV. DU MA
NS, FR.
##NAMES=HP
##CAS NAME=4,8,12,16-Nonadecanetetrone
##MOLFORM=C19H32O4
##CAS REGISTRY NO=55110-15-1
##MP= -300
##BP= -300
##MW= 324
##$RETENTION INDEX=0
##$CONDENSED SPECTRUM=NO
##NPOINTS= 22
##XYDATA=(XY..XY) 1 
    43        999
    55        870
    71        760
    83        160
    95        100
    97        380
    99        200
   113        400
   123        240
   125        160
   141        400
   149         60
   151         80
   165        120
   169        120
   177        120
   193        320
   211        100
   221         50
   245         30
   263        100
   306        140