##TITLE=Library Entry 24286
##JCAMP-DX=Revision 4.10 
##DATA TYPE=MASS SPECTRUM
##SAMPLE DESCRIPTION=AP-2116
##NAMES=HP
##CAS NAME=Docosane, 6-methyl-
##MOLFORM=C23H48
##CAS REGISTRY NO=55124-81-7
##MP= -300
##BP= -300
##MW= 324
##$RETENTION INDEX=2248
##$CONDENSED SPECTRUM=NO
##NPOINTS= 123
##XYDATA=(XY..XY) 1 
    40         20
    41        300
    42        110
    43        589
    44         31
    49          4
    50         11
    51          6
    52          7
    53         20
    54         34
    55        250
    56        170
    57        999
    58         70
    59          7
    60          1
    61          1
    62          2
    63          3
    64          2
    65          5
    66          5
    67         32
    68         33
    69        160
    70        120
    71        320
    72         25
    73          3
    74          3
    77          4
    78          3
    79          5
    80          2
    81         17
    82         26
    83         92
    84         40
    85        220
    86         16
    91          3
    92          2
    93          2
    94          2
    95          9
    96         16
    97         66
    98        310
    99        150
   100         15
   109          4
   110          8
   111         31
   112         26
   113         51
   114          8
   115          2
   121          2
   122          1
   123          2
   124         14
   125         21
   126         15
   127         46
   128          6
   138          5
   139         11
   140         11
   141         35
   142          5
   152          4
   153          8
   154          7
   155         25
   156          5
   166          3
   167          5
   168          5
   169         26
   170          4
   181          2
   182          4
   183          5
   184         16
   185          4
   194          2
   195          3
   196         10
   197         17
   198          3
   208          1
   209          2
   210          5
   211          9
   212          2
   223          2
   224         36
   225         32
   226          6
   238          7
   239         11
   240          2
   252         71
   253         99
   254         21
   266         54
   267         12
   268          3
   280          6
   281         14
   282          3
   294          7
   295         16
   296          6
   297          1
   308          2
   309         16
   310          4
   322          1
   323          1
   324          7
   325          2