##TITLE=Library Entry 44796
##JCAMP-DX=Revision 4.10 
##DATA TYPE=MASS SPECTRUM
##SAMPLE DESCRIPTION=R. RYHAGE KAROLINSKA INSTITUTET, STOCKHOLM
##NAMES=HP
##CAS NAME=Octadecanoic acid, 7-methyl-, methyl ester
##MOLFORM=C20H40O2
##CAS REGISTRY NO=55124-98-6
##MP= -300
##BP= -300
##MW= 312
##$RETENTION INDEX=0
##$CONDENSED SPECTRUM=NO
##NPOINTS= 224
##XYDATA=(XY..XY) 1 
    14          2
    15          8
    16          5
    17         35
    18        140
    26          2
    27         13
    28         25
    29         51
    30         24
    31          8
    32          3
    39         10
    40          3
    41        100
    42         30
    43        210
    44         95
    45         11
    53          7
    54         10
    55        230
    56         58
    57        230
    58         15
    59         52
    60          4
    61          3
    64          5
    65          2
    66          2
    67         33
    68         17
    69        170
    70         44
    71        150
    72         13
    73         27
    74        999
    75        280
    76         14
    77          4
    78          2
    79         11
    80          7
    81         52
    82         34
    83        210
    84         67
    85        110
    86          9
    87        890
    88         77
    89          8
    90          2
    91          6
    92          2
    93         12
    94          6
    95         50
    96         36
    97        290
    98         72
    99         35
   100          7
   101        120
   102         13
   103          3
   106          3
   107         36
   108         11
   109         49
   110         18
   111         76
   112         24
   113         22
   114          4
   115         54
   116         40
   117          6
   118          3
   119          7
   120          3
   121         25
   122         36
   123         32
   124         29
   125        340
   126         94
   127         22
   128          5
   129        340
   130        150
   131         35
   132          3
   133          5
   134          4
   135        110
   136         19
   137         16
   138         19
   139         47
   140         13
   141         13
   142          2
   143         21
   144          3
   145          3
   146          2
   151         21
   152          9
   153         17
   154          7
   155          9
   156          4
   157        680
   158         78
   159         13
   160          2
   163         15
   164          4
   165          6
   166          5
   167         13
   168          6
   169          7
   170          2
   171         14
   172          4
   173          2
   177          7
   178          3
   179          6
   180         12
   181         23
   182         17
   183          9
   184          2
   185          7
   186          6
   187          2
   189          3
   191          4
   192          2
   193          7
   194         50
   195         18
   196         26
   197          9
   198          2
   199         18
   200          5
   201          2
   202          5
   204          2
   205          4
   206          2
   207          6
   208          4
   209          6
   210          5
   211          3
   212          3
   213        130
   214         21
   215          4
   221          3
   222         15
   223          7
   224          2
   225          2
   226         19
   227          8
   228          2
   233          4
   234          2
   235          2
   236         59
   237         15
   238         12
   239         18
   240          4
   241         16
   242          4
   247         11
   248          4
   249         16
   250          4
   251          4
   252          3
   253         11
   254          3
   255         19
   256          4
   257          2
   261          4
   262        210
   263        120
   264         23
   265         16
   266          4
   267          2
   269         56
   270         15
   271          3
   278          2
   279         10
   280         24
   281         50
   282         11
   283          9
   284          4
   294         17
   295          4
   296          2
   297         30
   298         11
   299          2
   310          2
   311          9
   312        620
   313        160
   314         24
   315          3