##TITLE=Library Entry 42991
##JCAMP-DX=Revision 4.10 
##DATA TYPE=MASS SPECTRUM
##SAMPLE DESCRIPTION=S. MARKEY UNIV. OF COLO. MED. CTR., DENVER, COLORADO, U
SA
##NAMES=HP
##CAS NAME=3-Aminoisobutyric acid, 3TMS derivative
##MOLFORM=C13H33NO2Si3
##CAS REGISTRY NO=55125-15-0
##MP= -300
##BP= -300
##MW= 319
##$RETENTION INDEX=0
##$CONDENSED SPECTRUM=NO
##NPOINTS= 118
##XYDATA=(XY..XY) 1 
    25          5
    26         17
    27         24
    29         33
    30          3
    31         37
    36          1
    37          1
    39         10
    40         16
    41         40
    42         41
    43        102
    44         43
    45        257
    46         18
    47         35
    49          3
    53          8
    54          2
    55         25
    56         18
    57         45
    58         74
    59        293
    60         30
    61         23
    62          1
    63          8
    65          5
    66          5
    67          3
    68         23
    69         22
    70         20
    71         15
    72         41
    73        999
    74        127
    75        165
    76         12
    77         22
    79          1
    84          5
    85         21
    86        196
    87         59
    88         15
    89          1
    93         15
    95          2
    98          6
    99         13
   100        126
   101         22
   102         31
   103         15
   104          1
   105          1
   111          3
   112          6
   113         13
   114         28
   115         20
   116         22
   117         44
   118          9
   119         18
   120          1
   128          4
   129         20
   130        187
   131         69
   132         28
   133        259
   134         36
   135         20
   142          5
   143          4
   144          7
   145          3
   146         11
   147        177
   148         35
   149         12
   157          1
   158          9
   159          3
   160         62
   161          8
   170          1
   172         15
   173          6
   174        744
   175        188
   176         71
   177          8
   186          8
   187          5
   188          3
   190          1
   201          2
   202         47
   203         19
   204         16
   205          5
   206          3
   214          2
   216          8
   218          1
   246          9
   248        214
   249         46
   250         26
   288          5
   304         78
   305         17
   306          9