##TITLE=Library Entry 4019
##JCAMP-DX=Revision 4.10 
##DATA TYPE=MASS SPECTRUM
##SAMPLE DESCRIPTION=CARL DJERASSI DEPT OF CHEM STANFORD UNIV STANFORD CALIF
 94305
##NAMES=HP
##CAS NAME=2(3H)-Naphthalenone, 4,4a,5,6,7,8-hexahydro-4a,7,7-trimethyl-, (R
)-
##MOLFORM=C13H20O
##CAS REGISTRY NO=55123-72-3
##MP= -300
##BP= -300
##MW= 192
##$RETENTION INDEX=0
##$CONDENSED SPECTRUM=NO
##NPOINTS= 83
##XYDATA=(XY..XY) 1 
    40        140
    41        999
    42         80
    43        220
    44         20
    45         10
    50         40
    51        160
    52        110
    53        300
    54         50
    55        430
    56         50
    57         60
    58         20
    59         10
    60         10
    62         10
    63         60
    64         30
    65        180
    66         80
    67        220
    68         40
    69        580
    70         60
    71         20
    72         10
    77        320
    78         90
    79        450
    80        180
    81        140
    82         60
    83         40
    89         10
    91        290
    92         50
    93        290
    94        100
    95        200
    96         80
    97         40
   103         30
   104         20
   105        110
   106         60
   107        300
   108        240
   109        290
   110         50
   115         30
   116         10
   117         30
   118         20
   119         70
   120         50
   121        280
   122        110
   123        150
   124        590
   125         60
   131         30
   133         50
   134         30
   135        420
   136        160
   137         60
   147         20
   148         20
   149        340
   150        410
   151         50
   159         50
   163         50
   164        370
   165         60
   174         30
   177        470
   178         70
   192        440
   193         90
   194         20