##TITLE=Library Entry 7839
##JCAMP-DX=Revision 4.10 
##DATA TYPE=MASS SPECTRUM
##SAMPLE DESCRIPTION=Exported from NIST MS Search
##NAMES=HP
##CAS NAME=Heptadecane, 9-hexyl-
##MOLFORM=C23H48
##CAS REGISTRY NO=55124-79-3
##MP= -300
##BP= -300
##MW= 324
##$RETENTION INDEX=0
##$CONDENSED SPECTRUM=NO
##NPOINTS= 261
##XYDATA=(XY..XY) 1 
    38          3
    39         63
    40         16
    41        490
    42         95
    43        999
    44         33
    45          1
    47          1
    48          1
    49          1
    50          1
    51          2
    52          2
    53         24
    54         35
    55        321
    56        139
    57        898
    58         42
    59          1
    60          1
    61          1
    62          1
    63          1
    64          1
    65          3
    66          3
    67         36
    68         26
    69        162
    70         83
    71        571
    72         33
    73          1
    74          1
    75          1
    76          1
    77          3
    78          1
    79          5
    80          2
    81         15
    82         20
    83         99
    84         46
    85        408
    86         28
    87          1
    88          1
    89          1
    90          1
    91          3
    92          2
    93          2
    94          1
    95          6
    96         11
    97         66
    98         26
    99        103
   100          8
   101          1
   102          1
   103          1
   104          1
   105          1
   106          1
   107          1
   108          1
   109          2
   110          7
   111         35
   112         21
   113         70
   114          7
   115          1
   116          1
   117          1
   118          1
   119          1
   120          1
   121          1
   122          1
   123          1
   124          5
   125         19
   126         14
   127         53
   128          6
   129          1
   130          1
   131          1
   132          1
   133          1
   134          1
   135          1
   136          1
   137          1
   138          3
   139         10
   140          9
   141         42
   142          5
   143          1
   144          1
   145          1
   146          1
   147          1
   148          1
   149          1
   150          1
   151          1
   152          2
   153          6
   154          7
   155         32
   156          4
   157          1
   158          1
   159          1
   160          1
   161          1
   162          1
   163          1
   164          1
   165          1
   166          1
   167          4
   168          5
   169         20
   170          3
   171          1
   172          1
   173          1
   174          1
   175          1
   176          1
   177          1
   178          1
   179          1
   180          1
   181          2
   182          9
   183          9
   184          1
   185          1
   186          1
   187          1
   189          1
   190          1
   191          1
   192          1
   193          1
   194          1
   195          1
   196          5
   197          7
   198          1
   199          1
   200          1
   201          1
   202          1
   203          1
   204          1
   205          1
   206          1
   207          1
   208          1
   209          1
   210        106
   211         91
   212         14
   213          1
   214          1
   215          1
   216          1
   217          1
   218          1
   219          1
   220          1
   221          1
   222          1
   223          1
   224          4
   225          5
   226          1
   227          1
   228          1
   229          1
   230          1
   231          1
   232          1
   233          1
   234          1
   235          1
   236          1
   237          1
   238         40
   239         47
   240          8
   241          1
   242          1
   243          1
   244          1
   245          1
   246          1
   247          1
   248          1
   249          1
   250          1
   251          1
   252          2
   253          2
   254          1
   255          1
   256          1
   257          1
   258          1
   259          1
   260          1
   261          1
   262          1
   263          1
   264          1
   265          1
   266          1
   267          2
   268          1
   269          1
   270          1
   271          1
   272          1
   273          1
   274          1
   275          1
   276          1
   277          1
   278          1
   279          1
   280          1
   281          1
   282          1
   283          1
   284          1
   285          1
   286          1
   287          1
   288          1
   289          1
   290          1
   291          1
   292          1
   293          1
   294          1
   295          1
   296          1
   322          1
   323          1
   324          1
   325          1