##TITLE=Library Entry 76237
##JCAMP-DX=Revision 4.10 
##DATA TYPE=MASS SPECTRUM
##SAMPLE DESCRIPTION=K. BERGSTROM KAROLINSKA INST., STOCKHOLM, SWEDEN
##NAMES=HP
##CAS NAME=2,3-Diaminopropanoic acid, 3TMS derivative
##MOLFORM=C12H32N2O2Si3
##CAS REGISTRY NO=55124-76-0
##MP= -300
##BP= -300
##MW= 320
##$RETENTION INDEX=0
##$CONDENSED SPECTRUM=NO
##NPOINTS= 17
##XYDATA=(XY..XY) 1 
    45         50
    57         70
    59         40
    73        450
    75         80
    77         50
   101         90
   102        999
   103        100
   147         90
   203         50
   204        120
   219        150
   275         30
   291        520
   305         30
   320         20