##TITLE=Library Entry 42441
##JCAMP-DX=Revision 4.10 
##DATA TYPE=MASS SPECTRUM
##SAMPLE DESCRIPTION=Chemical Concepts
##NAMES=HP
##CAS NAME=Aceturic acid, 2TMS derivative
##MOLFORM=C10H23NO3Si2
##CAS REGISTRY NO=55124-99-7
##MP= -300
##BP= -300
##MW= 261
##$RETENTION INDEX=1357
##$CONDENSED SPECTRUM=NO
##NPOINTS= 135
##XYDATA=(XY..XY) 1 
    26          5
    27         52
    28          5
    29         15
    30         52
    31         19
    33          1
    36          1
    38          3
    39          5
    40          6
    41          8
    42         30
    43        241
    44         50
    45        277
    46         19
    47         83
    48          3
    49          4
    50          1
    51          5
    52          8
    53          8
    54         31
    55        142
    56         47
    57         18
    58         29
    59         88
    60         16
    61         37
    62          1
    63          3
    64          1
    65          4
    66         22
    67          3
    68          7
    69          9
    70         12
    71          8
    72         62
    73        999
    74        104
    75        361
    76         21
    77         29
    78          3
    79          3
    80          0
    81          0
    82         12
    83          3
    84          3
    85          5
    86         35
    87         12
    88         12
    89          6
    90          2
    91          1
    92          0
    93          3
    94          2
    95          0
    96          1
    97          1
    98          2
    99          8
   100         66
   101         37
   102        556
   103         65
   104         48
   105          6
   106          2
   108          1
   110          1
   111          2
   112          7
   113          3
   114          7
   116         67
   117         30
   118          5
   119          4
   120          2
   128          5
   129         10
   130         41
   131         31
   132         29
   133         43
   134          7
   135          4
   142          5
   144        652
   145        115
   146         33
   147        376
   148         64
   149         33
   150          4
   151          1
   156          8
   157          2
   158          2
   163          1
   171         85
   172         15
   173          6
   174         38
   175          4
   176         63
   177         10
   178          4
   185          2
   191          2
   202         12
   203          3
   204          2
   205          1
   207          1
   218         86
   219         21
   220         10
   230          1
   246        110
   247         29
   248         12
   249          2
   261         27
   262          8
   263          2