##TITLE=Library Entry 25511
##JCAMP-DX=Revision 4.10 
##DATA TYPE=MASS SPECTRUM
##SAMPLE DESCRIPTION=Exported from NIST MS Search
##NAMES=HP
##CAS NAME=Nonadecane, 2,6,10,14-tetramethyl-
##MOLFORM=C23H48
##CAS REGISTRY NO=55124-80-6
##MP= -300
##BP= -300
##MW= 324
##$RETENTION INDEX=2052
##$CONDENSED SPECTRUM=NO
##NPOINTS= 69
##XYDATA=(XY..XY) 1 
    55        226
    56        248
    57        999
    58         80
    69        171
    70        156
    71        999
    72         58
    83         65
    84         80
    85        583
    86         43
    96         54
    97        109
    98        189
    99        317
   100         25
   111         43
   112        204
   113        328
   114         36
   125         18
   126         73
   127        175
   128         18
   139          3
   140         25
   141        138
   142          7
   155         29
   156        102
   157          7
   167          7
   168         80
   169        219
   170         29
   182        102
   183        175
   184         29
   196          7
   197         36
   198          7
   210         21
   211         47
   212          7
   224         18
   225         29
   226          7
   238         43
   239        120
   240         21
   252         36
   253         65
   254          7
   266          3
   267          3
   281          7
   282         10
   283          3
   294          7
   295         14
   296          3
   308          3
   309         25
   310          7
   323          3
   324         73
   325         18
   326          3