##TITLE=Library Entry 42466
##JCAMP-DX=Revision 4.10 
##DATA TYPE=MASS SPECTRUM
##SAMPLE DESCRIPTION=O A MAMER, MCGILL UNIVERSITY, MONTRE
##NAMES=HP
##CAS NAME=2-Hydroxy-3-methylbutyric acid, 2TMS derivative
##MOLFORM=C11H26O3Si2
##CAS REGISTRY NO=55124-92-0
##MP= -300
##BP= -300
##MW= 262
##$RETENTION INDEX=1174
##$CONDENSED SPECTRUM=NO
##NPOINTS= 80
##XYDATA=(XY..XY) 1 
    28         19
    29         16
    40          3
    41         30
    42          4
    43         45
    44         36
    45        164
    46         11
    47         31
    51          2
    52          4
    53          4
    55         45
    56          5
    57         13
    58         16
    59         58
    60          7
    61         20
    66         23
    67          3
    69         13
    70          4
    71          8
    72         26
    73        999
    74         88
    75        153
    76         10
    77          7
    81          6
    82          3
    83          6
    85          4
    87          3
    88          4
    89          2
    99          4
   101          5
   102         10
   103          6
   105          3
   113          4
   115          9
   116          4
   117         11
   118          2
   119          6
   129         17
   130          5
   131         25
   132          4
   133         62
   134          9
   135          5
   143          4
   144         13
   145        749
   146         99
   147        452
   148         73
   149         45
   150          5
   151          2
   157          4
   161          2
   175          3
   190         22
   191          6
   192          2
   203          3
   204          2
   219         71
   220         16
   221          7
   231          2
   247         43
   248          9
   249          4