##TITLE=Library Entry 8492
##JCAMP-DX=Revision 4.10 
##DATA TYPE=MASS SPECTRUM
##SAMPLE DESCRIPTION=Exported from NIST MS Search
##NAMES=HP
##CAS NAME=9,13,17-Nonadecatrien-2-one, 6,10,14,18-tetramethyl-
##MOLFORM=C23H40O
##CAS REGISTRY NO=55124-84-0
##MP= -300
##BP= -300
##MW= 332
##$RETENTION INDEX=0
##$CONDENSED SPECTRUM=NO
##NPOINTS= 101
##XYDATA=(XY..XY) 1 
    15         80
    16         30
    17        150
    18          4
    19         30
    28         90
    29        400
    30         40
    31        500
    32         60
    39        140
    40         40
    41        900
    42        150
    43        999
    44         80
    45        340
    55        190
    56         40
    57        490
    58         30
    59         30
    60         40
    61         20
    67        190
    68        150
    69        950
    70         50
    71         50
    72         20
    74         80
    75         20
    79        110
    80         50
    81        700
    82        150
    83         80
    84         30
    91         80
    92         50
    93        250
    94         80
    95         40
   100        190
   101         30
   105         80
   106         30
   107        190
   108        320
   109        100
   110         40
   111         30
   120        440
   121        150
   122        490
   123         80
   124         40
   135        190
   136        490
   137        350
   138         80
   139         70
   140         20
   148        140
   149         80
   150         60
   151         30
   160         20
   161         10
   162         30
   163         10
   174         30
   175         10
   176         60
   177         20
   190        100
   191         30
   200         40
   201         10
   207         40
   208         20
   220         40
   221         10
   247         20
   248         20
   249         50
   250         50
   261         30
   262         10
   263        200
   264         90
   277        300
   278         90
   279         30
   289         90
   299         90
   300         20
   317         50
   318         20
   332        200
   333         50