##TITLE=Library Entry 44070
##JCAMP-DX=Revision 4.10 
##DATA TYPE=MASS SPECTRUM
##SAMPLE DESCRIPTION=R.S.BANDURSKI MICHIGAN STATE UNIV., EAST LANSING, MICH.
, USA
##NAMES=HP
##CAS NAME=Indoleacrylic acid, 2TMS derivative
##MOLFORM=C17H25NO2Si2
##CAS REGISTRY NO=55124-88-4
##MP= -300
##BP= -300
##MW= 331
##$RETENTION INDEX=2402
##$CONDENSED SPECTRUM=NO
##NPOINTS= 214
##XYDATA=(XY..XY) 1 
    31          2
    38          2
    39          9
    41         26
    42          1
    43         62
    44         11
    45        152
    46         15
    47         11
    49          2
    50          2
    51          5
    52          1
    53          5
    54          5
    55         36
    56         13
    57         55
    58          7
    59         20
    60          3
    61          8
    62          2
    63          7
    64          2
    65          6
    66          1
    67         14
    68          7
    69         25
    70         14
    71         23
    72         14
    73        999
    74         72
    75         97
    76         10
    77         14
    78          2
    79          3
    81         13
    82          7
    83         25
    84         10
    85         21
    86          2
    87          3
    88          6
    89          5
    90          1
    91          5
    92          4
    93         16
    94          4
    95         16
    96          6
    97         20
    98          6
    99          4
   100          2
   101          4
   102          3
   103          8
   104          3
   105          6
   106         10
   107         10
   108          2
   109          8
   110          4
   111         11
   112          1
   113          7
   114         32
   115         28
   116         17
   117         21
   118          4
   119          1
   121          4
   122          2
   123          4
   124          2
   125          7
   127          5
   128          5
   129         15
   130         48
   131         14
   132         11
   134          1
   135          3
   136          1
   137          3
   139          5
   140         15
   141         22
   142         15
   143         18
   144          7
   145         11
   146          2
   147         59
   148         10
   149          7
   150          3
   151          6
   152          2
   154          6
   156          8
   157          4
   158          9
   159          6
   160          4
   161          2
   162          1
   163          3
   165          7
   166          3
   167          3
   168          7
   169         58
   170         35
   171          8
   172          2
   173          1
   174          4
   176          1
   177          2
   178          2
   179          1
   180          3
   181          1
   182          5
   183          4
   184         20
   186          3
   187          5
   188          3
   189          7
   191          2
   196          5
   197          2
   198         13
   199          6
   200         13
   201          6
   202         75
   203         16
   204          5
   205          2
   207          2
   211          2
   212          1
   213         25
   214         12
   215         79
   216         26
   217          6
   218          2
   220          1
   221          6
   222          2
   224          2
   226          2
   227          1
   228          5
   229          2
   230          2
   231          3
   232          5
   233          2
   235          3
   236          2
   238          1
   239          4
   240         10
   241          3
   242        374
   243         71
   244         28
   245          4
   246          3
   247         14
   256          7
   257          3
   258          3
   259          6
   260          2
   271          2
   272         22
   273          6
   274          4
   275          1
   281          2
   282          2
   295          2
   300          4
   301          4
   303          2
   304          3
   306          2
   315          3
   316        128
   317         32
   318         13
   319          2
   329          2
   330         15
   331        604
   332        168
   333         57
   334          8