##TITLE=Library Entry 42355
##JCAMP-DX=Revision 4.10 
##DATA TYPE=MASS SPECTRUM
##SAMPLE DESCRIPTION=S. MARKEY UNIV. OF COLO. MED. CTR., DENVER, COLORADO, U
SA
##NAMES=HP
##CAS NAME=3-Hydroxyisovaleric acid, 2TMS derivative
##MOLFORM=C11H26O3Si2
##CAS REGISTRY NO=55124-90-8
##MP= -300
##BP= -300
##MW= 262
##$RETENTION INDEX=1216
##$CONDENSED SPECTRUM=NO
##NPOINTS= 88
##XYDATA=(XY..XY) 1 
    26         10
    27         15
    29         51
    31          5
    39         17
    40          6
    41         41
    42         18
    43        102
    44         56
    45        178
    46         18
    47         91
    48          8
    49         27
    52          7
    53          2
    55         50
    56         13
    57         14
    58         25
    59         52
    60         14
    61         49
    62          2
    66         21
    69         24
    70          5
    71          5
    72         38
    73        999
    74        110
    75        446
    76         35
    77         45
    78          4
    79          4
    82          3
    83         22
    84         10
    85         26
    87          6
    88          5
    90          3
    95        146
    96         20
    99          7
   101         15
   103          4
   105          4
   113         18
   114          2
   115        111
   116         26
   117         51
   118         10
   119         14
   120          3
   129          9
   130         11
   131        869
   132        100
   133         86
   134         13
   135          3
   143          5
   145          3
   147        786
   148        142
   149         66
   150         11
   157         15
   163         10
   170          8
   175          2
   189         21
   190          4
   191         13
   192          5
   203         34
   204         41
   205         68
   206         15
   207          5
   231         11
   247        167
   248         51
   249         20