##TITLE=Library Entry 44753
##JCAMP-DX=Revision 4.10 
##DATA TYPE=MASS SPECTRUM
##SAMPLE DESCRIPTION=R. RYHAGE KAROLINSKA INSTITUTET, STOCKHOLM
##NAMES=HP
##CAS NAME=Octadecanoic acid, 17-methyl-, methyl ester
##MOLFORM=C20H40O2
##CAS REGISTRY NO=55124-97-5
##MP= -300
##BP= -300
##MW= 312
##$RETENTION INDEX=2175
##$CONDENSED SPECTRUM=NO
##NPOINTS= 188
##XYDATA=(XY..XY) 1 
    12          3
    13          4
    14          7
    15         34
    16          3
    17         14
    18         51
    19          2
    26         10
    27         64
    28        120
    29        210
    30        120
    31         71
    32         10
    33          3
    38          5
    39         41
    40         15
    41        330
    42        120
    43        550
    44         78
    45         41
    52          2
    53         12
    54         26
    55        350
    56         98
    57        300
    58         48
    59         99
    60         10
    61         11
    65          6
    66          3
    67         51
    68         25
    69        210
    70         44
    71         98
    72         13
    73         45
    74        999
    75        220
    76         12
    77          7
    78          3
    79         15
    80          6
    81         51
    82         20
    83        110
    84         44
    85         63
    86          8
    87        660
    88         91
    89         15
    93         14
    94          5
    95         43
    96         17
    97        110
    98         44
    99         22
   100          5
   101         78
   102         11
   103          3
   106          2
   107         13
   108          4
   109         26
   110         10
   111         54
   112         15
   113         13
   114          3
   115         27
   116         13
   117          5
   120          4
   121         19
   122          4
   123         17
   124          6
   125         30
   126          7
   127          8
   128          5
   129         71
   130         22
   131          4
   135         18
   136          4
   137         11
   138          4
   139         18
   140          5
   141          6
   142          4
   143        190
   144         22
   145          4
   151          7
   152          3
   153         12
   154          4
   155          5
   157         41
   158          7
   159          2
   163         11
   164          2
   165          5
   166          2
   167         10
   168          3
   169          3
   171         28
   172          7
   173          2
   177          5
   178          2
   179          3
   180          2
   181          7
   182          3
   183          3
   185         39
   186          9
   187          2
   191          4
   193          2
   194          2
   195          5
   196          2
   197          2
   199         56
   200         11
   201          2
   207          2
   209          4
   210          3
   211          2
   213         54
   214         10
   215          2
   218          2
   219          3
   220          2
   223          4
   224          2
   225          2
   227         33
   228          7
   236          3
   237          5
   238          4
   239          3
   241         21
   242          5
   247          4
   251          3
   252          2
   255         25
   256          6
   257          5
   263         10
   264          3
   265          7
   266          2
   269        110
   270         23
   271          4
   279          4
   280          3
   281         21
   282          4
   283         20
   297          4
   298          2
   299          2
   311          3
   312        180
   313         54
   314          8