##TITLE=Library Entry 93696
##JCAMP-DX=Revision 4.10 
##DATA TYPE=MASS SPECTRUM
##SAMPLE DESCRIPTION=R. RYHAGE KAROLINSKA INSTITUTET, STOCKHOLM
##NAMES=HP
##CAS NAME=Hexadecanoic acid, 2,3,4-trimethyl-, methyl ester
##MOLFORM=C20H40O2
##CAS REGISTRY NO=55124-95-3
##MP= -300
##BP= -300
##MW= 312
##$RETENTION INDEX=0
##$CONDENSED SPECTRUM=NO
##NPOINTS= 108
##XYDATA=(XY..XY) 1 
    27          6
    28          3
    29          9
    39          5
    41         34
    42          7
    43         38
    53          3
    54          2
    55         31
    56         15
    57         37
    58          2
    59         15
    67          3
    69         25
    70         11
    71         29
    72          2
    73          4
    74          4
    81          2
    82          2
    83         23
    84          6
    85         23
    87          6
    88        300
    89         14
    95          2
    97          9
    98          2
    99          7
   101         34
   102          5
   109         15
   110          9
   111         65
   112         23
   113         60
   114         13
   115        999
   116        490
   117         64
   118          5
   121          5
   122          2
   123          8
   124          4
   125         21
   126         19
   127         38
   128          8
   129          7
   135          3
   137          5
   138          2
   139         11
   140          5
   141         39
   142          6
   143         61
   144          6
   151          2
   153          5
   154          4
   155         32
   156          4
   157          5
   167          4
   168          3
   169         23
   170          3
   171          3
   181          2
   183         12
   184          2
   185          3
   194          2
   195          9
   196          5
   197          5
   199          2
   207          3
   209          3
   211          2
   223          5
   224         25
   225        190
   226         34
   227         35
   228          8
   253        140
   254         27
   255          4
   265          6
   266          2
   267          4
   279          4
   280          5
   281         34
   282          7
   283          2
   297         16
   298          5
   311          4
   312         10
   313          6