##TITLE=Library Entry 53243
##JCAMP-DX=Revision 4.10 
##DATA TYPE=MASS SPECTRUM
##SAMPLE DESCRIPTION=A.ZAMOJSKI POLISH ACADEMY OF SCIENCES, WARSAW, POLAND
##NAMES=HP
##CAS NAME=2H-Pyran-2-carboxylic acid, 3,6-dihydro-6-propoxy-, 4-(1-methylet
hyl)cyclohexyl ester
##MOLFORM=C19H32O4
##CAS REGISTRY NO=55124-82-8
##MP= -300
##BP= -300
##MW= 324
##$RETENTION INDEX=0
##$CONDENSED SPECTRUM=NO
##NPOINTS= 55
##XYDATA=(XY..XY) 1 
    41        550
    42         80
    43        650
    44         80
    45         75
    53        130
    54         75
    55        550
    56         65
    57        410
    59         50
    67        170
    68         65
    69        450
    70        250
    71        150
    77         50
    79         70
    80         50
    81        680
    82        180
    83        999
    84        165
    86         55
    87         55
    94         50
    95        410
    96        105
    97        225
    98         70
    99         62
   100         55
   108         60
   109         60
   112         70
   123        115
   126        110
   127        860
   128         65
   137         90
   138        210
   139        360
   140         50
   141        890
   142        100
   143        100
   149        100
   168         60
   169         20
   185         20
   186        100
   264         95
   265         20
   323         10
   324          5