##TITLE=Library Entry 68852
##JCAMP-DX=Revision 4.10 
##DATA TYPE=MASS SPECTRUM
##SAMPLE DESCRIPTION=A.P.BINDRA AUSTRALIAN NATIONAL UNIV., CANBERRA
##NAMES=HP
##CAS NAME=[1,1'-Biphenyl]-2-carboxaldehyde, 2'-[2-(4-methyl-3-furanyl)ethen
yl]-
##MOLFORM=C20H16O2
##CAS REGISTRY NO=55125-11-6
##MP= -300
##BP= -300
##MW= 288
##$RETENTION INDEX=0
##$CONDENSED SPECTRUM=NO
##NPOINTS= 25
##XYDATA=(XY..XY) 1 
    41         60
    76         70
    87         50
    89         70
    95        999
    96         90
   102         60
   108        250
   109        100
   110         90
   152        230
   165        150
   176         80
   177         50
   178        500
   180        120
   202         90
   203         60
   206        150
   215        140
   216         70
   231         90
   259         80
   288        300
   289         70