##TITLE=Library Entry 9261
##JCAMP-DX=Revision 4.10 
##DATA TYPE=MASS SPECTRUM
##SAMPLE DESCRIPTION=R. RYHAGE KAROLINSKA INSTITUTET, STOCKHOLM
##NAMES=HP
##CAS NAME=Heptadecanoic acid, 15-ethyl-, methyl ester
##MOLFORM=C20H40O2
##CAS REGISTRY NO=55124-96-4
##MP= -300
##BP= -300
##MW= 312
##$RETENTION INDEX=0
##$CONDENSED SPECTRUM=NO
##NPOINTS= 191
##XYDATA=(XY..XY) 1 
    12          3
    13          3
    15         78
    17         39
    18        145
    25         11
    26         47
    27        270
    28        250
    29        520
    30         15
    31         25
    32          2
    37          7
    38         12
    39        170
    40         37
    41        890
    42        210
    43        999
    44         69
    45         35
    48          2
    49          2
    50          7
    51         10
    52          7
    53         59
    54         70
    55        860
    56        170
    57        530
    58         24
    59        200
    60          4
    61          4
    63          2
    64          3
    65         10
    66          7
    67         98
    68         44
    69        450
    70        170
    71        340
    72         22
    73         39
    74        920
    75        270
    76         16
    77         10
    78          4
    79         20
    80          8
    81         85
    82         32
    83        290
    84        110
    85        120
    86          9
    87        620
    88         53
    89          6
    91          7
    93         18
    94          6
    95         74
    96         34
    97        240
    98         63
    99         28
   100          6
   101         60
   102          7
   103          2
   107         21
   108          5
   109         48
   110         18
   111        130
   112         23
   113         17
   114          8
   115         38
   116         12
   117          2
   119          3
   121         33
   122          6
   123         29
   124         11
   125         73
   126         10
   127          9
   128          5
   129         72
   130         21
   131          2
   133          3
   135         38
   136          6
   137         20
   138          8
   139         51
   140          8
   141          9
   142          3
   143        170
   144         17
   145          3
   147          2
   150          3
   151         14
   152          8
   153         35
   154          5
   155          6
   157         24
   158          5
   161          2
   163         20
   164          4
   165          6
   166          8
   167         32
   168          6
   169          3
   171         17
   172          5
   177         14
   178          3
   179          4
   180          2
   181         16
   182          3
   185         31
   186         10
   191          9
   192          2
   193          3
   194          2
   195         14
   196          3
   199         52
   200         11
   201          2
   205          3
   206          3
   207          3
   208          8
   209         17
   210          4
   211          2
   213         34
   214          7
   223          3
   227         19
   228          8
   233         53
   234         11
   236          3
   238          3
   241         27
   242         41
   243         42
   244          7
   250         18
   251         98
   252         20
   253          3
   255          8
   256          3
   262          2
   263         10
   264          3
   265          6
   269         66
   270         14
   271          2
   279          6
   280          6
   281         33
   282         10
   283        160
   284         31
   285          4
   297          2
   311          3
   312        440
   313        100
   314         13