##TITLE=Library Entry 19607
##JCAMP-DX=Revision 4.10 
##DATA TYPE=MASS SPECTRUM
##SAMPLE DESCRIPTION=Exported from NIST MS Search
##NAMES=HP
##CAS NAME=Cyclohexane, (1-octylnonyl)-
##MOLFORM=C23H46
##CAS REGISTRY NO=55124-77-1
##MP= -300
##BP= -300
##MW= 322
##$RETENTION INDEX=0
##$CONDENSED SPECTRUM=NO
##NPOINTS= 158
##XYDATA=(XY..XY) 1 
    37          2
    38          2
    39         97
    40         20
    41        876
    42        138
    43        950
    44         29
    45          1
    50          1
    51          3
    52          3
    53         49
    54        114
    55        999
    56        220
    57        853
    58         34
    59          1
    64          1
    65          9
    66         10
    67        259
    68         70
    69        390
    70        149
    71        514
    72         26
    73          1
    77         10
    78          3
    79         26
    80         10
    81        104
    82        671
    83        775
    84        117
    85        346
    86         21
    87          1
    91         13
    92          2
    93          8
    94          3
    95         44
    96         84
    97        378
    98         64
    99         81
   100          6
   101          1
   102          1
   103          1
   104          1
   105          3
   106          1
   107          3
   108          2
   109         31
   110         20
   111        192
   112         45
   113         55
   114          5
   115          1
   117          1
   118          1
   119          1
   120          1
   121          1
   122          1
   123          7
   124         15
   125        107
   126         28
   127         42
   128          4
   129          1
   133          1
   135          1
   136          1
   137          4
   138          9
   139         50
   140         21
   141         27
   142          3
   151          2
   152          7
   153         30
   154         14
   155         22
   156          2
   157          1
   165          1
   166          5
   167         14
   168          8
   169         17
   170          2
   171          1
   179          1
   180          7
   181          9
   182          6
   183         12
   184          1
   185          1
   193          1
   194          7
   195         14
   196          6
   197          7
   198          1
   199          1
   203          2
   204          1
   205          1
   207          1
   208        168
   209        279
   210         59
   211          9
   212          1
   213          1
   220          1
   221          1
   222          7
   223          9
   224          9
   225          7
   226          1
   235          1
   236          2
   237          4
   238        280
   239        151
   240         23
   241          2
   249          1
   250          1
   251          2
   252          3
   253          4
   254          1
   255          1
   256          1
   257          1
   263          1
   264          1
   265          1
   266          1
   267          1
   268          1
   280          1
   281          1
   282          1
   283          1