##TITLE=Library Entry 42538
##JCAMP-DX=Revision 4.10 
##DATA TYPE=MASS SPECTRUM
##SAMPLE DESCRIPTION=S. MARKEY UNIV. OF COLO. MED. CTR., DENVER, COLORADO, U
SA
##NAMES=HP
##CAS NAME=2-Pentenedioic acid, 3-methyl-, bis(trimethylsilyl) ester, (Z)-
##MOLFORM=C12H24O4Si2
##CAS REGISTRY NO=55125-09-2
##MP= -300
##BP= -300
##MW= 288
##$RETENTION INDEX=0
##$CONDENSED SPECTRUM=NO
##NPOINTS= 82
##XYDATA=(XY..XY) 1 
    39         43
    40        104
    41         16
    42          7
    43         54
    44         47
    45        158
    46          7
    47         64
    52          7
    53         68
    54         45
    55         17
    58         16
    59         34
    61         46
    67         21
    69         14
    72         28
    73        999
    74         95
    75        394
    76         29
    77         41
    81         23
    82        291
    83         29
    85          4
    95          2
    97         24
    98         30
    99         39
   101          7
   103         11
   108         29
   109        163
   110          5
   111         34
   112         32
   113         27
   117         11
   126         40
   127         25
   129          4
   131         17
   133         55
   139         13
   141          4
   142         60
   143         24
   146          4
   147        692
   148        116
   149         66
   154         56
   155          9
   156         28
   157         16
   170        137
   171         46
   172          7
   183        105
   184         18
   185          2
   198        294
   199         62
   200         16
   201         19
   214          2
   215         10
   216          2
   229        145
   230         33
   231        244
   232         49
   233         23
   244         60
   245         11
   246          2
   273        197
   274         39
   275         18