##TITLE=Library Entry 80679
##JCAMP-DX=Revision 4.10 
##DATA TYPE=MASS SPECTRUM
##SAMPLE DESCRIPTION=Exported from NIST MS Search
##NAMES=HP
##CAS NAME=Benzene, (1-methylhexadecyl)-
##MOLFORM=C23H40
##CAS REGISTRY NO=55125-25-2
##MP= -300
##BP= -300
##MW= 316
##$RETENTION INDEX=0
##$CONDENSED SPECTRUM=NO
##NPOINTS= 97
##XYDATA=(XY..XY) 1 
    14          8
    16          2
    26          2
    27         14
    29         29
    32         38
    39          9
    40          5
    41         53
    42         10
    43         65
    44         10
    51          4
    53          5
    54          3
    55         33
    56         10
    57         35
    58          2
    65          4
    67          5
    68          2
    69         15
    70          5
    71         14
    77         18
    78          9
    79         25
    80          2
    81          3
    82          2
    83          8
    84          2
    85          8
    91        108
    92         20
    93          2
    95          2
    96          1
    97          5
    98          1
    99          2
   103         16
   104         55
   105        999
   106        149
   107         10
   108          2
   109          1
   110          1
   111          2
   115          3
   116          6
   117         20
   118         97
   119         21
   120          9
   121          2
   127          1
   128          3
   129          7
   130          3
   131         68
   132         11
   133          7
   134          1
   135          1
   141          1
   143          2
   144          1
   145          4
   147          8
   148          1
   161          4
   175          2
   189          1
   203          1
   217          1
   231          1
   245          1
   246          1
   259          1
   260          1
   272          1
   273          8
   274          1
   286          4
   288          2
   289          1
   300          1
   301          1
   302          3
   303          1
   314          8
   316         40
   317          7
   318          1