##TITLE=Library Entry 81390
##JCAMP-DX=Revision 4.10 
##DATA TYPE=MASS SPECTRUM
##SAMPLE DESCRIPTION=Japan AIST/NIMC Database- Spectrum MS-IW-5003
##NAMES=HP
##CAS NAME=Methyl 3,4,6-tri-O-acetyl-N-hippuroyl-beta-d-glucosaminide
##MOLFORM=C22H28N2O10
##CAS REGISTRY NO=5513-56-4
##MP= -300
##BP= -300
##MW= 480
##$RETENTION INDEX=0
##$CONDENSED SPECTRUM=NO
##NPOINTS= 285
##XYDATA=(XY..XY) 1 
    14         17
    15         16
    16          1
    17         14
    18         40
    25          2
    26         11
    27         25
    28        122
    29         24
    30         35
    31         21
    32         14
    33          2
    37          2
    38          5
    39         13
    40          8
    41         26
    42         83
    43        495
    44         29
    45         37
    46          2
    49          2
    50         18
    51         44
    52         12
    53          9
    54          5
    55         18
    56         47
    57         11
    58         10
    59        215
    60         51
    61         14
    62          2
    63          5
    64          3
    65          4
    66          4
    67          5
    68         13
    69         23
    70         20
    71         11
    72         73
    73         39
    74         12
    75          9
    76         32
    77        255
    78         28
    79         12
    80         61
    81         25
    82         14
    83         15
    84         35
    85         24
    86         15
    87         21
    88          9
    89          4
    90          4
    91          6
    92          2
    93          4
    94          5
    95          8
    96         50
    97        189
    98        110
    99         24
   100         12
   101        216
   102         27
   103         95
   104         20
   105        999
   106         85
   107          8
   108         16
   109         21
   110         10
   111         10
   112         20
   113          7
   114         75
   115        111
   116         37
   117         24
   118          5
   119          4
   120          2
   121          8
   122         12
   123          5
   124         15
   125         20
   126         28
   127         60
   128         33
   129          8
   130          4
   131          2
   132          4
   133          8
   134        296
   135        138
   136         15
   137          9
   138         17
   139         45
   140         73
   141         34
   142         10
   143          7
   144         11
   145         21
   146          5
   147          3
   148          2
   149          4
   150          3
   151          3
   152         10
   153          5
   154          6
   155          3
   156         29
   157         40
   158         44
   159          7
   160          6
   161         37
   162        653
   163         76
   164          9
   165          5
   166          6
   167         13
   168         17
   169        122
   170         15
   171          6
   172          2
   173          5
   174          3
   175          1
   176          1
   177          2
   178          1
   179         11
   180          3
   181          6
   182         38
   183         36
   184         13
   185          9
   186          8
   187          6
   188          2
   189          4
   190          1
   191          1
   192          1
   193          1
   194         11
   195          3
   196          2
   197          2
   198          5
   199         56
   200         48
   201          8
   202         80
   203         74
   204         12
   205          2
   206          1
   207        110
   208         13
   209          4
   210          2
   211          1
   212          3
   213          2
   214          2
   215         24
   216          8
   217          6
   218          3
   219          1
   220        191
   221         26
   222          4
   223          2
   224          1
   225          1
   226          7
   227          6
   228          7
   229          2
   230          4
   231          2
   232          1
   233         35
   234          7
   235          1
   237          1
   239          4
   240          9
   241         22
   242        214
   243         50
   244         11
   245          7
   246          4
   247          1
   249         19
   250          7
   251          2
   252          1
   254          1
   255          4
   256          1
   257          3
   258          9
   259         13
   260          6
   261          1
   262         39
   263          9
   264          1
   268          7
   269          4
   270          2
   272          1
   273          3
   274          1
   275         14
   276         22
   277          4
   278          1
   285          1
   286          7
   287         12
   288          2
   289          4
   290          1
   291          2
   292          1
   300          6
   301          9
   302         64
   303         10
   304          3
   305          4
   315          1
   317          3
   318         10
   319          6
   320          1
   328          4
   329          4
   330          1
   333          1
   346          3
   347          5
   348          1
   360          9
   361          7
   362          1
   378          2
   388          1
   389          2
   407          5
   408          1
   420          3
   421          1
   448          4
   449          3
   481          2