##TITLE=Library Entry 78285
##JCAMP-DX=Revision 4.10 
##DATA TYPE=MASS SPECTRUM
##SAMPLE DESCRIPTION=NIST Mass Spectrometry Data Center
##NAMES=HP
##CAS NAME=Hippuric acid, 2TMS derivative
##MOLFORM=C15H25NO3Si2
##CAS REGISTRY NO=55133-85-2
##MP= -300
##BP= -300
##MW= 323
##$RETENTION INDEX=1822
##$CONDENSED SPECTRUM=NO
##NPOINTS= 154
##XYDATA=(XY..XY) 1 
    15          1
    27          1
    28          2
    29          4
    31          2
    39          2
    41          1
    42          4
    43         24
    44         17
    45        104
    46          7
    47         16
    48          1
    49          1
    50          6
    51         26
    52          3
    53          2
    54          1
    55          5
    56          3
    57          7
    58         15
    59         48
    60          6
    61         11
    62          2
    63          5
    64          1
    65          2
    66          2
    67          1
    69          1
    70          4
    71          4
    72         21
    73        469
    74         46
    75        100
    76         17
    77        196
    78         14
    79          1
    83          1
    84          1
    85          2
    86         15
    87          4
    88          5
    89         23
    90         14
    91        171
    92         14
    93          2
    95          1
    99          1
   100         11
   101          8
   102          4
   103         18
   104         26
   105        999
   106         83
   107          7
   108          1
   109          2
   110          1
   113          1
   114          1
   115          5
   116         47
   117         90
   118         14
   119          8
   120          2
   121          6
   122          1
   129          1
   130          7
   131         11
   132          6
   133         35
   134          8
   135         13
   136          2
   137          1
   143          1
   144         10
   145          3
   147        130
   148         25
   149         21
   150          2
   151          1
   153          1
   158          1
   159          1
   160          2
   161          5
   162         10
   163         24
   164          4
   165          1
   174          7
   175          2
   176          5
   177         26
   178         80
   179         15
   180          4
   188          1
   189          1
   190         30
   191          7
   192         17
   193          4
   194          1
   204         50
   205         31
   206        350
   207         62
   208         17
   209          2
   218         13
   219          2
   220          1
   232          2
   233         59
   234         17
   235          5
   236          4
   237          1
   251          1
   262          1
   264          4
   265          1
   276          1
   278         28
   279          8
   280         53
   281         14
   282          5
   283          1
   306          4
   308         82
   309         21
   310          8
   311          1
   322         41
   323         47
   324         14
   325          5
   326          1