##TITLE=Library Entry 1756
##JCAMP-DX=Revision 4.10 
##DATA TYPE=MASS SPECTRUM
##SAMPLE DESCRIPTION=ASES Database, Dalian Institute, P.R. China
##NAMES=HP
##CAS NAME=Pent-2-ynal
##MOLFORM=C5H6O
##CAS REGISTRY NO=55136-52-2
##MP= -300
##BP= -300
##MW= 82
##$RETENTION INDEX=1211
##$CONDENSED SPECTRUM=NO
##NPOINTS= 18
##XYDATA=(XY..XY) 1 
    29        128
    31         39
    36         30
    37        129
    38        237
    39        999
    40         58
    49        109
    50        267
    51        257
    52        109
    53        905
    54        775
    55         60
    66         60
    79         29
    81        856
    82        389