##TITLE=Library Entry 61302
##JCAMP-DX=Revision 4.10 
##DATA TYPE=MASS SPECTRUM
##SAMPLE DESCRIPTION=Japan AIST/NIMC Database- Spectrum MS-IW-5017
##NAMES=HP
##CAS NAME=Methyl N-(N-benzyloxycarbonyl-beta-l-aspartyl)-beta-d-glucosamini
de
##MOLFORM=C19H26N2O10
##CAS REGISTRY NO=5513-63-3
##MP= -300
##BP= -300
##MW= 442
##$RETENTION INDEX=0
##$CONDENSED SPECTRUM=NO
##NPOINTS= 231
##XYDATA=(XY..XY) 1 
    12          2
    13          1
    14          4
    15         14
    16          9
    17         34
    18          2
    24          2
    25          9
    26         66
    27         90
    28        199
    29         84
    30         33
    31         72
    32          3
    33          8
    34          1
    36          2
    37         15
    38         32
    39        113
    40         28
    41         55
    42         72
    43        141
    44         99
    45         36
    46          9
    47          3
    48          1
    49         11
    50         91
    51        191
    52         68
    53         70
    54         43
    55         76
    56         64
    57         50
    58         14
    59         20
    60         22
    61         51
    62         28
    63         65
    64         19
    65        152
    66         19
    67         17
    68         25
    69         66
    70         81
    71         50
    72         31
    73         46
    74         94
    75         21
    76         27
    77        490
    78        120
    79        733
    80         80
    81         27
    82         81
    83         24
    84         22
    85         83
    86         46
    87         25
    88          4
    89        101
    90        122
    91        999
    92        252
    93         21
    94         12
    95         20
    96         58
    97         36
    98         72
    99         43
   100         14
   101          6
   102          6
   103        213
   104         32
   105        169
   106        153
   107        578
   108        771
   109         72
   110         29
   111         16
   112         18
   113         13
   114          9
   115         19
   116          8
   117          5
   118          2
   119          2
   120          3
   121          4
   122         17
   123         11
   124         19
   125         12
   126         11
   127         13
   128          8
   129          7
   130          3
   131          3
   132          7
   133          6
   134          4
   135          9
   136         12
   137          9
   138          7
   139         51
   140         28
   141         26
   142          6
   143          4
   144          2
   145          5
   146          3
   147          2
   148          3
   149          6
   150         11
   151         15
   152         31
   153         36
   154         16
   155          6
   156          7
   157          5
   158          7
   159          8
   160          2
   161          2
   162          2
   163          9
   164          8
   165          9
   166          9
   167         11
   168          5
   169         12
   170          5
   171          1
   172          1
   173          1
   174          1
   175          2
   176         28
   177         19
   178          7
   179          7
   180          7
   181          4
   182         57
   183         23
   184          6
   185          1
   186          2
   187          1
   188          1
   189          2
   190          1
   191          2
   192         13
   193         12
   194          4
   195         46
   196         27
   197         12
   198          2
   199          1
   201          2
   202          1
   204          1
   205          3
   206          8
   207         11
   208          2
   209          3
   210          3
   211          5
   212          2
   213         10
   214          2
   215          1
   219          8
   220         23
   221          5
   222          1
   223          9
   224          3
   225          2
   227          1
   229          1
   232          1
   235          4
   237          5
   238          3
   239          1
   240          3
   241          2
   248          8
   249          5
   250          3
   253          7
   254          1
   255          1
   259          1
   261          1
   262          2
   266         20
   267          3
   268          1
   300          1
   301          1
   303          3
   304          2
   314          2
   354          1
   374          1