##TITLE=Library Entry 59365
##JCAMP-DX=Revision 4.10 
##DATA TYPE=MASS SPECTRUM
##SAMPLE DESCRIPTION=Exported from NIST MS Search
##NAMES=HP
##CAS NAME=Benzene, (3,3-dimethyldecyl)-
##MOLFORM=C18H30
##CAS REGISTRY NO=55134-09-3
##MP= -300
##BP= -300
##MW= 246
##$RETENTION INDEX=0
##$CONDENSED SPECTRUM=NO
##NPOINTS= 79
##XYDATA=(XY..XY) 1 
    14          6
    15          2
    16          3
    26          3
    27         39
    29         74
    32         89
    39         30
    40          8
    41        144
    42         18
    43        272
    44         20
    50          2
    51         11
    52          3
    53         10
    54          3
    55         67
    56         53
    57        351
    58         16
    63          5
    65         44
    66          3
    67          6
    68          4
    69         43
    70         13
    71        241
    72         14
    77         24
    78         13
    79         18
    83         11
    84          9
    85        224
    86         16
    89          7
    90          5
    91        999
    92        101
    93          5
    99         52
   100          4
   103         13
   104         41
   105        235
   106        106
   107          9
   112          5
   115          5
   117          6
   118          5
   119         13
   120         14
   121          4
   125          5
   128          3
   129          3
   131         27
   133          9
   140         45
   141        112
   142         13
   145          5
   146         75
   147        199
   148         25
   149          2
   154          2
   155          2
   161          6
   175          3
   231          6
   232          1
   246        120
   247         24
   248          2