##TITLE=Library Entry 28839
##JCAMP-DX=Revision 4.10 
##DATA TYPE=MASS SPECTRUM
##SAMPLE DESCRIPTION=RA-2
##NAMES=HP
##CAS NAME=Acetamide, N-[2-(acetyloxy)-1-methyl-2-phenylethyl]-N-methyl-
##MOLFORM=C14H19NO3
##CAS REGISTRY NO=55133-90-9
##MP= -300
##BP= -300
##MW= 249
##$RETENTION INDEX=0
##$CONDENSED SPECTRUM=NO
##NPOINTS= 116
##XYDATA=(XY..XY) 1 
    12          1
    13          1
    14          5
    15         58
    16          2
    17         10
    18         47
    26          2
    27         15
    29         16
    30         48
    31          7
    32         12
    37          1
    38          2
    39         18
    40          3
    41         10
    42         60
    43        210
    44         25
    45          7
    49          1
    50          7
    51         24
    52          6
    53          4
    54          5
    55          7
    56        150
    57         32
    58        999
    59         50
    60          5
    61          1
    62          3
    63         11
    64          3
    65         12
    66          1
    67          1
    68          1
    69          2
    70          4
    71          5
    72          3
    73          3
    74          8
    75          3
    76          3
    77         45
    78         12
    79         22
    80          2
    81          1
    82          1
    85          1
    86          9
    87          2
    88          2
    89         10
    90          6
    91         42
    92          4
    93          1
    94          1
    98          1
    99          2
   100        564
   101         56
   102          5
   103          7
   104          5
   105         24
   106          7
   107         16
   108          2
   112          2
   113          1
   114          1
   115         20
   116         15
   117         22
   118         11
   119          2
   120          1
   128          1
   129          3
   130          8
   131         14
   132         13
   133          8
   134          6
   135          1
   143          1
   144          6
   145          4
   146         37
   147         34
   148         18
   149          3
   150          1
   160          1
   164          1
   166          1
   174          1
   175          1
   176          1
   188          2
   189         28
   190          9
   191          3
   192          2
   221          1
   249          7
   250          3