##TITLE=Library Entry 59071
##JCAMP-DX=Revision 4.10 
##DATA TYPE=MASS SPECTRUM
##SAMPLE DESCRIPTION=G.GERCKEN UNIV. HAMBURG, 2 HAMBURG 13, GERMANY, F.R.G.
##NAMES=HP
##CAS NAME=9-Octadecenoic acid (Z)-, phenylmethyl ester
##MOLFORM=C25H40O2
##CAS REGISTRY NO=55130-16-0
##MP= -300
##BP= -300
##MW= 372
##$RETENTION INDEX=0
##$CONDENSED SPECTRUM=NO
##NPOINTS= 100
##XYDATA=(XY..XY) 1 
    27        120
    29        190
    36        100
    38         30
    39        140
    40         40
    41        500
    42        260
    43        650
    44        130
    45         30
    50         20
    51         60
    52         30
    53         30
    54         80
    55        425
    56        100
    57        365
    58         25
    60         20
    63         30
    65        130
    67        135
    68         50
    69        335
    70         55
    71        140
    72         20
    73        120
    74         15
    77         50
    78         50
    79         65
    80         20
    81        160
    82         50
    83        300
    84         40
    85         80
    89         40
    90         35
    91        999
    92        150
    93         35
    94         10
    95        100
    96         30
    97        195
    98         45
    99         30
   101         10
   104         10
   105         30
   107         45
   108        130
   109         80
   110         20
   111         90
   112         15
   113         10
   115         20
   117         15
   119         25
   121         30
   122         10
   123         40
   124         10
   125         45
   127         25
   128         20
   129         15
   131         10
   133         20
   135         20
   137         30
   139         15
   143         10
   147         40
   148         10
   149         15
   151         25
   153         10
   155         10
   161         10
   163         10
   165         20
   167         10
   179         15
   191         10
   193         10
   207         50
   208         10
   209         10
   221         35
   222         10
   264         15
   268         10
   282         25
   283         10