##TITLE=Library Entry 60382
##JCAMP-DX=Revision 4.10 
##DATA TYPE=MASS SPECTRUM
##SAMPLE DESCRIPTION=Exported from NIST MS Search
##NAMES=HP
##CAS NAME=Benzene, [1-(1,2,2-trimethylpropyl)hexyl]-
##MOLFORM=C18H30
##CAS REGISTRY NO=55134-06-0
##MP= -300
##BP= -300
##MW= 246
##$RETENTION INDEX=0
##$CONDENSED SPECTRUM=NO
##NPOINTS= 92
##XYDATA=(XY..XY) 1 
    14         14
    15         19
    16         16
    19          3
    20          2
    22          2
    26          7
    27         53
    29        149
    30          5
    31         15
    32         42
    39         36
    40          9
    41        197
    42         24
    43        690
    44        139
    45         20
    51         12
    52          4
    53         17
    54          4
    55         85
    56         12
    57        354
    58         17
    61          9
    63          4
    65         22
    67         34
    69         55
    70         21
    71         10
    77         32
    78         28
    79         46
    80          7
    81         41
    82          8
    83         45
    84        303
    85        763
    86         48
    91        999
    92        166
    93         27
    94         10
    95        104
    96        191
    97         14
   102          5
   103         23
   104         57
   105         66
   106         23
   107         12
   109         64
   110          7
   115         31
   116         12
   117         72
   118         31
   119         97
   120         12
   121          7
   123         18
   128          9
   129          9
   131         16
   132         16
   133         19
   135          5
   145          9
   147          4
   159          9
   160         36
   161        224
   162        209
   163         38
   164         18
   165         43
   166         15
   167          2
   188          7
   189          4
   190          3
   244          1
   246         15
   247          3
   248          1
   250          2