##TITLE=Library Entry 99098
##JCAMP-DX=Revision 4.10 
##DATA TYPE=MASS SPECTRUM
##SAMPLE DESCRIPTION=Exported from NIST MS Search
##NAMES=HP
##CAS NAME=Benzene, (1,1,4,6,6-pentamethylheptyl)-
##MOLFORM=C18H30
##CAS REGISTRY NO=55134-07-1
##MP= -300
##BP= -300
##MW= 246
##$RETENTION INDEX=0
##$CONDENSED SPECTRUM=NO
##NPOINTS= 64
##XYDATA=(XY..XY) 1 
    14          4
    15          6
    16          2
    26          2
    27         14
    29         41
    31          4
    32         11
    39         16
    40          3
    41         98
    42          8
    43         45
    44         14
    45          5
    51          6
    53          6
    55         24
    56          9
    57        103
    58          5
    61          2
    63          1
    65          6
    67          7
    69          9
    70          4
    71          8
    77         15
    78          8
    79         22
    80          2
    83          5
    85          3
    91        156
    92         14
    93          1
    97          2
   102          2
   103         13
   104          4
   105         83
   106          8
   115          8
   116          3
   117         14
   118         51
   119        999
   120        102
   121          2
   128          2
   129          2
   131          4
   133         19
   134          5
   147          3
   161          2
   175          4
   176          1
   231          1
   232          1
   246         24
   247          5
   248          1