##TITLE=Library Entry 10123
##JCAMP-DX=Revision 4.10 
##DATA TYPE=MASS SPECTRUM
##SAMPLE DESCRIPTION=Japan AIST/NIMC Database- Spectrum MS-IW-5020
##NAMES=HP
##CAS NAME=Methyl 3,4,6-tri-O-acetyl-N-(alpha-l-aspartyl)-beta-d-glucosamini
de
##MOLFORM=C17H26N2O11
##CAS REGISTRY NO=5513-65-5
##MP= -300
##BP= -300
##MW= 434
##$RETENTION INDEX=0
##$CONDENSED SPECTRUM=NO
##NPOINTS= 278
##XYDATA=(XY..XY) 1 
    12          3
    13          4
    14         44
    15         29
    16         22
    17         56
    18         46
    24          3
    25          9
    26         41
    27         71
    28        354
    29         62
    30         46
    31         41
    32         25
    33          6
    36          3
    37          4
    38          9
    39         31
    40         30
    41         99
    42        285
    43        999
    44        187
    45         77
    46         21
    47          1
    49          4
    50         14
    51         18
    52         23
    53         28
    54         25
    55         68
    56         49
    57         38
    58         28
    59        247
    60        101
    61         38
    62          3
    63          6
    64          6
    65          9
    66         13
    67         16
    68         36
    69         57
    70        388
    71         50
    72         88
    73         66
    74         23
    75          5
    76          5
    77          9
    78         12
    79         21
    80         72
    81        127
    82         63
    83         27
    84         56
    85         51
    86         35
    87         86
    88        968
    89         77
    90         31
    91          9
    92          7
    93          8
    94         14
    95         26
    96        102
    97        195
    98        135
    99        105
   100         47
   101        108
   102         31
   103         87
   104          8
   105          5
   106          6
   107          9
   108         26
   109         39
   110         62
   111         55
   112        115
   113         50
   114         78
   115        159
   116         92
   117         13
   118          4
   119          5
   120          4
   121          7
   122         27
   123         22
   124         37
   125         36
   126         41
   127        107
   128         43
   129         37
   130         22
   131          8
   132          6
   133          7
   134          7
   135         21
   136         19
   137         10
   138         29
   139        129
   140        112
   141         67
   142         24
   143         33
   144         13
   145         50
   146          9
   147          4
   148          5
   149         16
   150         17
   151         18
   152         54
   153         53
   154         32
   155         15
   156        159
   157        315
   158        102
   159         13
   160          4
   161          5
   162          4
   163          8
   164          9
   165         10
   166         23
   167         37
   168         20
   169        196
   170         54
   171         23
   172          7
   173          2
   174         16
   175          3
   176          4
   177         46
   178         32
   179          9
   180          9
   181         39
   182         49
   183         50
   184         16
   185         22
   186          7
   187          9
   188          3
   189          2
   190          1
   191          2
   192          5
   193          9
   194         52
   195        132
   196         49
   197          9
   198         56
   199         85
   200         34
   201          7
   202          2
   203          1
   204          4
   205          5
   206          6
   207          3
   208          9
   209         10
   210          6
   211         48
   212         28
   213         16
   214          9
   215          2
   216          3
   217          2
   218          1
   219          4
   220          2
   221          3
   222          7
   223         13
   224          9
   225          5
   226          8
   227         12
   228          6
   229          3
   230          3
   231          1
   235          1
   236         17
   237         47
   238         11
   239          4
   240          4
   241         21
   242         93
   243         28
   244          4
   245          2
   246          1
   247          1
   248          1
   249          1
   250          1
   251          2
   252          1
   253         13
   254         25
   255         19
   256          5
   257          1
   258          2
   259         10
   260          3
   263          1
   264          3
   265          4
   266          2
   267          1
   268          1
   269          1
   270          6
   271          5
   272          2
   273          2
   275          1
   278          1
   279          8
   280          3
   281          1
   282          2
   283          3
   284          1
   287          2
   288          3
   292          1
   295          3
   296         10
   297         14
   298          4
   299          1
   301          3
   302         21
   303          3
   304          1
   314          2
   315         14
   316         10
   317          1
   343          2
   344          1
   348          7
   349          1
   361          1