##TITLE=Library Entry 4976
##JCAMP-DX=Revision 4.10 
##DATA TYPE=MASS SPECTRUM
##SAMPLE DESCRIPTION=A.A.Kutin, Moscow, Russia
##NAMES=HP
##CAS NAME=hexahydro-1,3,5-triazine-1,3,5-tricarboxylic acid, trimethyl este
r
##MOLFORM=C9H15N3O6
##CAS REGISTRY NO=55148-10-2
##MP= -300
##BP= -300
##MW= 261
##$RETENTION INDEX=0
##$CONDENSED SPECTRUM=NO
##NPOINTS= 155
##XYDATA=(XY..XY) 1 
    33         25
    34          9
    36          7
    37          1
    38          6
    39         24
    40        124
    41         91
    42        999
    43        106
    44        314
    45         78
    46          4
    47          6
    49          0
    50          3
    51          5
    52          2
    53          7
    54          9
    55         49
    56        299
    57         47
    58         36
    59        362
    60         20
    61          3
    62          0
    63          2
    64          1
    65          4
    66          2
    67          8
    68          5
    69         22
    70         17
    71         28
    72         62
    73          7
    74         22
    75          2
    76          6
    77          6
    78          3
    79          5
    80          2
    81          8
    82          6
    83         45
    84         14
    85         10
    86          9
    87         24
    88        504
    89         34
    90         15
    91          6
    92          2
    93          5
    94          2
    95          3
    96          2
    97          6
    98          4
    99          7
   101        297
   102         46
   103         14
   104          2
   105          3
   106          1
   107          2
   108          1
   109          2
   110          3
   111          3
   112          6
   113          3
   115        426
   116         34
   117          7
   118          3
   119          1
   120          3
   121          2
   122          1
   123          1
   124          1
   125          2
   126          2
   127          5
   128          3
   129         28
   130          2
   131          2
   132          7
   133          1
   134          1
   135          2
   136          0
   137          1
   138          0
   139          0
   140          0
   141          1
   142         18
   143        135
   144         11
   145          2
   146          2
   147          1
   149          5
   150          0
   151          0
   152          1
   153          0
   155          0
   157          1
   159         30
   160          4
   161         17
   162          1
   163          0
   167          0
   169          0
   170          2
   171          8
   172          1
   173         18
   174         35
   175          5
   176          0
   177          0
   179          0
   185          2
   186         33
   187          4
   188          0
   189          2
   190          0
   193          0
   200          1
   202        215
   203         19
   204          3
   229          0
   230         11
   231          1
   245          0
   246         33
   247          3
   248          0
   260          6
   261          3
   262          0