##TITLE=Library Entry 75927
##JCAMP-DX=Revision 4.10 
##DATA TYPE=MASS SPECTRUM
##SAMPLE DESCRIPTION=D.HENNEBERG, MAX-PLANCK INSTITUTE, MULHEIM, WEST GERMAN
Y
##NAMES=HP
##CAS NAME=Carbamic acid, 1,5-pentanediylbis-, diethyl ester
##MOLFORM=C11H22N2O4
##CAS REGISTRY NO=55148-17-9
##MP= -300
##BP= -300
##MW= 246
##$RETENTION INDEX=0
##$CONDENSED SPECTRUM=NO
##NPOINTS= 65
##XYDATA=(XY..XY) 1 
    39         54
    41        195
    42         86
    43        178
    44        132
    45        268
    46         84
    47          8
    51          2
    52          2
    53         15
    54         22
    55        143
    56        299
    57         13
    58         22
    59          7
    62         49
    67         54
    68        119
    69        143
    70         41
    71          9
    72         23
    73         15
    74        190
    75         13
    82         50
    83         70
    84        182
    85         60
    86          6
    88         63
    89         13
    90         27
    98         33
    99         31
   100         51
   102        999
   103         71
   110          5
   111         51
   112         79
   115         97
   116        123
   117         19
   127         91
   128         98
   129         10
   130          9
   131         30
   142          4
   143         46
   144         44
   145         59
   155         59
   156        108
   157         85
   158         21
   172          9
   173         29
   194         11
   200         16
   201         69
   246         56