##TITLE=Library Entry 38292
##JCAMP-DX=Revision 4.10 
##DATA TYPE=MASS SPECTRUM
##SAMPLE DESCRIPTION=NIST Mass Spectrometry Data Center, 1990.
##NAMES=HP
##CAS NAME=3-Methyl-1-hexen-3-ol
##MOLFORM=C7H14O
##CAS REGISTRY NO=55145-28-3
##MP= -300
##BP= -300
##MW= 114
##$RETENTION INDEX=0
##$CONDENSED SPECTRUM=NO
##NPOINTS= 42
##XYDATA=(XY..XY) 1 
    14          6
    15          8
    26         12
    27          9
    28         86
    29         43
    31         14
    38         11
    39         88
    40         22
    41        130
    42          9
    43        412
    44         15
    45         86
    50         12
    51         19
    52         10
    53         66
    54         15
    55         99
    56         13
    57        117
    58         40
    59         14
    65         15
    67         31
    68         21
    69         27
    70         13
    71        999
    72         58
    77          9
    79         37
    81         80
    82          7
    85         22
    86         20
    87         54
    96         18
    99         97
   100          6