##TITLE=Library Entry 68955
##JCAMP-DX=Revision 4.10 
##DATA TYPE=MASS SPECTRUM
##SAMPLE DESCRIPTION=K.Leimer ET AL, J.Chrom., 141, 121(1977)
##NAMES=HP
##CAS NAME=L-Histidine, 1-methyl-N-(trifluoroacetyl)-, butyl ester
##MOLFORM=C13H18F3N3O3
##CAS REGISTRY NO=55145-65-8
##MP= -300
##BP= -300
##MW= 321
##$RETENTION INDEX=1888
##$CONDENSED SPECTRUM=NO
##NPOINTS= 16
##XYDATA=(XY..XY) 1 
    41         60
    42        116
    55         39
    56         14
    57         26
    69         42
    81         60
    82         77
    94         28
    95        999
    96        155
   108         51
   109         26
   220        689
   221         93
   321         84