##TITLE=Library Entry 87683
##JCAMP-DX=Revision 4.10 
##DATA TYPE=MASS SPECTRUM
##SAMPLE DESCRIPTION=AAFS Toxicology Section MS DB Committee, U. Alberta, Ca
nada
##NAMES=HP
##CAS NAME=Thieno[3,2-c]pyridine, 5-[(2-chlorophenyl)methyl]-4,5,6,7-tetrahy
dro-
##MOLFORM=C14H14ClNS
##CAS REGISTRY NO=55142-85-3
##MP= -300
##BP= -300
##MW= 263
##$RETENTION INDEX=2090
##$CONDENSED SPECTRUM=NO
##NPOINTS= 125
##XYDATA=(XY..XY) 1 
    41         11
    42         47
    43          1
    45         34
    46          1
    47          2
    48          1
    49          1
    50         10
    51         24
    52          7
    53          7
    54          2
    55          1
    56          1
    57          1
    58         11
    59          4
    60          1
    61          1
    62          6
    63         31
    64          7
    65         38
    66         55
    67          9
    69         11
    70          6
    71          9
    72          1
    73          7
    74          3
    75         11
    76          5
    77         27
    78         10
    79          6
    80          1
    81          1
    82          4
    83          4
    84         39
    85          7
    86          3
    87          2
    89         75
    90         22
    91         31
    92          5
    93          2
    94          2
    95          5
    96          3
    97         12
    98          1
    99         26
   100          1
   101          9
   102          2
   103          1
   104          3
   105          5
   106          1
   107          1
   110        999
   111        106
   112         53
   113          5
   114          1
   117          3
   118          2
   119          1
   121          4
   122          3
   123         13
   125        211
   126         18
   127         71
   128          6
   129          1
   134          2
   135          4
   136         28
   137          6
   138         23
   139          3
   140          1
   141          1
   151          6
   152         28
   153          4
   154          4
   155          1
   156          6
   157          1
   165          2
   166          2
   167          1
   203          1
   204          2
   205          1
   206          1
   220          1
   221          2
   222          1
   223          1
   226          4
   228         44
   229          7
   230         35
   231          6
   232         12
   233          2
   234          2
   235          1
   236          1
   247          1
   260          3
   262        227
   263        423
   264        152
   265        159
   266         27
   267          9
   268          1