##TITLE=Library Entry 78784
##JCAMP-DX=Revision 4.10 
##DATA TYPE=MASS SPECTRUM
##SAMPLE DESCRIPTION=ORMSBG,9(1)102(1974); THOMAS
##NAMES=HP
##CAS NAME=Ethanone, 2-(formyloxy)-1-phenyl-
##MOLFORM=C9H8O3
##CAS REGISTRY NO=55153-12-3
##MP= -300
##BP= -300
##MW= 164
##$RETENTION INDEX=0
##$CONDENSED SPECTRUM=NO
##NPOINTS= 9
##XYDATA=(XY..XY) 1 
    29         30
    31         40
    50         40
    51        120
    77        440
    78         40
   105        999
   106         90
   164         20