##TITLE=Library Entry 79276
##JCAMP-DX=Revision 4.10 
##DATA TYPE=MASS SPECTRUM
##SAMPLE DESCRIPTION=ORMSBG,9(1)102(1974); THOMAS
##NAMES=HP
##CAS NAME=Benzoic acid, 2-fluoro-, 2-oxo-2-phenylethyl ester
##MOLFORM=C15H11FO3
##CAS REGISTRY NO=55153-24-7
##MP= -300
##BP= -300
##MW= 258
##$RETENTION INDEX=0
##$CONDENSED SPECTRUM=NO
##NPOINTS= 11
##XYDATA=(XY..XY) 1 
    41         30
    51         90
    69         30
    75         50
    77        220
    95        110
   105        999
   106         90
   118        160
   123        200
   258         10