##TITLE=Library Entry 81126
##JCAMP-DX=Revision 4.10 
##DATA TYPE=MASS SPECTRUM
##SAMPLE DESCRIPTION=ORMSBG,9(1)102(1974); THOMAS
##NAMES=HP
##CAS NAME=Benzoic acid, 3-methoxy-, 2-oxo-2-phenylethyl ester
##MOLFORM=C16H14O4
##CAS REGISTRY NO=55153-18-9
##MP= -300
##BP= -300
##MW= 270
##$RETENTION INDEX=0
##$CONDENSED SPECTRUM=NO
##NPOINTS= 21
##XYDATA=(XY..XY) 1 
    29         70
    39         60
    41         70
    43         40
    50         40
    51         70
    55         40
    56         40
    63         40
    64         60
    65         40
    76         40
    77        300
    92         90
   105        999
   106        100
   107        120
   135        400
   136         40
   270        240
   271         40