##TITLE=Library Entry 70914
##JCAMP-DX=Revision 4.10 
##DATA TYPE=MASS SPECTRUM
##SAMPLE DESCRIPTION=Chemical Concepts
##NAMES=HP
##CAS NAME=1,3-Cyclohexanediol, trans-
##MOLFORM=C6H12O2
##CAS REGISTRY NO=5515-64-0
##MP= -300
##BP= -300
##MW= 116
##$RETENTION INDEX=0
##$CONDENSED SPECTRUM=NO
##NPOINTS= 88
##XYDATA=(XY..XY) 1 
    25          1
    26         13
    27        176
    28          0
    29        217
    30          9
    31         87
    33          5
    37          2
    38          8
    39        183
    40         30
    41        337
    42        402
    43        398
    44        794
    45        242
    46         17
    47         93
    48          2
    49          0
    50          9
    51         24
    52          7
    53         55
    54        559
    55        378
    56         80
    57        356
    58        121
    59         34
    60          8
    61          0
    62          9
    63          6
    64          0
    65         10
    66          9
    67         30
    68         24
    69        217
    70        637
    71         80
    72         17
    73        280
    74         14
    75         20
    76          0
    77         25
    78          7
    79         79
    80        237
    81         58
    82          8
    83        543
    84         34
    85          4
    86          1
    87          3
    88          8
    89          0
    91          2
    92          2
    93          8
    94          5
    95          6
    96          5
    97        299
    98        999
    99         67
   100          2
   101          1
   102          2
   103          0
   104          1
   105          0
   106          3
   107          2
   108          0
   109          2
   111          5
   112          2
   113          0
   114          6
   115          5
   116          5
   117          2
   118          4