##TITLE=Library Entry 80935
##JCAMP-DX=Revision 4.10 
##DATA TYPE=MASS SPECTRUM
##SAMPLE DESCRIPTION=ORMSBG,9(1)102(1974); THOMAS
##NAMES=HP
##CAS NAME=Benzoic acid, 2-hydroxy-, 2-oxo-2-phenylethyl ester
##MOLFORM=C15H12O4
##CAS REGISTRY NO=55153-16-7
##MP= -300
##BP= -300
##MW= 256
##$RETENTION INDEX=0
##$CONDENSED SPECTRUM=NO
##NPOINTS= 22
##XYDATA=(XY..XY) 1 
    39        130
    40         50
    41         30
    44         50
    50         40
    51        110
    63         40
    64         30
    65        150
    77        260
    78         30
    91         70
    92         50
    93         80
   105        999
   106        100
   120        190
   121        390
   122         40
   225         70
   256        190
   257         40