##TITLE=Library Entry 79273
##JCAMP-DX=Revision 4.10 
##DATA TYPE=MASS SPECTRUM
##SAMPLE DESCRIPTION=ORMSBG,9(1)102(1974); THOMAS
##NAMES=HP
##CAS NAME=Benzoic acid, 4-fluoro-, 2-oxo-2-phenylethyl ester
##MOLFORM=C15H11FO3
##CAS REGISTRY NO=55153-22-5
##MP= -300
##BP= -300
##MW= 258
##$RETENTION INDEX=0
##$CONDENSED SPECTRUM=NO
##NPOINTS= 9
##XYDATA=(XY..XY) 1 
    51         60
    75         40
    77        210
    95        130
   105        999
   106         90
   118         80
   123        210
   258         10