##TITLE=Library Entry 79119
##JCAMP-DX=Revision 4.10 
##DATA TYPE=MASS SPECTRUM
##SAMPLE DESCRIPTION=ORMSBG,9(1)102(1974); THOMAS
##NAMES=HP
##CAS NAME=Benzoic acid, 4-bromo-, 2-oxo-2-phenylethyl ester
##MOLFORM=C15H11BrO3
##CAS REGISTRY NO=55153-26-9
##MP= -300
##BP= -300
##MW= 318
##$RETENTION INDEX=0
##$CONDENSED SPECTRUM=NO
##NPOINTS= 13
##XYDATA=(XY..XY) 1 
    51         60
    75         50
    76         60
    77        170
   105        999
   106         80
   118         50
   155         50
   157         50
   183         70
   185         70
   318         10
   320         10