##TITLE=Library Entry 78860
##JCAMP-DX=Revision 4.10 
##DATA TYPE=MASS SPECTRUM
##SAMPLE DESCRIPTION=A.A.Kutin, Moscow, Russia
##NAMES=HP
##CAS NAME=Benzoic acid, 3-iodo-, 2-oxo-2-phenylethyl ester
##MOLFORM=C15H11IO3
##CAS REGISTRY NO=55153-30-5
##MP= -300
##BP= -300
##MW= 366
##$RETENTION INDEX=0
##$CONDENSED SPECTRUM=NO
##NPOINTS= 85
##XYDATA=(XY..XY) 1 
    33          0
    37          1
    38          4
    39          9
    40          5
    41          2
    42          2
    43          3
    44         10
    45          0
    50         86
    51         67
    52          4
    53          1
    55          1
    56          0
    57          1
    60          0
    61          0
    62          2
    63          4
    64          2
    65         11
    66          0
    67          0
    69          1
    70          0
    71          0
    73          4
    74         19
    75         32
    76        153
    77        206
    78         14
    79          1
    81          0
    83          0
    84          0
    85          0
    86          0
    89          2
    91         23
    92          2
    93          0
    95          0
    97          0
   101          0
   102          1
   103          9
   105        999
   106         75
   107          4
   108          0
   111          0
   116          0
   118         49
   119          4
   120          1
   121          0
   127          9
   128          8
   149          1
   150          0
   151          0
   152          1
   153          0
   154          0
   165          1
   176          0
   181          0
   201          0
   203         57
   204          4
   207          0
   209          0
   223          0
   229          0
   231         78
   232          5
   233          0
   248          0
   281          0
   366         39
   367          6
   368          0