##TITLE=Library Entry 80963
##JCAMP-DX=Revision 4.10 
##DATA TYPE=MASS SPECTRUM
##SAMPLE DESCRIPTION=ORMSBG,9(1)102(1974); THOMAS
##NAMES=HP
##CAS NAME=Benzoic acid, 4-hydroxy-, 2-oxo-2-phenylethyl ester
##MOLFORM=C15H12O4
##CAS REGISTRY NO=55153-15-6
##MP= -300
##BP= -300
##MW= 256
##$RETENTION INDEX=0
##$CONDENSED SPECTRUM=NO
##NPOINTS= 19
##XYDATA=(XY..XY) 1 
    39        120
    50         30
    51         80
    52         80
    63         30
    64         30
    65        160
    77        230
    78         30
    91         30
    93        150
   105        999
   106         90
   118         70
   121        950
   122        100
   226         30
   256        240
   257         50