##TITLE=Library Entry 89810
##JCAMP-DX=Revision 4.10 
##DATA TYPE=MASS SPECTRUM
##SAMPLE DESCRIPTION=CARL DJERASSI DEPT OF CHEM STANFORD UNIV STANFORD CALIF
 94305
##NAMES=HP
##CAS NAME=20,21-Dinoraspidospermidin-5-ol, 1-ethyl-
##MOLFORM=C19H26N2O
##CAS REGISTRY NO=55162-78-2
##MP= -300
##BP= -300
##MW= 298
##$RETENTION INDEX=0
##$CONDENSED SPECTRUM=NO
##NPOINTS= 186
##XYDATA=(XY..XY) 1 
    41         90
    42         50
    43         60
    44         40
    45         10
    50         20
    51         20
    52         10
    53         20
    54         70
    55         40
    56         50
    57         20
    63         20
    64         10
    65         20
    67         30
    68         20
    69         40
    70         30
    71         40
    74         10
    77         40
    78         10
    79         20
    80         10
    81         40
    82         20
    83         30
    84         20
    85         20
    89         20
    90         10
    91         40
    92         20
    93         20
    94         10
    95         30
    96         40
    97         30
    98         20
    99         10
   101         10
   102         20
   103         30
   104         10
   105         20
   106         20
   107         30
   108         20
   109         20
   110         30
   111         40
   112        999
   113         90
   114         20
   115         50
   116         20
   117         20
   118         20
   119         20
   120         30
   121         20
   122        140
   123         30
   124         60
   125         20
   126         50
   127         30
   128         40
   129         20
   130         70
   131         20
   132         50
   133         30
   134         20
   135         30
   136         10
   138         20
   139         20
   140        290
   141         90
   142         20
   143         60
   144         70
   145         30
   146         20
   147         20
   148         20
   149         60
   150         20
   154         30
   155         30
   156         70
   157         50
   158        140
   159         80
   160         40
   161         30
   163         10
   165         20
   166         10
   167         20
   168         30
   169         30
   170         40
   171        110
   172         90
   173         40
   178        100
   179         30
   180         30
   181         30
   182         30
   183         40
   184         50
   185         50
   186         30
   187         20
   193         10
   194         10
   195         20
   196         20
   197         30
   198         20
   199         30
   200         20
   201         20
   202         20
   206         20
   207         20
   208         20
   209         20
   210         20
   211         20
   212         20
   213         40
   214         20
   215         10
   219         10
   220         20
   221         10
   222         10
   223         20
   224         10
   225         20
   226         20
   227         10
   228         20
   229         20
   231         10
   232         10
   235         10
   236         10
   237         10
   238         10
   239         30
   240         10
   241         30
   242         10
   249         10
   250         20
   251         50
   252         30
   253         40
   254         30
   255         30
   259         30
   265         30
   267         20
   269         30
   270         50
   278         20
   279         50
   280         70
   281         50
   282         20
   283        290
   284         70
   285         30
   295         20
   296         40
   297         70
   298        830
   299        200
   300         30