##TITLE=Library Entry 61370
##JCAMP-DX=Revision 4.10 
##DATA TYPE=MASS SPECTRUM
##SAMPLE DESCRIPTION=CARL DJERASSI DEPT OF CHEM STANFORD UNIV STANFORD CALIF
 94305
##NAMES=HP
##CAS NAME=Benzene, [(4,5,5-trimethyl-1-cyclopenten-1-yl)methyl]-
##MOLFORM=C15H20
##CAS REGISTRY NO=55162-47-5
##MP= -300
##BP= -300
##MW= 200
##$RETENTION INDEX=0
##$CONDENSED SPECTRUM=NO
##NPOINTS= 39
##XYDATA=(XY..XY) 1 
    41        142
    43         40
    44         10
    51         30
    53         30
    55         61
    63         10
    65         81
    67        112
    69         20
    77         51
    78         10
    79         30
    81         30
    89         10
    91        999
    92         80
    93         60
    94         10
   105         71
   107         30
   108         10
   109        561
   110         30
   115         60
   116         10
   117         10
   127         20
   128         60
   129        130
   130         20
   131         40
   143         71
   144         10
   183        480
   185        459
   186         70
   200        160
   201         20