##TITLE=Library Entry 24750
##JCAMP-DX=Revision 4.10 
##DATA TYPE=MASS SPECTRUM
##SAMPLE DESCRIPTION=Exported from NIST MS Search
##NAMES=HP
##CAS NAME=Nonane, 2-bromo-5-ethyl-
##MOLFORM=C11H23Br
##CAS REGISTRY NO=55162-38-4
##MP= -300
##BP= -300
##MW= 234
##$RETENTION INDEX=0
##$CONDENSED SPECTRUM=NO
##NPOINTS= 115
##XYDATA=(XY..XY) 1 
    15          2
    26          2
    27         83
    28         34
    29        131
    30          4
    32          6
    36          6
    38          3
    39         63
    40         11
    41        319
    42         48
    43        358
    44         13
    51          6
    52          4
    53         31
    54         19
    55        542
    56        151
    57        999
    58         46
    65          6
    66          3
    67         30
    68         13
    69        408
    70        142
    71        295
    72         17
    77          6
    78          1
    79          8
    80          4
    81         25
    82         12
    83        181
    84         29
    85        243
    86         17
    91          3
    93          3
    94          1
    95         12
    96         15
    97        239
    98        106
    99        129
   100         11
   105          1
   106          1
   107         11
   108          1
   109         12
   110          2
   111         10
   112         32
   113         58
   114          6
   119          2
   120          3
   121         15
   122          3
   123         14
   124          3
   125         54
   126          7
   127          2
   133          3
   134          2
   135         12
   136          2
   137         11
   138          1
   139          3
   140          1
   141          5
   147          1
   148          1
   149          7
   150          1
   151          6
   152          1
   153          1
   154         21
   155        161
   156         20
   161          1
   162          3
   163          4
   164          3
   165          4
   166          1
   167          1
   168          2
   169          3
   176          2
   177         80
   178          9
   179         79
   180          7
   190          2
   191          3
   192          2
   193          3
   204          2
   205         44
   206          6
   207         43
   208          5
   219          2
   221          2
   232          1
   234          1