##TITLE=Library Entry 83732
##JCAMP-DX=Revision 4.10 
##DATA TYPE=MASS SPECTRUM
##SAMPLE DESCRIPTION=CARL DJERASSI DEPT OF CHEM STANFORD UNIV STANFORD CALIF
 94305
##NAMES=HP
##CAS NAME=2-Cyclohexen-1-ol, 4-ethyl-1,4-dimethyl-
##MOLFORM=C10H18O
##CAS REGISTRY NO=55162-55-5
##MP= -300
##BP= -300
##MW= 154
##$RETENTION INDEX=0
##$CONDENSED SPECTRUM=NO
##NPOINTS= 64
##XYDATA=(XY..XY) 1 
    41        250
    42         20
    43        120
    44         10
    45         20
    50         40
    51        110
    52         50
    53        120
    54         20
    55         90
    56         20
    57         20
    58         10
    62         10
    63         40
    64         10
    65        130
    66         20
    67         50
    68         10
    69         30
    71         10
    74         10
    75         10
    76         10
    77        190
    78         50
    79        340
    80         40
    81         50
    82         10
    83         30
    84         90
    85         10
    89         10
    91        520
    92         80
    93        180
    94         20
    95         20
    96         10
    97         20
   103         20
   104         10
   105        140
   106         50
   107        999
   108        110
   109         20
   110         20
   111         20
   115         20
   117         20
   119         20
   121         90
   122         20
   125         30
   126         20
   136        200
   137         40
   139         60
   140         20
   154         20