##TITLE=Library Entry 81716
##JCAMP-DX=Revision 4.10 
##DATA TYPE=MASS SPECTRUM
##SAMPLE DESCRIPTION=Exported from NIST MS Search
##NAMES=HP
##CAS NAME=Ethane, 2-bromo-2-chloro-1,1,1-trimethoxy-
##MOLFORM=C5H10BrClO3
##CAS REGISTRY NO=55162-37-3
##MP= -300
##BP= -300
##MW= 232
##$RETENTION INDEX=0
##$CONDENSED SPECTRUM=NO
##NPOINTS= 87
##XYDATA=(XY..XY) 1 
    13          6
    14         11
    15        383
    16          8
    17          4
    18         13
    26          9
    27         36
    28         65
    29         99
    30         13
    31         45
    32         30
    38          4
    41          9
    42         23
    43         79
    44          6
    45        140
    46          5
    47         46
    48         48
    49         37
    50         19
    51         50
    53         14
    57         28
    58         16
    59        328
    60         11
    61         62
    62          6
    63         30
    64          3
    65         11
    74          6
    75         63
    76         57
    77        132
    78         23
    79        193
    80          9
    81         68
    82          6
    91         23
    92         64
    93         30
    94         40
    95         41
    96          5
    97         24
   103          8
   104          5
   105        999
   106         46
   107         42
   109         16
   118          4
   120         46
   121         14
   122        430
   123        125
   124        140
   125        101
   126          9
   127        118
   128         10
   129        154
   130          4
   131         39
   133          6
   151         12
   153         17
   154          4
   155          9
   156          4
   157         14
   159          7
   166          4
   168          4
   201        748
   202         38
   203        975
   204         45
   205        238
   206         12
   207          1