##TITLE=Library Entry 79282
##JCAMP-DX=Revision 4.10 
##DATA TYPE=MASS SPECTRUM
##SAMPLE DESCRIPTION=CARL DJERASSI DEPT OF CHEM STANFORD UNIV STANFORD CALIF
 94305
##NAMES=HP
##CAS NAME=Pentanal, 5-(benzoyloxy)-
##MOLFORM=C12H14O3
##CAS REGISTRY NO=55162-83-9
##MP= -300
##BP= -300
##MW= 206
##$RETENTION INDEX=0
##$CONDENSED SPECTRUM=NO
##NPOINTS= 26
##XYDATA=(XY..XY) 1 
    41         90
    42         20
    43         30
    44         20
    50         70
    51        191
    52         20
    55         90
    56         90
    57         30
    74         10
    75         10
    76         20
    77        484
    78         40
    79         40
    83         20
    84         90
    85         10
   101         80
   105        999
   106        101
   122        131
   123        292
   124         20
   178         20