##TITLE=Library Entry 7671
##JCAMP-DX=Revision 4.10 
##DATA TYPE=MASS SPECTRUM
##SAMPLE DESCRIPTION=CARL DJERASSI DEPT OF CHEM STANFORD UNIV STANFORD CALIF
 94305
##NAMES=HP
##CAS NAME=Cholestan-3-one, 2-(1,1-dimethylethyl)-, (2.beta.,5.alpha.)-
##MOLFORM=C31H54O
##CAS REGISTRY NO=55162-57-7
##MP= -300
##BP= -300
##MW= 442
##$RETENTION INDEX=0
##$CONDENSED SPECTRUM=NO
##NPOINTS= 222
##XYDATA=(XY..XY) 1 
    30         80
    31        219
    32        523
    33         14
    34         28
    36          9
    37         14
    38         19
    39        152
    40         66
    41        666
    42        171
    43        999
    44        647
    45        119
    46         33
    47          9
    48         28
    49          4
    50         23
    51         28
    52         23
    53        100
    54         57
    55        628
    56        138
    57        999
    58         71
    59         28
    60        104
    61        252
    62        257
    63         23
    64         47
    65         33
    66         23
    67        247
    68        100
    69        400
    70        123
    71        209
    72         42
    73         52
    74         28
    75          4
    76          9
    77         80
    78         28
    79        190
    80         38
    81        376
    82        100
    83        276
    84         80
    85         71
    86         23
    87         19
    88          9
    89          4
    90          4
    91        133
    92        114
    93        223
    94         95
    95        385
    96         80
    97        142
    98         57
    99         28
   100         23
   101         14
   102         14
   103         14
   104          9
   105        138
   106         66
   107        233
   108        114
   109        233
   110         66
   111        142
   112         61
   113         28
   114          9
   115         19
   116          9
   117         33
   118         19
   119         90
   120         57
   121        195
   122        109
   123        157
   124        100
   125         57
   126         23
   127         19
   128         14
   129         23
   130          9
   131         42
   132         23
   133         80
   134         38
   135        109
   136         47
   137         66
   138         23
   139         23
   140          9
   141          9
   142          4
   143         14
   144          9
   145         38
   146         23
   147         85
   148         47
   149        114
   150         42
   151         33
   152         19
   153         28
   154          4
   155          4
   156          4
   157          9
   158          4
   159         42
   160         19
   161        109
   162         57
   163         66
   164         19
   165         23
   166         14
   167         14
   171          9
   173         38
   174         28
   175         90
   176        100
   177         42
   178         19
   179         23
   180         47
   181          4
   185          9
   187         28
   188         14
   189        109
   190         52
   191         42
   192          4
   193         14
   199          4
   201         28
   202         19
   203         95
   204        109
   205         33
   206          4
   207         38
   211          4
   213          9
   215         14
   216          4
   217         38
   218          9
   219         19
   227          4
   228          4
   229         61
   230         19
   231         42
   232         57
   233         23
   243          4
   244         28
   245         23
   246        233
   247         95
   248          9
   257          4
   259          9
   260         19
   261         66
   262         90
   263         38
   271          4
   272         71
   273         33
   274          9
   275          4
   281          9
   287        123
   288         42
   289         23
   299          4
   301         23
   302          4
   306          9
   313          4
   314        104
   315         90
   316        214
   317         47
   321        128
   322         23
   328          9
   329         14
   330          4
   331         14
   357          9
   385          9
   386        476
   387        142
   388         14
   400        476
   427         61
   428         19
   442          9