##TITLE=Library Entry 63990
##JCAMP-DX=Revision 4.10 
##DATA TYPE=MASS SPECTRUM
##SAMPLE DESCRIPTION=A. Brossi, LC, NIDDK, NIH, Bethesda, MD 20892
##NAMES=HP
##CAS NAME=Benzenenethanamine, N-acetyl-3-benzyloxy-4-methoxy-
##MOLFORM=C18H21NO3
##CAS REGISTRY NO=55161-43-8
##MP= -300
##BP= -300
##MW= 299
##$RETENTION INDEX=0
##$CONDENSED SPECTRUM=NO
##NPOINTS= 98
##XYDATA=(XY..XY) 1 
    42         28
    43        218
    44          7
    45          0
    49          0
    50          7
    51         30
    52         12
    53          7
    54          0
    55          5
    56          1
    62          4
    63         22
    64          9
    65        125
    66         12
    67          4
    69          0
    72         16
    75          0
    76          2
    77         39
    78         31
    79         19
    80          6
    81          0
    89         32
    90         23
    91        999
    92         76
    93          9
    94         17
    95          5
   103         11
   104          2
   105         22
   106         21
   107         23
   108         14
   109          3
   115          1
   116          3
   117          8
   118          5
   119          4
   120          4
   121         18
   122         22
   123          6
   124          1
   131          0
   132          1
   133          2
   134         25
   135         11
   136          7
   137         32
   138          4
   141          1
   147          2
   148          7
   149         24
   150         10
   151         11
   152          6
   153          1
   164          2
   165         12
   166        116
   167         39
   168          5
   177          2
   178          1
   179          2
   180          1
   181          6
   193          5
   194          1
   195          4
   197          1
   198          2
   207          2
   208          8
   209          3
   212          0
   223          0
   225         27
   226          4
   227         29
   228          5
   239          3
   240        330
   241         49
   242          6
   299         93
   300         19
   301          2