##TITLE=Library Entry 54989
##JCAMP-DX=Revision 4.10 
##DATA TYPE=MASS SPECTRUM
##SAMPLE DESCRIPTION=CARL DJERASSI DEPT OF CHEM STANFORD UNIV STANFORD CALIF
 94305
##NAMES=HP
##CAS NAME=4-Pentenoic acid, 5-ethoxy-, ethyl ester, (E)-
##MOLFORM=C9H16O3
##CAS REGISTRY NO=55162-84-0
##MP= -300
##BP= -300
##MW= 172
##$RETENTION INDEX=0
##$CONDENSED SPECTRUM=NO
##NPOINTS= 30
##XYDATA=(XY..XY) 1 
    41        120
    42        100
    43         90
    44         50
    45         60
    53         50
    55         60
    57        800
    58         30
    60         60
    61         30
    69         90
    70        220
    71         80
    72         50
    73         80
    83         20
    85        999
    86         60
    88         20
    97        460
    98        380
    99        130
   101         10
   115         20
   127        130
   128         10
   143         50
   172        290
   173         30