##TITLE=Library Entry 21512
##JCAMP-DX=Revision 4.10 
##DATA TYPE=MASS SPECTRUM
##SAMPLE DESCRIPTION=CARL DJERASSI DEPT OF CHEM STANFORD UNIV STANFORD CALIF
 94305
##NAMES=HP
##CAS NAME=2H-Pyran, 3-bromo-2-ethoxytetrahydro-, cis-
##MOLFORM=C7H13BrO2
##CAS REGISTRY NO=55162-85-1
##MP= -300
##BP= -300
##MW= 208
##$RETENTION INDEX=0
##$CONDENSED SPECTRUM=NO
##NPOINTS= 46
##XYDATA=(XY..XY) 1 
    41        140
    42         20
    43         70
    44         40
    45         70
    47        270
    51         10
    53        100
    54         40
    55        999
    56         60
    57         50
    69         20
    71         20
    72         20
    73         50
    75        350
    82         10
    83        120
    84         50
    99         20
   100         10
   101        280
   102         50
   106        380
   107         20
   108        360
   109         20
   119         10
   121         30
   122         50
   123         20
   124         40
   128         10
   129         30
   134        500
   135         40
   136        470
   137         30
   150         10
   152         10
   163        160
   164         10
   165        170
   208         60
   210         60