##TITLE=Library Entry 109022
##JCAMP-DX=Revision 4.10 
##DATA TYPE=MASS SPECTRUM
##SAMPLE DESCRIPTION=CARL DJERASSI DEPT OF CHEM STANFORD UNIV STANFORD CALIF
 94305
##NAMES=HP
##CAS NAME=Cholestan-3-one, 2-(1-methylethyl)-, cyclic 1,2-ethanediyl acetal
, (2.alpha.,5.alpha.)-
##MOLFORM=C32H56O2
##CAS REGISTRY NO=55162-59-9
##MP= -300
##BP= -300
##MW= 472
##$RETENTION INDEX=0
##$CONDENSED SPECTRUM=NO
##NPOINTS= 74
##XYDATA=(XY..XY) 1 
    41        191
    42         40
    43        353
    44         60
    45         20
    53         30
    54         20
    55        191
    56         40
    57        171
    58         30
    59         20
    67         70
    68         30
    69        151
    70         30
    71         50
    72         30
    77         10
    79         60
    80         20
    81        121
    82         20
    83         50
    86         40
    87         20
    91         40
    92         20
    93         50
    95         90
    97         40
    99         80
   105         40
   106         20
   107         60
   108         20
   109         30
   111         20
   112        222
   113         80
   114         10
   117         10
   119         30
   120         20
   121         30
   122         20
   123         20
   124         10
   125        999
   126         90
   127         30
   128         10
   131         10
   133         20
   135         20
   137         10
   139         10
   140         10
   141        333
   142         30
   143         10
   147         30
   149         10
   159         20
   161         10
   163         10
   173         10
   273         10
   305         10
   359         10
   428         20
   429         10
   457         20
   472        262