##TITLE=Library Entry 59966
##JCAMP-DX=Revision 4.10 
##DATA TYPE=MASS SPECTRUM
##SAMPLE DESCRIPTION=K.WAKABAYASHI MITSUBISHI CHEM. INDUST., KANAGAWA, JAPAN
.
##NAMES=HP
##CAS NAME=1,3,5-Triazine, 2-[(phenylmethyl)thio]-4,6-bis(trichloromethyl)-
##MOLFORM=C12H7Cl6N3S
##CAS REGISTRY NO=5516-51-8
##MP= -300
##BP= -300
##MW= 435
##$RETENTION INDEX=0
##$CONDENSED SPECTRUM=NO
##NPOINTS= 269
##XYDATA=(XY..XY) 1 
    26          3
    27          5
    28          6
    29          1
    30          1
    35         23
    36         78
    37          8
    38         25
    39         62
    40          4
    41         23
    42          1
    43          3
    44          6
    45         36
    46          3
    47         11
    48          1
    49          4
    50         11
    51         30
    52          9
    53          3
    55          1
    57          1
    58          3
    59          1
    60          1
    61          4
    62         10
    63         35
    64          9
    65        151
    66          7
    69          3
    70          5
    71          1
    72          1
    73          8
    74          4
    75          4
    76          4
    77         18
    78         11
    79          6
    80          1
    81          2
    82         13
    83          3
    84         10
    85          8
    86          3
    87          4
    88          1
    89         26
    90         13
    91        999
    92         62
    93          4
    94          2
    96          2
    97          2
    99          2
   100          1
   101          4
   102          5
   103          1
   106          3
   107         16
   108          1
   109         16
   110          2
   121         48
   122         11
   123         13
   124          3
   125         34
   126         36
   127         16
   128         14
   129          3
   131          3
   133          1
   134          5
   135          8
   136          5
   137          5
   138          2
   139          1
   140          7
   142          5
   144          3
   145          1
   146          3
   147          5
   148         23
   149          7
   150          2
   151          1
   152         14
   153          1
   154         13
   155          1
   156          3
   157          1
   158          1
   159          1
   160          1
   161          1
   162         13
   163          5
   164          6
   165          3
   166          2
   167          1
   168          1
   169          1
   170          1
   171          6
   172          1
   173          5
   174          1
   175          1
   181          1
   182          3
   183          5
   184          3
   185          1
   186          1
   187          2
   188          3
   189          2
   190          2
   192          2
   194          2
   196          3
   197          1
   198         20
   199          3
   200         14
   201          3
   202          3
   203          2
   205          1
   221          3
   222          1
   223          3
   224          3
   225          2
   226          3
   228          1
   233          1
   235          1
   236          1
   238          2
   239          1
   240          3
   242          2
   243          1
   244          1
   245          1
   246          1
   247          2
   248          1
   250          1
   253          1
   255          4
   256          1
   257          4
   258          1
   259          2
   260          1
   261          2
   262          1
   263          1
   264          1
   270          3
   271          2
   272          3
   273          1
   274          1
   276          1
   277          1
   278          1
   279          1
   280          1
   281          1
   282          4
   283          1
   284          3
   285          2
   286          1
   287          1
   293          1
   294          2
   295          2
   296          2
   297          2
   298          1
   299          2
   301          1
   304          3
   305          3
   306          3
   307          4
   308          2
   309          3
   311          3
   313          3
   315          3
   317          2
   318          3
   319          2
   320          3
   321          1
   322          1
   328          3
   329          3
   330          4
   331          4
   332          4
   333          4
   334          4
   335          3
   336          3
   337          2
   338          2
   339          2
   340          1
   341          1
   363          1
   364         11
   365          7
   366         21
   367         10
   368         16
   369          8
   370         10
   371          8
   372          5
   373          4
   374          2
   375          2
   376          1
   399         11
   400         73
   401         20
   402        120
   403         21
   404         80
   405          6
   406         30
   407          2
   408          6
   409          1
   410          2
   434          5
   435         36
   436         10
   437         72
   438          8
   439         60
   440          4
   441         26
   442          1
   443          7
   444          1
   445          1