##TITLE=Library Entry 24064
##JCAMP-DX=Revision 4.10 
##DATA TYPE=MASS SPECTRUM
##SAMPLE DESCRIPTION=D.HENNEBERG, MAX-PLANCK INSTITUTE, MULHEIM, WEST GERMAN
Y
##NAMES=HP
##CAS NAME=1-Decene, 2,4-dimethyl-
##MOLFORM=C12H24
##CAS REGISTRY NO=55170-80-4
##MP= -300
##BP= -300
##MW= 168
##$RETENTION INDEX=0
##$CONDENSED SPECTRUM=NO
##NPOINTS= 59
##XYDATA=(XY..XY) 1 
    25          1
    26          8
    27        146
    28         43
    29        322
    30          7
    32          3
    38          3
    39        126
    40         26
    41        580
    42        127
    43        982
    44         29
    50          1
    51          9
    52          3
    53         49
    54         26
    55        519
    56        475
    57        999
    58         36
    60          0
    63          2
    65          8
    66          4
    67         49
    68         36
    69        306
    70        387
    71        387
    72         18
    77          6
    78          0
    79          9
    80          1
    81         18
    82         69
    83        563
    84        186
    85         48
    86          1
    91          1
    95          6
    96          1
    97         45
    98         13
    99          2
   109          1
   110         59
   111         38
   112        236
   113         18
   125          1
   126          1
   153          3
   168         12
   169          1