##TITLE=Library Entry 22297
##JCAMP-DX=Revision 4.10 
##DATA TYPE=MASS SPECTRUM
##SAMPLE DESCRIPTION=D.HENNEBERG, MAX-PLANCK INSTITUTE, MULHEIM, WEST GERMAN
Y
##NAMES=HP
##CAS NAME=Cyclobutane, 1-hexyl-2,3-dimethyl-
##MOLFORM=C12H24
##CAS REGISTRY NO=55170-84-8
##MP= -300
##BP= -300
##MW= 168
##$RETENTION INDEX=0
##$CONDENSED SPECTRUM=NO
##NPOINTS= 70
##XYDATA=(XY..XY) 1 
    26          2
    27         60
    28          7
    29         91
    30          3
    31          0
    38          5
    39         50
    40         11
    41        216
    42         84
    43        138
    44          0
    45          0
    47          0
    49          0
    50          0
    51          3
    52          1
    53         22
    54         21
    55        283
    56        999
    57        125
    58          3
    63          0
    65         15
    66          1
    67         25
    68         19
    69        131
    70        192
    71         56
    72          3
    75          2
    77          3
    78          0
    79          3
    80          0
    81         10
    82         20
    83         86
    84         69
    85          9
    86          0
    91          0
    93          1
    95          0
    96          7
    97         65
    98         32
    99          3
   110         10
   111          8
   112         16
   113          2
   114          0
   124          3
   125          1
   126         53
   127          5
   128          0
   138          2
   139         16
   140          5
   141          0
   147          0
   153          0
   167          0
   169          0