##TITLE=Library Entry 34247
##JCAMP-DX=Revision 4.10 
##DATA TYPE=MASS SPECTRUM
##SAMPLE DESCRIPTION=D.HENNEBERG, MAX-PLANCK INSTITUTE, MULHEIM, WEST GERMAN
Y
##NAMES=HP
##CAS NAME=2-Undecene, 4,5-dimethyl-, [R*,R*-(E)]-
##MOLFORM=C13H26
##CAS REGISTRY NO=55170-92-8
##MP= -300
##BP= -300
##MW= 182
##$RETENTION INDEX=0
##$CONDENSED SPECTRUM=NO
##NPOINTS= 62
##XYDATA=(XY..XY) 1 
    23          0
    25          3
    26         12
    27        161
    28         20
    29        279
    30          4
    31          0
    32          0
    35          2
    37          7
    38          3
    39        134
    40         28
    41        783
    42        133
    43        588
    44         14
    50          2
    51          8
    52          2
    53         72
    54         28
    55        442
    56        136
    57        623
    58         25
    63          4
    65         13
    66         15
    67         77
    68        240
    69        999
    70        501
    71        454
    72         18
    77         10
    78          1
    79         10
    80          2
    81         29
    82         23
    83        104
    84         63
    85         14
    88          2
    91          4
    93          2
    95          7
    96          7
    97         79
    98        107
    99          7
   109          2
   110          7
   111         36
   112        117
   113         14
   140         82
   141         10
   153          1
   182          1