##TITLE=Library Entry 49654
##JCAMP-DX=Revision 4.10 
##DATA TYPE=MASS SPECTRUM
##SAMPLE DESCRIPTION=Chemical Concepts
##NAMES=HP
##CAS NAME=1,4-Ethanofluoren-9-one, 1,4,4a,9a-tetrahydro-
##MOLFORM=C15H14O
##CAS REGISTRY NO=55178-85-3
##MP= -300
##BP= -300
##MW= 210
##$RETENTION INDEX=0
##$CONDENSED SPECTRUM=NO
##NPOINTS= 96
##XYDATA=(XY..XY) 1 
    26          1
    27         18
    29          1
    38          2
    39         32
    41         10
    50         22
    51         39
    52         15
    53          8
    54          2
    62          5
    63         26
    64         20
    65         15
    66          2
    67          8
    69          0
    70          2
    74          9
    75         17
    76         89
    77         79
    78         17
    79        324
    80        999
    81         58
    82          8
    83          8
    84          1
    86          2
    87          4
    88          5
    89         19
    90          6
    91         17
    97          2
    98          1
    99          1
   101          7
   102         29
   103         21
   104         13
   105         10
   113          2
   114          2
   115         28
   116          4
   118          1
   126          5
   127         10
   128         16
   129          5
   130         13
   131         85
   132        608
   133         60
   134          4
   139          7
   140          1
   141          7
   143          1
   144          3
   150          3
   151         10
   152         35
   153         22
   154          8
   155          1
   156         11
   157          1
   163          1
   164          2
   165         20
   166          7
   167          3
   168          1
   169          3
   176          2
   177          2
   178          9
   179          5
   180          1
   181         32
   182          8
   183          1
   189          1
   191          3
   192          2
   193          1
   194          2
   195          8
   209          5
   210        152
   211         29
   212          2