##TITLE=Library Entry 23626
##JCAMP-DX=Revision 4.10 
##DATA TYPE=MASS SPECTRUM
##SAMPLE DESCRIPTION=D.HENNEBERG, MAX-PLANCK INSTITUTE, MULHEIM, WEST GERMAN
Y
##NAMES=HP
##CAS NAME=2-Undecene, 4,5-dimethyl-, [R*,S*-(Z)]-
##MOLFORM=C13H26
##CAS REGISTRY NO=55170-93-9
##MP= -300
##BP= -300
##MW= 182
##$RETENTION INDEX=0
##$CONDENSED SPECTRUM=NO
##NPOINTS= 59
##XYDATA=(XY..XY) 1 
    21          2
    24          8
    25          3
    27        177
    28         25
    29        316
    30         12
    31          1
    38          6
    39        165
    40         27
    41        975
    42        164
    43        810
    44          8
    45          1
    50          3
    51         14
    52          3
    53         85
    54         39
    55        490
    56        192
    57        999
    58         40
    62          3
    65         15
    66         11
    67         91
    68        250
    69        837
    70        506
    71        620
    72         28
    77         11
    79         16
    80          2
    81         35
    82         33
    83        139
    84         85
    85         16
    88          2
    91          4
    93          2
    95          9
    96          4
    97         91
    98        120
    99         10
   109          3
   110          6
   111         60
   112        172
   113         12
   114          2
   140         98
   141          7
   182          2