##TITLE=Library Entry 2709
##JCAMP-DX=Revision 4.10 
##DATA TYPE=MASS SPECTRUM
##SAMPLE DESCRIPTION=NIST Mass Spectrometry Data Center
##NAMES=HP
##CAS NAME=3-Tetradecyn-1-ol
##MOLFORM=C14H26O
##CAS REGISTRY NO=55182-74-6
##MP= -300
##BP= -300
##MW= 210
##$RETENTION INDEX=0
##$CONDENSED SPECTRUM=NO
##NPOINTS= 94
##XYDATA=(XY..XY) 1 
    14          3
    15          9
    16          4
    17         10
    18         41
    19          2
    20          1
    25          3
    27        389
    28        100
    29        608
    31        535
    32         13
    33          2
    37          3
    39        326
    40         86
    41        999
    42        165
    43        725
    44         38
    45          7
    50         21
    51         71
    52        111
    53        284
    54        380
    55        764
    56        225
    57        207
    58         13
    62          3
    63         12
    65        116
    66        106
    67        549
    68        245
    69        513
    70         95
    71         52
    72          3
    75          1
    77        150
    79        461
    80        137
    81        443
    82        200
    83        275
    84        443
    85         53
    86          3
    91        127
    93        259
    94         81
    95        331
    96        150
    97        459
    98         64
    99          6
   103          2
   105         24
   107        176
   108         60
   109        134
   110         32
   111         43
   112          7
   119          2
   121         67
   122         29
   123         31
   124         12
   125         25
   126          9
   133          1
   135         28
   136          3
   137          7
   138          7
   139         21
   140          3
   149          8
   150          1
   151          5
   153         15
   154          1
   163          5
   164          3
   165          4
   166          3
   167         10
   168          1
   181          4
   210          2