##TITLE=Library Entry 2428
##JCAMP-DX=Revision 4.10 
##DATA TYPE=MASS SPECTRUM
##SAMPLE DESCRIPTION=LAC, NIDDK, NIH, Bethesda, MD 20892
##NAMES=HP
##CAS NAME=3-Tetradecanynoic acid
##MOLFORM=C14H24O2
##CAS REGISTRY NO=55182-76-8
##MP= -300
##BP= -300
##MW= 224
##$RETENTION INDEX=0
##$CONDENSED SPECTRUM=NO
##NPOINTS= 83
##XYDATA=(XY..XY) 1 
    41        999
    42        184
    43        982
    44         79
    45        168
    50         31
    51        102
    52        122
    53        240
    54        208
    55        745
    56        174
    57        334
    58         23
    60         31
    61         84
    63         18
    65        113
    66         75
    67        508
    68        187
    69        539
    70        456
    71        144
    72          6
    73         27
    77        175
    78         61
    79        670
    80        355
    81        454
    82        235
    83        406
    84         96
    85         57
    91        172
    92         44
    93        562
    94        703
    95        423
    96        124
    97        335
    98        227
    99         52
   100         37
   101         24
   105         52
   106          7
   107        266
   108        170
   109        143
   110         52
   111         99
   112        188
   113         26
   116         55
   117         14
   119         17
   121        333
   122        186
   123         64
   124         46
   125         63
   126         43
   131         15
   135        231
   136         95
   137         28
   138         35
   139        114
   140         42
   149         64
   150         27
   151         27
   153         40
   154         21
   163          7
   164        327
   165         51
   167         26
   168          7
   169         18
   224         17