##TITLE=Library Entry 76050
##JCAMP-DX=Revision 4.10 
##DATA TYPE=MASS SPECTRUM
##SAMPLE DESCRIPTION=F.M.TRENT RES. DIV., U.S. IND. CHEM. CO., CINCINNATI, U
SA
##NAMES=HP
##CAS NAME=Hexanedioic acid, 2,5-diethyl-, dimethyl ester
##MOLFORM=C12H22O4
##CAS REGISTRY NO=55191-18-9
##MP= -300
##BP= -300
##MW= 230
##$RETENTION INDEX=0
##$CONDENSED SPECTRUM=NO
##NPOINTS= 67
##XYDATA=(XY..XY) 1 
    15         63
    27         70
    28         31
    29         68
    31         10
    39         68
    40         15
    41        344
    42         58
    43         69
    45         55
    53         40
    54         18
    55        402
    56         79
    57         37
    59        295
    62         10
    67         37
    68         33
    69        569
    70        129
    71         29
    74         96
    79         10
    81         52
    82         17
    83         82
    84         13
    85         14
    87        590
    88         45
    95         18
    96         12
    97         48
    98         12
    99         21
   101         73
   102        999
   103         58
   109         35
   110         53
   111        152
   112         24
   113         44
   114         47
   115         75
   127         19
   129        269
   130         21
   138         46
   139         86
   140         25
   141         44
   142        123
   143         12
   155         19
   157         12
   158          1
   166        246
   167         29
   170        135
   171        148
   172         16
   198         11
   199         55
   202         10