##TITLE=Library Entry 100244
##JCAMP-DX=Revision 4.10 
##DATA TYPE=MASS SPECTRUM
##SAMPLE DESCRIPTION=C.E.A., C.E.N., GRENOBLE, FRANCE
##NAMES=HP
##CAS NAME=Benzene, 1,4-dimethyl-2-octadecyl-
##MOLFORM=C26H46
##CAS REGISTRY NO=55191-39-4
##MP= -300
##BP= -300
##MW= 358
##$RETENTION INDEX=0
##$CONDENSED SPECTRUM=NO
##NPOINTS= 123
##XYDATA=(XY..XY) 1 
    27         17
    28         51
    29         43
    30          2
    39         12
    41         91
    42         13
    43        140
    44         12
    50          1
    51          2
    52          1
    53          5
    54          3
    55         62
    56         12
    57         62
    58         10
    65          3
    67          8
    68          3
    69         26
    70          6
    71         20
    76          1
    77         12
    78         10
    79         10
    80          1
    81          4
    82          2
    83         14
    84          2
    85         10
    89          2
    91         54
    92          8
    93          6
    94          1
    95          2
    96          2
    97          7
   102          1
   103         10
   104         13
   105        102
   106         69
   107         18
   108          2
   109          1
   111          2
   115         12
   116          5
   117         30
   118         26
   119        999
   120        671
   121         65
   122          5
   127          1
   128          6
   129          7
   130          6
   131         17
   132         53
   133         55
   134          7
   135          1
   139          1
   141          2
   142          1
   143          4
   144          1
   145         40
   146          7
   147          9
   148          1
   151          1
   152          1
   153          1
   155          1
   157          3
   158          1
   159          4
   160          1
   161          9
   162          1
   165          4
   166          1
   167          2
   171          1
   175          1
   176          2
   177          1
   178         16
   179          5
   180          4
   181          5
   182          2
   183          1
   189          1
   191          1
   192          1
   193          3
   194          1
   195         11
   196          2
   206          1
   207          2
   208          1
   209          2
   216          1
   221          2
   230          1
   233          1
   348          4
   350         13
   351          3
   356         18
   357          4
   358        581
   359        171
   360         24