##TITLE=Library Entry 25510
##JCAMP-DX=Revision 4.10 
##DATA TYPE=MASS SPECTRUM
##SAMPLE DESCRIPTION=Exported from NIST MS Search
##NAMES=HP
##CAS NAME=Nonadecane, 2,6,10,14,18-pentamethyl-
##MOLFORM=C24H50
##CAS REGISTRY NO=55191-61-2
##MP= -300
##BP= -300
##MW= 338
##$RETENTION INDEX=2105
##$CONDENSED SPECTRUM=NO
##NPOINTS= 68
##XYDATA=(XY..XY) 1 
    55        181
    56        210
    57        999
    58         47
    69        152
    70        144
    71        996
    72         58
    83         65
    84         79
    85        572
    86         36
    96         36
    97        101
    98         47
    99        289
   100         18
   111         58
   112        279
   113        405
   114         29
   126         97
   127        242
   128         18
   139         10
   140         21
   141        144
   142         18
   154         47
   155        144
   156         18
   167         14
   168         14
   169         90
   170         14
   182        202
   183        344
   184         36
   196         25
   197         79
   198         18
   210          3
   211         21
   212          3
   224         50
   225         65
   226          7
   238          3
   239         14
   240          3
   252         50
   253        181
   254         29
   266          7
   267         14
   281          3
   294          7
   295         14
   296          3
   308          7
   309         14
   310          7
   322          7
   323         29
   324          7
   337          7
   338        108
   339         21