##TITLE=Library Entry 81719
##JCAMP-DX=Revision 4.10 
##DATA TYPE=MASS SPECTRUM
##SAMPLE DESCRIPTION=Exported from NIST MS Search
##NAMES=HP
##CAS NAME=Benzene, 1-(1-heptyldodecyl)-4-methyl-
##MOLFORM=C26H46
##CAS REGISTRY NO=55191-36-1
##MP= -300
##BP= -300
##MW= 358
##$RETENTION INDEX=0
##$CONDENSED SPECTRUM=NO
##NPOINTS= 218
##XYDATA=(XY..XY) 1 
    12          1
    13          1
    14          1
    15          3
    16          1
    17          1
    18          2
    19          1
    20          1
    23          1
    24          1
    25          1
    26          3
    27         35
    28          8
    29         80
    30          2
    31          1
    32          1
    33          1
    34          1
    35          1
    36          1
    37          1
    38          1
    39         12
    40          2
    41         86
    42         13
    43        110
    44          4
    45          1
    49          1
    50          1
    51          2
    52          1
    53         10
    54          5
    55         60
    56         13
    57         56
    58          3
    59          1
    61          1
    62          1
    63          1
    64          1
    65          5
    66          1
    67          7
    68          2
    69         22
    70          4
    71          9
    72          1
    74          1
    75          1
    76          1
    77          9
    78          3
    79          8
    80          1
    81          4
    82          1
    83          8
    84          1
    85          4
    86          1
    87          1
    88          1
    89          1
    90          1
    91         28
    92          6
    93          3
    94          1
    95          2
    96          1
    97          4
    98          1
    99          1
   100          1
   101          1
   102          1
   103          8
   104         14
   105        999
   106         92
   107          4
   108          1
   109          1
   110          1
   111          2
   112          1
   113          1
   114          1
   115         12
   116         10
   117         30
   118         49
   119         41
   120          4
   121          1
   122          1
   123          1
   124          1
   125          1
   126          1
   127          1
   128          4
   129          6
   130          3
   131         44
   132         14
   133          8
   134          1
   135          1
   136          1
   137          1
   138          1
   139          1
   140          1
   141          1
   142          1
   143          2
   144          1
   145          8
   146          2
   147          3
   148          1
   149          1
   150          1
   151          1
   152          1
   153          1
   154          1
   155          1
   156          1
   157          1
   158          1
   159          2
   160          1
   161          2
   162          1
   163          1
   164          1
   165          1
   166          1
   167          1
   168          1
   169          1
   170          1
   171          1
   172          1
   173          1
   174          1
   175          1
   176          1
   177          1
   178          1
   179          1
   180          1
   181          1
   182          1
   183          1
   185          1
   187          1
   188          1
   189          1
   190          1
   195          1
   199          1
   200          1
   201          1
   202          4
   203        196
   204         34
   205          3
   206          1
   215          1
   216          1
   217          1
   218          1
   229          1
   230          1
   231          1
   232          1
   243          1
   244          1
   245          1
   246          1
   257          1
   258          3
   259        136
   260         29
   261          3
   262          1
   270          1
   271          1
   272          1
   273          1
   284          1
   285          1
   286          1
   341          1
   342          1
   350          1
   351          1
   352          1
   353          1
   354          1
   355          1
   356          1
   357          1
   358         35
   359         10
   360          2
   361          1