##TITLE=Library Entry 27886
##JCAMP-DX=Revision 4.10 
##DATA TYPE=MASS SPECTRUM
##SAMPLE DESCRIPTION=A.A.Kutin, Moscow, Russia
##NAMES=HP
##CAS NAME=4,4'-Bis(piperidyl-4,4'-diol), 2,2,2',2',6,6,6',6'-octamethyl-
##MOLFORM=C18H36N2O2
##CAS REGISTRY NO=55196-74-2
##MP= -300
##BP= -300
##MW= 312
##$RETENTION INDEX=0
##$CONDENSED SPECTRUM=NO
##NPOINTS= 188
##XYDATA=(XY..XY) 1 
    33          6
    36          1
    37          1
    38          2
    39         31
    40         59
    41        110
    42        309
    43        124
    44         24
    45          4
    46          0
    47          0
    48          0
    50          2
    51          4
    53         31
    55        100
    56         54
    58        999
    60          1
    62          1
    63          1
    64          1
    65          8
    67         14
    68         13
    70         30
    71         17
    73         21
    74          1
    75          2
    77          7
    79         22
    81         29
    83        105
    84         39
    85         20
    87          0
    88          0
    90         14
    91          5
    92          3
    93          4
    94          4
    95          6
    96         10
    98        142
    99         28
   100          4
   101          0
   102          0
   103          0
   104          6
   105          4
   107         11
   108         10
   109          5
   110          5
   112         22
   113         17
   115          1
   116          0
   117          0
   118          0
   119          2
   120          1
   121          3
   122         13
   124         32
   125          7
   126         12
   127          1
   128          1
   130          0
   131          1
   132          3
   133          5
   134          3
   136          3
   137          1
   138          4
   140         64
   141         52
   142         30
   143          2
   145          2
   146          1
   147          4
   148          6
   149          3
   150          6
   151          1
   152          1
   153          0
   156        183
   157         90
   158          8
   159          1
   161          1
   162          3
   164          4
   166         28
   167          4
   168          1
   169          0
   171          0
   172          0
   173          0
   174          1
   175          0
   176          0
   177          0
   178          1
   179          0
   180          2
   181          0
   182          0
   183          0
   184          2
   185          0
   187          2
   188          1
   189          1
   190          0
   191          1
   192          2
   193          0
   194          0
   196          0
   198          0
   199          3
   200          4
   201          1
   204        112
   205         18
   206          5
   207          1
   208          0
   214          0
   215          0
   216          0
   217          0
   218          2
   219          0
   220          0
   221          0
   222          3
   223          4
   224          2
   225          0
   230          0
   231          0
   236          0
   237          0
   238          0
   239          0
   240         11
   241          2
   242          0
   244          0
   246          1
   247          0
   255          0
   256          3
   257          0
   259          0
   260          1
   261         47
   262          9
   263          2
   264          0
   275          0
   276          1
   277          2
   279        169
   280         30
   281          4
   282          0
   293          0
   294          0
   295          0
   297         41
   298          7
   299          0
   311          0
   312          1
   313          0