##TITLE=Library Entry 38347
##JCAMP-DX=Revision 4.10 
##DATA TYPE=MASS SPECTRUM
##SAMPLE DESCRIPTION=V.G.Zaikin, Petrochem. Synth. Inst., Moscow
##NAMES=HP
##CAS NAME=Butyric acid, 2-tetradecyl ester
##MOLFORM=C18H36O2
##CAS REGISTRY NO=55193-08-3
##MP= -300
##BP= -300
##MW= 284
##$RETENTION INDEX=0
##$CONDENSED SPECTRUM=NO
##NPOINTS= 72
##XYDATA=(XY..XY) 1 
    26         21
    27        168
    28         43
    29        206
    30          7
    31          3
    38          8
    39        112
    40         27
    41        425
    42        138
    43        692
    44         49
    45         38
    51          8
    53         26
    54         39
    55        266
    56        151
    57        239
    58         29
    60         42
    61          2
    65          6
    66          6
    67         47
    68         41
    69        151
    70        113
    71        999
    72         49
    73         19
    79          5
    81         22
    82         39
    83        111
    84         65
    85         61
    86         38
    87         12
    88         49
    89        158
    90          7
    91          2
    95          8
    96         23
    97         88
    98         41
    99         16
   109          5
   110         14
   111         49
   112         30
   113          8
   115        151
   116         13
   124          6
   125         28
   126         19
   127          6
   138          2
   139         10
   140         11
   152          7
   153          4
   154         15
   168         11
   169          3
   196         93
   197         38
   198          5
   213          3