##TITLE=Library Entry 54931
##JCAMP-DX=Revision 4.10 
##DATA TYPE=MASS SPECTRUM
##SAMPLE DESCRIPTION=V.Zaikin,Topchiev Inst.Petrochem.Synth.,Moscow
##NAMES=HP
##CAS NAME=Valeric acid, 2-tridecyl ester
##MOLFORM=C18H36O2
##CAS REGISTRY NO=55193-13-0
##MP= -300
##BP= -300
##MW= 284
##$RETENTION INDEX=0
##$CONDENSED SPECTRUM=NO
##NPOINTS= 89
##XYDATA=(XY..XY) 1 
    25          3
    26         23
    27        187
    28        100
    29        455
    30          9
    31          6
    36          8
    37          4
    38         10
    39        110
    40         29
    41        592
    42        162
    43        563
    44         47
    45         45
    50          4
    51          8
    52          4
    53         32
    54         47
    55        386
    56        225
    57        687
    58         51
    59         13
    60        106
    61         10
    65          4
    66          4
    67         42
    68         38
    69        175
    70        129
    71        135
    72         11
    73         33
    74          2
    75          3
    77          3
    78          3
    79          6
    80          2
    81         18
    82         36
    83        112
    84         84
    85        999
    86         49
    87          6
    91          3
    93          2
    95          9
    96         20
    97         82
    98         41
    99         15
   100         12
   101         14
   102         88
   103        159
   104         10
   105          3
   109          3
   110          8
   111         38
   112         26
   113          9
   114          2
   123          2
   124          4
   125         17
   126         12
   127          6
   128          3
   129         76
   130          8
   138          3
   139          8
   140         14
   141          3
   153          4
   154          9
   181          3
   182         52
   183         17
   184          3
   199          6