##TITLE=Library Entry 41684
##JCAMP-DX=Revision 4.10 
##DATA TYPE=MASS SPECTRUM
##SAMPLE DESCRIPTION=D. LUKE UNILEVER RESEARCH LAB., PORT SUNLIGHT
##NAMES=HP
##CAS NAME=Hexanamide, 6-(heptyloxy)-
##MOLFORM=C13H27NO2
##CAS REGISTRY NO=55191-08-7
##MP= -300
##BP= -300
##MW= 229
##$RETENTION INDEX=0
##$CONDENSED SPECTRUM=NO
##NPOINTS= 92
##XYDATA=(XY..XY) 1 
    14          1
    15          6
    16          3
    17          8
    18        126
    19          7
    25          1
    26         12
    27         96
    28         65
    29        160
    30        266
    31         42
    32          1
    38          1
    39         42
    40         10
    41        267
    42         93
    43        321
    44        317
    45         90
    46         17
    51          2
    52          3
    53         18
    54         39
    55        275
    56        129
    57        186
    58         13
    59         37
    60          5
    67         25
    68         31
    69        115
    70         98
    72        265
    73        999
    74         43
    75          3
    77          1
    79          2
    81         13
    82         23
    84         46
    85         37
    86          5
    87          4
    88        946
    89         52
    90        365
    91          8
    92          1
    95          7
    96          7
    97         30
    98         16
    99          6
   100          4
   101          1
   102         45
   103          2
   109          3
   110          4
   111         11
   112         20
   113          6
   114          1
   117          3
   126          2
   127          3
   128          1
   130          1
   138          1
   140          6
   141          2
   144          1
   154          1
   155          3
   158          2
   168          1
   169          1
   172          1
   182          1
   184          4
   200          1
   212          2
   227          1
   228          1
   229         11
   230          1