##TITLE=Library Entry 76508
##JCAMP-DX=Revision 4.10 
##DATA TYPE=MASS SPECTRUM
##SAMPLE DESCRIPTION=BAY 0265
##NAMES=HP
##CAS NAME=Phosphoric acid, 2,2-diethoxyethyl bis(trimethylsilyl) ester
##MOLFORM=C12H31O6PSi2
##CAS REGISTRY NO=55191-35-0
##MP= -300
##BP= -300
##MW= 358
##$RETENTION INDEX=0
##$CONDENSED SPECTRUM=NO
##NPOINTS= 135
##XYDATA=(XY..XY) 1 
    41         15
    42         15
    43        140
    44        120
    45        150
    46         10
    47        290
    48          5
    55          5
    57         10
    58          5
    59         45
    60         20
    61        210
    62          5
    63          5
    70         10
    71          5
    72         60
    73        490
    74         35
    75        701
    76         25
    77         30
    79          5
    87         20
    88          5
    89        110
    90         10
    91         10
    96          5
   101         10
   102          5
   103        999
   104         75
   105         20
   107         10
   109          5
   113          5
   115         20
   116         65
   117         50
   118         10
   119         20
   120          5
   121         20
   122          5
   123         10
   129          5
   131         15
   132          5
   133        200
   134         30
   135         95
   136         15
   137         30
   138          5
   139          5
   145          5
   147         65
   148         15
   149         15
   150          5
   151         15
   153         15
   155         10
   163         10
   165         10
   167         10
   169          5
   177         10
   179         15
   181         30
   182          5
   183         15
   184          5
   191          5
   193         10
   195        140
   196         20
   197         40
   198         10
   199          5
   209         15
   210         20
   211        551
   212         75
   213         60
   214         10
   215          5
   225        125
   226         25
   227        631
   228        100
   229         45
   230         10
   240         35
   241        170
   242         35
   243        100
   244         20
   245          5
   253        160
   254         30
   255         35
   256         25
   257         35
   258         10
   259          5
   267          5
   268          5
   269        150
   270         30
   271         30
   272          5
   283         20
   284         55
   285         35
   286         10
   287          5
   297        115
   298         20
   299         20
   300          5
   301          5
   303          5
   312         30
   313        280
   314         80
   315         40
   316          5
   329          5
   343         70
   344         20
   345          5