##TITLE=Library Entry 80617
##JCAMP-DX=Revision 4.10 
##DATA TYPE=MASS SPECTRUM
##SAMPLE DESCRIPTION=C.E.A., C.E.N., GRENOBLE, FRANCE
##NAMES=HP
##CAS NAME=Benzene, 1,3-didecyl-
##MOLFORM=C26H46
##CAS REGISTRY NO=55191-38-3
##MP= -300
##BP= -300
##MW= 358
##$RETENTION INDEX=0
##$CONDENSED SPECTRUM=NO
##NPOINTS= 123
##XYDATA=(XY..XY) 1 
    15          1
    16          4
    17          2
    26          6
    27         23
    28         14
    29         59
    30          1
    39         11
    40          3
    41         97
    42         10
    43        203
    44          7
    51          2
    52          1
    53          5
    54          3
    55         75
    56         13
    57        169
    58          6
    65          3
    67          8
    68         23
    69         27
    70          7
    71         62
    72          3
    77         10
    78         11
    79         18
    80          5
    81          5
    82          2
    83         15
    84          3
    85         45
    86          3
    89          1
    90          1
    91        172
    92        139
    93         17
    94          4
    96          1
    97          7
    98          2
    99          4
   102          1
   103         12
   104         54
   105        999
   106        430
   107         39
   108          7
   109          1
   110          0
   111          2
   113          1
   115          9
   116          5
   117         59
   118         40
   119         75
   120         11
   121          2
   122          0
   125          1
   127          1
   128          3
   129          6
   130          4
   131          7
   132          8
   133         11
   134          9
   135          1
   142          6
   143          1
   145          9
   146          3
   147         43
   148         10
   149          1
   159          3
   160          1
   161         10
   162          2
   163          0
   164          1
   173          1
   174          0
   175          5
   176          1
   189          7
   190          2
   202          1
   216         13
   217          7
   218          1
   230          5
   231        154
   232         28
   233          3
   243          2
   244          6
   245          2
   258          3
   259          1
   271          2
   273         20
   274          6
   286          2
   300          1
   314          4
   315          1
   328          0
   329          0
   350          0
   358         85
   359         25
   360          3