##TITLE=Library Entry 40754
##JCAMP-DX=Revision 4.10 
##DATA TYPE=MASS SPECTRUM
##SAMPLE DESCRIPTION=Exported from NIST MS Search
##NAMES=HP
##CAS NAME=Dodecanoic acid, 2-(acetyloxy)-1-[(acetyloxy)methyl]ethyl ester
##MOLFORM=C19H34O6
##CAS REGISTRY NO=55191-43-0
##MP= -300
##BP= -300
##MW= 358
##$RETENTION INDEX=0
##$CONDENSED SPECTRUM=NO
##NPOINTS= 127
##XYDATA=(XY..XY) 1 
    26         10
    27         60
    28         40
    29        140
    30         10
    31         10
    36         10
    38         10
    39         50
    40         10
    41        170
    42         40
    43        340
    44         60
    45        700
    46         20
    47         10
    50         10
    51         10
    52         10
    53         30
    54         30
    55        150
    56         40
    57        150
    58         20
    59         10
    60         30
    61         10
    65         20
    66         10
    67         70
    68         20
    69         70
    70         30
    71         70
    72         10
    73        999
    74         70
    75         30
    76         10
    77         20
    78         10
    79         30
    80         10
    81         50
    82         30
    83         60
    84         40
    85         50
    86         10
    87         20
    88         10
    91         30
    92         10
    93         30
    94         10
    95         40
    96         20
    97         50
    98         50
    99         30
   100         10
   101         10
   103         10
   104         10
   105         20
   106         10
   107         20
   108         10
   109         20
   110         10
   111         30
   112         20
   113         10
   115         20
   116         20
   117         20
   119         10
   120         10
   121         20
   122         10
   123         10
   124         10
   125         20
   126         10
   127         10
   128         10
   129         10
   131         10
   132         10
   133         10
   134         10
   135         10
   136         10
   137         10
   138         10
   139         10
   140         10
   141         20
   143         10
   145         10
   147         10
   149        130
   150         20
   151         10
   152         10
   153         10
   154         10
   155         10
   158         30
   159         50
   160         10
   163         10
   165         10
   167         10
   169         10
   171         10
   177         10
   178         10
   182         10
   183         80
   184         10
   205         10
   218         10
   223         10
   285         10