##TITLE=Library Entry 76454
##JCAMP-DX=Revision 4.10 
##DATA TYPE=MASS SPECTRUM
##SAMPLE DESCRIPTION=Exported from NIST MS Search
##NAMES=HP
##CAS NAME=Butanoic acid, 2,4-bis[(trimethylsilyl)oxy]-, trimethylsilyl este
r
##MOLFORM=C13H32O4Si3
##CAS REGISTRY NO=55191-52-1
##MP= -300
##BP= -300
##MW= 336
##$RETENTION INDEX=1427
##$CONDENSED SPECTRUM=NO
##NPOINTS= 47
##XYDATA=(XY..XY) 1 
    28         29
    40         26
    43         26
    44         26
    45         89
    55         83
    58         18
    59         59
    72         32
    73        760
    74         77
    75         89
   101         26
   102         26
   103        999
   104         92
   105         44
   115          9
   117          9
   129         77
   130         26
   131         44
   133         59
   147        299
   148         59
   149         47
   178         26
   189         29
   190         29
   203         29
   219        335
   220        113
   221         44
   245          1
   246          5
   247          2
   264          2
   266          0
   291          8
   292          2
   293          8
   294          2
   295          1
   321         30
   322         12
   323          7
   324          1