##TITLE=Library Entry 99516
##JCAMP-DX=Revision 4.10 
##DATA TYPE=MASS SPECTRUM
##SAMPLE DESCRIPTION=Exported from NIST MS Search
##NAMES=HP
##CAS NAME=Benzene, (1,1-dimethylnonyl)-
##MOLFORM=C17H28
##CAS REGISTRY NO=55191-25-8
##MP= -300
##BP= -300
##MW= 232
##$RETENTION INDEX=0
##$CONDENSED SPECTRUM=NO
##NPOINTS= 59
##XYDATA=(XY..XY) 1 
    14          2
    16          4
    26          2
    27         17
    29         28
    32         10
    39         16
    40          3
    41         88
    42          7
    43         26
    44         42
    50          1
    51          6
    52          2
    53          5
    55         16
    56          4
    57          9
    63          2
    65          7
    67          2
    69          5
    71          3
    77         19
    78          9
    79         29
    80          2
    83          2
    89          1
    91        202
    92         17
    93          1
   102          2
   103         15
   104          5
   105         64
   106          6
   107          2
   115          9
   116          4
   117         14
   118         42
   119        999
   120        102
   121          5
   128          2
   129          2
   131          4
   133          3
   147          2
   161          1
   175          1
   217          3
   218          1
   223          1
   232         26
   233          5
   234          1