##TITLE=Library Entry 96231
##JCAMP-DX=Revision 4.10 
##DATA TYPE=MASS SPECTRUM
##SAMPLE DESCRIPTION=AP-2130
##NAMES=HP
##CAS NAME=Thiophene, 2-(octylthio)-
##MOLFORM=C12H20S2
##CAS REGISTRY NO=55191-03-2
##MP= -300
##BP= -300
##MW= 228
##$RETENTION INDEX=0
##$CONDENSED SPECTRUM=NO
##NPOINTS= 186
##XYDATA=(XY..XY) 1 
    12          0
    13          0
    14          1
    15         12
    16          0
    24          0
    25          0
    26          8
    27        223
    28         36
    29        422
    30          9
    31          0
    32          4
    33          0
    34          1
    35          1
    36          0
    37          2
    38         10
    39        240
    40         26
    41        571
    42         59
    43        706
    44         24
    45        174
    46          9
    47         15
    48          0
    49          0
    50          4
    51          9
    52          4
    53         36
    54          9
    55        162
    56         22
    57        433
    58         42
    59         11
    60          5
    61          3
    62          0
    63          1
    64          1
    65          5
    66          2
    67          1
    68          4
    69         88
    70         24
    71        536
    72         33
    73         16
    74          2
    75          0
    76          4
    77          4
    78          2
    79          2
    80          0
    81         12
    82         22
    83         11
    84         17
    85         35
    86          3
    87         11
    88          2
    89          2
    90          2
    91          1
    92          0
    93          0
    94          0
    95          2
    96          2
    97         21
    98          2
    99          1
   100          0
   101          3
   102          0
   103          1
   104          0
   105          0
   106          0
   107          0
   108          0
   109          1
   110          3
   111          2
   112          1
   113          0
   114          5
   115        131
   116        999
   117         78
   118         83
   119          6
   120          2
   121          0
   122          0
   123          1
   124          0
   125          0
   126          0
   127          1
   128          0
   129         44
   130          5
   131          4
   132          0
   133          0
   134          0
   135          0
   136          0
   137          0
   138          0
   139          0
   140          0
   141          1
   142          1
   143          2
   144          0
   145          0
   146          0
   147          0
   148          0
   149          0
   150          0
   151          0
   152          0
   153          1
   154          0
   155          0
   156          0
   157          1
   158          0
   159          0
   160          0
   165          0
   166          0
   167          1
   168          0
   169          0
   170          0
   171          1
   172          0
   173          0
   174          0
   177          0
   178          0
   179          0
   180          0
   181          0
   182          0
   183          0
   184          0
   185          0
   186          0
   187          0
   191          0
   193          0
   194          0
   195          0
   196          0
   197          0
   198          0
   199          0
   200          0
   201          0
   207          0
   208          0
   209          0
   213          0
   222          0
   226          0
   227          1
   228        258
   229         37
   230         24
   231          3
   232          0
   233          0