##TITLE=Library Entry 76046
##JCAMP-DX=Revision 4.10 
##DATA TYPE=MASS SPECTRUM
##SAMPLE DESCRIPTION=F.M.TRENT RES. DIV., U.S. IND. CHEM. CO., CINCINNATI, U
SA
##NAMES=HP
##CAS NAME=Octanedioic acid, 2-ethyl-, dimethyl ester
##MOLFORM=C12H22O4
##CAS REGISTRY NO=55191-19-0
##MP= -300
##BP= -300
##MW= 230
##$RETENTION INDEX=0
##$CONDENSED SPECTRUM=NO
##NPOINTS= 84
##XYDATA=(XY..XY) 1 
    15         74
    27         91
    28         43
    29        133
    31         19
    39        110
    40         24
    41        387
    42         98
    43        217
    44         14
    45         76
    53         54
    54         45
    55        734
    56        100
    57         65
    59        385
    60         15
    67         87
    68         43
    69        505
    70        145
    71         46
    72         13
    73        106
    74        263
    75         16
    79         23
    81         90
    82         38
    83        131
    84         71
    85         35
    87        871
    88         62
    93         19
    94         22
    95         78
    96        106
    97        444
    98        125
    99         12
   100         14
   101         86
   102        999
   103         58
   109         40
   110         53
   111         69
   112         32
   113         42
   114        100
   115         78
   116         15
   121         42
   123         14
   124         16
   125         58
   127         24
   128         17
   129        181
   130         16
   137         85
   138        243
   139        230
   141         25
   142         44
   143         11
   144         21
   148         30
   149         13
   151         10
   156         15
   157        207
   158         27
   166        151
   167         26
   170        107
   171        252
   172         27
   198         29
   199         40
   202         23