##TITLE=Library Entry 38345
##JCAMP-DX=Revision 4.10 
##DATA TYPE=MASS SPECTRUM
##SAMPLE DESCRIPTION=V.G.Zaikin, Petrochem. Synth. Inst., Moscow
##NAMES=HP
##CAS NAME=Butyric acid, 2-tridecyl ester
##MOLFORM=C17H34O2
##CAS REGISTRY NO=55193-07-2
##MP= -300
##BP= -300
##MW= 270
##$RETENTION INDEX=0
##$CONDENSED SPECTRUM=NO
##NPOINTS= 68
##XYDATA=(XY..XY) 1 
    25          3
    26         20
    27        136
    28         29
    29        159
    30          3
    31          3
    39        134
    40         20
    41        335
    42        111
    43        609
    44         48
    45         29
    51          5
    53         18
    54         35
    55        238
    56        158
    57        227
    58         33
    59          8
    60         38
    61          2
    67         38
    68         35
    69        147
    70        130
    71        999
    72         58
    73         16
    81         18
    82         39
    83        109
    84         71
    85         61
    86         39
    87         18
    88         51
    89        149
    90          7
    93          2
    95          9
    96         21
    97         88
    98         51
    99         21
   110         11
   111         53
   112         28
   113         11
   115        162
   116         11
   123          2
   124          6
   125         28
   126         17
   127          4
   138          5
   139         10
   140         23
   141          5
   153          6
   154         12
   155          3
   182         89
   183         10
   199          5