##TITLE=Library Entry 15602
##JCAMP-DX=Revision 4.10 
##DATA TYPE=MASS SPECTRUM
##SAMPLE DESCRIPTION=Japan AIST/NIMC Database- Spectrum MS-NW-4991
##NAMES=HP
##CAS NAME=Carbamic acid 2,3-dibromopropyl ester
##MOLFORM=C4H7Br2NO2
##CAS REGISTRY NO=55190-46-0
##MP= -300
##BP= -300
##MW= 259
##$RETENTION INDEX=0
##$CONDENSED SPECTRUM=NO
##NPOINTS= 101
##XYDATA=(XY..XY) 1 
    12          1
    13          2
    14          6
    15         36
    16         42
    17         20
    18         11
    25          5
    26         52
    27        282
    28         64
    29        271
    30         22
    31        345
    32          5
    36          2
    37         11
    38         25
    39        296
    40         35
    41        129
    42         10
    43         78
    44        999
    45         26
    46          3
    50          6
    53          2
    54          1
    55         17
    56          8
    57        612
    58         73
    59          4
    62        305
    63          5
    64          1
    73        256
    74          9
    75          1
    78         10
    79         18
    80         12
    81         18
    82          3
    85         11
    86         31
    87          3
    91          1
    92          1
    93         32
    94          2
    95         27
    96          1
   100        105
   101          5
   104          1
   105         17
   106         68
   107         41
   108         65
   109         29
   110          5
   111          5
   117          1
   119        219
   120          9
   121        207
   122          9
   123          8
   124          1
   125          9
   135          7
   136         21
   137        206
   138         26
   139        185
   140          7
   150          3
   152          3
   166          1
   168          1
   171          1
   173          2
   175          1
   180        456
   181         20
   182        442
   183         22
   184          3
   185          2
   187          3
   189          2
   198         19
   199          4
   200         38
   201          7
   202         18
   203          3
   215          1
   217          1