##TITLE=Library Entry 114842
##JCAMP-DX=Revision 4.10 
##DATA TYPE=MASS SPECTRUM
##SAMPLE DESCRIPTION=Humboldt-Universitat zu Berlin, Department of Chemistry
, Analytical Group
##NAMES=HP
##CAS NAME=N-Paracyanobenzoyl-O-ethylhydroxylamine
##MOLFORM=C10H10N2O2
##CAS REGISTRY NO=55197-93-8
##MP= -300
##BP= -300
##MW= 190
##$RETENTION INDEX=0
##$CONDENSED SPECTRUM=NO
##NPOINTS= 115
##XYDATA=(XY..XY) 1 
    12          1
    13          2
    14         14
    15         67
    16          7
    17         10
    18         32
    19          5
    24          0
    25          2
    26         26
    27        152
    28         33
    29        290
    30         28
    31         62
    32          3
    33          1
    36          0
    37         15
    38         24
    39         25
    40          3
    41          6
    42          9
    43         34
    44         22
    45         29
    46          2
    47          0
    48          1
    49          7
    50         85
    51        105
    52         31
    53          8
    54          1
    55          1
    56          0
    57          1
    58          0
    59          1
    60          1
    61          5
    62         19
    63         19
    64         18
    65          7
    66          2
    67          0
    68          0
    69          0
    70          0
    71          2
    72          0
    73          4
    74         22
    75        115
    76         75
    77         14
    78          2
    79          0
    80          0
    83          0
    84          0
    85          0
    86          1
    87          3
    88          6
    89         19
    90         11
    91          2
    92          0
    98          0
    99          7
   100          7
   101         21
   102        338
   103         44
   104          6
   105          3
   106          0
   111          0
   112          0
   113          0
   114          0
   115          2
   116         23
   117          9
   118          2
   119          1
   127          0
   128         17
   130        999
   131        104
   132          7
   133          0
   134          0
   135          0
   143          0
   144         10
   145         18
   146         12
   147          5
   148          0
   158          0
   161          2
   162         20
   163          2
   164          0
   175          0
   176          0
   190        113
   191         13
   192          1