##TITLE=Library Entry 70207
##JCAMP-DX=Revision 4.10 
##DATA TYPE=MASS SPECTRUM
##SAMPLE DESCRIPTION=Japan AIST/NIMC Database- Spectrum MS-NW- 508
##NAMES=HP
##CAS NAME=Ethanone, 1,2-di-2-furanyl-2-hydroxy-
##MOLFORM=C10H8O4
##CAS REGISTRY NO=552-86-3
##MP= -300
##BP= -300
##MW= 192
##$RETENTION INDEX=1449
##$CONDENSED SPECTRUM=NO
##NPOINTS= 57
##XYDATA=(XY..XY) 1 
    14          2
    15          6
    17          2
    18          7
    26          5
    27         14
    28         11
    29         47
    30          8
    37         15
    38         45
    39        233
    40         23
    41        233
    42         11
    43          7
    44          3
    45          2
    49          3
    50          9
    51         29
    52         13
    53          8
    54          2
    55          7
    57          3
    62          2
    63          4
    65          3
    66          7
    67         16
    68         46
    69         81
    70          5
    71          2
    74          2
    77          4
    78          2
    79          4
    80          5
    81          5
    89          2
    91          6
    95        248
    96         27
    97        999
    98         57
    99          6
   108          2
   147         10
   163         22
   164          3
   175          3
   176          2
   190          5
   192         67
   193          9