##TITLE=Library Entry 85612
##JCAMP-DX=Revision 4.10 
##DATA TYPE=MASS SPECTRUM
##SAMPLE DESCRIPTION=NIST Mass Spectrometry Data Center
##NAMES=HP
##CAS NAME=1H-Cycloprop[e]azulen-4-ol, decahydro-1,1,4,7-tetramethyl-, [1aR-
(1a.alpha.,4.beta.,4a.beta.,7.alpha.,7a.beta.,7b.alpha.)]-
##MOLFORM=C15H26O
##CAS REGISTRY NO=552-02-3
##MP= -300
##BP= -300
##MW= 222
##$RETENTION INDEX=1591
##$CONDENSED SPECTRUM=NO
##NPOINTS= 154
##XYDATA=(XY..XY) 1 
    26          1
    27         46
    28          8
    29         76
    30          2
    31          9
    37          1
    38          3
    39        144
    40         28
    41        486
    42         43
    43        763
    44         20
    45         33
    46          1
    50          5
    51         36
    52         20
    53        170
    54         35
    55        389
    56         36
    57         86
    58         49
    59         81
    60          4
    61          2
    62          3
    63         13
    64          6
    65        111
    66         41
    67        523
    68         66
    69        757
    70         61
    71        274
    72         27
    73          6
    74          2
    75          3
    76          6
    77        240
    78         51
    79        384
    80         81
    81        520
    82        277
    83        150
    84         38
    85         38
    86          5
    87          2
    88          1
    89          6
    90          2
    91        335
    92         65
    93        463
    94        120
    95        407
    96        141
    97         79
    98         32
    99         11
   100          1
   101          1
   102          3
   103         24
   104         10
   105        512
   106        145
   107        590
   108        328
   109        999
   110        103
   111        101
   112         15
   113         10
   114          1
   115         27
   116         11
   117         38
   118         12
   119        361
   120         97
   121        472
   122        495
   123        179
   124         30
   125         85
   126         50
   127         51
   128         14
   129         11
   130          5
   131         27
   132          8
   133        268
   134         98
   135        245
   136        120
   137         58
   138         19
   139        137
   140         68
   141          9
   142          2
   143          2
   144          2
   145         19
   146          8
   147        247
   148        199
   149        204
   150         38
   151         56
   152         14
   153          3
   154          1
   159          6
   160         14
   161        597
   162        149
   163         63
   164        102
   165         27
   166          7
   167          2
   173          3
   174          2
   175         68
   176         50
   177          9
   178          2
   179         36
   180          6
   181          1
   187          1
   188          1
   189        364
   190         56
   191          5
   193          3
   194          1
   203          2
   204        297
   205         51
   206          4
   207         35
   208          6
   222         31
   223          5