##TITLE=Library Entry 31901
##JCAMP-DX=Revision 4.10 
##DATA TYPE=MASS SPECTRUM
##SAMPLE DESCRIPTION=NIST Mass Spectrometry Data Center, 1994
##NAMES=HP
##CAS NAME=Benzoic acid, 2-nitro-
##MOLFORM=C7H5NO4
##CAS REGISTRY NO=552-16-9
##MP= -300
##BP= -300
##MW= 167
##$RETENTION INDEX=0
##$CONDENSED SPECTRUM=NO
##NPOINTS= 73
##XYDATA=(XY..XY) 1 
    12          9
    14         21
    16         23
    17          3
    18         12
    25          8
    26         25
    27         77
    28         92
    29         13
    30        419
    32         10
    36         10
    37         84
    38        126
    39        521
    40         22
    41          7
    42          5
    43          8
    44         65
    45        126
    46         67
    49         57
    50        572
    51        422
    52         56
    53        129
    54          8
    55         12
    60          7
    61         34
    62         47
    63        127
    64         90
    65        999
    66         75
    67         12
    69          6
    73         67
    74        235
    75        164
    76        258
    77        396
    78         51
    79         11
    80          6
    81        102
    82          7
    88          6
    90          5
    91         20
    92         82
    93        595
    94         41
   103          7
   104         28
   105         10
   106         18
   107          6
   108          6
   109         87
   119         37
   121        105
   123        375
   124         27
   137         59
   138          9
   150         47
   151         22
   167        357
   168         29
   169          1