##TITLE=Library Entry 81172
##JCAMP-DX=Revision 4.10 
##DATA TYPE=MASS SPECTRUM
##SAMPLE DESCRIPTION=NIST Mass Spectrometry Data Center, 1990.
##NAMES=HP
##CAS NAME=Benzene, 1-(chloromethyl)-2-methyl-
##MOLFORM=C8H9Cl
##CAS REGISTRY NO=552-45-4
##MP= -300
##BP= -300
##MW= 140
##$RETENTION INDEX=1102
##$CONDENSED SPECTRUM=NO
##NPOINTS= 67
##XYDATA=(XY..XY) 1 
    14          2
    15          6
    26         12
    27         53
    28          1
    29          1
    35          4
    36          2
    37         10
    38         28
    39         91
    40         10
    41          4
    42          0
    43          1
    44          1
    49         13
    50         74
    51        169
    52         55
    53         19
    54          1
    60          1
    61         10
    62         31
    63         62
    64         13
    65         28
    66          3
    68          1
    69          9
    70          3
    73          7
    74         23
    75         21
    76         21
    77        168
    78         97
    79        156
    80         11
    84          1
    85          3
    86          6
    87          5
    89         29
    90          6
    91         27
    92          2
    97          1
    98          4
    99          5
   100          1
   101          6
   102         26
   103        149
   104        123
   105        999
   106         85
   107          4
   112          0
   125         29
   126          3
   127          7
   140        223
   141         25
   142         69
   143          6