##TITLE=Library Entry 89743
##JCAMP-DX=Revision 4.10 
##DATA TYPE=MASS SPECTRUM
##SAMPLE DESCRIPTION=NIST Mass Spectrometry Data Center, 1995
##NAMES=HP
##CAS NAME=Triadimenol
##MOLFORM=C14H18ClN3O2
##CAS REGISTRY NO=55219-65-3
##MP= -300
##BP= -300
##MW= 295
##$RETENTION INDEX=2076
##$CONDENSED SPECTRUM=NO
##NPOINTS= 135
##XYDATA=(XY..XY) 1 
    12          1
    13          1
    14          3
    15         14
    17          1
    18          4
    27         81
    28        138
    29        258
    30         46
    31         20
    32          2
    36          3
    37          5
    38         20
    39        108
    40         29
    41        344
    42         40
    43        214
    44         10
    45         39
    46          2
    47          2
    49          6
    50         23
    51         20
    52          4
    53         29
    54         24
    55         79
    56         42
    57        526
    58         59
    59         12
    60          2
    61          4
    62         10
    63         49
    64         27
    65         53
    66          7
    67         10
    68          5
    69         47
    70        398
    71         27
    72          2
    73         44
    74         10
    75         79
    76         16
    77         29
    78          5
    79         19
    80          2
    81         25
    82         68
    83         49
    84         18
    85         28
    86          3
    87         15
    89          4
    90          3
    91          4
    92          5
    93          7
    94          4
    96          3
    97          2
    99        104
   100         24
   101         30
   102          8
   107          2
   108          2
   110         36
   111        113
   112        999
   113         83
   114          9
   115          4
   117          2
   118          2
   124          6
   125          6
   128        486
   129         50
   130        155
   131          9
   132          1
   134          7
   135          2
   136          2
   138          3
   139          5
   140          4
   141         20
   142          2
   143          6
   150         35
   151          3
   152          7
   153          8
   154          6
   155          3
   156          2
   158          1
   159          1
   164          1
   168        557
   169         71
   170         21
   171          6
   172          5
   179          2
   180          3
   181         16
   182         11
   183         14
   184          5
   185          2
   208         25
   209          6
   210          9
   211         19
   212          2
   213          6
   226          2
   238         15
   239          2
   240          5
   280          2
   295          1