##TITLE=Library Entry 66943
##JCAMP-DX=Revision 4.10 
##DATA TYPE=MASS SPECTRUM
##SAMPLE DESCRIPTION=NIST Mass Spectrometry Data Center, 1994
##NAMES=HP
##CAS NAME=2-Methylpyrazine-5-carboxylic acid
##MOLFORM=C6H6N2O2
##CAS REGISTRY NO=5521-55-1
##MP= -300
##BP= -300
##MW= 138
##$RETENTION INDEX=0
##$CONDENSED SPECTRUM=NO
##NPOINTS= 59
##XYDATA=(XY..XY) 1 
    12         22
    13         12
    14         35
    15         68
    17         10
    18          6
    25         30
    26        129
    27        108
    28        202
    29         65
    32         12
    36          3
    37        131
    38        272
    39        736
    40        408
    41        154
    42        876
    43         86
    44         55
    45        152
    46         29
    50         18
    51        135
    52        253
    53        336
    54         31
    55         51
    62          8
    63         21
    64        104
    65         47
    66        351
    67        179
    68         68
    69         44
    70        241
    71         18
    76         12
    77         16
    79          4
    81         15
    82          7
    83         12
    91         25
    92        105
    93        287
    94        999
    95         73
    96         13
    97         33
   105         19
   111         32
   120         99
   121         30
   123          9
   138        418
   139         54