##TITLE=Library Entry 28316
##JCAMP-DX=Revision 4.10 
##DATA TYPE=MASS SPECTRUM
##SAMPLE DESCRIPTION=G.J.JANZ RENSSELAER POLYTECHNIC INSTITUTE, TROY, N.Y.,
 USA
##NAMES=HP
##CAS NAME=Butyronitrile, 2,4,4,4-tetrafluoro-
##MOLFORM=C4H3F4N
##CAS REGISTRY NO=5522-59-8
##MP= -300
##BP= -300
##MW= 141
##$RETENTION INDEX=0
##$CONDENSED SPECTRUM=NO
##NPOINTS= 67
##XYDATA=(XY..XY) 1 
    12         48
    13         19
    14         33
    15         14
    19          5
    20         35
    24         13
    25         45
    26        269
    27        160
    29         23
    31        401
    32         59
    33        353
    36          9
    37          9
    38         45
    39         32
    40         13
    41         19
    43          8
    44         82
    45        199
    46        527
    47         13
    50         52
    51         50
    52        210
    53         71
    54         27
    55         11
    56         11
    57         29
    58        999
    59         75
    63         32
    64        939
    65         37
    67          5
    68          5
    69        189
    70         44
    71         93
    72        699
    73         26
    74          5
    75         40
    76         64
    77        149
    78         10
    82          8
    83        106
    89         11
    90         24
    91         32
    92          5
    93          8
    94        111
    95        109
    96         24
   100          8
   102         17
   110          5
   114        116
   115         27
   122        239
   140         31