##TITLE=Library Entry 42570
##JCAMP-DX=Revision 4.10 
##DATA TYPE=MASS SPECTRUM
##SAMPLE DESCRIPTION=D.HENNEBERG, MAX-PLANCK INSTITUTE, MULHEIM, WEST GERMAN
Y
##NAMES=HP
##CAS NAME=Erythrono-1,4-lactone, (Z)-, 2TMS derivative
##MOLFORM=C10H22O4Si2
##CAS REGISTRY NO=55220-75-2
##MP= -300
##BP= -300
##MW= 262
##$RETENTION INDEX=0
##$CONDENSED SPECTRUM=NO
##NPOINTS= 170
##XYDATA=(XY..XY) 1 
    27          8
    28         11
    29         12
    30          3
    31          3
    32          2
    33          2
    34          2
    35          1
    37          0
    38          0
    39          8
    40          0
    41          7
    42          0
    43         46
    44         42
    45        163
    46         10
    47         43
    49          4
    50          3
    51          3
    52         13
    53          4
    54          1
    55         20
    56          0
    57          5
    58         11
    59         76
    60         10
    61         25
    62          0
    63          2
    64          1
    66        117
    67         10
    68          2
    69          2
    70          5
    71          8
    72         31
    73        999
    74         85
    75        156
    76          7
    77         13
    78          2
    79          2
    80          4
    81          5
    82          2
    83         21
    84          3
    85          7
    86          7
    87         21
    88         10
    89          6
    91          2
    92          3
    93          7
    94         21
    95          2
    97          1
    99         16
   100          3
   101        159
   102         64
   103        251
   104         24
   105         11
   106          0
   108          0
   111          2
   112          1
   113          6
   114          3
   115         17
   116        118
   117         29
   118          9
   119          6
   121          3
   122          3
   124          0
   125          1
   126          1
   127          3
   128          4
   129         53
   130         50
   131         91
   132         30
   133         58
   134          8
   135          7
   136          1
   137          1
   140          1
   142          1
   143          5
   145          4
   146          7
   147        525
   148         80
   149         52
   150          4
   151          1
   152          1
   153          1
   155          2
   157          7
   158          2
   159          1
   163          4
   164          2
   165          2
   166          1
   171          1
   173          2
   174          2
   175          3
   176          2
   177         32
   178          7
   179          3
   180          2
   181          1
   182          1
   183          1
   184          0
   185          1
   188          2
   189         88
   190         16
   191         12
   192          3
   193          1
   194          3
   195          2
   196          1
   202          2
   204         15
   205          9
   208          2
   211          0
   212          0
   217         11
   218          5
   219         53
   220          7
   221          5
   223          0
   231          1
   232          1
   233         16
   234          4
   235          2
   245          1
   247        131
   248         29
   249         17
   250          2
   256          0
   258          0
   262         45
   263         11
   264          6