##TITLE=Library Entry 70033
##JCAMP-DX=Revision 4.10 
##DATA TYPE=MASS SPECTRUM
##SAMPLE DESCRIPTION=Zaikin V.G., TIPS RAS, Moscow, Russia
##NAMES=HP
##CAS NAME=Cyclopentanecarboxylic acid, 2-methylphenyl ester
##MOLFORM=C13H16O2
##CAS REGISTRY NO=55229-43-1
##MP= -300
##BP= -300
##MW= 204
##$RETENTION INDEX=0
##$CONDENSED SPECTRUM=NO
##NPOINTS= 43
##XYDATA=(XY..XY) 1 
    26          9
    27         32
    28          2
    29          6
    36          8
    38          3
    39         61
    40         19
    41        223
    42         17
    43          3
    44         13
    50          3
    51          7
    52          4
    53         18
    54          4
    55         47
    63          3
    65         15
    66          7
    67         54
    68         31
    69        988
    70         52
    73          8
    77         24
    78          9
    79         13
    80          5
    89          3
    90          9
    91         13
    95          4
    96         65
    97        999
    98         61
    99          3
   107         38
   108         98
   109         11
   204         53
   205          8