##TITLE=Library Entry 78673
##JCAMP-DX=Revision 4.10 
##DATA TYPE=MASS SPECTRUM
##SAMPLE DESCRIPTION=ORMSBG,9(10)1022(1974); LANGE
##NAMES=HP
##CAS NAME=Butanetetrone, diphenyl-, 2,3-dioxime
##MOLFORM=C16H12N2O4
##CAS REGISTRY NO=55232-36-5
##MP= -300
##BP= -300
##MW= 296
##$RETENTION INDEX=0
##$CONDENSED SPECTRUM=NO
##NPOINTS= 8
##XYDATA=(XY..XY) 1 
    51        180
    77        550
   105        999
   106         90
   122         15
   129         18
   131         10
   278         60