##TITLE=Library Entry 24103
##JCAMP-DX=Revision 4.10 
##DATA TYPE=MASS SPECTRUM
##SAMPLE DESCRIPTION=CARL DJERASSI DEPT OF CHEM STANFORD UNIV STANFORD CALIF
 94305
##NAMES=HP
##CAS NAME=18,19-Secoyohimban-19-oic acid, 16,17,20,21-tetradehydro-16-(hydr
oxymethyl)-, methyl ester, (15.beta.,16E)-
##MOLFORM=C21H24N2O3
##CAS REGISTRY NO=5523-49-9
##MP= -300
##BP= -300
##MW= 352
##$RETENTION INDEX=0
##$CONDENSED SPECTRUM=NO
##NPOINTS= 246
##XYDATA=(XY..XY) 1 
     5          3
    41        286
    42        200
    43        950
    44        230
    45        640
    46         20
    51          3
    53         80
    54        110
    55        910
    56        380
    57        999
    58         60
    59        780
    60        440
    61         90
    65         30
    67        280
    68        170
    69        770
    70        330
    71        650
    72        350
    73        330
    74         66
    76         20
    77         50
    79         90
    80         50
    81        390
    82        230
    83        353
    84        210
    85        400
    86         50
    87         70
    88         30
    89         30
    91        100
    92         16
    93        100
    94         70
    95        516
    96        180
    97        450
    98        190
    99        140
   100         40
   101         60
   102         20
   104         16
   105         70
   106         16
   107         70
   108         40
   109        180
   110        120
   111        260
   112        130
   113        113
   114         50
   115         70
   116         20
   117         20
   118         10
   119         56
   120         56
   121         56
   122         40
   123        130
   124         70
   125        143
   126        150
   127         73
   128         46
   129        130
   130         23
   131         13
   133         40
   134         13
   135         53
   136         40
   137         83
   138         43
   139         63
   140         50
   141         50
   142         20
   143         60
   144         43
   145         16
   147         26
   149        260
   150         23
   151         50
   152         40
   153         40
   154         53
   155         50
   156         80
   157         43
   159         10
   161         10
   163         26
   164         13
   165         40
   166         26
   167         73
   168         50
   169         70
   170         43
   171         40
   177         13
   178         20
   179         30
   180         33
   181         23
   182         16
   183         23
   184         40
   185         40
   189          6
   190          6
   191         30
   192         16
   193         20
   194         30
   195         20
   196         20
   197         13
   199         20
   202          6
   203          6
   205         10
   206         16
   207         10
   208         20
   209         30
   210         10
   211         10
   213         30
   219         10
   221         73
   222         36
   223         43
   224         23
   225         26
   226         13
   227         23
   228         56
   229         16
   230          6
   231         13
   232         16
   233         16
   234         13
   235         16
   236         46
   237         30
   238         23
   239         30
   240         10
   241         13
   242         43
   243         16
   244          3
   245         13
   246         10
   247         16
   248          6
   249         13
   250         13
   251         13
   252         20
   253         33
   254         10
   255         83
   256        170
   257         26
   258          3
   259         13
   260          6
   261         16
   262          6
   263         16
   264         30
   265         40
   266         40
   267         20
   268         10
   269          6
   270         20
   271         10
   272          3
   273         16
   274         10
   275         50
   276         13
   277         36
   278         36
   279        333
   280        123
   281         83
   282         16
   283          6
   284         20
   285          3
   287          3
   289          3
   290          3
   291         23
   292         10
   293         53
   294         13
   295         13
   296          3
   301          6
   302          3
   303         10
   304          3
   305         13
   306          6
   307         10
   308         13
   309         13
   310          3
   311          3
   312         10
   313          3
   314          6
   319         26
   320         13
   321         43
   322         16
   323         13
   324          3
   333         16
   334         46
   335         36
   336         10
   337         16
   350          6
   351         16
   352         76
   353         20