##TITLE=Library Entry 2557
##JCAMP-DX=Revision 4.10 
##DATA TYPE=MASS SPECTRUM
##SAMPLE DESCRIPTION=CARL DJERASSI DEPT OF CHEM STANFORD UNIV STANFORD CALIF
 94305
##NAMES=HP
##CAS NAME=18,19-Secoyohimban-19-oic acid, 16,17-didehydro-16-(hydroxymethyl
)-, methyl ester, (15.beta.,16Z,20.xi.)-
##MOLFORM=C21H26N2O3
##CAS REGISTRY NO=5523-48-8
##MP= -300
##BP= -300
##MW= 354
##$RETENTION INDEX=0
##$CONDENSED SPECTRUM=NO
##NPOINTS= 190
##XYDATA=(XY..XY) 1 
    41        999
    42        450
    43        770
    44        300
    45         20
    50         20
    51         40
    52         40
    53         50
    54        150
    55        150
    56        320
    57        610
    58         40
    59         10
    60         20
    63         10
    64         10
    65         30
    66         20
    67         50
    68         30
    69         60
    70         30
    71         60
    72         10
    73         20
    74         10
    75         10
    76         10
    77         60
    78         30
    79         50
    80         20
    81         50
    82         30
    83         30
    84         20
    85         20
    86        100
    87         10
    88         10
    89         10
    90         10
    91         40
    92         20
    93         30
    94         10
    95         30
    96         10
    97         20
    98         10
    99         10
   100         10
   101         10
   102         10
   103         20
   104         10
   105         10
   106         10
   107         20
   108         10
   109         30
   110         30
   111         30
   114         10
   115         50
   116         30
   117         30
   118         10
   119         10
   120         10
   121         10
   122         10
   123         30
   124         20
   125         10
   127         20
   128         40
   129         40
   130         40
   131         20
   132         10
   133         10
   134         10
   135         10
   137         10
   138         30
   139         10
   140         20
   141         20
   142         50
   143         60
   144         50
   145         10
   152         10
   153         10
   154         50
   155         40
   156        270
   157         60
   158         10
   165         10
   166         10
   167         30
   168         70
   169        220
   170        200
   171         60
   172         10
   178         10
   179         10
   180         20
   181         20
   182         50
   183         70
   184        670
   185        130
   186         20
   191         10
   192         20
   193         10
   195         20
   197         40
   198         20
   199         20
   200         10
   204         10
   206         10
   208         20
   209         50
   210         10
   217         10
   218         10
   219         20
   220         10
   221         40
   222         10
   223         30
   224         10
   225         30
   226         10
   233         10
   234         10
   235         10
   248         10
   249         20
   250         10
   255         30
   256         10
   259         10
   261         10
   263         20
   264         10
   265         10
   267         10
   268         10
   269         10
   274         10
   275         50
   276         20
   277         70
   278         30
   279         10
   280         10
   281         20
   291         10
   292         10
   293         20
   294         10
   295         10
   305         10
   307         20
   318         20
   319         20
   320         40
   321        470
   322        570
   323        150
   324         40
   335         10
   336         10
   337         20
   338         10
   339         10
   352         10
   353         80
   354        100
   355         30
   356         10