##TITLE=Library Entry 32322
##JCAMP-DX=Revision 4.10 
##DATA TYPE=MASS SPECTRUM
##SAMPLE DESCRIPTION=DR. C. C. VAN DE SANDE, STATE UNIVERSITY OF GENT, BELGI
UM
##NAMES=HP
##CAS NAME=2H-Pyran, 5,6-dihydro-2-methyl-
##MOLFORM=C6H10O
##CAS REGISTRY NO=55230-25-6
##MP= -300
##BP= -300
##MW= 98
##$RETENTION INDEX=0
##$CONDENSED SPECTRUM=NO
##NPOINTS= 38
##XYDATA=(XY..XY) 1 
    36         40
    37         95
    38        185
    39        880
    40        350
    41        560
    42        240
    43        750
    44        140
    45         20
    49         30
    50        125
    51        165
    52         85
    53        700
    54         70
    55        380
    56          8
    57         25
    60         10
    61         45
    62         60
    63         80
    64         15
    65        200
    66        110
    67        999
    68        640
    69         90
    70         35
    83        370
    84         25
    85         20
    95         10
    96         10
    97        155
    98        330
    99         25