##TITLE=Library Entry 2114
##JCAMP-DX=Revision 4.10 
##DATA TYPE=MASS SPECTRUM
##SAMPLE DESCRIPTION=A.A.Kutin, Moscow, Russia
##NAMES=HP
##CAS NAME=Benzisoxazole-2-acetic acid, hydrazide
##MOLFORM=C9H9N3O2
##CAS REGISTRY NO=55244-10-5
##MP= -300
##BP= -300
##MW= 191
##$RETENTION INDEX=0
##$CONDENSED SPECTRUM=NO
##NPOINTS= 111
##XYDATA=(XY..XY) 1 
    33         38
    34          2
    37        203
    38        470
    39        974
    40        721
    41        999
    42        917
    43        248
    44        107
    45         16
    46          2
    47          3
    49         59
    50        388
    51        501
    52        514
    53        436
    54         94
    55        167
    56         18
    58         38
    59          8
    61        101
    62        188
    63        506
    64        301
    65        482
    66         92
    67         82
    68        104
    69         12
    70          4
    71          3
    73         21
    74         68
    75        104
    76        144
    77        234
    78        181
    79        109
    80        141
    81         16
    83         26
    84          3
    86          3
    87          5
    88         25
    89         42
    90         48
    91         50
    92         72
    93         64
    94         31
    96          5
    98          0
    99          2
   100          3
   101          4
   102         40
   103         41
   104        163
   105         75
   106         44
   107         13
   108          8
   109         11
   110          0
   111          0
   114          3
   115          3
   116          6
   117          4
   118          3
   119          8
   120         11
   121          1
   122          0
   123          1
   124          0
   126          0
   128          0
   129          2
   131          8
   132        121
   133        316
   134         75
   135          6
   141          0
   145          3
   146          0
   147          4
   148          0
   149          1
   151          0
   153          0
   155          0
   156          0
   157          1
   158          4
   159         21
   160        228
   161         19
   162          4
   164          0
   174          1
   188          0
   190          3
   191         83
   192          8
   193          0