##TITLE=Library Entry 87221
##JCAMP-DX=Revision 4.10 
##DATA TYPE=MASS SPECTRUM
##SAMPLE DESCRIPTION=Exported from NIST MS Search
##NAMES=HP
##CAS NAME=Cyclohexane, 1,1'-(oxydi-2,1-ethanediyl)bis-
##MOLFORM=C16H30O
##CAS REGISTRY NO=55255-91-9
##MP= -300
##BP= -300
##MW= 238
##$RETENTION INDEX=0
##$CONDENSED SPECTRUM=NO
##NPOINTS= 87
##XYDATA=(XY..XY) 1 
    15          2
    17          3
    18         15
    26          1
    27         37
    28         29
    29         65
    30          5
    31          7
    32          2
    36          2
    38          2
    39         52
    40         10
    41        266
    42         25
    43         54
    44         10
    45         12
    50          2
    51          5
    52          3
    53         36
    54         82
    55        445
    56         28
    57         29
    58          6
    59          2
    60         36
    61         21
    62          1
    63          2
    65         11
    66         24
    67        350
    68        114
    69        536
    70         35
    71          4
    73          2
    77         14
    78          7
    79         32
    80         44
    81        582
    82        618
    83        182
    84         12
    85          2
    91         14
    92          5
    93          9
    94          8
    95        105
    96         16
    97         26
    98          5
    99          5
   103          3
   104          9
   105         15
   106         10
   107          4
   108          9
   109        282
   110        999
   111        245
   112         19
   113          2
   115          1
   117          1
   121          5
   122          2
   123          2
   124         13
   125          4
   126          4
   127          3
   137          2
   139          3
   140          4
   141          8
   142          1
   153         11
   168          3
   169          3