##TITLE=Library Entry 24237
##JCAMP-DX=Revision 4.10 
##DATA TYPE=MASS SPECTRUM
##SAMPLE DESCRIPTION=Exported from NIST MS Search
##NAMES=HP
##CAS NAME=Triacontane, 11,20-didecyl-
##MOLFORM=C50H102
##CAS REGISTRY NO=55256-09-2
##MP= -300
##BP= -300
##MW= 702
##$RETENTION INDEX=0
##$CONDENSED SPECTRUM=NO
##NPOINTS= 351
##XYDATA=(XY..XY) 1 
    12          3
    13          4
    14          9
    15         18
    16          9
    17          5
    18         19
    24          2
    25          5
    26         25
    27         86
    28         43
    29        129
    30          6
    37          4
    38          5
    39         53
    40         13
    41        223
    42         74
    43        629
    44         22
    50          3
    51          4
    52          3
    53         13
    54         37
    55        312
    56        187
    57        999
    58         44
    59          1
    65          2
    66          3
    67         48
    68         46
    69        267
    70        106
    71        619
    72         35
    74          1
    75          1
    76          1
    77          2
    78          2
    79          6
    80          4
    81         38
    82         45
    83        259
    84         62
    85        434
    86         30
    87          1
    91          5
    92          2
    93          3
    94          2
    95         24
    96         27
    97        189
    98         37
    99        101
   100          8
   101          1
   102          1
   103          1
   104          1
   105          5
   106          1
   107          2
   108          1
   109         14
   110         13
   111         87
   112         24
   113         66
   114          6
   115          1
   116          1
   117          2
   118          2
   119          6
   120          2
   121          1
   122          1
   123          6
   124          9
   125         36
   126         20
   127         48
   128          5
   129          1
   130          1
   131          2
   132          1
   133          2
   134          1
   135          1
   136          1
   137          3
   138          7
   139         18
   140         15
   141         37
   142          5
   143          1
   144          1
   145          1
   146          1
   147          1
   148          1
   149          1
   150          1
   151          2
   152          6
   153         12
   154         14
   155         31
   156          4
   157          1
   158          1
   159          1
   160          1
   161          1
   162          1
   163          1
   164          1
   165          2
   166         10
   167         25
   168         13
   169         25
   170          4
   171          1
   172          1
   173          1
   174          1
   175          1
   176          1
   177          1
   178          1
   179          2
   180          4
   181          7
   182         30
   183         30
   184          4
   185          1
   186          1
   187          1
   188          1
   189          2
   190          1
   191          1
   192          1
   193          1
   194          3
   195          5
   196          6
   197         18
   198          3
   199          1
   200          1
   201          1
   202          1
   203          1
   204          1
   205          1
   206          1
   207          4
   208          4
   209          5
   210          4
   211         16
   212          3
   213          1
   214          1
   215          1
   216          1
   217          1
   218          1
   219          1
   220          1
   221          2
   222          3
   223          4
   224          4
   225         14
   226          3
   227          1
   228          1
   229          1
   230          1
   231          1
   232          1
   233          1
   234          1
   235          1
   236          2
   237          3
   238          3
   239         11
   240          2
   241          1
   242          1
   243          1
   244          1
   245          1
   246          1
   247          1
   248          1
   249          1
   250          2
   251          3
   252          4
   253          9
   254          2
   255          1
   263          1
   264          2
   265          3
   266          8
   267          8
   268          2
   278          1
   279          1
   280          2
   281          7
   282          8
   283          2
   288          1
   289          1
   290          1
   291          1
   292          1
   293          6
   294         11
   295        147
   296         96
   297         18
   298          2
   306          1
   307          1
   308          2
   309         20
   310         16
   311          3
   312          1
   319          1
   320          1
   321          1
   322          2
   323          5
   324          1
   333          1
   334          1
   335          1
   336          1
   337          5
   338          1
   347          1
   348          1
   349          1
   350          1
   351          4
   352          1
   353          1
   362          1
   363          1
   364          1
   365          3
   366          1
   378          1
   379          3
   380          1
   390          1
   391          1
   392          1
   393          3
   394          1
   395          1
   405          1
   406          1
   407          3
   408          4
   409          3
   420          4
   421          8
   422          5
   423          5
   424          1
   433          1
   434          1
   435         10
   436          8
   437          2
   438          1
   446          1
   447          1
   448          1
   449          2
   450          1
   460          1
   461          1
   462          1
   463          2
   464          1
   465          1
   477          2
   478          1
   491          1
   492          1
   505          1
   506          1
   518          1
   519          1
   520          1
   532          1
   533          1
   534          1
   546          1
   547          2
   548          1
   557          1
   558          1
   559          1
   560         28
   561         90
   562         39
   563          9
   564          1
   568          1
   572          1
   573          1
   574          2
   575          2
   576          1
   582          1
   583          1
   588          1
   589          1
   590          1
   603          1
   617          1
   700          1
   702          9
   703          7
   704          5
   705          2
   706          1