##TITLE=Library Entry 42507
##JCAMP-DX=Revision 4.10 
##DATA TYPE=MASS SPECTRUM
##SAMPLE DESCRIPTION=Chemical Concepts
##NAMES=HP
##CAS NAME=2-Pentenedioic acid, 2TMS derivative
##MOLFORM=C11H22O4Si2
##CAS REGISTRY NO=55255-43-1
##MP= -300
##BP= -300
##MW= 274
##$RETENTION INDEX=1455
##$CONDENSED SPECTRUM=NO
##NPOINTS= 171
##XYDATA=(XY..XY) 1 
    35          0
    36          0
    38          2
    39         25
    40         20
    41          1
    42          7
    43         34
    44         29
    45        121
    46          9
    47         48
    48          2
    49          8
    50          0
    51          2
    52          6
    53          4
    54          2
    55          8
    56          1
    57          8
    58         13
    59         22
    60          6
    61         26
    62          2
    63          2
    64          0
    65          0
    66         21
    67          8
    68        431
    69         26
    70          6
    71          5
    72          2
    73        999
    74         86
    75        237
    76         16
    77         58
    78          4
    79          2
    81          1
    82          3
    83          9
    84          1
    85          3
    86          0
    87          2
    88          2
    89          3
    90          0
    91          0
    92          2
    93          2
    94          0
    95         83
    96          4
    97         20
    98         41
    99         12
   100          3
   101          8
   102          1
   103          3
   104          0
   105          2
   106          0
   107          0
   108          0
   109          0
   110          0
   111          0
   112          2
   113          3
   114          0
   115          5
   116          6
   117         33
   118          3
   119          4
   120          0
   121          0
   122         25
   123          1
   124          0
   125          9
   126          1
   127          6
   128          0
   129          5
   130          1
   131         17
   132          3
   133         48
   134          7
   135          4
   136          0
   137          0
   140          1
   141          3
   142         17
   143         13
   144          2
   145          2
   147        664
   148        107
   149         64
   150          6
   151          2
   155          0
   156          9
   157          6
   158          1
   159          3
   160          1
   161          1
   163          0
   165          0
   169         56
   170          6
   171          4
   172          0
   173          7
   174          1
   175          1
   179          0
   183          0
   184          7
   185          2
   186          1
   187          3
   188          0
   189          1
   190          0
   191          0
   193          0
   195          1
   199          0
   201         10
   202          4
   203          1
   204          0
   207          0
   209          0
   215         72
   216         14
   217        248
   218         47
   219         20
   220          2
   221          1
   223          3
   224          0
   225          0
   229          4
   230         77
   231         17
   232          7
   233          1
   243          3
   244          0
   253          0
   259        196
   260         38
   261         18
   262          2
   263          0
   269          0