##TITLE=Library Entry 100636
##JCAMP-DX=Revision 4.10 
##DATA TYPE=MASS SPECTRUM
##SAMPLE DESCRIPTION=F.A.J.MUSKIET, LAB. CLIN. CHEM., UNIV. HOSP., GRONINGEN
, NET
##NAMES=HP
##CAS NAME=Propanoic acid, pentafluoro-, 4-[1-(2,2,3,3,3-pentafluoro-1-oxopr
opoxy)-2-[(2,2,3,3,3-pentafluoro-1-oxopropyl)amino]ethyl]-1,2-phenylene este
r, (R)-
##MOLFORM=C20H7F20NO7
##CAS REGISTRY NO=55256-13-8
##MP= -300
##BP= -300
##MW= 753
##$RETENTION INDEX=0
##$CONDENSED SPECTRUM=NO
##NPOINTS= 144
##XYDATA=(XY..XY) 1 
    40         20
    41          8
    42          7
    43         32
    44         93
    45        122
    46          4
    47         12
    50         56
    51         66
    52         18
    53          7
    55          4
    56          8
    60          3
    61          4
    62          6
    63         14
    64          8
    65         29
    66         10
    67         14
    69        347
    70          4
    73          3
    75          4
    76         10
    77         37
    78         54
    79         25
    80         14
    81         29
    82          4
    83         15
    85          7
    89          4
    90         16
    91          8
    92         22
    93         11
    94          7
    95          8
    97         32
    98         10
   100         92
   101         13
   102          4
   103          3
   104          8
   105         20
   106          6
   107         12
   108          6
   109         30
   115          4
   116          4
   117          4
   118          5
   119        999
   120         39
   121         15
   122          4
   123          7
   126         22
   127          4
   128         28
   129          4
   132         17
   133         21
   137          7
   140          4
   146          4
   147        183
   148         21
   149          8
   151          4
   157          7
   159         85
   160          9
   161          5
   163          4
   165          4
   167          4
   173          4
   176        953
   177         48
   178          3
   192          4
   198          4
   199         13
   212          3
   223          4
   226          5
   227          4
   239         12
   250          5
   251          5
   252          3
   256          3
   267         38
   268          6
   269          3
   278          5
   280          7
   281          7
   283         14
   284          8
   296         13
   297          5
   306          5
   311          8
   323          6
   324          4
   373          7
   387          4
   401          5
   403          6
   407          3
   415          6
   426         11
   427          9
   428          8
   429         24
   430         10
   431         14
   442         10
   443         18
   444          4
   470         14
   521          9
   522          4
   540          6
   542          4
   549         48
   550         14
   570         14
   571          4
   577         94
   578         14
   579          5
   590        242
   591         42
   592          8
   753          4