##TITLE=Library Entry 114175
##JCAMP-DX=Revision 4.10 
##DATA TYPE=MASS SPECTRUM
##SAMPLE DESCRIPTION=Exported from NIST MS Search
##NAMES=HP
##CAS NAME=Octadecanoic acid, 9,10,12-trimethoxy-, methyl ester
##MOLFORM=C22H44O5
##CAS REGISTRY NO=55255-75-9
##MP= -300
##BP= -300
##MW= 388
##$RETENTION INDEX=0
##$CONDENSED SPECTRUM=NO
##NPOINTS= 115
##XYDATA=(XY..XY) 1 
    16         30
    19         30
    26         20
    27         30
    28         60
    29         40
    30         10
    31         20
    32         10
    33         10
    39         30
    41        120
    42         20
    43         70
    44         10
    45        180
    53         10
    54         10
    55        260
    56         30
    57         40
    58         60
    59         50
    67         60
    68         20
    69         70
    70         10
    71        230
    72         30
    73         10
    74         30
    75         30
    77         10
    79         20
    80         10
    81         50
    82         20
    83         20
    84         10
    85         50
    87         20
    91        160
    93         30
    94         10
    95         70
    96         20
    97        270
    98         20
    99         10
   101        100
   102         10
   105         10
   107         20
   108         10
   109         70
   110         10
   111         20
   113         10
   115         10
   119         30
   121         10
   123         10
   124         20
   125         10
   127         20
   128         20
   129        999
   130         80
   135         10
   136         20
   137        100
   138         10
   141         10
   143         10
   149         10
   153         30
   155         20
   156         10
   159         20
   167         10
   168         30
   169         80
   170         30
   181         10
   185         50
   186         10
   187         20
   199         10
   200         20
   201        350
   202         50
   213         40
   214         10
   215         10
   225          3
   227         12
   228          4
   229          2
   231          2
   239         12
   240          2
   241          9
   242          1
   244          1
   245          5
   253          2
   255          3
   271         33
   272          5
   293          7
   294          1
   303          2
   324          5
   325         16
   326          3