##TITLE=Library Entry 33245
##JCAMP-DX=Revision 4.10 
##DATA TYPE=MASS SPECTRUM
##SAMPLE DESCRIPTION=R.L.FOLTZ BATTELLE MEMORIAL INST., COLUMBUS LAB., OHIO,
 USA
##NAMES=HP
##CAS NAME=6H-Pyrrolo[3,4-b][1,4]oxazepin-6-one, 2,3,4,5,7,8-hexahydro-8-hyd
roxy-7-(3-hydroxypropyl)-
##MOLFORM=C10H16N2O4
##CAS REGISTRY NO=55256-06-9
##MP= -300
##BP= -300
##MW= 228
##$RETENTION INDEX=0
##$CONDENSED SPECTRUM=NO
##NPOINTS= 114
##XYDATA=(XY..XY) 1 
    15         41
    17         21
    18        116
    26         32
    27        148
    28        304
    29        158
    30        313
    31        639
    32          4
    39         67
    40        105
    41        502
    42        328
    43        520
    44        204
    45         20
    50          5
    52         48
    53        176
    54        211
    55        244
    56        185
    57        114
    58         71
    59        280
    60          6
    67         71
    68        999
    69         17
    70        329
    71         21
    72         31
    73         16
    74        103
    76         37
    78          5
    79         11
    80         72
    81         99
    82        187
    83        194
    84        107
    85         55
    86         21
    87          9
    88          3
    94        122
    95         27
    96        100
    97        139
    98        130
    99        249
   100         41
   107         26
   108         48
   109         61
   110        112
   111        204
   112        124
   113        220
   114         21
   115         11
   117         67
   122         19
   123         23
   124         69
   125        632
   126        340
   127         76
   128         52
   129         16
   135         13
   136         34
   137        179
   138        151
   139        114
   140         82
   141         28
   151         87
   152         28
   153        120
   154        102
   155         59
   156         20
   157          4
   163         13
   164         18
   165        225
   166        302
   167         59
   169        599
   170         73
   171         62
   172         21
   179         89
   180         15
   181         15
   182         29
   183        368
   184        281
   185         25
   186         34
   192         19
   193          7
   197         70
   198         32
   199          6
   209          6
   210         64
   211         20
   228        457
   229         61
   230          7