##TITLE=Library Entry 50930
##JCAMP-DX=Revision 4.10 
##DATA TYPE=MASS SPECTRUM
##SAMPLE DESCRIPTION=S. MARKEY UNIV. OF COLO. MED. CTR., DENVER, COLORADO, U
SA
##NAMES=HP
##CAS NAME=L-Histidine, N-(trifluoroacetyl)-, butyl ester
##MOLFORM=C12H16F3N3O3
##CAS REGISTRY NO=55255-83-9
##MP= -300
##BP= -300
##MW= 307
##$RETENTION INDEX=1983
##$CONDENSED SPECTRUM=NO
##NPOINTS= 58
##XYDATA=(XY..XY) 1 
    15          9
    16         22
    18         65
    20         83
    26         16
    27        138
    29        293
    31         33
    39        110
    40        269
    41        239
    42         23
    43         27
    44        136
    45         46
    47         12
    50         28
    51         58
    52         42
    53         29
    54        184
    55         78
    56         36
    57         96
    66         30
    69        161
    77         46
    80         20
    81        999
    82        321
    83         29
    93         36
    94        105
    95         53
   108         44
   109        148
   110         95
   120         75
   121         81
   122         29
   131        102
   132         22
   136        110
   138         58
   164          9
   168         41
   179         14
   188         78
   194         53
   195         38
   206        809
   207         79
   222         19
   234         17
   238         25
   244         21
   307         93
   308         20