##TITLE=Library Entry 68887
##JCAMP-DX=Revision 4.10 
##DATA TYPE=MASS SPECTRUM
##SAMPLE DESCRIPTION=SHELL OIL CO., HOUSTON, TEXAS, USA
##NAMES=HP
##CAS NAME=Anthracene, 9-cyclohexyltetradecahydro-
##MOLFORM=C20H34
##CAS REGISTRY NO=55255-70-4
##MP= -300
##BP= -300
##MW= 274
##$RETENTION INDEX=0
##$CONDENSED SPECTRUM=NO
##NPOINTS= 198
##XYDATA=(XY..XY) 1 
    38          2
    39        137
    40         25
    41        746
    42         45
    43         70
    44          2
    50          2
    51         14
    52         12
    53        202
    54        100
    55        685
    56         42
    57         41
    58          2
    59          0
    60          0
    61          0
    62          0
    63          5
    64          2
    65         50
    66         33
    67        529
    68         73
    69        117
    70          7
    71          1
    72          0
    73          0
    74          1
    75          2
    76          0
    77         97
    78         32
    79        205
    80         70
    81        439
    82        265
    83        209
    84         14
    85          1
    87          0
    88          0
    89          1
    90          0
    91        119
    92         33
    93        104
    94         67
    95        999
    96        160
    97         87
    98          7
    99          0
   100          0
   101          0
   102          1
   103          7
   104          6
   105         36
   106         23
   107         40
   108         45
   109        605
   110         58
   111          8
   112          0
   113          0
   114          0
   115          7
   116          3
   117         11
   118          3
   119         14
   120          7
   121         93
   122         15
   123        107
   124         10
   125          1
   126          0
   127          1
   128          3
   129          3
   130          1
   131          5
   132          1
   133         19
   134         16
   135        158
   136         20
   137          4
   138          0
   139          0
   141          1
   142          0
   143          1
   144          0
   145          4
   146          1
   147         19
   148         15
   149         75
   150         13
   151          3
   152          0
   153          0
   154          0
   155          0
   156          0
   157          0
   158          0
   159          0
   160          0
   161          6
   162          3
   163          4
   164          1
   165          0
   166          0
   167          0
   168          0
   169          0
   171          0
   172          0
   173          0
   174          0
   175         16
   176         24
   177         55
   178         33
   179          5
   180          0
   181          0
   182          0
   183          0
   184          0
   185          0
   186          0
   187          3
   188          3
   189         33
   190        417
   191        891
   192        160
   193         14
   194          0
   197          0
   198          0
   199          0
   200          0
   201          0
   202          0
   203          1
   204          0
   205          1
   206          0
   207          0
   208          0
   211          0
   212          0
   213          0
   214          0
   215          0
   216          0
   217          3
   218          0
   219          0
   226          0
   227          0
   228          0
   229          0
   230          0
   231          0
   232          0
   233          0
   234          0
   242          0
   243          0
   244          0
   245          0
   258          0
   259          0
   260          0
   266          0
   267          0
   268          0
   269          0
   270          1
   271          2
   272          3
   273          2
   274        118
   275         25
   276          2
   277          0