##TITLE=Library Entry 16434
##JCAMP-DX=Revision 4.10 
##DATA TYPE=MASS SPECTRUM
##SAMPLE DESCRIPTION=Exported from NIST MS Search
##NAMES=HP
##CAS NAME=Benzenepropanamine, 4-chloro-N-(2-phenylethyl)-
##MOLFORM=C17H20ClN
##CAS REGISTRY NO=55255-78-2
##MP= -300
##BP= -300
##MW= 273
##$RETENTION INDEX=0
##$CONDENSED SPECTRUM=NO
##NPOINTS= 46
##XYDATA=(XY..XY) 1 
    27         10
    28         30
    29         10
    30         50
    35         10
    36         70
    38         20
    39         20
    41         30
    42         20
    43         50
    44        999
    45         20
    51         10
    56         20
    57         10
    63         20
    69         10
    73         10
    75         10
    77         20
    89         40
    90         10
    91         10
    99         10
   101         20
   102         20
   103         20
   115         10
   117         10
   125        160
   126         10
   127         50
   137         10
   138         10
   139         10
   159         20
   161         10
   173         50
   175         20
   182        230
   183         20
   184         80
   185         10
   202         20
   204         10