##TITLE=Library Entry 20842
##JCAMP-DX=Revision 4.10 
##DATA TYPE=MASS SPECTRUM
##SAMPLE DESCRIPTION=Exported from NIST MS Search
##NAMES=HP
##CAS NAME=Cyclohexane, 1,1'-(2-tridecyl-1,3-propanediyl)bis-
##MOLFORM=C28H54
##CAS REGISTRY NO=55255-74-8
##MP= -300
##BP= -300
##MW= 390
##$RETENTION INDEX=0
##$CONDENSED SPECTRUM=NO
##NPOINTS= 215
##XYDATA=(XY..XY) 1 
    36          1
    37          2
    38          3
    39         58
    40         14
    41        540
    42         75
    43        503
    44         18
    45          1
    46          1
    47          1
    48          1
    49          1
    50          2
    51          4
    52          3
    53         34
    54         83
    55        999
    56        112
    57        377
    58         18
    59          1
    60          1
    61          1
    62          1
    63          1
    64          1
    65          7
    66         11
    67        197
    68         56
    69        393
    70         51
    71        189
    72         11
    73          1
    74          1
    75          1
    76          1
    77          8
    78          3
    79         24
    80         16
    81        163
    82        169
    83        813
    84         65
    85        120
    86          8
    87          1
    89          1
    90          1
    91          6
    92          2
    93          9
    94          7
    95         79
    96        237
    97        628
    98         53
    99         37
   100          3
   101          1
   102          1
   103          1
   104          1
   105          2
   106          1
   107          3
   108          5
   109         70
   110         35
   111        363
   112         34
   113         24
   114          2
   115          1
   116          1
   117          1
   118          1
   119          1
   120          1
   121          5
   122          3
   123         41
   124         14
   125        167
   126         19
   127         16
   128          2
   129          1
   130          1
   131          1
   132          1
   133          1
   134          1
   135          8
   136          3
   137         29
   138         10
   139         45
   140          6
   141         11
   142          1
   143          1
   144          1
   145          1
   146          1
   147          1
   148          1
   149          1
   150          1
   151         19
   152          7
   153         28
   154          4
   155          7
   156          1
   157          1
   158          1
   159          1
   160          1
   161          1
   162          1
   163          1
   164          1
   165          5
   166          2
   167         20
   168          3
   169          4
   170          1
   171          1
   176          1
   177          1
   178          3
   179          2
   180          1
   181         15
   182          3
   183          3
   184          1
   185          1
   186          1
   191          1
   192          1
   193          2
   194          1
   195         11
   196          3
   197          5
   198          1
   199          1
   205          1
   206         87
   207        149
   208         26
   209         11
   210          3
   211          5
   212          1
   220          1
   221          2
   222          1
   223          6
   224          2
   225          1
   226          1
   233          1
   234          1
   235          1
   236          1
   237          4
   238          1
   239          1
   248          1
   249          1
   250          1
   251          2
   252          1
   253          1
   262          1
   263          1
   264          4
   265          2
   266          1
   267          1
   276          1
   277          1
   278          1
   279          2
   280          1
   281          1
   289          1
   290          1
   291          1
   292         84
   293        100
   294         22
   295          3
   304          1
   305          1
   306          5
   307          4
   308          1
   309          1
   319          1
   320          1
   321          1
   388          1
   389          1
   390          1
   391          1