##TITLE=Library Entry 16394
##JCAMP-DX=Revision 4.10 
##DATA TYPE=MASS SPECTRUM
##SAMPLE DESCRIPTION=S.SKUJINS UNIV. OF SURREY, GUILDFORD, UK
##NAMES=HP
##CAS NAME=2-Phenazinecarboxylic acid, 5,6,7,8,9,10-hexahydro-6,7,8,9-tetrao
xo-
##MOLFORM=C13H6N2O6
##CAS REGISTRY NO=55255-68-0
##MP= -300
##BP= -300
##MW= 286
##$RETENTION INDEX=0
##$CONDENSED SPECTRUM=NO
##NPOINTS= 32
##XYDATA=(XY..XY) 1 
    44        999
    74         90
    75        210
    76        120
    87         40
    90         90
   100        180
   101        110
   102         80
   103         50
   118         50
   120         50
   127        360
   128         70
   129         40
   147        170
   155        470
   156         60
   157         30
   172        790
   173        140
   174        490
   175         60
   200        710
   201         90
   202        210
   203         30
   228        110
   230         30
   244         50
   258        190
   286        160