##TITLE=Library Entry 15343
##JCAMP-DX=Revision 4.10 
##DATA TYPE=MASS SPECTRUM
##SAMPLE DESCRIPTION=TAT 0671
##NAMES=HP
##CAS NAME=Morphinan-3,14-diol, 4,5-epoxy-, (5.alpha.)-
##MOLFORM=C16H19NO3
##CAS REGISTRY NO=55255-50-0
##MP= -300
##BP= -300
##MW= 273
##$RETENTION INDEX=0
##$CONDENSED SPECTRUM=NO
##NPOINTS= 179
##XYDATA=(XY..XY) 1 
    41        410
    42        470
    43        710
    44        999
    45        300
    46         90
    47         10
    50        120
    51        310
    52        190
    53        280
    54        140
    55        410
    56        390
    57        270
    58        150
    59         30
    60         60
    61         30
    62         80
    63        250
    64        150
    65        340
    66        140
    67        120
    68        100
    69         80
    70        170
    71         50
    72         40
    74         40
    75         80
    76        100
    77        380
    78        140
    79        140
    80        280
    81        130
    82         80
    83         70
    84         60
    85         40
    86         50
    87         40
    88         40
    89        120
    90         70
    91        290
    92        180
    93        140
    94        100
    95         50
    96         30
    97         20
    98         30
    99         20
   101         50
   102        100
   103        140
   104         70
   105         80
   106         50
   107         60
   108         40
   109        190
   110         30
   114         50
   115        400
   116        110
   117        110
   118         70
   119        130
   120         40
   121         50
   122         50
   123         70
   124         20
   126         40
   127        140
   128        190
   129        110
   130         80
   131        150
   132        120
   133         50
   134         30
   135         20
   137         60
   138         30
   139         70
   140         30
   141        110
   142         50
   143         70
   144        100
   145         80
   146         60
   147        110
   148         40
   149         30
   150         40
   151         40
   152        100
   153         80
   154         60
   155         70
   156         40
   157         70
   158         40
   159         50
   160         90
   161        110
   162         80
   163         40
   164         40
   165        100
   166         40
   167         50
   168         40
   169         60
   170         50
   171         90
   172         60
   173        110
   174         90
   175         80
   176         40
   177         20
   178         20
   179         30
   180         20
   181         60
   182         40
   183         60
   184         70
   185         60
   186         60
   187         90
   188        120
   189         70
   190         30
   193         40
   194         30
   195         40
   196         30
   197         60
   198         70
   199         60
   200        110
   201         70
   202        120
   203         50
   210         30
   211         60
   212        100
   213        100
   214         50
   215         40
   216        130
   217         70
   218         40
   225         20
   226         70
   227         40
   228         40
   229         30
   230         70
   231         30
   238         20
   240         30
   244         30
   245         30
   254         50
   255        100
   256         40
   271         30
   272         20
   273        250
   274         50