##TITLE=Library Entry 24221
##JCAMP-DX=Revision 4.10 
##DATA TYPE=MASS SPECTRUM
##SAMPLE DESCRIPTION=Exported from NIST MS Search
##NAMES=HP
##CAS NAME=Tetratriacontane, 17-hexadecyl-
##MOLFORM=C50H102
##CAS REGISTRY NO=55256-07-0
##MP= -300
##BP= -300
##MW= 702
##$RETENTION INDEX=0
##$CONDENSED SPECTRUM=NO
##NPOINTS= 272
##XYDATA=(XY..XY) 1 
    37          2
    38          4
    39         41
    40         11
    41        232
    42         79
    43        773
    44         28
    45          1
    50          3
    51          4
    52          3
    53         13
    54         36
    55        286
    56        174
    57        999
    58         48
    59          2
    62          1
    63          2
    64          1
    65          4
    66          5
    67         48
    68         51
    69        264
    70        127
    71        667
    72         38
    73          2
    74          1
    75          1
    76          1
    77          4
    78          3
    79          8
    80          5
    81         38
    82         56
    83        268
    84         74
    85        483
    86         32
    87          1
    88          1
    89          1
    90          1
    91         16
    92          4
    93          7
    94          4
    95         29
    96         37
    97        212
    98         44
    99        128
   100         11
   101          1
   102          1
   103          1
   104          3
   105          7
   106          2
   107          7
   108          3
   109         15
   110         16
   111         97
   112         28
   113         89
   114          9
   115          3
   116          1
   117          3
   118          3
   119          5
   120          2
   121          3
   122          2
   123          7
   124          9
   125         44
   126         18
   127         64
   128          8
   129          3
   130          1
   131          3
   132          1
   133          3
   134          1
   135          3
   136          2
   137          5
   138          7
   139         19
   140         12
   141         48
   142          7
   143          2
   144          1
   145          2
   146          1
   147          2
   148          1
   149          1
   150          1
   151          3
   152          5
   153         13
   154         10
   155         38
   156          5
   157          1
   158          1
   159          1
   160          1
   161          2
   162          1
   163          1
   164          1
   165          3
   166          5
   167         10
   168          8
   169         31
   170          5
   171          1
   179          2
   180          4
   181          8
   182          7
   183         27
   184          5
   185          1
   193          1
   194          4
   195          7
   196          7
   197         23
   198          4
   199          1
   207          1
   208          4
   209          5
   210          6
   211         19
   212          3
   213          1
   221          1
   222          4
   223          5
   224          9
   225         17
   226          4
   227          1
   235          1
   236          4
   237          5
   238          6
   239         15
   240          3
   241          1
   249          1
   250          4
   251          5
   252          4
   253         13
   254          3
   255          1
   263          1
   264          3
   265          4
   266          5
   267         11
   268          3
   269          1
   277          1
   278          4
   279          4
   280          6
   281         14
   282          4
   283          1
   287          2
   292          4
   293          4
   294          4
   295         12
   296          2
   297          1
   306          4
   307          4
   308          4
   309         12
   310          3
   311          1
   320          4
   321          4
   322          4
   323         11
   324          4
   334          3
   335          3
   336          4
   337         10
   338          3
   348          2
   349          2
   350          3
   351          9
   352          2
   362          2
   363          2
   364          3
   365          8
   366          3
   376          2
   377          3
   378          3
   379          7
   380          3
   390          1
   391          1
   392          3
   393          7
   394          2
   404          1
   405          1
   406          2
   407          6
   408          2
   418          1
   419          1
   420          3
   421          5
   422          2
   432          1
   433          1
   434          4
   435          5
   436          1
   448          6
   449          6
   450          2
   462         44
   463         69
   464         23
   465          4
   476         76
   477        128
   478         44
   479          9
   480          1
   490          3
   491          6
   492          2
   504          1
   505          2
   506          1
   518          1
   519          1
   520          1
   532          1
   533          1
   534          1
   546          1
   547          1
   548          1
   561          1
   562          1