##TITLE=Library Entry 80766
##JCAMP-DX=Revision 4.10 
##DATA TYPE=MASS SPECTRUM
##SAMPLE DESCRIPTION=CENTRE D'ETUDES NUCLEAIRES DE GRENOBLE, FRANCE.
##NAMES=HP
##CAS NAME=Bicyclo[2.2.1]heptane-2,3-dione, 5-(benzoyloxy)-1,7,7-trimethyl-,
 exo-
##MOLFORM=C17H18O4
##CAS REGISTRY NO=55255-60-2
##MP= -300
##BP= -300
##MW= 286
##$RETENTION INDEX=0
##$CONDENSED SPECTRUM=NO
##NPOINTS= 81
##XYDATA=(XY..XY) 1 
    36          4
    38          5
    39         28
    40          9
    41         72
    42          9
    43         51
    44         34
    45         10
    50         15
    51         43
    52          7
    53         17
    54          7
    55         55
    56         12
    57         27
    60         17
    61          5
    65          5
    66          2
    67         25
    68         10
    69         38
    70         10
    71         12
    72          1
    73         16
    74          3
    75          3
    76         11
    77        165
    78         26
    79         20
    80          5
    81         20
    82          9
    83         13
    84          5
    85          7
    91         17
    92          5
    93         43
    94         10
    95         10
    96          3
    97          5
    98          5
   104          7
   105        999
   106        110
   107         15
   108        335
   109         65
   110          5
   111          5
   121         17
   122         10
   123          3
   124          2
   125          9
   129          7
   135          3
   136        120
   137         18
   138          3
   139          6
   149          8
   150          5
   153         20
   154          5
   167          5
   189         17
   190          7
   203          7
   256          5
   258         65
   259         17
   260          8
   286         33
   287          5