##TITLE=Library Entry 61356
##JCAMP-DX=Revision 4.10 
##DATA TYPE=MASS SPECTRUM
##SAMPLE DESCRIPTION=D.H. AUE, DEP. CHEM., CALIF. UNIV., SANTA BARBARA, CALI
F., USA
##NAMES=HP
##CAS NAME=N-(p-Toluenesulfonylaminocarbonyl)-4,4-dimethylazetidinone
##MOLFORM=C13H16N2O4S
##CAS REGISTRY NO=55254-59-6
##MP= -300
##BP= -300
##MW= 296
##$RETENTION INDEX=0
##$CONDENSED SPECTRUM=NO
##NPOINTS= 19
##XYDATA=(XY..XY) 1 
    39        150
    41        120
    42        100
    56        200
    65        250
    83         60
    84         80
    89         80
    90         50
    91        999
    92         80
   106         40
   107        130
   108        550
   109         50
   155        350
   171        300
   232        150
   296          1