##TITLE=Library Entry 3433
##JCAMP-DX=Revision 4.10 
##DATA TYPE=MASS SPECTRUM
##SAMPLE DESCRIPTION=Exported from NIST MS Search
##NAMES=HP
##CAS NAME=Cyclopentane, 1,1'-[3-(2-cyclopentylethyl)-1,5-pentanediyl]bis-
##MOLFORM=C22H40
##CAS REGISTRY NO=55255-85-1
##MP= -300
##BP= -300
##MW= 304
##$RETENTION INDEX=0
##$CONDENSED SPECTRUM=NO
##NPOINTS= 177
##XYDATA=(XY..XY) 1 
    36          1
    37          4
    38          8
    39        154
    40         43
    41        999
    42        145
    43        156
    44          6
    45          1
    48          1
    49          1
    50          5
    51          8
    52          7
    53         92
    54        114
    55        878
    56         86
    57        123
    58          7
    59          1
    60          1
    61          1
    62          1
    63          2
    64          1
    65         20
    66         44
    67        443
    68        171
    69        901
    70         77
    71         44
    72          3
    73          1
    74          1
    75          1
    76          1
    77         20
    78          5
    79         50
    80         29
    81        209
    82        267
    83        896
    84         73
    85         26
    86          1
    89          1
    90          1
    91         10
    92          2
    93         17
    94         22
    95        223
    96         86
    97        688
    98         65
    99          7
   100          1
   101          1
   102          1
   103          1
   104          1
   105          2
   106          1
   107          5
   108          6
   109        117
   110         27
   111        548
   112         59
   113          9
   114          1
   115          1
   116          1
   117          1
   118          1
   119          1
   120          1
   121          8
   122         18
   123        118
   124         59
   125        269
   126         30
   127          3
   128          1
   129          1
   131          1
   132          1
   133          1
   134          1
   135          7
   136         17
   137        105
   138         28
   139         23
   140          5
   141          3
   142          1
   143          1
   145          1
   147          1
   148          1
   149         15
   150          8
   151         50
   152          8
   153          2
   154          1
   155          1
   156          1
   159          1
   161          1
   163          3
   164          2
   165         15
   166          3
   167          1
   168          1
   169          1
   170          1
   175          1
   176          1
   177          1
   178         12
   179          7
   180          1
   181          1
   182          1
   183          1
   185          1
   189          1
   191          1
   192          4
   193          4
   194          2
   195          1
   196          1
   197          1
   198          1
   199          1
   200          1
   201          1
   202          1
   203          1
   204          1
   205          1
   206        177
   207        141
   208         23
   209          2
   217          1
   218          1
   219          1
   220          6
   221          4
   222          2
   223          1
   226          1
   227          1
   231          1
   233          1
   234          3
   235          2
   236          1
   241          1
   245          1
   263          1
   278          1
   300          1
   302          1
   303          1
   304          2
   305          1