##TITLE=Library Entry 71338
##JCAMP-DX=Revision 4.10 
##DATA TYPE=MASS SPECTRUM
##SAMPLE DESCRIPTION=Chemical Concepts
##NAMES=HP
##CAS NAME=2-Pyrrolidinone, 1-decyl-
##MOLFORM=C14H27NO
##CAS REGISTRY NO=55257-88-0
##MP= -300
##BP= -300
##MW= 225
##$RETENTION INDEX=0
##$CONDENSED SPECTRUM=NO
##NPOINTS= 93
##XYDATA=(XY..XY) 1 
    26          3
    27         44
    28         39
    29         78
    30         25
    31          0
    39         24
    40          2
    41        191
    42         56
    43        112
    44         30
    45          1
    50          0
    51          0
    52          0
    53          8
    54          9
    55         64
    56         26
    57         19
    58          7
    59          0
    60          0
    65          0
    66          0
    67          6
    68         22
    69         76
    70        182
    71         15
    72          1
    77          1
    78          0
    79          0
    80          2
    81          2
    82          2
    83          6
    84         26
    85          6
    86         72
    87          4
    91          0
    94          0
    95          0
    96          2
    97          4
    98        999
    99        657
   100         41
   101          2
   108          0
   110          1
   111          1
   112        143
   113         62
   114          4
   115          0
   123          0
   124          5
   125          1
   126        126
   127         48
   128          3
   138          1
   139          0
   140         59
   141         21
   142          2
   152          0
   153          0
   154         39
   155         14
   156          1
   166          0
   168         28
   169          8
   170          1
   181          0
   182         28
   183          8
   184          0
   196         24
   197          4
   208          9
   209          1
   210          6
   211          1
   224          6
   225        155
   226         28
   227          2