##TITLE=Library Entry 109345
##JCAMP-DX=Revision 4.10 
##DATA TYPE=MASS SPECTRUM
##SAMPLE DESCRIPTION=Exported from NIST MS Search
##NAMES=HP
##CAS NAME=Androstan-7-one, cyclic 1,2-ethanediyl acetal
##MOLFORM=C21H34O2
##CAS REGISTRY NO=55252-96-5
##MP= -300
##BP= -300
##MW= 318
##$RETENTION INDEX=0
##$CONDENSED SPECTRUM=NO
##NPOINTS= 76
##XYDATA=(XY..XY) 1 
    53         60
    54         15
    55        409
    56         36
    57         57
    58         60
    91        175
    92         27
    93        206
    94        109
    95        278
    96         66
    97         24
    98         12
    99        648
   100         51
   105         87
   106          6
   107        109
   108         48
   109         72
   110          6
   111          6
   112        157
   113         97
   115         24
   117         24
   118         12
   119         63
   120         30
   121         87
   122         27
   125        999
   126         97
   127          6
   128          9
   129          6
   131         36
   132          6
   133         97
   134         36
   135        178
   136         27
   137         21
   138         21
   139         78
   140         21
   141         36
   142        278
   143         36
   145         48
   146         12
   147         57
   148          9
   149         51
   150          6
   151          6
   152          6
   153        642
   154         97
   155        109
   156          6
   157          6
   159         12
   160         27
   161         69
   162         90
   163         54
   164         21
   165         36
   166         12
   167          9
   301         30
   318        524
   319        109
   320         15