##TITLE=Library Entry 71319
##JCAMP-DX=Revision 4.10 
##DATA TYPE=MASS SPECTRUM
##SAMPLE DESCRIPTION=Chemical Concepts
##NAMES=HP
##CAS NAME=Bicyclohexyl-2,3'-dione
##MOLFORM=C12H18O2
##CAS REGISTRY NO=55265-34-4
##MP= -300
##BP= -300
##MW= 194
##$RETENTION INDEX=0
##$CONDENSED SPECTRUM=NO
##NPOINTS= 150
##XYDATA=(XY..XY) 1 
    26          4
    27         76
    28         23
    29         36
    30          1
    31          2
    37          1
    38          3
    39         86
    40         34
    41        288
    42         70
    43         43
    44          3
    45          4
    46          1
    47          5
    48          4
    50          5
    51         17
    52         11
    53         77
    54         57
    55        254
    56         19
    57         16
    58          3
    59          1
    60          1
    61          2
    62          4
    63          5
    64          2
    65         28
    66         21
    67        166
    68         63
    69        102
    70        137
    71         15
    72          1
    73          9
    74          2
    75          7
    76          1
    77         37
    78         11
    79        108
    80         56
    81        101
    82         29
    83        129
    84         29
    85          6
    86          1
    89          1
    90          2
    91         32
    92         16
    93         42
    94         33
    95        103
    96        242
    97        782
    98        999
    99         65
   100          5
   101          1
   103          3
   104          3
   105         25
   106          8
   107         24
   108         16
   110         51
   111         41
   112         16
   113          3
   114          2
   115          3
   117          4
   118          3
   119         13
   120          6
   121         13
   122          7
   123        315
   124         47
   125          9
   126          2
   129          2
   130          3
   131          5
   132          3
   133         18
   134         14
   135         16
   136          9
   137        100
   138         18
   139          4
   140          1
   141          2
   142          1
   143          1
   145          2
   146          1
   147         20
   148         18
   149         19
   150          5
   151        114
   152         22
   153          4
   154          2
   155          1
   157          1
   158          3
   159          1
   160          1
   161          4
   162          1
   163          2
   164          2
   165         30
   166         14
   167         30
   168         10
   169          6
   170          2
   171          1
   172          1
   173          4
   174          2
   175          6
   176         13
   177         14
   178          3
   179          3
   180          1
   185          1
   186          1
   189          1
   190          1
   191          2
   192          7
   193          4
   194        292
   195         36
   196          4