##TITLE=Library Entry 42292
##JCAMP-DX=Revision 4.10 
##DATA TYPE=MASS SPECTRUM
##SAMPLE DESCRIPTION=BAY 0134
##NAMES=HP
##CAS NAME=4-Piperidinecarboxylic acid, 4-phenyl-1-(trimethylsilyl)-, trimet
hylsilyl ester
##MOLFORM=C18H31NO2Si2
##CAS REGISTRY NO=55268-57-0
##MP= -300
##BP= -300
##MW= 349
##$RETENTION INDEX=0
##$CONDENSED SPECTRUM=NO
##NPOINTS= 129
##XYDATA=(XY..XY) 1 
    41         49
    42         18
    45        115
    46          9
    47         13
    50          9
    51          9
    52          9
    53         13
    54          4
    55          9
    56         27
    57        106
    58         18
    59         71
    60          9
    61          9
    65          4
    66          4
    69          4
    70          9
    71          9
    72         27
    73        999
    74         88
    75        115
    76          9
    77         27
    81          4
    82          9
    83          4
    84          4
    85          9
    86         62
    87          9
    88          4
    89          4
    91         44
    92          4
    93          9
    95          9
    98          4
   100         62
   101         35
   102         88
   103        106
   104         18
   105          9
   114        217
   115        133
   116         66
   117         27
   118          9
   119          9
   128        230
   129        884
   130        124
   131        111
   132         18
   133         27
   134          4
   135         22
   140          4
   141          9
   142          9
   143         13
   144         22
   145         13
   147        124
   148         27
   149         13
   154         66
   155         13
   156          9
   157          4
   158         49
   159         18
   160         13
   161          9
   168          4
   170          9
   175          4
   176         22
   177          4
   178          4
   181          4
   187         18
   188          9
   190          4
   202          9
   203          4
   204         13
   205         31
   206          9
   216          9
   217          9
   218          9
   219          4
   221          9
   230         88
   231         53
   232         75
   233         18
   234         18
   242          9
   258          4
   260         31
   261          9
   262         13
   271         13
   276         31
   277         27
   278          9
   293         53
   294         13
   295          9
   306         35
   307         18
   308          4
   321         18
   334        208
   335         62
   336         27
   337          4
   348         71
   349        159
   350         44
   351         18
   352          4