##TITLE=Library Entry 25536
##JCAMP-DX=Revision 4.10 
##DATA TYPE=MASS SPECTRUM
##SAMPLE DESCRIPTION=Exported from NIST MS Search
##NAMES=HP
##CAS NAME=Eicosane, 2,6,10,14,19-pentamethyl-
##MOLFORM=C25H52
##CAS REGISTRY NO=55268-60-5
##MP= -300
##BP= -300
##MW= 352
##$RETENTION INDEX=2213
##$CONDENSED SPECTRUM=NO
##NPOINTS= 78
##XYDATA=(XY..XY) 1 
    55        227
    56        227
    57        999
    58         54
    67         18
    68         29
    69        175
    70        146
    71        999
    72         47
    83         11
    84         87
    85         91
    86        633
    87         44
    95         36
    96         95
    97         58
    98        318
    99         18
   111         73
   112        175
   113        329
   114         25
   125         36
   126        157
   127        282
   128         25
   139          7
   140         36
   141        139
   142          7
   154         36
   155        109
   156         11
   167         22
   168         36
   169         91
   170          7
   182        117
   183        205
   184         29
   196         84
   197        164
   198         25
   210          7
   211         29
   212          7
   224         29
   225         40
   226          7
   238         25
   239         36
   240          7
   252         54
   253         84
   254         14
   266         44
   267         87
   268          3
   280          7
   281         11
   282          3
   294          3
   295          3
   308          7
   309         22
   310          3
   323          7
   324         14
   325          3
   336          3
   337         25
   338          7
   351          3
   352         65
   353         18
   354          3