##TITLE=Library Entry 44037
##JCAMP-DX=Revision 4.10 
##DATA TYPE=MASS SPECTRUM
##SAMPLE DESCRIPTION=BAY 0165
##NAMES=HP
##CAS NAME=2,4,6(1H,3H,5H)-Pyrimidinetrione, 5-ethyl-1,3-dimethyl-5-[4-[(tri
methylsilyl)oxy]phenyl]-
##MOLFORM=C17H24N2O4Si
##CAS REGISTRY NO=55268-55-8
##MP= -300
##BP= -300
##MW= 348
##$RETENTION INDEX=0
##$CONDENSED SPECTRUM=NO
##NPOINTS= 224
##XYDATA=(XY..XY) 1 
    41         29
    42         39
    43         88
    44         24
    45        288
    46         24
    47         24
    49          5
    50          5
    51         24
    53         24
    54         10
    55         34
    56         49
    57         29
    58        107
    59         68
    60         10
    61         29
    62         10
    63         29
    64         15
    65         34
    66         15
    67         20
    68         15
    69         39
    70         39
    71         20
    72         20
    73        999
    74        107
    75        171
    76         34
    77        107
    78         29
    79         49
    80         15
    81         44
    82         44
    83         24
    85         20
    86         10
    87         20
    88        146
    89         54
    90         24
    91        107
    92         10
    93         24
    94         15
    95         54
    96         15
    97         15
    99          5
   100         10
   101         15
   102         54
   103         63
   104         20
   105         98
   106         10
   107         15
   108          5
   109         15
   110         10
   111          5
   112          5
   113         10
   114         10
   115        137
   116         63
   117         68
   118         24
   119         49
   120         15
   121         24
   122         10
   123         15
   124         39
   125          5
   126         10
   127         15
   128         15
   129         20
   130         20
   131         34
   132         24
   133         59
   134         78
   135        161
   136         34
   137         20
   138         10
   139          5
   141          5
   143         20
   144         10
   145         29
   146         29
   147         39
   148         29
   149         88
   150        127
   151        146
   152         24
   153         15
   155         10
   156          5
   157          5
   158          5
   159         20
   160         29
   161        156
   162         54
   163         78
   164         44
   165         15
   166         59
   167         10
   168          5
   169         10
   171          5
   172         10
   173         24
   174         24
   175         78
   176        137
   177         54
   178         20
   179         24
   180         10
   183         15
   185          5
   186         10
   187         10
   188         20
   189         59
   190         73
   191        161
   192         39
   193         68
   194         10
   195          5
   201          5
   202         15
   203         24
   204         44
   205         54
   206        615
   207        107
   208         29
   215          5
   216         10
   217         10
   218         34
   219         83
   220         29
   221         10
   230         10
   231         10
   232         44
   233         39
   234        224
   235         39
   236         15
   245          5
   246         24
   247         34
   248         44
   249         15
   250         10
   261         15
   262         24
   263         29
   264          5
   275         15
   276         29
   277         15
   278         10
   288          5
   289          5
   290         15
   291        810
   292        224
   293         59
   294         15
   295         10
   296          5
   297          5
   298          5
   301          5
   302          5
   303         24
   304         10
   305         15
   306          5
   307          5
   309          5
   313          5
   314          5
   315         10
   316         10
   317         29
   318         68
   319        975
   320        307
   321        107
   322         24
   323          5
   325          5
   330          5
   331         15
   332         20
   333        254
   334         54
   335         20
   336          5
   346         20
   347         34
   348        741
   349        161
   350         54
   351         10