##TITLE=Library Entry 46442
##JCAMP-DX=Revision 4.10 
##DATA TYPE=MASS SPECTRUM
##SAMPLE DESCRIPTION=Exported from NIST MS Search
##NAMES=HP
##CAS NAME=1H-Isoindole, octahydro-1,2,3-triphenyl-
##MOLFORM=C26H27N
##CAS REGISTRY NO=55268-61-6
##MP= -300
##BP= -300
##MW= 353
##$RETENTION INDEX=0
##$CONDENSED SPECTRUM=NO
##NPOINTS= 110
##XYDATA=(XY..XY) 1 
    26         12
    27         66
    28        298
    29         66
    30         15
    31         31
    32        608
    39        110
    40         38
    41        177
    42         14
    43         22
    44         33
    45         10
    50         22
    51        222
    52         38
    53         50
    54          3
    55         38
    56          3
    57          5
    63         33
    64         19
    65        103
    66         19
    67         52
    68          7
    69         14
    76         36
    77        999
    78        168
    79         80
    80         26
    81        101
    82         14
    89         47
    90         19
    91        578
    92         64
    93         24
    94         40
    95          7
   101          5
   102         31
   103         56
   104        442
   105         66
   106        140
   107         12
   115        175
   116         59
   117        100
   118         15
   119          7
   126          5
   127         40
   128        112
   129        122
   130         57
   131         12
   132         12
   141         82
   142         14
   143         19
   144         12
   151          5
   152         43
   153         17
   154         14
   155         21
   156         14
   165         38
   166         21
   167        136
   168         33
   169         15
   170         14
   171         12
   172          7
   176         12
   177         19
   178         26
   179         14
   180        368
   181        198
   182        110
   183         28
   185          8
   192          5
   193         52
   194         91
   195         24
   206         14
   224         15
   262         14
   269         12
   270        164
   271        105
   272         21
   274         14
   275          5
   276        517
   277        105
   278         14
   351          3
   352         84
   353        601
   354        166
   355         21