##TITLE=Library Entry 24563
##JCAMP-DX=Revision 4.10 
##DATA TYPE=MASS SPECTRUM
##SAMPLE DESCRIPTION=Exported from NIST MS Search
##NAMES=HP
##CAS NAME=Pentadecane, 8,8-diheptyl-
##MOLFORM=C29H60
##CAS REGISTRY NO=55268-72-9
##MP= -300
##BP= -300
##MW= 408
##$RETENTION INDEX=0
##$CONDENSED SPECTRUM=NO
##NPOINTS= 195
##XYDATA=(XY..XY) 1 
    36          2
    37          4
    38          5
    39         57
    40         15
    41        428
    42        129
    43        932
    44         31
    45          1
    47          1
    49          1
    50          2
    51          3
    52          2
    53         20
    54         25
    55        414
    56        186
    57        999
    58         46
    59          1
    61          1
    62          1
    63          1
    64          1
    65          4
    66          3
    67         60
    68         33
    69        267
    70         81
    71        635
    72         36
    73          1
    76          1
    77          4
    78          2
    79         10
    80          3
    81         35
    82         19
    83        161
    84         36
    85        481
    86         33
    87          1
    88          1
    89          1
    91          3
    92          1
    93          4
    94          1
    95         20
    96          8
    97        100
    98         17
    99        154
   100         12
   101          1
   102          1
   105          1
   106          1
   107          2
   108          1
   109          8
   110          4
   111         44
   112         17
   113        110
   114         10
   115          1
   117          1
   119          1
   121          1
   122          1
   123          3
   124          8
   125         43
   126         11
   127         86
   128          9
   129          1
   131          1
   135          1
   136          1
   137          2
   138          2
   139          6
   140         33
   141         76
   142          8
   143          1
   144          1
   145          1
   146          1
   147          1
   149          1
   151          1
   152          1
   153          3
   154          2
   155         55
   156          7
   157          1
   161          1
   163          1
   164          1
   165          2
   166          2
   167          4
   168          2
   169         47
   170          6
   171          1
   179          1
   180          1
   181          1
   182          2
   183         41
   184          6
   185          1
   186          1
   187          1
   188          1
   193          1
   194          1
   195          1
   196          4
   197         38
   198          6
   199          1
   203          1
   207          1
   208          3
   209         10
   210          7
   211         37
   212          6
   213          1
   221          1
   222          1
   223          1
   224         33
   225         43
   226          8
   227          1
   230          1
   231          1
   232          1
   233          1
   234          1
   235          2
   236          1
   237          2
   238          1
   239         27
   240          5
   241          1
   249          1
   251          1
   252          1
   253         19
   254          4
   255          1
   266          1
   267          9
   268          2
   280          2
   281         16
   282          4
   283          1
   294          1
   295          3
   296          1
   303          1
   304          1
   305          3
   306          2
   307          7
   308         52
   309        676
   310        171
   311         22
   312          3
   313          1
   314          1
   322          1
   323          1
   324          1
   333          1
   335          1
   336          1
   337          1
   338          1