##TITLE=Library Entry 43502
##JCAMP-DX=Revision 4.10 
##DATA TYPE=MASS SPECTRUM
##SAMPLE DESCRIPTION=O A MAMER, MCGILL UNIVERSITY, MONTRE
##NAMES=HP
##CAS NAME=L-Aspartic acid, 3TMS derivative
##MOLFORM=C13H31NO4Si3
##CAS REGISTRY NO=55268-53-6
##MP= -300
##BP= -300
##MW= 349
##$RETENTION INDEX=1522
##$CONDENSED SPECTRUM=NO
##NPOINTS= 85
##XYDATA=(XY..XY) 1 
    15          7
    29          1
    31          4
    43         11
    44         11
    45        109
    46          9
    47          8
    58          4
    59         48
    60          7
    61         12
    70         23
    71          4
    72         29
    73        999
    74        103
    75        102
    76          9
    86          6
    98          6
    99          6
   100        234
   101         27
   102         11
   103         13
   114          5
   115         13
   116          6
   117         51
   118          6
   119         10
   128          6
   129          5
   130         23
   131         20
   132         15
   133         42
   134          8
   135          4
   142         19
   143          6
   144          6
   146          4
   147        161
   148         29
   149         25
   150          3
   163          7
   172          9
   173          2
   174         14
   175          3
   177          3
   188         62
   189         14
   190          8
   191          3
   202         71
   203         14
   204         18
   205          6
   216         26
   217          6
   218        158
   219         30
   220         14
   221          5
   232        810
   233        169
   234         73
   235         13
   236          3
   244          6
   245          5
   246          3
   292         13
   293          3
   306         25
   307          7
   308          3
   334         19
   335          5
   336          3
   349          6