##TITLE=Library Entry 86398
##JCAMP-DX=Revision 4.10 
##DATA TYPE=MASS SPECTRUM
##SAMPLE DESCRIPTION=Chemical Concepts
##NAMES=HP
##CAS NAME=5-Ethoxy-2-methyl-pyridine
##MOLFORM=C8H11NO
##CAS REGISTRY NO=55270-48-9
##MP= -300
##BP= -300
##MW= 137
##$RETENTION INDEX=0
##$CONDENSED SPECTRUM=NO
##NPOINTS= 58
##XYDATA=(XY..XY) 1 
    26         23
    27        152
    28         35
    29         84
    30          5
    37          6
    38         17
    39         85
    40         10
    41         17
    42         25
    43          9
    44          3
    49          6
    50         48
    51         80
    52         76
    53        204
    54         83
    55         30
    56          5
    57          8
    61          3
    62          6
    63         15
    64         16
    65         61
    66         14
    67         16
    68         15
    69          6
    70          6
    75          2
    76          6
    77          4
    78          8
    79         12
    80        471
    81        129
    82         65
    83          8
    91         13
    92         42
    93          6
    94         16
    95          3
   106          5
   107          5
   108        141
   109        999
   110        122
   111          7
   122          5
   135          4
   136          6
   137        835
   138         86
   139          6