##TITLE=Library Entry 73794
##JCAMP-DX=Revision 4.10 
##DATA TYPE=MASS SPECTRUM
##SAMPLE DESCRIPTION=B.ZEEH TUBINGEN UNIVERSITY, TUBINGEN F.R.G.
##NAMES=HP
##CAS NAME=Cholestane-5-carbonitrile, 3,3-dimethoxy-, (5.beta.)-
##MOLFORM=C30H51NO2
##CAS REGISTRY NO=55282-49-0
##MP= -300
##BP= -300
##MW= 457
##$RETENTION INDEX=0
##$CONDENSED SPECTRUM=NO
##NPOINTS= 24
##XYDATA=(XY..XY) 1 
    41         60
    43         80
    55         50
    57         50
    67         20
    69         40
    71         20
    81         40
    83         20
    84         80
    85         30
    88         60
    95         30
   101        999
   102         60
   139         40
   153         40
   312         10
   425         10
   426         80
   427         30
   442         10
   457         20
   458         10