##TITLE=Library Entry 7890
##JCAMP-DX=Revision 4.10 
##DATA TYPE=MASS SPECTRUM
##SAMPLE DESCRIPTION=CONTINENTAL OIL CO., PONCA CITY, OKLA, USA
##NAMES=HP
##CAS NAME=Tetracosane, 3-ethyl-
##MOLFORM=C26H54
##CAS REGISTRY NO=55282-17-2
##MP= -300
##BP= -300
##MW= 366
##$RETENTION INDEX=2567
##$CONDENSED SPECTRUM=NO
##NPOINTS= 159
##XYDATA=(XY..XY) 1 
    25          0
    26          6
    27         85
    28         20
    29        225
    30          5
    36          1
    37          1
    38          2
    39         37
    40         12
    41        353
    42         97
    43        999
    44         34
    45          1
    50          1
    51          2
    52          1
    53         16
    54         28
    55        335
    56        120
    57        742
    58         34
    59          0
    63          1
    65          2
    66          3
    67         30
    68         25
    69        171
    70        330
    71        639
    72         35
    73          1
    76          1
    77          2
    78          0
    79          4
    80          1
    81         13
    82         16
    83        101
    84         44
    85        219
    86         14
    87          0
    91          3
    92          0
    93          0
    94          0
    95          6
    96          9
    97         64
    98         17
    99         48
   100          4
   101          0
   104          1
   105          2
   106          0
   107          0
   108          0
   109          2
   110          4
   111         26
   112          9
   113         32
   114          3
   115          0
   117          0
   118          0
   119          0
   123          1
   124          2
   125         10
   126          5
   127         24
   128          2
   131          0
   133          0
   137          0
   138          1
   139          4
   140          3
   141         18
   142          2
   151          0
   152          1
   153          2
   154          2
   155         15
   156          1
   165          0
   166          1
   167          2
   168          2
   169         12
   170          2
   180          1
   181          1
   182          1
   183         10
   184          1
   194          0
   195          1
   196          1
   197          9
   198          1
   208          0
   209          1
   210          1
   211          8
   212          1
   222          0
   223          1
   224          1
   225          7
   226          1
   236          1
   237          1
   238          1
   239          7
   240          1
   250          0
   251          0
   252          1
   253          6
   254          1
   264          0
   265          0
   266          1
   267          5
   268          1
   278          0
   279          0
   280          1
   281          4
   282          1
   292          0
   293          0
   294          3
   295          5
   296          1
   307          0
   308          2
   309          1
   310          0
   322          2
   323          5
   324          1
   336         91
   337        214
   338         54
   351          0
   364          0
   365          0
   366          0