##TITLE=Library Entry 24331
##JCAMP-DX=Revision 4.10 
##DATA TYPE=MASS SPECTRUM
##SAMPLE DESCRIPTION=Exported from NIST MS Search
##NAMES=HP
##CAS NAME=Eicosane, 10-hexyl-10-methyl-
##MOLFORM=C27H56
##CAS REGISTRY NO=55282-32-1
##MP= -300
##BP= -300
##MW= 380
##$RETENTION INDEX=0
##$CONDENSED SPECTRUM=NO
##NPOINTS= 189
##XYDATA=(XY..XY) 1 
    36          2
    37          3
    38          5
    39         61
    40         17
    41        445
    42        119
    43        944
    44         32
    45          2
    46          1
    47          1
    48          1
    49          1
    50          2
    51          3
    52          2
    53         23
    54         24
    55        413
    56        240
    57        999
    58         46
    59          1
    60          1
    61          1
    62          1
    63          1
    64          1
    65          3
    66          3
    67         40
    68         34
    69        245
    70         90
    71        622
    72         36
    73          1
    74          1
    75          1
    76          1
    77          3
    78          1
    79          7
    80          3
    81         26
    82         15
    83        122
    84         33
    85        447
    86         31
    87          1
    88          1
    89          1
    91          2
    92          1
    93          2
    94          1
    95         13
    96          6
    97         76
    98         19
    99        138
   100         11
   101          1
   102          1
   103          1
   104          1
   105          1
   106          1
   107          1
   108          1
   109          5
   110          9
   111         55
   112         19
   113        100
   114         10
   115          1
   116          1
   117          1
   118          1
   119          1
   120          1
   121          1
   122          1
   123          2
   124          3
   125         12
   126         29
   127         84
   128          9
   129          1
   130          1
   131          1
   132          1
   133          1
   134          1
   135          1
   136          1
   137          1
   138          1
   139          5
   140          8
   141         64
   142          8
   143          1
   145          1
   149          1
   150          1
   151          1
   152          5
   153         16
   154          9
   155         56
   156          7
   157          1
   163          1
   164          1
   165          1
   166          4
   167         13
   168         19
   169         53
   170          7
   171          1
   172          1
   173          1
   179          1
   180          1
   181          1
   182         14
   183         43
   184          6
   185          1
   193          1
   194          1
   195          1
   196          1
   197         28
   198          4
   199          1
   207          1
   208          1
   209          1
   210          2
   211         17
   212          3
   213          1
   215          1
   216          1
   217          1
   223          1
   224          1
   225          9
   226          2
   227          1
   237          1
   238         30
   239        217
   240         40
   241          4
   242          1
   251          1
   252         25
   253        192
   254         37
   255          3
   256          1
   266          1
   267          2
   268          1
   279          1
   280          1
   281          2
   282          1
   292          1
   293          1
   294         22
   295        181
   296         43
   297          5
   298          1
   309          1
   310          1
   323          1
   365          5
   366          1
   367          1