##TITLE=Library Entry 51049
##JCAMP-DX=Revision 4.10 
##DATA TYPE=MASS SPECTRUM
##SAMPLE DESCRIPTION=CARL DJERASSI DEPT OF CHEM STANFORD UNIV STANFORD CALIF
 94305
##NAMES=HP
##CAS NAME=2,7-Nonadienoic acid, 3,8-dimethyl-, methyl ester, (E)-
##MOLFORM=C12H20O2
##CAS REGISTRY NO=55283-31-3
##MP= -300
##BP= -300
##MW= 196
##$RETENTION INDEX=0
##$CONDENSED SPECTRUM=NO
##NPOINTS= 32
##XYDATA=(XY..XY) 1 
    41        580
    42         30
    43         90
    53        120
    54         40
    55        300
    56         30
    59         50
    65         30
    67        320
    68         40
    69        260
    77         30
    79         50
    81        120
    82        999
    83        330
    85         20
    93         50
    95        100
   114        400
   115         30
   125         60
   126         10
   127        100
   128         20
   136         20
   137         70
   153         20
   164         10
   165         30
   196         10