##TITLE=Library Entry 2179
##JCAMP-DX=Revision 4.10 
##DATA TYPE=MASS SPECTRUM
##SAMPLE DESCRIPTION=CARL DJERASSI DEPT OF CHEM STANFORD UNIV STANFORD CALIF
 94305
##NAMES=HP
##CAS NAME=2(1H)-Naphthalenone, 3,4,4a,5,8,8a-hexahydro-4a-methyl-, trans-
##MOLFORM=C11H16O
##CAS REGISTRY NO=55283-48-2
##MP= -300
##BP= -300
##MW= 164
##$RETENTION INDEX=0
##$CONDENSED SPECTRUM=NO
##NPOINTS= 81
##XYDATA=(XY..XY) 1 
    31         76
    32        238
    37          9
    38         47
    39        990
    40        190
    41        999
    42        190
    43        200
    44         28
    45         38
    50        104
    51        304
    52        190
    53        552
    54        180
    55        590
    56         85
    57         76
    58          9
    63        104
    64         19
    65        295
    66         85
    67        847
    68        942
    69        228
    70         19
    71         19
    72         28
    74          9
    75          9
    76          9
    77        561
    78        342
    79        914
    80        219
    81        533
    82        438
    83         66
    84         19
    89          9
    91        628
    92        133
    93        695
    94        352
    95        438
    96        104
    97         47
   103         28
   104         19
   105        219
   106        209
   107        438
   108        180
   109        438
   110        866
   111        104
   112          9
   115          9
   117         19
   118         19
   119         19
   120         57
   121        114
   122        142
   123        142
   124         19
   129          9
   131        114
   133          9
   135        104
   136         57
   137         19
   146         57
   149        161
   150         28
   151          9
   164        714
   165        114
   166         19