##TITLE=Library Entry 114343
##JCAMP-DX=Revision 4.10 
##DATA TYPE=MASS SPECTRUM
##SAMPLE DESCRIPTION=BROOKS/HORNING, INST. LIPID RES., BAYLOR U.C., HOUSTON
 TEXAS
##NAMES=HP
##CAS NAME=Pregn-5-en-3-ol, (3.beta.)-, TMS derivative
##MOLFORM=C24H42OSi
##CAS REGISTRY NO=55282-44-5
##MP= -300
##BP= -300
##MW= 374
##$RETENTION INDEX=2497
##$CONDENSED SPECTRUM=NO
##NPOINTS= 69
##XYDATA=(XY..XY) 1 
    69         28
    73         34
    75         82
    81         82
    83         51
    93         36
    95        160
    97         22
   105         34
   106         30
   107        182
   108         38
   109        118
   111         22
   119         50
   120         81
   121        240
   122         50
   123        144
   129        999
   130        139
   131         79
   132         20
   133         41
   134         24
   135         89
   137         42
   143         67
   145         92
   146         54
   147         54
   148         36
   149         65
   151         15
   155         39
   159         40
   160         60
   161         86
   162         48
   163        280
   164         38
   173         22
   174         12
   175         40
   176         28
   177         23
   189         17
   190         27
   191         68
   192         12
   201         10
   203         13
   217         17
   229         10
   242         10
   243         15
   244         64
   245        400
   246         77
   247         10
   255         12
   256         10
   269         84
   270         19
   284        132
   285         32
   359         10
   374         37
   375         11