##TITLE=Library Entry 8973
##JCAMP-DX=Revision 4.10 
##DATA TYPE=MASS SPECTRUM
##SAMPLE DESCRIPTION=Exported from NIST MS Search
##NAMES=HP
##CAS NAME=Octadecane, 5,14-dibutyl-
##MOLFORM=C26H54
##CAS REGISTRY NO=55282-13-8
##MP= -300
##BP= -300
##MW= 366
##$RETENTION INDEX=0
##$CONDENSED SPECTRUM=NO
##NPOINTS= 240
##XYDATA=(XY..XY) 1 
    37          2
    38          3
    39         53
    40         11
    41        466
    42         89
    43        999
    44         35
    45          1
    46          1
    47          1
    48          1
    49          1
    50          2
    51          3
    52          2
    53         23
    54         34
    55        408
    56        166
    57         18
    58         57
    59          3
    60          1
    61          1
    62          1
    63          1
    64          1
    65          5
    66          3
    67         45
    68         29
    69        208
    70        119
    71        847
    72         49
    73          2
    74          1
    75          1
    76          1
    77          7
    78          2
    79         10
    80          4
    81         24
    82         27
    83        136
    84         63
    85        532
    86         36
    87          1
    89          1
    90          1
    91          6
    92          3
    93         13
    94          3
    95         14
    96         15
    97         97
    98         50
    99        122
   100         12
   101          3
   102          1
   103          1
   104          1
   105          3
   106          1
   107          2
   108          1
   109          6
   110          5
   111         32
   112         12
   113         76
   114          8
   115          1
   116          1
   117          1
   118          1
   119          1
   120          1
   121          4
   122          1
   123          3
   124          3
   125         16
   126        168
   127        101
   128         10
   129          1
   130          1
   131          1
   132          1
   133          1
   134          1
   135          1
   136          2
   137          2
   138          2
   139          7
   140         39
   141         50
   142          7
   143          1
   144          1
   145          1
   146          1
   147          1
   148          1
   149          1
   150          1
   151          1
   152          1
   153          5
   154          4
   155         30
   156          4
   157          1
   158          1
   159          1
   160          1
   161          1
   162          1
   163          1
   164          1
   165          1
   166          1
   167          3
   168          3
   169         24
   170          3
   171          1
   172          1
   173          1
   174          1
   175          1
   176          1
   177          1
   178          1
   179          1
   180          1
   181          3
   182          3
   183         19
   184          3
   185          1
   187          1
   188          1
   189          1
   190          1
   191          1
   192          1
   193          1
   194          1
   195          1
   196          2
   197         15
   198          2
   199          1
   200          1
   201          1
   202          1
   203          1
   204          1
   205          1
   206          1
   207          1
   208          2
   209          7
   210          2
   211         13
   212          2
   213          1
   221          1
   222          1
   223          1
   224          4
   225         11
   226          2
   227          1
   234          1
   235          1
   236          1
   237          1
   238          2
   239          8
   240          2
   241          1
   249          1
   250          1
   251          6
   252          3
   253          5
   254          1
   255          1
   256          1
   257          1
   263          1
   264          1
   265          1
   266         18
   267          8
   268          1
   269          1
   277          1
   278          1
   279          1
   280          1
   281          1
   282          1
   294          1
   295          2
   296          1
   305          1
   306          1
   307          1
   308         31
   309         86
   310         20
   311          3
   312          1
   318          1
   319          1
   320          1
   321          1
   322          1
   323          2
   324          1
   325          1
   334          1
   335          1
   336          1
   337          1
   338          1
   364          1
   366          1
   367          1
   368          1