##TITLE=Library Entry 11481
##JCAMP-DX=Revision 4.10 
##DATA TYPE=MASS SPECTRUM
##SAMPLE DESCRIPTION=CARL DJERASSI DEPT OF CHEM STANFORD UNIV STANFORD CALIF
 94305
##NAMES=HP
##CAS NAME=3,4-Secocondyfolan-3-one, 12-[2-(acetyloxy)-1-methoxyethoxy]-16,1
9-epoxy-2-hydroxy-4-methyl-, [12(S),14.beta.,16.beta.,19R]-
##MOLFORM=C24H32N2O7
##CAS REGISTRY NO=55283-38-0
##MP= -300
##BP= -300
##MW= 460
##$RETENTION INDEX=0
##$CONDENSED SPECTRUM=NO
##NPOINTS= 127
##XYDATA=(XY..XY) 1 
    41        350
    42        320
    43        999
    44        380
    45        140
    53         30
    54         30
    55        420
    56         70
    57        460
    58        550
    59         20
    60         50
    67        100
    68         40
    69        240
    70        260
    71        280
    72         20
    73         40
    74         10
    75         60
    76         10
    77         20
    78         10
    79         20
    81        130
    82         70
    83        240
    84        110
    85         60
    91         50
    92         10
    93         50
    94         20
    95         80
    96         80
    97         90
    98         70
    99         30
   100         10
   101         10
   103         20
   104         10
   105         20
   106         10
   109         60
   110         40
   111         90
   112         70
   113         10
   114        140
   115         20
   116         10
   117        940
   118        100
   119         20
   120         10
   122         30
   123         30
   124         40
   125         20
   126         30
   127         20
   128        170
   129         20
   130         10
   131         40
   133         20
   134         10
   135         10
   136         10
   137         10
   138         20
   139         10
   140         30
   141         20
   143         10
   146         40
   147         10
   148         20
   149         50
   154         80
   155         10
   158         10
   159         10
   160         20
   161         10
   162         30
   168         20
   170         60
   172         30
   173         20
   174         30
   175        140
   176         50
   182         30
   186         10
   187         10
   188         30
   196         10
   198         10
   199         20
   200         40
   201         20
   202         50
   217         20
   218         10
   219         10
   244        100
   287        140
   288         20
   343         90
   344         80
   345         10
   355         10
   360         60
   361         70
   391         90
   392         10
   403        620
   404        150
   405         10
   418         70
   460        360
   461         80
   462         10