##TITLE=Library Entry 61958
##JCAMP-DX=Revision 4.10 
##DATA TYPE=MASS SPECTRUM
##SAMPLE DESCRIPTION=CARL DJERASSI DEPT OF CHEM STANFORD UNIV STANFORD CALIF
 94305
##NAMES=HP
##CAS NAME=2-Hexenal, 6-phenyl-, (E)-
##MOLFORM=C12H14O
##CAS REGISTRY NO=55282-87-6
##MP= -300
##BP= -300
##MW= 174
##$RETENTION INDEX=0
##$CONDENSED SPECTRUM=NO
##NPOINTS= 34
##XYDATA=(XY..XY) 1 
    41         60
    50         10
    51         80
    52         10
    53         30
    55         40
    63         40
    65        161
    66         10
    68         10
    70        303
    77        101
    78         60
    79         70
    81         20
    83        393
    84         10
    89         10
    91        999
    92        292
   103         60
   104        282
   105        353
   106         20
   115         20
   117         90
   118         10
   128         30
   129         40
   130        454
   131        101
   145         20
   156         30
   174         30