##TITLE=Library Entry 24314
##JCAMP-DX=Revision 4.10 
##DATA TYPE=MASS SPECTRUM
##SAMPLE DESCRIPTION=Exported from NIST MS Search
##NAMES=HP
##CAS NAME=Hexadecane, 8-hexyl-8-pentyl-
##MOLFORM=C27H56
##CAS REGISTRY NO=55282-29-6
##MP= -300
##BP= -300
##MW= 380
##$RETENTION INDEX=0
##$CONDENSED SPECTRUM=NO
##NPOINTS= 205
##XYDATA=(XY..XY) 1 
    36          2
    37          4
    38          5
    39         60
    40         16
    41        459
    42        132
    43        969
    44         33
    45          2
    46          1
    47          1
    48          1
    49          1
    50          3
    51          4
    52          2
    53         24
    54         27
    55        432
    56        195
    57        999
    58         46
    59          1
    60          1
    61          1
    62          1
    63          1
    64          1
    65          5
    66          4
    67         59
    68         33
    69        271
    70         69
    71        654
    72         38
    73          1
    74          1
    75          1
    76          1
    77          5
    78          2
    79         11
    80          3
    81         33
    82         15
    83        146
    84         33
    85        494
    86         35
    87          2
    88          1
    89          1
    90          1
    91          4
    92          1
    93          4
    94          2
    95         19
    96         10
    97         94
    98         20
    99        156
   100         13
   101          1
   102          1
   103          1
   105          1
   106          1
   107          1
   108          1
   109          7
   110          6
   111         48
   112         26
   113        114
   114         11
   115          1
   116          1
   117          1
   119          1
   120          1
   121          1
   122          1
   123          3
   124          4
   125         21
   126         16
   127         87
   128         10
   129          1
   130          1
   131          1
   132          1
   133          1
   134          1
   135          1
   136          1
   137          2
   138          3
   139         11
   140         12
   141         68
   142          8
   143          1
   144          1
   145          1
   146          1
   147          1
   148          1
   149          1
   150          1
   151          2
   152          1
   153          4
   154          8
   155         57
   156          7
   157          1
   158          1
   159          1
   160          1
   161          1
   162          1
   163          1
   164          1
   165          1
   166          2
   167          4
   168          5
   169         48
   170          7
   171          1
   172          1
   173          1
   174          1
   175          1
   176          1
   177          1
   178          1
   179          1
   180          1
   181          4
   182         10
   183         45
   184          7
   185          1
   186          1
   187          1
   188          1
   193          1
   194          1
   195          4
   196         10
   197         41
   198          6
   199          1
   203          1
   205          1
   206          1
   207          1
   208          1
   209          2
   210         12
   211         35
   212          6
   213          1
   222          1
   223          2
   224          5
   225         25
   226          4
   227          1
   238          4
   239         14
   240          2
   241          1
   252          1
   253          6
   254          1
   265          1
   266         13
   267        166
   268         47
   269          5
   270          1
   279          1
   280         14
   281        193
   282         43
   283          5
   284          1
   293          2
   294         12
   295        171
   296         40
   297          5
   298          1
   307          1
   308         10
   309        159
   310         40
   311          5
   312          1