##TITLE=Library Entry 6752
##JCAMP-DX=Revision 4.10 
##DATA TYPE=MASS SPECTRUM
##SAMPLE DESCRIPTION=R.M.TEETER CHEVRON RESEARCH CO., RICHMOND, CALIF., USA.
##NAMES=HP
##CAS NAME=Cyclohexaneacetic acid, 2,2,3,3,4,4,5,5,6,6,7,7-dodecafluorohepty
l ester
##MOLFORM=C15H16F12O2
##CAS REGISTRY NO=55282-71-8
##MP= -300
##BP= -300
##MW= 456
##$RETENTION INDEX=0
##$CONDENSED SPECTRUM=NO
##NPOINTS= 260
##XYDATA=(XY..XY) 1 
    12          7
    13          0
    14         10
    15         12
    16          4
    17         66
    18        450
    19          0
    20         17
    22          7
    24          0
    25          1
    26         14
    27         74
    28         39
    29        267
    30         26
    31        594
    32          7
    33         15
    34          4
    35          0
    36          2
    37          4
    38         10
    39        106
    40         24
    41        400
    42         98
    43        999
    44        993
    45         23
    46          6
    47          4
    48          5
    49         28
    50         17
    51        335
    52         16
    53         59
    54        135
    55        758
    56         48
    57         12
    58          3
    59          3
    60          7
    61         27
    62          5
    63          8
    64         15
    65         17
    66         14
    67        341
    68          6
    69        123
    70         12
    71          5
    72          2
    73          9
    74         11
    75          8
    76          4
    77         61
    78         40
    79         57
    80         55
    81        199
    82        588
    83        963
    84         48
    85          7
    86          1
    87          1
    88          2
    89          3
    90          1
    91         39
    92         22
    93         18
    94         18
    95         81
    96         34
    97        160
    98         14
    99          2
   100         28
   101         39
   102          4
   103          3
   104          1
   105         45
   106         39
   107          5
   108          2
   109          5
   110          7
   111         11
   112          6
   113         34
   114          2
   115          1
   116          0
   117          1
   118          1
   119         12
   120          8
   121          1
   122          2
   123         19
   124         40
   125        417
   126         28
   127          1
   128          1
   129          1
   130          0
   131        132
   132          4
   133          3
   134          0
   135          1
   136          2
   137          1
   138          0
   139          2
   140          1
   141          3
   142          0
   143          1
   144          1
   145          3
   146          0
   147          0
   148          0
   149          0
   150          1
   151          5
   152          0
   153          2
   154          0
   155          0
   156          0
   157          1
   158          0
   159          0
   160          0
   161          1
   162          2
   163          9
   164          0
   165          0
   166          0
   167          0
   168          0
   169          2
   170          0
   171          0
   173          0
   174          0
   175          3
   176          0
   177          0
   178          0
   179          1
   180          0
   181          7
   182          0
   183          0
   184          0
   185          0
   187          0
   189          0
   191          1
   193          1
   194          0
   195          1
   196          0
   197          0
   201          0
   202          0
   203          0
   204          0
   205          5
   206          0
   207          1
   208          0
   209          0
   211          2
   212          0
   213          2
   222          0
   223          1
   225          0
   226          0
   228          0
   229          0
   230          1
   231          1
   235          0
   241          1
   242          0
   243          1
   245          5
   246          0
   254          0
   261          0
   263          2
   273          0
   274          0
   275          0
   282         10
   283          0
   292          0
   293          0
   306          0
   307          0
   313          0
   324          0
   341          0
   345          0
   354          0
   355          2
   356          0
   358          0
   359          3
   360          0
   371          4
   372          1
   373          1
   374        676
   375        329
   376         26
   377          1
   384          0
   385          3
   386          0
   387          3
   388          0
   393          0
   397          0
   399          3
   400          1
   401          0
   406          1
   411          0
   413         18
   414          2
   415          0
   427          0
   436          0
   437          8
   438          1
   441          0
   450          0
   454          0
   455          0
   456         17
   457          2
   458          0