##TITLE=Library Entry 58331
##JCAMP-DX=Revision 4.10 
##DATA TYPE=MASS SPECTRUM
##SAMPLE DESCRIPTION=R RYHAGE MS-LAB KAROLINSKA INSTITUTET STOCKHOLM SWEDEN
##NAMES=HP
##CAS NAME=9-Octadecene, 1-(2,3-dimethoxypropoxy)-, (Z)-(.+-.)-
##MOLFORM=C23H46O3
##CAS REGISTRY NO=55282-66-1
##MP= -300
##BP= -300
##MW= 370
##$RETENTION INDEX=0
##$CONDENSED SPECTRUM=NO
##NPOINTS= 282
##XYDATA=(XY..XY) 1 
    13          2
    14          4
    15         34
    16          8
    17         41
    18        156
    19          5
    25          4
    26         25
    27        113
    28         79
    29        258
    30         18
    31         63
    32          6
    33         12
    37          4
    38          6
    39         79
    40         20
    41        562
    42        125
    43        487
    44         67
    45        665
    46         16
    47         11
    49          1
    50          5
    51          7
    52          5
    53         52
    54        225
    55        751
    56         15
    57         41
    58        510
    59        688
    60         25
    61         10
    62          1
    63          2
    65         13
    66         30
    67        390
    68        191
    69         64
    70        103
    71        482
    72        180
    73        168
    74        103
    75        115
    76          6
    77         18
    78         11
    79         67
    80         71
    81        373
    82        384
    83        591
    84         74
    85        129
    86         21
    87        115
    88        213
    89        999
    90         50
    91         58
    92          9
    93         42
    94         53
    95        338
    96        367
    97        493
    98         77
    99         39
   100          6
   101         18
   102         11
   103        196
   104         23
   105         12
   106          4
   107         34
   108         43
   109        215
   110        182
   111        235
   112         39
   113         24
   114          5
   115          5
   116          2
   117         12
   118          6
   119         16
   120          5
   121        608
   122         77
   123        144
   124         13
   125        115
   126         20
   127         14
   128         11
   129          8
   130          2
   131          3
   132          1
   133         29
   134          5
   135         68
   136          3
   137         94
   138         94
   139         54
   140         14
   141         17
   142         16
   143          7
   144          2
   145          2
   146          1
   147          6
   148          4
   149         47
   150         24
   151          5
   152         72
   153         41
   154         14
   155         21
   156         10
   157          5
   158          1
   159          6
   160          1
   161          4
   162          3
   163         24
   164         16
   165         40
   166         54
   167         43
   168         14
   169         24
   170          5
   171          4
   172          1
   173          2
   175          4
   176          2
   177         16
   178         11
   179         28
   180         27
   181         31
   182         12
   183         17
   184          4
   185          4
   186          1
   189          2
   190          1
   191          2
   192          9
   193         25
   194         25
   195         44
   196         13
   197          9
   198          4
   199          4
   200          4
   201          2
   202          4
   203          2
   204          1
   205         10
   206          6
   207         20
   208         20
   209         44
   210         12
   211          7
   212          2
   213          3
   215          3
   216          1
   219          8
   220          6
   221         14
   222         29
   223         18
   224          6
   225         10
   226          2
   227          2
   229          1
   231          2
   233          4
   234          2
   235          8
   236          6
   237          7
   238          3
   239         10
   240          2
   241          2
   242          2
   244          1
   245          2
   246          3
   247          8
   248         61
   249         45
   250        275
   251         84
   252         12
   253          8
   254          2
   255          2
   256          1
   257          1
   258          2
   259          2
   260          1
   261          9
   262          6
   263         10
   264          5
   265         22
   266         21
   267         48
   268          9
   269          2
   270          2
   275         20
   276          6
   277          5
   278          7
   279         31
   280         70
   281         44
   282          8
   283          2
   291          4
   292          1
   293        118
   294         28
   295          9
   296          2
   300          2
   301          2
   302          2
   303          2
   304          1
   305          2
   306         20
   307         14
   308          4
   309          4
   310          2
   311         13
   312          8
   313          2
   323          4
   324         28
   325         24
   326          5
   327          1
   337          2
   338         20
   339          6
   340          3
   368          4
   369          2
   370        309
   371         96
   372         14
   373          2