##TITLE=Library Entry 20748
##JCAMP-DX=Revision 4.10 
##DATA TYPE=MASS SPECTRUM
##SAMPLE DESCRIPTION=Exported from NIST MS Search
##NAMES=HP
##CAS NAME=Cyclohexane, 1,1',1'',1'''-(1,6-hexanediylidene)tetrakis-
##MOLFORM=C30H54
##CAS REGISTRY NO=55281-91-9
##MP= -300
##BP= -300
##MW= 414
##$RETENTION INDEX=0
##$CONDENSED SPECTRUM=NO
##NPOINTS= 144
##XYDATA=(XY..XY) 1 
    36          1
    37          2
    38          4
    39         76
    40         16
    41        630
    42         37
    43         76
    44          3
    45          1
    48          1
    49          1
    50          3
    51          7
    52          6
    53         54
    54         90
    55        999
    56         54
    57         28
    58          2
    59          1
    65         14
    66         15
    67        296
    68         56
    69        203
    70         14
    71         13
    72          1
    76          1
    77         21
    78          9
    79         55
    80         30
    81        242
    82        151
    83        864
    84         60
    85          8
    86          1
    91         18
    92          6
    93         27
    94         19
    95        179
    96        128
    97        465
    98         37
    99          3
   100          1
   105          5
   106          3
   107         14
   108         18
   109        178
   110         31
   111        142
   112         14
   113          2
   114          1
   117          2
   118          1
   119          2
   120          2
   121         12
   122         17
   123         66
   124         14
   125         58
   126          7
   127          1
   133          2
   134          2
   135         14
   136          7
   137         53
   138         11
   139         35
   140          5
   141          1
   147          2
   148          2
   149          8
   150         10
   151         50
   152         12
   153         24
   154          3
   155          1
   163          6
   164          4
   165         33
   166          5
   167          7
   168          1
   175          6
   176          3
   177         30
   178        110
   179         83
   180         12
   181          2
   182          1
   191         25
   192          9
   193         32
   194          6
   195          1
   198          2
   199          3
   200          4
   201          3
   202          6
   203          1
   204          2
   205          3
   206          6
   207         29
   208          5
   209          1
   220         10
   221         26
   222          5
   223          1
   233          2
   234         16
   235         90
   236         19
   237          2
   238          1
   246         18
   247         42
   248         82
   249         56
   250         10
   251          1
   330         63
   331         84
   332         20
   333          3
   334          1
   414          1
   415          1