##TITLE=Library Entry 7878
##JCAMP-DX=Revision 4.10 
##DATA TYPE=MASS SPECTRUM
##SAMPLE DESCRIPTION=Exported from NIST MS Search
##NAMES=HP
##CAS NAME=Octadecane, 3-ethyl-5-(2-ethylbutyl)-
##MOLFORM=C26H54
##CAS REGISTRY NO=55282-12-7
##MP= -300
##BP= -300
##MW= 366
##$RETENTION INDEX=0
##$CONDENSED SPECTRUM=NO
##NPOINTS= 317
##XYDATA=(XY..XY) 1 
    37          1
    38          2
    39         41
    40          9
    41        337
    42         73
    43        999
    44         35
    45          3
    46          1
    47          1
    48          5
    49          1
    50          2
    51          4
    52          2
    53         25
    54         28
    55        371
    56        106
    57        701
    58         36
    59          5
    60          1
    61          1
    62          1
    63          1
    64          6
    65          6
    66          3
    67         50
    68         26
    69        215
    70        144
    71        583
    72         33
    73          2
    74          1
    75          1
    76          1
    77          9
    78          3
    79         15
    80          4
    81         36
    82         17
    83        130
    84        130
    85        418
    86         29
    87          1
    88          1
    89          1
    90          1
    91         12
    92          2
    93          9
    94          3
    95         23
    96         13
    97        126
    98         28
    99        134
   100         11
   101          1
   102          1
   103          1
   104          1
   105          8
   106          3
   107          6
   108          2
   109         11
   110          5
   111         46
   112         10
   113        101
   114         10
   115         14
   116          2
   117          3
   118          1
   119          5
   120          3
   121          4
   122          2
   123          6
   124          3
   125         18
   126          6
   127         72
   128          9
   129          4
   130          1
   131          4
   132          2
   133          3
   134          2
   135          2
   136          1
   137          2
   138          1
   139          8
   140          3
   141         43
   142          6
   143          3
   144          2
   145          4
   146          2
   147          4
   148          2
   149          2
   150          1
   151          2
   152          2
   153         13
   154          3
   155         25
   156          4
   157          2
   158          1
   159          3
   160          1
   161          3
   162          1
   163          1
   164          1
   165          2
   166          1
   167          4
   168          2
   169         21
   170          3
   171          2
   172          1
   173          2
   174          2
   175          2
   176          1
   177          1
   178          1
   179          1
   180          1
   181          4
   182         30
   183         73
   184         11
   185          2
   186          1
   187          2
   188          1
   189          1
   190          1
   191          1
   192          1
   193          1
   194          1
   195          2
   196          3
   197         15
   198          3
   199          2
   200          1
   201          1
   202          1
   203          1
   204          1
   205          1
   206          1
   207          1
   208          1
   209          2
   210          3
   211         13
   212          3
   213          3
   214          1
   215          1
   216          1
   217          1
   218          1
   219          1
   220          1
   221          1
   222          1
   223          1
   224          3
   225         10
   226          3
   227          2
   228          2
   229          1
   230          1
   231          1
   232          1
   233          1
   234          1
   235          1
   236          1
   237          1
   238          1
   239          6
   240          2
   241          1
   242          1
   243          1
   244          1
   245          1
   246          1
   247          1
   248          1
   249          1
   250          2
   251          8
   252          4
   253          5
   254          2
   255          3
   256          2
   257          1
   258          1
   259          1
   260          1
   261          1
   262          1
   263          1
   264          1
   265          2
   266          1
   267          3
   268          2
   269          1
   270          1
   271          1
   272          1
   273          1
   274          1
   275          1
   276          1
   277          1
   278          1
   279          3
   280         18
   281         65
   282         19
   283         11
   284          8
   285          2
   286          1
   287          1
   288          1
   289          1
   290          1
   291          1
   292          1
   293          2
   294          4
   295         13
   296          6
   297          2
   298          1
   299          1
   300          1
   301          1
   302          1
   303          1
   304          1
   305          1
   306          1
   307          3
   308          2
   309          2
   310          5
   311          2
   312          1
   313          1
   314          1
   315          1
   316          1
   317          1
   318          1
   319          1
   320          2
   321          2
   322          1
   323          3
   324          1
   325          1
   326          1
   327          1
   328          1
   329          1
   330          1
   331          1
   332          1
   333          2
   334          1
   335          3
   336          3
   337         15
   338         12
   339          3
   340          1
   341          1
   342          1
   344          1
   345          1
   346          1
   347          1
   348          1
   349          1
   350          1
   351          1
   352          1
   364          2
   365          1