##TITLE=Library Entry 7884
##JCAMP-DX=Revision 4.10 
##DATA TYPE=MASS SPECTRUM
##SAMPLE DESCRIPTION=Exported from NIST MS Search
##NAMES=HP
##CAS NAME=Docosane, 7-butyl-
##MOLFORM=C26H54
##CAS REGISTRY NO=55282-15-0
##MP= -300
##BP= -300
##MW= 366
##$RETENTION INDEX=0
##$CONDENSED SPECTRUM=NO
##NPOINTS= 153
##XYDATA=(XY..XY) 1 
    37          1
    38          1
    39         37
    40          9
    41        412
    42        103
    43        999
    44         33
    45          1
    50          1
    51          1
    52          1
    53         16
    54         33
    55        344
    56        152
    57        938
    58         42
    59          1
    62          1
    65          2
    66          2
    67         31
    68         26
    69        177
    70         88
    71        542
    72         30
    73          1
    76          1
    77          2
    78          1
    79          3
    80          1
    81         14
    82         21
    83        113
    84         52
    85        408
    86         27
    87          1
    91          1
    92          1
    93          1
    94          1
    95          6
    96         11
    97         74
    98         27
    99         96
   100          7
   101          1
   104          1
   105          1
   106          1
   107          1
   109          2
   110          5
   111         35
   112         16
   113         53
   114          5
   115          1
   116          1
   117          2
   118          1
   119          1
   123          1
   124          3
   125         16
   126         15
   127         27
   128          3
   129          1
   130          1
   137          1
   138          2
   139          4
   140          6
   141         19
   142          2
   143          1
   151          1
   152          1
   153          3
   154        114
   155         63
   156          7
   157          1
   166          1
   167          2
   168          5
   169         12
   170          2
   180          1
   181          1
   182          3
   183         10
   184          1
   194          1
   195          1
   196          2
   197          8
   198          1
   199          1
   200          1
   201          1
   202          1
   203          1
   208          1
   209          1
   210          2
   211          6
   212          1
   221          1
   222          1
   223          1
   224          1
   225          5
   226          1
   236          1
   237          1
   238          1
   239          4
   240          1
   250          1
   251          1
   252          2
   253          3
   254          1
   265          1
   266          1
   267          2
   268          1
   280         29
   281         33
   282          6
   283          1
   284          1
   285          1
   294          2
   295          3
   296          1
   308         23
   309         39
   310          9
   311          1
   322          1
   323          1
   324          1
   336          1
   337          1
   338          1