##TITLE=Library Entry 59156
##JCAMP-DX=Revision 4.10 
##DATA TYPE=MASS SPECTRUM
##SAMPLE DESCRIPTION=CARL DJERASSI DEPT OF CHEM STANFORD UNIV STANFORD CALIF
 94305
##NAMES=HP
##CAS NAME=3-Nonen-2-one, 9-phenyl-, (E)-
##MOLFORM=C15H20O
##CAS REGISTRY NO=55282-82-1
##MP= -300
##BP= -300
##MW= 216
##$RETENTION INDEX=0
##$CONDENSED SPECTRUM=NO
##NPOINTS= 55
##XYDATA=(XY..XY) 1 
    41         80
    43        890
    44         20
    51         10
    52         30
    53         10
    54         30
    55         10
    56         90
    63         20
    65        100
    66         20
    67         50
    69         50
    71         80
    78         70
    79         20
    80         50
    81         10
    82         20
    84         50
    91        999
    92        140
    94         10
    95        110
    96         10
    97        290
    98         10
    99         10
   103         20
   104        240
   105        110
   111         40
   115         20
   116         10
   117        200
   118         30
   125         70
   128         10
   129        330
   130         30
   131         70
   132         10
   134         10
   143         30
   144         20
   156         60
   157         10
   158        120
   159         10
   169         10
   171         10
   198         20
   216         70
   217         10