##TITLE=Library Entry 61959
##JCAMP-DX=Revision 4.10 
##DATA TYPE=MASS SPECTRUM
##SAMPLE DESCRIPTION=CARL DJERASSI DEPT OF CHEM STANFORD UNIV STANFORD CALIF
 94305
##NAMES=HP
##CAS NAME=2-Pentenoic acid, 5-phenyl-, ethyl ester, (E)-
##MOLFORM=C13H16O2
##CAS REGISTRY NO=55282-95-6
##MP= -300
##BP= -300
##MW= 204
##$RETENTION INDEX=0
##$CONDENSED SPECTRUM=NO
##NPOINTS= 17
##XYDATA=(XY..XY) 1 
    51         20
    63         10
    65         50
    72         20
    77         10
    91        999
    92         80
   104         20
   115         10
   116         20
   117         20
   129         20
   130        100
   131         30
   158         40
   159         70
   204         20