##TITLE=Library Entry 7407
##JCAMP-DX=Revision 4.10 
##DATA TYPE=MASS SPECTRUM
##SAMPLE DESCRIPTION=CARL DJERASSI DEPT OF CHEM STANFORD UNIV STANFORD CALIF
 94305
##NAMES=HP
##CAS NAME=3,8-Nonadien-2-one, (E)-
##MOLFORM=C9H14O
##CAS REGISTRY NO=55282-90-1
##MP= -300
##BP= -300
##MW= 138
##$RETENTION INDEX=0
##$CONDENSED SPECTRUM=NO
##NPOINTS= 36
##XYDATA=(XY..XY) 1 
    41        290
    42         20
    43        999
    44         30
    50         10
    51         30
    52         20
    53        160
    54         70
    55        700
    56         20
    65         30
    66         20
    67        220
    68         70
    69        120
    70         60
    77         40
    78         20
    79        100
    80        350
    81        290
    82         40
    83         20
    84        150
    93         30
    94         50
    95        400
    96         80
    97        150
   109         40
   110         30
   123        160
   124         20
   137         30
   138         40