##TITLE=Library Entry 58003
##JCAMP-DX=Revision 4.10 
##DATA TYPE=MASS SPECTRUM
##SAMPLE DESCRIPTION=R. RYHAGE KAROLINSKA INSTITUTET, STOCKHOLM
##NAMES=HP
##CAS NAME=Heneicosanoic acid, 2,4-dimethyl-, methyl ester
##MOLFORM=C24H48O2
##CAS REGISTRY NO=55282-08-1
##MP= -300
##BP= -300
##MW= 368
##$RETENTION INDEX=0
##$CONDENSED SPECTRUM=NO
##NPOINTS= 153
##XYDATA=(XY..XY) 1 
    26          5
    27         44
    28         45
    29         83
    30         28
    31         19
    32         15
    33          3
    38          4
    39         51
    40         14
    41        290
    42         72
    43        360
    44        280
    45         30
    46          4
    50          4
    51          6
    52          4
    53         23
    54         25
    55        380
    56        120
    57        330
    58         21
    59        150
    60          8
    61          4
    65          6
    66          4
    67         50
    68         47
    69        390
    70         93
    71        150
    72         15
    73         63
    74        210
    75         21
    76          5
    77          8
    78          8
    79         12
    80          4
    81         41
    82         36
    83        180
    84         43
    85         87
    86          7
    87        130
    88        999
    89         60
    90          7
    91          7
    92          4
    93         11
    94          5
    95         27
    96         16
    97         57
    98         24
    99         33
   100          6
   101        680
   102         58
   103          7
   107          6
   108          3
   109         20
   110         31
   111         64
   112         28
   113         26
   114         18
   115         16
   116          5
   119          3
   120          3
   121          6
   122          3
   123          7
   124          4
   125         17
   126          9
   127         15
   128         10
   129        180
   130         16
   131          3
   135          4
   137          9
   138         85
   139         24
   140          4
   141          9
   142         16
   143         32
   144          6
   151          3
   152          3
   153         12
   154          2
   155          9
   157         10
   158          2
   163          2
   167         10
   169          7
   170          7
   171          2
   172          7
   177          2
   181          2
   183          7
   185          4
   197          5
   199          6
   211          4
   213          3
   223          2
   225          4
   227          4
   239          3
   241          3
   255          3
   269          2
   270          4
   279          5
   280          4
   281         18
   282          4
   283          3
   294          3
   297        110
   298         29
   299          5
   309          9
   310          3
   321          2
   325         51
   326         13
   327          9
   335          3
   336          2
   337         11
   338          3
   353          4
   367          3
   368         94
   369         29
   370          5