##TITLE=Library Entry 7882
##JCAMP-DX=Revision 4.10 
##DATA TYPE=MASS SPECTRUM
##SAMPLE DESCRIPTION=Exported from NIST MS Search
##NAMES=HP
##CAS NAME=Docosane, 9-butyl-
##MOLFORM=C26H54
##CAS REGISTRY NO=55282-14-9
##MP= -300
##BP= -300
##MW= 366
##$RETENTION INDEX=0
##$CONDENSED SPECTRUM=NO
##NPOINTS= 160
##XYDATA=(XY..XY) 1 
    36          1
    37          2
    38          4
    39         56
    40         13
    41        465
    42        119
    43        999
    44         33
    45          1
    49          1
    50          1
    51          2
    52          2
    53         19
    54         39
    55        369
    56        170
    57        962
    58         42
    59          1
    62          1
    63          1
    65          3
    66          3
    67         39
    68         28
    69        197
    70        102
    71        576
    72         32
    73          1
    76          1
    77          2
    78          1
    79          5
    80          2
    81         17
    82         23
    83        128
    84         51
    85        401
    86         25
    87          1
    91          2
    92          1
    93          1
    94          1
    95          8
    96         14
    97         84
    98         30
    99        110
   100          8
   101          1
   105          1
   106          1
   107          1
   108          1
   109          3
   110          8
   111         42
   112         20
   113         75
   114          6
   115          1
   117          1
   119          1
   123          1
   124          5
   125         23
   126         12
   127         54
   128          5
   129          1
   130          1
   135          1
   137          1
   138          4
   139         11
   140          9
   141         35
   142          4
   143          1
   152          2
   153          6
   154         20
   155         26
   156          3
   157          1
   160          1
   165          1
   166          2
   167          3
   168          7
   169         19
   170          3
   171          1
   180          1
   181          3
   182        132
   183         91
   184         11
   185          1
   194          1
   195          2
   196          2
   197         14
   198          2
   199          1
   208          1
   209          2
   210          4
   211         10
   212          2
   222          1
   223          1
   224          5
   225          7
   226          1
   227          1
   236          1
   237          1
   238          3
   239          6
   240          1
   250          1
   251          1
   252         67
   253         66
   254         12
   255          1
   264          1
   265          1
   266          3
   267          5
   268          1
   269          1
   279          1
   280          6
   281          6
   282          1
   294          3
   295          4
   296          1
   307          1
   308         51
   309         92
   310         21
   311          3
   312          1
   322          1
   323          2
   324          1
   336          1
   337          1
   338          1
   364          1
   365          1
   366          1