##TITLE=Library Entry 34195
##JCAMP-DX=Revision 4.10 
##DATA TYPE=MASS SPECTRUM
##SAMPLE DESCRIPTION=CARL DJERASSI DEPT OF CHEM STANFORD UNIV STANFORD CALIF
 94305
##NAMES=HP
##CAS NAME=2,8-Decadienoic acid, 3,5,9-trimethyl-, methyl ester, (E)-
##MOLFORM=C14H24O2
##CAS REGISTRY NO=55283-32-4
##MP= -300
##BP= -300
##MW= 224
##$RETENTION INDEX=0
##$CONDENSED SPECTRUM=NO
##NPOINTS= 48
##XYDATA=(XY..XY) 1 
    41        670
    42         50
    43        120
    53        140
    54         40
    55        510
    56         50
    57         30
    58        120
    67        180
    68         80
    69        999
    70         60
    77         30
    79         50
    80         20
    81        160
    82        200
    83        220
    93         50
    94         50
    95        300
    96         40
    99         20
   107        140
   108         30
   109        370
   110         90
   111         20
   114        250
   115         20
   121         30
   122         20
   123         50
   125         80
   135         40
   139        140
   141         80
   149         20
   150        270
   151         30
   164         30
   165         20
   181         30
   191         20
   192         10
   209         30
   224         20