##TITLE=Library Entry 7887
##JCAMP-DX=Revision 4.10 
##DATA TYPE=MASS SPECTRUM
##SAMPLE DESCRIPTION=Exported from NIST MS Search
##NAMES=HP
##CAS NAME=Docosane, 5-butyl-
##MOLFORM=C26H54
##CAS REGISTRY NO=55282-16-1
##MP= -300
##BP= -300
##MW= 366
##$RETENTION INDEX=0
##$CONDENSED SPECTRUM=NO
##NPOINTS= 183
##XYDATA=(XY..XY) 1 
    36          1
    37          3
    38          5
    39         65
    40         15
    41        465
    42        110
    43        999
    44         32
    45          1
    49          1
    50          3
    51          4
    52          2
    53         21
    54         37
    55        380
    56        176
    57        901
    58         12
    59          1
    61          1
    62          1
    63          1
    64          1
    65          3
    66          3
    67         33
    68         30
    69        199
    70        112
    71        646
    72         35
    73          1
    74          1
    75          1
    76          1
    77          3
    78          1
    79          6
    80          2
    81         20
    82         28
    83        141
    84         61
    85        423
    86         27
    87          1
    89          1
    91          4
    92          1
    93          2
    94          1
    95         10
    96         15
    97        100
    98         33
    99         77
   100          6
   101          1
   102          1
   103          1
   104          1
   105          2
   106          1
   107          1
   108          1
   109          4
   110          6
   111         35
   112         16
   113         48
   114          4
   115          1
   116          1
   117          1
   118          1
   119          1
   120          1
   121          1
   122          1
   123          2
   124          4
   125         17
   126        221
   127        100
   128          9
   129          1
   130          1
   131          1
   132          1
   133          1
   135          1
   136          1
   137          1
   138          3
   139          7
   140         13
   141         28
   142          4
   143          1
   144          1
   145          1
   151          1
   152          2
   153          5
   154          6
   155         20
   156          3
   157          1
   165          1
   166          1
   167          3
   168          4
   169         16
   170          2
   171          1
   179          1
   180          1
   181          2
   182          3
   183         13
   184          2
   185          1
   194          1
   195          2
   196          2
   197         11
   198          2
   199          1
   208          1
   209          2
   210          2
   211         10
   212          2
   222          1
   223          1
   224          2
   225          8
   226          2
   227          1
   236          1
   237          1
   238          4
   239          7
   240          2
   250          1
   251          1
   252          1
   253          5
   254          1
   264          1
   265          1
   266          1
   267          3
   268          1
   278          1
   279          1
   280          4
   281          2
   282          1
   293          1
   294          3
   295          4
   296          1
   306          1
   307          1
   308         86
   309        129
   310         28
   311          3
   312          1
   322          3
   323          5
   324          1
   325          1
   336          1
   337          2
   338          1
   358          1
   364          1
   365          1
   366          1