##TITLE=Library Entry 19504
##JCAMP-DX=Revision 4.10 
##DATA TYPE=MASS SPECTRUM
##SAMPLE DESCRIPTION=CARL DJERASSI DEPT OF CHEM STANFORD UNIV STANFORD CALIF
 94305
##NAMES=HP
##CAS NAME=2,6-Decadienoic acid, 3-methyl-, ethyl ester, (E,E)-
##MOLFORM=C13H22O2
##CAS REGISTRY NO=55283-33-5
##MP= -300
##BP= -300
##MW= 210
##$RETENTION INDEX=0
##$CONDENSED SPECTRUM=NO
##NPOINTS= 66
##XYDATA=(XY..XY) 1 
    41        580
    42         30
    43        160
    51         20
    52         10
    53        110
    54        120
    55        999
    56         60
    57         10
    59         10
    65         30
    66         10
    67        150
    68         20
    69         50
    71         20
    77         50
    78         10
    79         90
    80         30
    81        210
    82        260
    83        430
    84         20
    85         50
    91         40
    92         10
    93        100
    94         30
    95        100
    96         20
    99         30
   100        390
   101         30
   105         10
   107         60
   108         10
   109         20
   111         30
   112         10
   113         60
   114         10
   121         20
   122         20
   123         10
   125         30
   127         10
   128        560
   129         50
   135         20
   136         80
   137        170
   138         20
   139         50
   153         40
   154         10
   164         20
   165        180
   166         20
   167         10
   181         20
   195         10
   196         10
   210         30
   211         10