##TITLE=Library Entry 7864
##JCAMP-DX=Revision 4.10 
##DATA TYPE=MASS SPECTRUM
##SAMPLE DESCRIPTION=Exported from NIST MS Search
##NAMES=HP
##CAS NAME=Docosane, 10-ethyl-10-propyl-
##MOLFORM=C27H56
##CAS REGISTRY NO=55282-31-0
##MP= -300
##BP= -300
##MW= 380
##$RETENTION INDEX=0
##$CONDENSED SPECTRUM=NO
##NPOINTS= 215
##XYDATA=(XY..XY) 1 
    36          2
    37          4
    38          5
    39         62
    40         17
    41        477
    42        113
    43        999
    44         35
    45          2
    46          1
    47          2
    48          1
    49          1
    50          3
    51          4
    52          3
    53         24
    54         30
    55        448
    56        148
    57        946
    58         44
    59          2
    60          1
    61          1
    62          1
    63          2
    64          1
    65          4
    66          4
    67         53
    68         26
    69        282
    70        161
    71        623
    72         36
    73          1
    74          1
    75          1
    76          1
    77          5
    78          2
    79          8
    80          3
    81         30
    82         16
    83        152
    84         63
    85        474
    86         33
    87          1
    88          1
    89          1
    90          1
    91          3
    92          1
    93          3
    94          2
    95         18
    96          8
    97         95
    98         79
    99        156
   100         13
   101          1
   102          1
   103          1
   104          1
   105          1
   106          1
   107          1
   108          1
   109          7
   110          5
   111         45
   112         12
   113        104
   114         10
   115          2
   116          1
   117          1
   118          1
   119          1
   120          1
   121          1
   122          1
   123          3
   124          2
   125         19
   126          6
   127         82
   128          9
   129          1
   130          1
   131          1
   132          1
   133          1
   134          1
   135          1
   136          1
   137          2
   138          1
   139          7
   140          3
   141         66
   142          8
   143          1
   144          1
   145          1
   146          1
   147          1
   148          1
   149          1
   150          1
   151          1
   152          2
   153          8
   154          6
   155         54
   156          7
   157          1
   163          1
   165          1
   166          1
   167          7
   168          5
   169         42
   170          6
   171          1
   177          1
   178          1
   179          1
   180          1
   181          6
   182          5
   183         29
   184          4
   185          1
   190          1
   191          1
   192          1
   193          1
   194          1
   195          3
   196          3
   197         23
   198          4
   199          1
   205          1
   207          1
   208          1
   209          5
   210         36
   211        235
   212         39
   213          3
   214          1
   221          1
   222          1
   223          4
   224          4
   225         13
   226          2
   227          1
   235          1
   236          1
   237          1
   238          2
   239         11
   240          2
   241          1
   249          1
   250          1
   251          1
   252         21
   253        151
   254         30
   255          1
   256          1
   265          1
   266          1
   267          9
   268          2
   269          1
   279          1
   280          1
   281          6
   282          2
   283          1
   294          1
   295          5
   296          1
   306          1
   307          1
   308          1
   309          3
   310          1
   323          1
   334          1
   335          1
   336          7
   337        102
   338         27
   339          4
   340          1
   347          1
   348          1
   349          2
   350          5
   351        102
   352         29
   353          4
   354          1
   365          1