##TITLE=Library Entry 24301
##JCAMP-DX=Revision 4.10 
##DATA TYPE=MASS SPECTRUM
##SAMPLE DESCRIPTION=Exported from NIST MS Search
##NAMES=HP
##CAS NAME=Octadecane, 9-ethyl-9-heptyl-
##MOLFORM=C27H56
##CAS REGISTRY NO=55282-27-4
##MP= -300
##BP= -300
##MW= 380
##$RETENTION INDEX=0
##$CONDENSED SPECTRUM=NO
##NPOINTS= 198
##XYDATA=(XY..XY) 1 
    36          2
    37          4
    38          5
    39         62
    40         17
    41        486
    42        124
    43        980
    44         34
    45          2
    46          1
    47          1
    48          1
    49          1
    50          3
    51          4
    52          3
    53         24
    54         27
    55        443
    56        136
    57        999
    58         46
    59          1
    60          1
    61          1
    62          1
    63          1
    64          1
    65          4
    66          3
    67         57
    68         25
    69        271
    70        173
    71        677
    72         39
    73          1
    74          1
    75          1
    76          1
    77          5
    78          1
    79          9
    80          3
    81         30
    82         18
    83        150
    84         36
    85        497
    86         35
    87          1
    88          1
    89          1
    90          1
    91          3
    92          1
    93          3
    94          2
    95         18
    96          9
    97         94
    98         18
    99        153
   100         12
   101          1
   102          1
   103          1
   104          1
   105          1
   106          1
   107          1
   108          1
   109          7
   110          4
   111         41
   112         13
   113        107
   114         10
   115          1
   116          1
   117          1
   118          1
   119          1
   120          1
   121          1
   122          1
   123          2
   124          3
   125         26
   126          9
   127         81
   128          9
   129          1
   131          1
   132          1
   133          1
   134          1
   135          1
   136          1
   137          1
   138          3
   139         18
   140         11
   141         66
   142          7
   143          1
   145          1
   146          1
   147          1
   149          1
   151          1
   152          3
   153         13
   154         18
   155         60
   156          7
   157          1
   159          1
   160          1
   163          1
   164          1
   165          1
   166          1
   167          5
   168         12
   169         52
   170          7
   171          1
   179          1
   180          1
   181          2
   182          8
   183         45
   184          7
   185          1
   193          1
   194          1
   195          1
   196          1
   197         34
   198          5
   199          1
   203          1
   205          1
   207          1
   208          1
   209          1
   210          1
   211         25
   212          4
   213          1
   222          1
   223          3
   224          3
   225         16
   226          3
   227          1
   236          1
   237          2
   238          3
   239         11
   240          2
   241          1
   249          1
   250          1
   251          3
   252         27
   253        222
   254         45
   255          4
   256          1
   265          1
   266         22
   267        196
   268         42
   269          4
   270          1
   277          1
   278          1
   279          1
   280         18
   281        173
   282         39
   283          4
   284          1
   295          2
   296          1
   309          1
   310          1
   323          1
   337          1
   349          1
   350          5
   351        113
   352         32
   353          4
   354          1