##TITLE=Library Entry 24307
##JCAMP-DX=Revision 4.10 
##DATA TYPE=MASS SPECTRUM
##SAMPLE DESCRIPTION=Exported from NIST MS Search
##NAMES=HP
##CAS NAME=Heptadecane, 8,8-dipentyl-
##MOLFORM=C27H56
##CAS REGISTRY NO=55282-28-5
##MP= -300
##BP= -300
##MW= 380
##$RETENTION INDEX=0
##$CONDENSED SPECTRUM=NO
##NPOINTS= 231
##XYDATA=(XY..XY) 1 
    36          2
    37          4
    38          6
    39         63
    40         17
    41        467
    42        130
    43        974
    44         28
    45          2
    46          1
    47          1
    48          1
    49          1
    50          3
    51          4
    52          3
    53         24
    54         28
    55        434
    56        189
    57        999
    58         45
    59          2
    60          1
    61          1
    62          1
    63          1
    64          1
    65          5
    66          4
    67         60
    68         32
    69        276
    70         73
    71        645
    72         37
    73          1
    74          1
    75          1
    76          1
    77          5
    78          2
    79         12
    80          3
    81         36
    82         16
    83        147
    84         34
    85        486
    86         34
    87          2
    88          1
    89          1
    90          1
    91          4
    92          1
    93          5
    94          2
    95         22
    96         13
    97        101
    98         18
    99        155
   100         13
   101          1
   102          1
   103          1
   104          1
   105          1
   106          1
   107          2
   108          1
   109          9
   110          5
   111         42
   112         36
   113        118
   114         11
   115          1
   116          1
   117          1
   118          1
   119          1
   120          1
   121          1
   122          1
   123          4
   124          4
   125         23
   126         10
   127         87
   128          9
   129          1
   130          1
   131          1
   132          1
   133          1
   134          1
   135          1
   136          1
   137          2
   138          2
   139          6
   140         13
   141         72
   142          8
   143          1
   144          1
   145          1
   146          1
   147          1
   148          1
   149          1
   150          1
   151          2
   152          3
   153         10
   154          5
   155         59
   156          8
   157          1
   158          1
   159          1
   160          1
   161          1
   162          1
   163          1
   164          1
   165          2
   166          2
   167          3
   168         14
   169         54
   170          7
   171          1
   175          1
   176          1
   177          1
   178          1
   179          1
   180          2
   181          5
   182          5
   183         46
   184          7
   185          1
   186          1
   187          1
   188          1
   189          1
   191          1
   192          1
   193          1
   194          1
   195          1
   196         13
   197         41
   198          6
   199          1
   203          1
   205          1
   206          1
   207          1
   208          2
   209          4
   210          3
   211         30
   212          5
   213          1
   221          1
   222          1
   223          1
   224          9
   225         24
   226          4
   227          1
   235          1
   236          1
   237          1
   238          1
   239         14
   240          3
   241          1
   249          1
   250          1
   251          1
   252         17
   253        170
   254         33
   255          3
   256          1
   263          1
   265          1
   266          1
   267          4
   268          1
   269          1
   275          1
   276          1
   277          5
   278          1
   279          2
   280         13
   281        164
   282         38
   283          4
   284          1
   291          1
   294          1
   295          1
   296          1
   303          1
   304          1
   305          6
   306          2
   307          3
   308         19
   309        273
   310         68
   311          9
   312          1
   313          1
   319          1
   323          1
   324          1
   351          1
   378          1
   379          1
   380          1
   381          1