##TITLE=Library Entry 58869
##JCAMP-DX=Revision 4.10 
##DATA TYPE=MASS SPECTRUM
##SAMPLE DESCRIPTION=Japan AIST/NIMC Database- Spectrum MS-NW-9913
##NAMES=HP
##CAS NAME=Benzene, 1-bromo-2-methyl-3-nitro-
##MOLFORM=C7H6BrNO2
##CAS REGISTRY NO=55289-35-5
##MP= -300
##BP= -300
##MW= 215
##$RETENTION INDEX=1346
##$CONDENSED SPECTRUM=NO
##NPOINTS= 126
##XYDATA=(XY..XY) 1 
    26          5
    27          9
    28          8
    29          4
    30         12
    31          2
    36          1
    37         12
    38         31
    39        110
    40         12
    41          5
    42          1
    43         13
    44          3
    45          4
    46          1
    48          1
    49          8
    50         51
    51         84
    52         24
    53          7
    55          1
    57          2
    58          1
    59          1
    60          2
    61         26
    62         86
    63        299
    64         82
    65         22
    66          2
    73          6
    74         26
    75         43
    76         20
    77        107
    78        169
    79         14
    80          7
    81          3
    82          7
    83          5
    84          3
    85         10
    86         22
    87         21
    88         16
    89        546
    90        999
    91        302
    92         51
    93          4
    95          1
    99          5
   101          1
   102          1
   103          1
   104          3
   105         10
   106         22
   107          4
   108          2
   111         23
   112         20
   113          2
   114          1
   116          1
   117         14
   118          6
   119        235
   120         19
   121          3
   125          2
   126          4
   127          1
   128          2
   129          2
   130          2
   131          4
   133          2
   139          3
   140          5
   141          2
   142          2
   143         50
   144          5
   145         46
   146          6
   148          1
   154          9
   155          4
   156          7
   157          9
   158          4
   159          5
   160          1
   167          1
   168         10
   169         95
   170        203
   171        116
   172        189
   173         22
   174          2
   175          4
   177          2
   182          1
   183          1
   184          2
   185          7
   186          2
   187          6
   197          1
   198        741
   199         62
   200        727
   201         61
   202          3
   215        141
   216         11
   217        137
   218         10
   219          1