##TITLE=Library Entry 21149
##JCAMP-DX=Revision 4.10 
##DATA TYPE=MASS SPECTRUM
##SAMPLE DESCRIPTION=CARL DJERASSI DEPT OF CHEM STANFORD UNIV STANFORD CALIF
 94305
##NAMES=HP
##CAS NAME=2,6-Nonadienoic acid, 7-ethyl-3-methyl-, methyl ester, (E)-
##MOLFORM=C13H22O2
##CAS REGISTRY NO=55283-21-1
##MP= -300
##BP= -300
##MW= 210
##$RETENTION INDEX=0
##$CONDENSED SPECTRUM=NO
##NPOINTS= 29
##XYDATA=(XY..XY) 1 
    41        120
    43         40
    53         40
    54         20
    55        999
    56         50
    59         10
    67         40
    69         50
    77         20
    79         20
    81         20
    82         40
    83         70
    91         20
    93         20
    96         30
    97        300
    98         30
   114        280
   115         20
   127         20
   136         30
   139         20
   150         30
   151         50
   178         30
   179         50
   210         10