##TITLE=Library Entry 24324
##JCAMP-DX=Revision 4.10 
##DATA TYPE=MASS SPECTRUM
##SAMPLE DESCRIPTION=Exported from NIST MS Search
##NAMES=HP
##CAS NAME=Tetracosane, 5-ethyl-5-methyl-
##MOLFORM=C27H56
##CAS REGISTRY NO=55282-30-9
##MP= -300
##BP= -300
##MW= 380
##$RETENTION INDEX=0
##$CONDENSED SPECTRUM=NO
##NPOINTS= 210
##XYDATA=(XY..XY) 1 
    36          2
    37          3
    38          4
    39         54
    40         14
    41        409
    42         96
    43        855
    44         30
    45          4
    46          1
    47          1
    48          1
    49          1
    50          3
    51          3
    52          2
    53         21
    54         27
    55        378
    56        153
    57        999
    58         46
    59          2
    60          1
    61          1
    62          1
    63          1
    64          1
    65          3
    66          3
    67         35
    68         23
    69        204
    70        215
    71        709
    72         40
    73          2
    74          1
    75          1
    76          1
    77          3
    78          1
    79          5
    80          2
    81         20
    82         16
    83        149
    84         44
    85        270
    86         19
    87          1
    88          1
    89          1
    90          1
    91          2
    92          1
    93          2
    94          1
    95         10
    96          7
    97         72
    98         19
    99         82
   100          7
   101          1
   102          1
   103          1
   104          1
   105          1
   106          1
   107          1
   108          1
   109          4
   110          3
   111         31
   112        211
   113        588
   114         53
   115          3
   116          1
   117          1
   119          1
   120          1
   121          1
   122          1
   123          2
   124          1
   125         10
   126          4
   127         43
   128          5
   129          1
   130          1
   131          1
   132          1
   133          1
   134          1
   135          1
   136          1
   137          1
   138          1
   139          4
   140          2
   141         34
   142          4
   143          1
   144          1
   145          1
   146          1
   147          1
   151          1
   152          1
   153          2
   154          1
   155         28
   156          4
   157          1
   158          1
   163          1
   164          1
   165          1
   166          1
   167          2
   168          1
   169         24
   170          3
   171          1
   177          1
   179          1
   180          1
   181          1
   182          1
   183         20
   184          3
   185          1
   193          1
   194          1
   195          1
   196          1
   197         18
   198          3
   199          1
   208          1
   209          1
   210          1
   211         16
   212          3
   213          1
   222          1
   223          1
   224          1
   225         14
   226          3
   227          1
   237          1
   238          1
   239         13
   240          2
   251          1
   252          1
   253         13
   254          3
   255          1
   264          1
   265          1
   266          1
   267         11
   268          3
   269          1
   270          1
   271          1
   272          1
   273          1
   274          1
   275          1
   276          1
   277          1
   278          1
   279          1
   280          1
   281          7
   282          2
   283          1
   292          3
   293          7
   294          3
   295          4
   296          1
   308          3
   309          3
   310          1
   320          1
   321          1
   322         18
   323        101
   324         26
   325          3
   326          1
   336          1
   337          1
   338          1
   349          1
   350          9
   351        115
   352         32
   353          5
   354          1
   365          5
   366          1