##TITLE=Library Entry 60769
##JCAMP-DX=Revision 4.10 
##DATA TYPE=MASS SPECTRUM
##SAMPLE DESCRIPTION=CARL DJERASSI DEPT OF CHEM STANFORD UNIV STANFORD CALIF
 94305
##NAMES=HP
##CAS NAME=4-Octen-3-one, 8-phenyl-, (E)-
##MOLFORM=C14H18O
##CAS REGISTRY NO=55282-86-5
##MP= -300
##BP= -300
##MW= 202
##$RETENTION INDEX=0
##$CONDENSED SPECTRUM=NO
##NPOINTS= 45
##XYDATA=(XY..XY) 1 
    41         60
    43         40
    51         30
    53         30
    55        100
    57        250
    58         10
    63         10
    65         80
    67        100
    68         10
    69         60
    77         70
    78         20
    79         40
    81         40
    83         10
    85         10
    87         20
    89         10
    91        999
    92         80
    95         10
    98        470
    99         20
   103         20
   104         70
   105        100
   107        170
   108         10
   111        170
   112         10
   115         20
   117         40
   128         30
   129         80
   130        390
   131        200
   132         20
   143         10
   145        100
   146         10
   155         20
   173         50
   184         10