##TITLE=Library Entry 7875
##JCAMP-DX=Revision 4.10 
##DATA TYPE=MASS SPECTRUM
##SAMPLE DESCRIPTION=Exported from NIST MS Search
##NAMES=HP
##CAS NAME=Heneicosane, 11-(1-ethylpropyl)-
##MOLFORM=C26H54
##CAS REGISTRY NO=55282-11-6
##MP= -300
##BP= -300
##MW= 366
##$RETENTION INDEX=0
##$CONDENSED SPECTRUM=NO
##NPOINTS= 196
##XYDATA=(XY..XY) 1 
    37          2
    38          3
    39         43
    40         10
    41        374
    42         87
    43        999
    44         34
    45          1
    46          1
    47          1
    48          1
    49          1
    50          2
    51          3
    52          2
    53         18
    54         32
    55        353
    56        125
    57        873
    58         39
    59          1
    60          1
    61          1
    62          1
    63          1
    64          2
    65          3
    66          3
    67         40
    68         28
    69        182
    70        393
    71        621
    72         34
    73          1
    74          1
    75          1
    76          1
    77          4
    78          1
    79          6
    80          3
    81         20
    82         29
    83        129
    84         63
    85        386
    86         26
    87          1
    89          1
    90          1
    91          4
    92          2
    93          6
    94          2
    95          9
    96         18
    97         99
    98         28
    99        125
   100         10
   101          1
   102          1
   103          1
   104          1
   105          1
   106          1
   107          1
   108          1
   109          3
   110          8
   111         49
   112         18
   113         81
   114          8
   115          1
   116          1
   117          1
   118          1
   119          1
   120          1
   121          1
   122          1
   123          2
   124          6
   125         26
   126         12
   127         61
   128          6
   129          1
   130          1
   131          1
   132          1
   133          1
   134          1
   135          1
   136          1
   137          1
   138          4
   139         13
   140          8
   141         42
   142          5
   143          1
   144          1
   145          1
   146          1
   147          1
   148          1
   149          1
   150          1
   151          1
   152          4
   153          9
   154          6
   155         31
   156          4
   157          1
   158          1
   159          1
   161          1
   162          1
   163          1
   164          1
   165          1
   166          3
   167          6
   168          5
   169         23
   170          3
   171          1
   178          1
   179          1
   180          2
   181          4
   182          4
   183         18
   184          3
   185          1
   191          1
   192          1
   193          1
   194          2
   195          5
   196          3
   197         13
   198          2
   199          1
   200          1
   201          1
   202          1
   208          1
   209          2
   210          2
   211         11
   212          2
   213          1
   221          1
   222          1
   223          2
   224          4
   225         18
   226          3
   227          1
   228          1
   229          1
   230          1
   231          1
   236          1
   237          1
   238          1
   239          5
   240          1
   241          1
   250          1
   251          1
   252          1
   253          3
   254          1
   255          1
   264          1
   265          1
   266          3
   267          1
   268          1
   280          1
   281          1
   294         31
   295         33
   296          7
   297          1
   337          3
   338          1
   339          1