##TITLE=Library Entry 24338
##JCAMP-DX=Revision 4.10 
##DATA TYPE=MASS SPECTRUM
##SAMPLE DESCRIPTION=Exported from NIST MS Search
##NAMES=HP
##CAS NAME=Eicosane, 10-butyl-10-propyl-
##MOLFORM=C27H56
##CAS REGISTRY NO=55282-33-2
##MP= -300
##BP= -300
##MW= 380
##$RETENTION INDEX=0
##$CONDENSED SPECTRUM=NO
##NPOINTS= 217
##XYDATA=(XY..XY) 1 
    36          2
    37          4
    38          5
    39         62
    40         17
    41        495
    42        111
    43        946
    44         33
    45          8
    46          1
    47          1
    48          1
    49          1
    50          3
    51          4
    52          3
    53         24
    54         29
    55        451
    56        200
    57        999
    58         46
    59          9
    60          1
    61          1
    62          1
    63          1
    64          1
    65          5
    66          4
    67         56
    68         29
    69        266
    70         83
    71        652
    72         38
    73          2
    74          5
    75          1
    76          1
    77          5
    78          2
    79         10
    80          3
    81         33
    82         15
    83        155
    84         89
    85        481
    86         33
    87          1
    88          1
    89          1
    90          1
    91          3
    92          1
    93          3
    94          2
    95         18
    96          8
    97         94
    98         20
    99        147
   100         12
   101          1
   102          1
   103          1
   104          1
   105          2
   106          1
   107          1
   108          1
   109          7
   110          5
   111         42
   112         13
   113        104
   114         10
   115          1
   116          1
   117          1
   118          1
   119          1
   120          1
   121          1
   122          1
   123          3
   124          2
   125         15
   126         26
   127         84
   128          9
   129          1
   130          1
   131          1
   132          1
   133          1
   134          1
   135          1
   136          1
   137          2
   138          2
   139          7
   140          5
   141         64
   142          8
   143          1
   144          1
   145          1
   146          1
   147          1
   148          1
   149          1
   150          1
   151          1
   152          2
   153          8
   154          4
   155         54
   156          7
   157          1
   158          1
   159          1
   160          1
   161          1
   162          1
   163          1
   164          1
   165          1
   166          1
   167          6
   168          5
   169         47
   170          6
   171          1
   172          1
   173          1
   175          1
   176          1
   177          1
   178          1
   179          1
   180          1
   181          3
   182          4
   183         38
   184          5
   185          1
   191          1
   192          1
   193          1
   194          1
   195          4
   196          8
   197         29
   198          5
   199          1
   203          1
   205          1
   207          1
   208          1
   209          2
   210          8
   211         19
   212          3
   213          1
   214          1
   215          1
   217          1
   219          1
   221          1
   222          1
   223          1
   224          2
   225         12
   226          2
   227          1
   235          1
   236          1
   237          1
   238         20
   239        202
   240         37
   241          3
   242          1
   251          1
   252         17
   253        175
   254         34
   255          3
   256          1
   266          1
   267          7
   268          1
   269          1
   278          1
   279          1
   280          1
   281          5
   282          1
   294          1
   295          2
   296          1
   309          1
   321          1
   322          8
   323        121
   324         31
   325          4
   326          1
   335          1
   336          6
   337         35
   338         29
   339          4
   340          1