##TITLE=Library Entry 24863
##JCAMP-DX=Revision 4.10 
##DATA TYPE=MASS SPECTRUM
##SAMPLE DESCRIPTION=Exported from NIST MS Search
##NAMES=HP
##CAS NAME=Heneicosane, 11-(2,2-dimethylpropyl)-
##MOLFORM=C26H54
##CAS REGISTRY NO=55282-10-5
##MP= -300
##BP= -300
##MW= 366
##$RETENTION INDEX=0
##$CONDENSED SPECTRUM=NO
##NPOINTS= 127
##XYDATA=(XY..XY) 1 
    12          3
    13          5
    15         30
    16         24
    24          3
    25         10
    26         56
    27        147
    29        160
    30          7
    36          2
    37         10
    38         16
    39        118
    40         28
    41        363
    42        109
    43        329
    44          9
    49          2
    50          8
    51          9
    52          4
    53         24
    54         31
    55        207
    56        549
    57        999
    58         44
    65          2
    66          2
    67         22
    68         15
    69        100
    70         56
    71        151
    72          8
    77          2
    78          1
    79          3
    80          1
    81         12
    82         13
    83         67
    84         28
    85         95
    86          6
    90          1
    91          1
    92          1
    93          1
    94          1
    95          7
    96          6
    97         37
    98         13
    99         26
   100          2
   109          2
   110          2
   111         17
   112          7
   113         19
   114          2
   123          1
   124          2
   125          6
   126          7
   127         15
   128          1
   137          1
   138          1
   139          3
   140          5
   141         12
   142          1
   152          1
   153          1
   154          4
   155         10
   156          1
   166          9
   167         17
   168         21
   169         12
   170          1
   180          1
   181          1
   182         18
   183         12
   184          1
   194          1
   195          1
   196          1
   197          4
   198          1
   208          1
   209          2
   210          1
   211          4
   212          1
   223          1
   224          8
   225         17
   226          3
   238          1
   239          3
   240          1
   252          1
   253          2
   254          1
   266          1
   267          1
   280          1
   281          1
   294          3
   295          7
   296          1
   308         51
   309         66
   310         14
   311          2
   351         17
   352          5
   353          1
   365          1
   366          1