##TITLE=Library Entry 93219
##JCAMP-DX=Revision 4.10 
##DATA TYPE=MASS SPECTRUM
##SAMPLE DESCRIPTION=Exported from NIST MS Search
##NAMES=HP
##CAS NAME=D-Fructopyranoside, methyl 1,3,4-tri-O-methyl-5-O-(2,3,4,6-tetra-
O-methyl-.beta.-D-galactopyranosyl)-
##MOLFORM=C20H38O11
##CAS REGISTRY NO=55298-60-7
##MP= -300
##BP= -300
##MW= 454
##$RETENTION INDEX=0
##$CONDENSED SPECTRUM=NO
##NPOINTS= 28
##XYDATA=(XY..XY) 1 
    45        460
    59        130
    71        250
    75        529
    88        769
    99         95
   101        756
   111        185
   115        999
   127         85
   129        157
   131         71
   143        185
   145         85
   155         64
   159         55
   187        228
   205          5
   219         85
   235          7
   249          6
   279        357
   293          5
   305          7
   359          2
   377          4
   391          4
   409        321