##TITLE=Library Entry 9760
##JCAMP-DX=Revision 4.10 
##DATA TYPE=MASS SPECTRUM
##SAMPLE DESCRIPTION=R RYHAGE MS-LAB KAROLINSKA INSTITUTET STOCKHOLM SWEDEN
##NAMES=HP
##CAS NAME=dl-Serine, N-acetyl-, methyl ester, acetate (ester)
##MOLFORM=C8H13NO5
##CAS REGISTRY NO=55299-57-5
##MP= -300
##BP= -300
##MW= 203
##$RETENTION INDEX=0
##$CONDENSED SPECTRUM=NO
##NPOINTS= 77
##XYDATA=(XY..XY) 1 
    14         22
    15        165
    16          6
    17         22
    18         85
    26         13
    27         43
    28        161
    29         66
    30         33
    31         25
    32          5
    33         60
    39          7
    40         16
    41         75
    42        215
    43        999
    44         73
    45         54
    54         22
    55         39
    56         27
    57         93
    58         32
    59         72
    60        657
    61         38
    68          7
    69          9
    70         29
    71         72
    72         10
    73         17
    74         50
    83         24
    84        832
    85         61
    86         25
    87          7
    88        495
    89        155
    90         10
    97          5
    98          9
    99        385
   100         50
   101        137
   102        800
   103         50
   104          6
   111         44
   112         29
   113         19
   114          9
   115         17
   116          5
   118         48
   125         19
   126          6
   128          7
   130         39
   131        486
   132         35
   142          5
   143        254
   144        438
   145          7
   146         37
   160         48
   161          6
   162         11
   172         32
   173         50
   174          5
   203         23
   204         40