##TITLE=Library Entry 18650
##JCAMP-DX=Revision 4.10 
##DATA TYPE=MASS SPECTRUM
##SAMPLE DESCRIPTION=NIST Mass Spectrometry Data Center, 1998.
##NAMES=HP
##CAS NAME=1,4-Dithiin, 2,3-dihydro-5,6-dimethyl-, 1,1,4,4-tetraoxide
##MOLFORM=C6H10O4S2
##CAS REGISTRY NO=55290-64-7
##MP= -300
##BP= -300
##MW= 210
##$RETENTION INDEX=1735
##$CONDENSED SPECTRUM=NO
##NPOINTS= 105
##XYDATA=(XY..XY) 1 
    14          1
    15          2
    25          1
    26         40
    27        204
    28        183
    29         17
    31          1
    32          2
    33          1
    37          2
    38         12
    39        478
    40         18
    41         24
    42         15
    43        513
    44         13
    45         30
    46         16
    47         25
    48         61
    49         11
    50         76
    51        114
    52         59
    53        412
    54        999
    55         60
    56          2
    57          5
    58        117
    59        183
    60         95
    61         27
    62          4
    63          6
    64         36
    65         30
    66          6
    67         42
    68          2
    69         12
    70         36
    71         23
    72          2
    73         13
    74          1
    75         13
    76        152
    77         10
    78          8
    79          4
    81          6
    82          1
    83          2
    85          9
    86         35
    87         10
    88          1
    89          1
    90         52
    91          5
    92          2
    93          2
    95          1
    96          2
    97          1
    98          2
    99          1
   101          9
   102          2
   103         49
   104          2
   105          2
   107          1
   108         17
   109         28
   110          2
   111          2
   112          1
   113          1
   116          1
   117          2
   118        197
   119         11
   120         10
   121          1
   124         79
   125         16
   126          8
   127          1
   129          1
   135         10
   136          1
   139          1
   140          1
   151         15
   152          1
   153          1
   157          2
   167          1
   210         24
   211          2
   212          1