##TITLE=Library Entry 4746
##JCAMP-DX=Revision 4.10 
##DATA TYPE=MASS SPECTRUM
##SAMPLE DESCRIPTION=Chemical Concepts
##NAMES=HP
##CAS NAME=N-[2-(2-Chloro-5-nitrophenoxy)ethyl]-N,N-bis(2-hydroxyethyl)amine
##MOLFORM=C12H17ClN2O5
##CAS REGISTRY NO=5529-07-7
##MP= -300
##BP= -300
##MW= 304
##$RETENTION INDEX=0
##$CONDENSED SPECTRUM=NO
##NPOINTS= 109
##XYDATA=(XY..XY) 1 
    33         18
    34          5
    36         33
    38         37
    39         28
    42        999
    43        184
    45        587
    49          6
    50         16
    51         34
    53         27
    54         36
    56        682
    57        200
    58        147
    59          9
    60         11
    62         45
    63        173
    64         15
    65         17
    66          9
    68         11
    69         16
    70         93
    72         88
    73        123
    74        286
    75         42
    76         14
    77         11
    78          7
    79         14
    80          5
    81          6
    82          5
    83          8
    84         23
    86         87
    88         61
    89         16
    90          9
    91         24
    92          5
    93          6
    94          5
    96          4
    97          9
    98         38
    99         24
   100         70
   101         12
   102          6
   104          6
   105          6
   106          8
   107          6
   109         16
   110         49
   111         18
   112         20
   113          8
   114         13
   115         10
   116         49
   118        668
   119         33
   120          8
   125         11
   126         40
   127         10
   128         18
   129          7
   130          5
   132         10
   133          8
   136          4
   137          6
   142          4
   143          5
   147          5
   148          9
   149          6
   153          8
   154         24
   155          8
   156          9
   171          4
   173          6
   193          5
   200          9
   207          6
   212          5
   226          5
   227         17
   229         34
   230          5
   231          8
   243         14
   245          5
   257         10
   259          4
   269          5
   271         29
   273        656
   274         86
   275        185
   276         23