##TITLE=Library Entry 16313
##JCAMP-DX=Revision 4.10 
##DATA TYPE=MASS SPECTRUM
##SAMPLE DESCRIPTION=R.SELF FOOD RESEARCH INSTITUTE, NORWICH, UK
##NAMES=HP
##CAS NAME=3-Pyrrolidineacetic acid, .alpha.-amino-5-carboxy-2-oxo-, [3R-[3.
alpha.(S*),5.alpha.]]-
##MOLFORM=C7H10N2O5
##CAS REGISTRY NO=55297-13-7
##MP= -300
##BP= -300
##MW= 202
##$RETENTION INDEX=0
##$CONDENSED SPECTRUM=NO
##NPOINTS= 87
##XYDATA=(XY..XY) 1 
    25          3
    26         24
    27         90
    29         60
    30         86
    31          5
    35          5
    36         54
    37          8
    38         15
    39         82
    40         25
    41        142
    42         59
    43         38
    44        999
    45         53
    46         17
    50          5
    51          8
    52         18
    53         35
    54         73
    55         70
    56        495
    57         19
    60         10
    61          2
    63          3
    64          3
    65         12
    66         20
    67         42
    68        188
    69         23
    70        126
    71          2
    72          9
    73         13
    74         75
    75          5
    76          2
    78         13
    79          5
    80          5
    82         25
    83        233
    84        556
    85         27
    86         10
    87          5
    88          4
    94         10
    95         29
    96         86
    97         10
   100         13
   101          3
   102          2
   106          2
   107          2
   108         12
   109          6
   110         12
   111         89
   112         17
   113         15
   114          9
   122          3
   123          5
   128          3
   129        369
   130         13
   135         25
   136          3
   139         51
   140         17
   141          8
   142          3
   156         55
   157        630
   158         50
   159          2
   184         72
   185          7
   186          1
   202          1