##TITLE=Library Entry 49904
##JCAMP-DX=Revision 4.10 
##DATA TYPE=MASS SPECTRUM
##SAMPLE DESCRIPTION=Exported from NIST MS Search
##NAMES=HP
##CAS NAME=Costunolide
##MOLFORM=C15H20O2
##CAS REGISTRY NO=553-21-9
##MP= -300
##BP= -300
##MW= 232
##$RETENTION INDEX=0
##$CONDENSED SPECTRUM=NO
##NPOINTS= 85
##XYDATA=(XY..XY) 1 
    18         78
    29        375
    30        156
    31        266
    39        438
    40        109
    41        656
    42         47
    43        109
    44         47
    51        125
    52         78
    53        766
    54         78
    55        422
    65        203
    66         63
    67        266
    68         94
    69         94
    77        375
    78         94
    79        469
    80        250
    81        999
    82        156
    83         78
    91        453
    92        109
    93        375
    94        141
    95        281
    96         47
    97         31
   103         63
   105        391
   106         78
   107        344
   108        125
   109        656
   110        125
   115         47
   117         78
   118         47
   119        234
   120        109
   121        391
   122        172
   123        469
   124         63
   129         47
   131        141
   132         47
   133        109
   134        109
   135        125
   136         78
   137         63
   143         47
   145        125
   146         47
   147        125
   148         47
   149        141
   150        172
   151        109
   152         47
   159         63
   161        125
   162         63
   163        109
   171         63
   173         47
   175        125
   176        125
   177         78
   187         47
   189        109
   190         78
   203         47
   204         63
   217        313
   218         47
   232        516
   233         94