##TITLE=Library Entry 82583
##JCAMP-DX=Revision 4.10 
##DATA TYPE=MASS SPECTRUM
##SAMPLE DESCRIPTION=NIST Mass Spectrometry Data Center, 1994
##NAMES=HP
##CAS NAME=Isopropyl nicotinate
##MOLFORM=C9H11NO2
##CAS REGISTRY NO=553-60-6
##MP= -300
##BP= -300
##MW= 165
##$RETENTION INDEX=0
##$CONDENSED SPECTRUM=NO
##NPOINTS= 56
##XYDATA=(XY..XY) 1 
     4          4
    14          9
    15         49
    16          3
    25          3
    26         32
    27        177
    28         48
    29         27
    31         10
    37         13
    38         30
    39        134
    40         28
    41        229
    42         74
    43        472
    44         25
    45         12
    49         23
    50        206
    51        474
    52         91
    53         35
    54          2
    59        132
    60          4
    65          2
    66          5
    67          3
    75         12
    76         23
    77         77
    78        559
    79        193
    80         24
    93          3
    94          6
    95          3
   105        413
   106        999
   107         76
   108          6
   120          3
   123        246
   124        492
   125         35
   126          2
   137         27
   138          2
   150         55
   151          4
   164        134
   165        268
   166         30
   167          3