##TITLE=Library Entry 79262
##JCAMP-DX=Revision 4.10 
##DATA TYPE=MASS SPECTRUM
##SAMPLE DESCRIPTION=Japan AIST/NIMC Database- Spectrum MS-IW-3964
##NAMES=HP
##CAS NAME=Benzoic acid, zinc salt
##MOLFORM=C14H10O4Zn
##CAS REGISTRY NO=553-72-0
##MP= -300
##BP= -300
##MW= 306
##$RETENTION INDEX=0
##$CONDENSED SPECTRUM=NO
##NPOINTS= 172
##XYDATA=(XY..XY) 1 
    26          4
    27         15
    28          4
    36          2
    37         10
    38         20
    39         39
    40          3
    41          9
    42          5
    43         15
    44        113
    45          9
    46          2
    47          7
    49          6
    50         94
    51        221
    52         43
    53          9
    54          3
    55         11
    56          5
    57         12
    58          1
    60          1
    61          6
    62          6
    63         10
    64         21
    65         25
    66         11
    67          7
    68          8
    69          8
    70          5
    71          7
    73          9
    74         39
    75         30
    76         74
    77        917
    78        188
    79         14
    80          3
    81          5
    82          5
    83          6
    84          4
    85          4
    89          2
    91         11
    92          9
    93         12
    94         18
    95          6
    96          4
    97          8
    98          8
    99          2
   102          2
   103          6
   104         15
   105        999
   106         82
   107          8
   108          7
   109          3
   110          2
   111          4
   112          3
   113          2
   115          4
   117          2
   118          2
   119          3
   120          3
   121          8
   122        782
   123         62
   124          7
   125          3
   126          2
   127          3
   128          2
   129          1
   131          4
   132          2
   133          3
   134          1
   135         21
   136          3
   137          2
   139          2
   140         13
   141        203
   142         22
   143        115
   144         26
   145         76
   146          6
   147          2
   149          5
   150          3
   151          7
   152         15
   153         41
   154        341
   155         48
   156          4
   157          9
   158          3
   159          5
   160          2
   161          4
   165          1
   167          4
   168          2
   169          2
   176          1
   178          2
   179          2
   180         15
   181         17
   182          6
   183          2
   184          2
   185        101
   186          9
   187         58
   188         12
   189         40
   190          3
   191          2
   197          3
   198         13
   199          2
   202          1
   208          3
   209          2
   210          1
   217          2
   218        100
   219         13
   220         60
   221         17
   222         40
   223          6
   224          3
   226          2
   229          4
   231          2
   233          2
   261          3
   262        274
   263         40
   264        155
   265         45
   266        106
   267         14
   268          4
   277          1
   278          5
   280          2
   285          1
   306        165
   307         26
   308         93
   309         27
   310         67
   311          9
   312          3