##TITLE=Library Entry 12648
##JCAMP-DX=Revision 4.10 
##DATA TYPE=MASS SPECTRUM
##SAMPLE DESCRIPTION=Chemical Concepts
##NAMES=HP
##CAS NAME=Acetamide, N-(5-nitro-2-propoxyphenyl)-
##MOLFORM=C11H14N2O4
##CAS REGISTRY NO=553-20-8
##MP= -300
##BP= -300
##MW= 238
##$RETENTION INDEX=0
##$CONDENSED SPECTRUM=NO
##NPOINTS= 121
##XYDATA=(XY..XY) 1 
    37          4
    38          9
    39         55
    40         14
    41        212
    43        999
    44         42
    45         65
    46         25
    50         19
    51         64
    52         60
    53         45
    54         12
    55         26
    56         10
    57         34
    58          6
    59          2
    60          5
    61          4
    62          8
    63         24
    64         13
    65         16
    66          9
    67         15
    68         15
    69         17
    70          9
    71         19
    72          3
    73         11
    74          7
    75          5
    76          9
    77         15
    78         33
    79         70
    80         87
    81         16
    82          9
    83         11
    84          9
    85         10
    86          2
    87          3
    88          2
    89          3
    90          7
    91         22
    92         11
    93          8
    94          5
    95         32
    96         64
    97         12
    98          9
    99          4
   101          2
   103          2
   104          5
   105          5
   106          8
   107         57
   108        168
   109         18
   110          5
   111          6
   112          5
   113          4
   115          2
   116          2
   117          2
   119         10
   120          8
   121          9
   122          5
   123         18
   124         48
   125          7
   126          2
   127          2
   129          3
   131          2
   132          5
   133          6
   134          6
   135          8
   136          2
   137         32
   138         59
   139          6
   147          4
   148          5
   149         38
   150         10
   151          3
   153         20
   154        937
   155         66
   156          8
   162          2
   163          3
   165          9
   167         15
   168          2
   178          4
   179         10
   180          3
   181          6
   195          8
   196        267
   197         27
   198          3
   208          3
   209          3
   222          3
   238        175
   239         21
   240          3