##TITLE=Library Entry 81589
##JCAMP-DX=Revision 4.10 
##DATA TYPE=MASS SPECTRUM
##SAMPLE DESCRIPTION=Japan AIST/NIMC Database- Spectrum MS-NW-3383
##NAMES=HP
##CAS NAME=Benzene, 2-bromo-1,4-dimethyl-
##MOLFORM=C8H9Br
##CAS REGISTRY NO=553-94-6
##MP= -300
##BP= -300
##MW= 184
##$RETENTION INDEX=1136
##$CONDENSED SPECTRUM=NO
##NPOINTS= 77
##XYDATA=(XY..XY) 1 
    15          3
    26          7
    27         41
    28          1
    29          2
    36          1
    37          7
    38         17
    39         71
    40          6
    41          5
    43          2
    44          2
    49          8
    50         57
    51        156
    52         41
    53         29
    54          2
    55          1
    59          1
    60          2
    61         11
    62         27
    63         65
    64         17
    65         25
    66          5
    73          6
    74         24
    75         21
    76         18
    77        210
    78        109
    79        143
    80          9
    81          4
    82          3
    83          1
    84          1
    85          4
    86          7
    87          9
    88          3
    89         31
    90         22
    91         13
    92         16
    93          6
    97          1
    98          4
    99          1
   101          6
   102         29
   103        189
   104        115
   105        999
   106         86
   107          4
   117          3
   119          3
   130          1
   131          1
   141          1
   143          2
   145          1
   169         56
   170          4
   171         53
   172          4
   182          2
   183         57
   184        566
   185        104
   186        564
   187         49
   188          2