##TITLE=Library Entry 18779
##JCAMP-DX=Revision 4.10 
##DATA TYPE=MASS SPECTRUM
##SAMPLE DESCRIPTION=NIST Mass Spectrometry Data Center
##NAMES=HP
##CAS NAME=p-Benzoquinone, 2-methyl-
##MOLFORM=C7H6O2
##CAS REGISTRY NO=553-97-9
##MP= -300
##BP= -300
##MW= 122
##$RETENTION INDEX=1018
##$CONDENSED SPECTRUM=NO
##NPOINTS= 70
##XYDATA=(XY..XY) 1 
    13          1
    14          2
    15          3
    24          2
    25         20
    26        236
    27         36
    28         12
    29         19
    31          8
    32          2
    33          3
    34          3
    36         14
    37        130
    38        264
    39        697
    40        461
    41         30
    42         12
    43          6
    46          2
    47          7
    48          7
    49         33
    50         89
    51         75
    52         32
    53        289
    54        999
    55         97
    56          5
    60         13
    61         53
    62         60
    63         71
    64         22
    65        262
    66        766
    67        131
    68        491
    69         24
    70          1
    72          1
    73         13
    74         29
    75          8
    76          3
    77         12
    78          6
    79         37
    80          3
    82        676
    83         32
    84          4
    85          1
    86          1
    92          4
    93         13
    94        972
    95         76
    96         48
    97          2
   105          2
   106          1
   107          4
   122        763
   123         72
   124         33
   125          2