##TITLE=Library Entry 48312
##JCAMP-DX=Revision 4.10 
##DATA TYPE=MASS SPECTRUM
##SAMPLE DESCRIPTION=Chuck Anderson, Aldrich Chemical Co.
##NAMES=HP
##CAS NAME=2-Coumaranone
##MOLFORM=C8H6O2
##CAS REGISTRY NO=553-86-6
##MP= -300
##BP= -300
##MW= 134
##$RETENTION INDEX=1270
##$CONDENSED SPECTRUM=NO
##NPOINTS= 62
##XYDATA=(XY..XY) 1 
    12          1
    13          1
    14          2
    15          1
    18          0
    25          3
    26         30
    27         30
    28         14
    29          5
    31          1
    32          0
    36          2
    37         30
    38         65
    39        117
    40          6
    41          2
    42          5
    43          4
    44          1
    45          1
    48          1
    49         16
    50        119
    51        186
    52        132
    53         34
    54          4
    55          3
    60          3
    61         17
    62         29
    63         63
    64         10
    65          2
    66          2
    67         26
    68          1
    73         10
    74         35
    75         17
    76         27
    77        165
    78        999
    79         72
    80          3
    84          2
    85          5
    86          6
    87          3
    89         38
    90         14
    91          1
   105         80
   106        518
   107         38
   108          3
   133          4
   134        764
   135         72
   136          7