##TITLE=Library Entry 83993
##JCAMP-DX=Revision 4.10 
##DATA TYPE=MASS SPECTRUM
##SAMPLE DESCRIPTION=AAFS Toxicology Section MS DB Committee, U. Alberta, Ca
nada
##NAMES=HP
##CAS NAME=Fenyramidol
##MOLFORM=C13H14N2O
##CAS REGISTRY NO=553-69-5
##MP= -300
##BP= -300
##MW= 214
##$RETENTION INDEX=1957
##$CONDENSED SPECTRUM=NO
##NPOINTS= 64
##XYDATA=(XY..XY) 1 
    50         38
    51        128
    52         73
    53         28
    54          8
    55         18
    56         18
    57         38
    58          8
    64          3
    65         23
    66         18
    67         48
    69          3
    70          8
    71         18
    72         38
    73         13
    74          8
    75          8
    76         18
    77        113
    78        428
    79        188
    80        118
    90          8
    91         38
    92          8
    93         23
    94         58
    95         18
    96          3
    97          8
   102          8
   103         18
   104         28
   105         98
   106        103
   107        999
   108        528
   109         58
   110          8
   118          3
   119         88
   120         18
   121          8
   149         93
   150         13
   151          3
   166          8
   167         23
   168         28
   169          8
   170          3
   193          8
   194         38
   195         93
   196        103
   197         18
   198          8
   213          8
   214         38
   215          8
   216          3