##TITLE=Library Entry 47344
##JCAMP-DX=Revision 4.10 
##DATA TYPE=MASS SPECTRUM
##SAMPLE DESCRIPTION=NIST Mass Spectrometry Data Center
##NAMES=HP
##CAS NAME=Bis(2-methoxyphenyl) carbonate
##MOLFORM=C15H14O5
##CAS REGISTRY NO=553-17-3
##MP= -300
##BP= -300
##MW= 274
##$RETENTION INDEX=0
##$CONDENSED SPECTRUM=NO
##NPOINTS= 107
##XYDATA=(XY..XY) 1 
    12          4
    14          2
    15         41
    16          1
    18          5
    26         44
    27         23
    28         12
    29         13
    31         12
    37          9
    38         48
    39        102
    41        152
    42          7
    43          9
    44         26
    50         88
    51        191
    52        327
    53         52
    54         17
    55         34
    59          4
    61          5
    62         23
    63        126
    64        164
    65        204
    66         20
    67         61
    68          5
    69          7
    73          2
    74          9
    75         11
    77        999
    78         91
    79        482
    80        115
    81         24
    92        368
    93         55
    95        278
    96         24
    97          2
   105          4
   107         48
   108          9
   109         38
   110          3
   115         10
   116          4
   118          4
   121         55
   122         35
   123        203
   124        105
   125          9
   127         15
   128         37
   129         12
   130          1
   131         11
   132          1
   135          4
   136          6
   138        645
   139         63
   140          5
   141          9
   142          2
   143          2
   144         17
   145          6
   151        143
   152         16
   153          5
   155         24
   156          7
   157          6
   158          1
   159          8
   168          3
   169         11
   170          4
   171         14
   172         12
   173          1
   181          2
   183         12
   184        123
   185         19
   186          3
   187         24
   188          3
   197          2
   198          1
   199          7
   200         13
   201          3
   214          1
   215          9
   230          2
   274        368
   275         62
   276          8