##TITLE=Library Entry 32265
##JCAMP-DX=Revision 4.10 
##DATA TYPE=MASS SPECTRUM
##SAMPLE DESCRIPTION=Japan AIST/NIMC Database- Spectrum MS-IW-1113
##NAMES=HP
##CAS NAME=(3a.alpha.,4.alpha.,7.alpha.,7a.alpha.)-3a,4,7,7a-Tetrahydro-4,7-
methanoinden-1-one
##MOLFORM=C10H10O
##CAS REGISTRY NO=5530-96-1
##MP= -300
##BP= -300
##MW= 146
##$RETENTION INDEX=0
##$CONDENSED SPECTRUM=NO
##NPOINTS= 94
##XYDATA=(XY..XY) 1 
    26         12
    27         42
    28          9
    29          3
    31          1
    37          5
    38         17
    39        127
    40         48
    41         15
    42          2
    43          4
    44          2
    45          9
    46          3
    49          2
    50         34
    51         89
    52         47
    53         42
    54         19
    55         53
    56          3
    57         31
    58         39
    59          1
    60          1
    61          5
    62         14
    63         43
    64         12
    65        121
    66        999
    67         66
    68         26
    69          5
    70          1
    72          4
    73          1
    74          7
    75          8
    76          8
    77         85
    78         82
    79         42
    80         12
    81        350
    82        185
    83         10
    84          1
    85          1
    86          2
    87          2
    88          1
    89         24
    90         12
    91        182
    92         35
    93          3
    94         16
    95          2
    97          1
    98          1
   101          2
   102         11
   103         70
   104         20
   105         43
   106         20
   107          9
   108          2
   113          1
   114          1
   115        159
   116         65
   117        629
   118        277
   119         41
   120          9
   121          3
   126          1
   127         46
   128         28
   129         31
   130          4
   131        135
   132         15
   133          1
   143          1
   144         14
   145        270
   146        978
   147        124
   148          9