##TITLE=Library Entry 46387
##JCAMP-DX=Revision 4.10 
##DATA TYPE=MASS SPECTRUM
##SAMPLE DESCRIPTION=Div. of Experiment Therapeutics WRAIR, WRAMC, Washingto
n DC 20307
##NAMES=HP
##CAS NAME=2,6-Dibromo-3-nitropyridine
##MOLFORM=C5H2Br2N2O2
##CAS REGISTRY NO=55304-80-8
##MP= -300
##BP= -300
##MW= 280
##$RETENTION INDEX=0
##$CONDENSED SPECTRUM=NO
##NPOINTS= 95
##XYDATA=(XY..XY) 1 
    41          6
    43          6
    46         98
    48         43
    49        274
    50        672
    51        137
    52         41
    53         25
    54          5
    55          5
    60          7
    61          6
    62         66
    64        220
    65          7
    66          1
    72          1
    74         49
    75        555
    76        999
    77         66
    79        111
    81        107
    84         11
    86          9
    88          6
    89          6
    91         33
    93         39
    94         18
    95          9
    97          1
   103          6
   104        147
   106        228
   107         45
   108         38
   109         18
   115          6
   116         22
   117        103
   119         89
   120          7
   127          2
   128         43
   129        125
   130         70
   131        144
   132         17
   133          7
   141          6
   142          4
   143         12
   144          5
   145          5
   146          1
   153         11
   154        486
   156        722
   157        279
   158         26
   171         16
   172          1
   173         15
   174          4
   183          6
   185         16
   187         10
   201          3
   203          5
   207         14
   209         23
   210         11
   211          5
   222        304
   224        614
   226        231
   227          7
   233          4
   234        244
   236        381
   238        250
   239         16
   250         86
   252        147
   254         61
   264         10
   266         24
   268         16
   279          3
   280        340
   282        669
   284        335
   285         21