##TITLE=Library Entry 12373
##JCAMP-DX=Revision 4.10 
##DATA TYPE=MASS SPECTRUM
##SAMPLE DESCRIPTION=LAC, NIDDK, NIH, Bethesda, MD 20892
##NAMES=HP
##CAS NAME=.beta.-D-Galactofuranose, pentaacetate
##MOLFORM=C16H22O11
##CAS REGISTRY NO=5531-53-3
##MP= -300
##BP= -300
##MW= 390
##$RETENTION INDEX=0
##$CONDENSED SPECTRUM=NO
##NPOINTS= 74
##XYDATA=(XY..XY) 1 
    41          5
    43        999
    44         17
    45          2
    49          0
    53          1
    55          8
    57          8
    60          3
    61          4
    67          0
    68          4
    69          7
    70          3
    71          4
    73         19
    80          3
    81         15
    82          2
    84          8
    85         23
    86         11
    87          0
    95          0
    97         17
    98         39
    99          7
   101         12
   103         46
   104          1
   109         15
   110          1
   112          0
   113          4
   115         37
   116          3
   126         26
   127         21
   128          4
   131          1
   139          5
   140          2
   141          2
   143         47
   145         42
   146          1
   157         14
   158         12
   159          0
   161          0
   168         37
   169         35
   170          3
   173          2
   175          1
   185          2
   186          2
   187          1
   199          1
   200          1
   203          8
   210          9
   211          4
   215          4
   217          5
   228          4
   229          1
   245         22
   246          2
   287          0
   288          0
   331         33
   332          4
   333          0