##TITLE=Library Entry 28956
##JCAMP-DX=Revision 4.10 
##DATA TYPE=MASS SPECTRUM
##SAMPLE DESCRIPTION=Dr. Jiri Zamecnik, DCIEM, North York, Canada, GP Librar
y
##NAMES=HP
##CAS NAME=Phentermin-propionyl
##MOLFORM=C13H19NO
##CAS REGISTRY NO=5531-34-0
##MP= -300
##BP= -300
##MW= 205
##$RETENTION INDEX=0
##$CONDENSED SPECTRUM=NO
##NPOINTS= 31
##XYDATA=(XY..XY) 1 
    55         36
    57        247
    58        999
    59        108
    63         27
    64          9
    65        119
    69          5
    73         17
    74         23
    77         23
    78         14
    79          6
    84          5
    89         14
    90          3
    91        341
    92         30
   103          3
   105         11
   114        787
   115        115
   116         15
   117        164
   118         11
   129          4
   131         11
   132        120
   133         28
   134         61
   207          5