##TITLE=Library Entry 36960
##JCAMP-DX=Revision 4.10 
##DATA TYPE=MASS SPECTRUM
##SAMPLE DESCRIPTION=J.B.WESTMORE DEPT. CHEM., UNIV., WINNIPEG, MANITOBA, CA
NADA
##NAMES=HP
##CAS NAME=Acetic acid, trifluoro-, [2,3,3a,9a-tetrahydro-7-methyl-6-oxo-3-[
(trifluoroacetyl)oxy]-6H-furo[2',3':4,5]oxazolo[3,2-a]pyrimidin-2-yl]methyl
 ester, [2R-(2.alpha.,3.beta.,3a.beta.,9a.beta.)]-
##MOLFORM=C14H10F6N2O7
##CAS REGISTRY NO=55319-76-1
##MP= -300
##BP= -300
##MW= 432
##$RETENTION INDEX=0
##$CONDENSED SPECTRUM=NO
##NPOINTS= 56
##XYDATA=(XY..XY) 1 
    53         81
    54         62
    55        162
    56        100
    57        356
    58         31
    67         56
    68         50
    69        999
    70        131
    71        250
    72         31
    73         62
    75         31
    76         37
    77        150
    78         93
    80        118
    81        325
    82        237
    83        137
    84         68
    85        168
    95         62
    96         93
    97        281
    98         75
    99         68
   109         81
   110         68
   111         68
   112         43
   113         43
   121         56
   122         31
   123         37
   125        275
   126        187
   127         50
   135         43
   141         37
   149         50
   150         31
   151         43
   163         31
   165         43
   168         43
   169         43
   180         31
   191         81
   193        368
   194        118
   203         31
   305         43
   432        625
   433        106