##TITLE=Library Entry 7829
##JCAMP-DX=Revision 4.10 
##DATA TYPE=MASS SPECTRUM
##SAMPLE DESCRIPTION=Exported from NIST MS Search
##NAMES=HP
##CAS NAME=Docosane, 9-octyl-
##MOLFORM=C30H62
##CAS REGISTRY NO=55319-83-0
##MP= -300
##BP= -300
##MW= 422
##$RETENTION INDEX=0
##$CONDENSED SPECTRUM=NO
##NPOINTS= 232
##XYDATA=(XY..XY) 1 
    36          1
    37          2
    38          6
    39         74
    40         16
    41        458
    42        126
    43        999
    44         32
    45          1
    49          1
    50          3
    51          4
    52          2
    53         22
    54         46
    55        409
    56        213
    57        907
    58         41
    59          2
    62          1
    63          1
    64          1
    65          4
    66          4
    67         75
    68         54
    69        260
    70        115
    71        504
    72         27
    73          1
    77          5
    78          2
    79         14
    80          6
    81         53
    82         41
    83        194
    84         60
    85        341
    86         21
    87          1
    91          6
    92          2
    93          7
    94          4
    95         32
    96         29
    97        135
    98         41
    99         96
   100          7
   101          1
   103          1
   104          1
   105          4
   106          1
   107          3
   108          2
   109         13
   110         14
   111         68
   112         24
   113         63
   114          6
   115          1
   116          1
   117          1
   118          1
   119          3
   120          1
   121          2
   122          1
   123          5
   124          7
   125         32
   126         19
   127         46
   128          5
   129          1
   130          1
   131          1
   132          1
   133          1
   134          1
   135          1
   136          1
   137          4
   138         10
   139         33
   140         14
   141         38
   142          4
   143          1
   144          1
   145          1
   146          1
   147          1
   148          1
   149          1
   150          1
   151          2
   152          7
   153          9
   154         32
   155         38
   156          5
   157          1
   159          1
   160          1
   161          1
   163          1
   164          1
   165          2
   166          4
   167          7
   168          8
   169         23
   170          3
   171          1
   173          1
   175          1
   176          1
   177          1
   178          1
   179          2
   180          3
   181          6
   182          7
   183         18
   184          3
   185          1
   189          1
   190          1
   191          1
   192          1
   193          2
   194          3
   195          4
   196          6
   197         14
   198          2
   199          1
   203          1
   204          1
   205          1
   206          1
   207          1
   208          4
   209          7
   210          8
   211         11
   212          2
   215          1
   217          1
   219          1
   221          1
   222          2
   223          2
   224         11
   225         13
   226          2
   227          1
   235          1
   236          2
   237          3
   238         90
   239         80
   240         13
   241          1
   245          1
   247          1
   249          1
   250          1
   251          2
   252          8
   253          9
   254          2
   255          1
   263          1
   264          1
   265          1
   266          3
   267          4
   268          1
   277          1
   278          1
   279          1
   280          5
   281          3
   282          1
   291          1
   294          4
   295          4
   296          1
   305          1
   306          2
   307          2
   308         99
   309        124
   310         32
   311          3
   320          1
   321          1
   322          7
   323          6
   324          2
   330          1
   333          1
   334          1
   336          3
   337          4
   338          1
   347          1
   348          1
   350          1
   351          1
   352          1
   364          1
   365          1
   379          1
   393          1
   416          2
   417          1
   418          1
   420          2
   421          1
   422          5
   423          2
   424          1