##TITLE=Library Entry 43872
##JCAMP-DX=Revision 4.10 
##DATA TYPE=MASS SPECTRUM
##SAMPLE DESCRIPTION=BAY 0276
##NAMES=HP
##CAS NAME=Phosphoric acid, 3-(methoxyimino)-2-[(trimethylsilyl)oxy]propyl b
is(trimethylsilyl) ester, (.+/-.)-
##MOLFORM=C13H34NO6PSi3
##CAS REGISTRY NO=55319-84-1
##MP= -300
##BP= -300
##MW= 415
##$RETENTION INDEX=0
##$CONDENSED SPECTRUM=NO
##NPOINTS= 207
##XYDATA=(XY..XY) 1 
    41         23
    42         23
    43        100
    44         32
    45        164
    46         14
    47         23
    50          5
    51          5
    52          9
    53          5
    54          9
    55          9
    56          5
    57         14
    58         32
    59        164
    60          9
    61         27
    63          5
    68          9
    69          5
    70         36
    71         14
    72         45
    73        999
    74        118
    75        164
    76          9
    77         23
    78          5
    79         14
    84         14
    85         18
    86          9
    87          9
    88          5
    89        118
    90          9
    91         14
    93          5
    95          5
    98          5
    99         32
   100         18
   101        145
   102         18
   103         32
   104          5
   105         95
   106          9
   107          9
   109          5
   112         14
   113          9
   114         18
   115         23
   116         45
   117         23
   118          5
   119         23
   120          5
   121         18
   123          5
   126         14
   127         18
   128         55
   129         14
   130         14
   131         23
   132          9
   133        182
   134         32
   135         73
   136          9
   137         27
   138          5
   139          5
   141          5
   142        209
   143         68
   144         23
   145          9
   147        136
   148         23
   149         23
   150          5
   151         14
   153          9
   155          5
   158        245
   159         32
   160        400
   161         55
   162         18
   163          9
   165          9
   167          9
   172          5
   173         68
   174        255
   175         36
   176         14
   177          5
   179          9
   181         27
   182          5
   183         14
   189          5
   191         18
   192          5
   193         27
   194          9
   195         45
   196         14
   197         27
   198          5
   200          9
   205          9
   207         55
   208          9
   209         14
   210          9
   211        382
   212         68
   213         45
   214          5
   221          9
   223          5
   225        118
   226         27
   227        155
   228         23
   229         18
   240          5
   241         18
   242          5
   243         64
   244          9
   245          5
   253         36
   254          9
   255         14
   256          5
   257          5
   269         18
   270          5
   278          9
   279          5
   281          5
   283         18
   284          9
   285         41
   286          9
   287          5
   294         41
   295          9
   296          9
   297          5
   298         64
   299        908
   300        245
   301        118
   302         23
   303          9
   308          5
   310          5
   313         18
   314         23
   315        291
   316         82
   317         45
   318          9
   327          9
   328        500
   329        155
   330         64
   331         18
   332          5
   341        182
   342         36
   343         23
   344          5
   352          9
   354          5
   356          5
   357         77
   358         23
   359         14
   368         23
   369          9
   370          5
   372          9
   373        145
   374         36
   375         18
   376          5
   384        173
   385         64
   386         32
   387          9
   400        145
   401         41
   402         18
   403          5
   415          9
   416          5