##TITLE=Library Entry 29930
##JCAMP-DX=Revision 4.10 
##DATA TYPE=MASS SPECTRUM
##SAMPLE DESCRIPTION=NIST Mass Spectrometry Data Center, 1990.
##NAMES=HP
##CAS NAME=1-Cyclohexyl-2-methyl-2-propanol
##MOLFORM=C10H20O
##CAS REGISTRY NO=5531-30-6
##MP= -300
##BP= -300
##MW= 156
##$RETENTION INDEX=0
##$CONDENSED SPECTRUM=NO
##NPOINTS= 55
##XYDATA=(XY..XY) 1 
    14          0
    15          5
    27         41
    28         25
    29         45
    30          0
    31         43
    32          1
    39         80
    40         18
    41        169
    42         21
    43        112
    44          4
    45          6
    50          3
    51         10
    52          7
    53         40
    54         48
    55        249
    56         38
    57         86
    58          3
    59        999
    60         33
    61          3
    63          3
    65         13
    67        179
    68         19
    69         26
    70          7
    71          7
    77         16
    78          4
    79         27
    80         57
    81         91
    82        126
    83        117
    84          7
    91          6
    93          5
    95         39
    96         22
    97         18
    98          3
   109          3
   123         47
   124          4
   138         29
   139          4
   141         35
   142          4