##TITLE=Library Entry 12916
##JCAMP-DX=Revision 4.10 
##DATA TYPE=MASS SPECTRUM
##SAMPLE DESCRIPTION=Exported from NIST MS Search
##NAMES=HP
##CAS NAME=Naphthalene, 1-(1-decyl-1-undecenyl)-
##MOLFORM=C31H48
##CAS REGISTRY NO=55319-81-8
##MP= -300
##BP= -300
##MW= 420
##$RETENTION INDEX=0
##$CONDENSED SPECTRUM=NO
##NPOINTS= 292
##XYDATA=(XY..XY) 1 
    36          1
    37          3
    38          5
    39         74
    40         15
    41        596
    42         72
    43        999
    44         35
    45          1
    46          1
    47          1
    48          1
    49          1
    50          3
    51          6
    52          3
    53         36
    54         11
    55        273
    56         35
    57        339
    58         16
    59          1
    60          1
    61          1
    62          1
    63          4
    64          1
    65          9
    66          4
    67         84
    68          9
    69        114
    70         14
    71         99
    72          6
    73          1
    74          1
    75          2
    76          3
    77         16
    78          4
    79         19
    80          4
    81         56
    82          9
    83         58
    84          6
    85         33
    86          3
    87          1
    88          1
    89          5
    90          1
    91         12
    92          2
    93          9
    94          4
    95         40
    96          6
    97         20
    98          3
    99          3
   100          2
   101          2
   102          2
   103          2
   104          1
   105          3
   106          1
   107          2
   108          1
   109         14
   110          2
   111          4
   112          1
   113          1
   114          1
   115         19
   116          3
   117          2
   118          1
   119          2
   120          1
   121          1
   122          1
   123          4
   124          1
   125          2
   126          3
   127          9
   128         48
   129         19
   130          2
   131          1
   132          1
   133          1
   134          1
   135          1
   136          1
   137          2
   138          1
   139          7
   140          5
   141        548
   142         75
   143          7
   144          1
   145          1
   147          1
   149          1
   150          2
   151         15
   152        111
   153        444
   154        123
   155         66
   156         11
   157          2
   158          1
   159          1
   162          1
   163          5
   164         11
   165        317
   166        147
   167        799
   168        182
   169         27
   170          4
   171          1
   174          1
   175          1
   176          3
   177          7
   178         71
   179        173
   180         49
   181        113
   182         20
   183          5
   184          1
   185          1
   189          5
   190          5
   191         16
   192         10
   193         43
   194         11
   195         21
   196          4
   197          3
   198          1
   199          1
   200          1
   201          1
   202          2
   203          3
   204          2
   205          5
   206          2
   207         11
   208          5
   209          6
   210          1
   211          2
   212          1
   213          1
   214          1
   215          1
   216          1
   217          1
   218          1
   219          1
   220          1
   221          5
   222          2
   223          2
   224          1
   225          1
   226          1
   227          1
   228          1
   229          1
   230          1
   231          1
   232          1
   233          1
   234          1
   235          3
   236          1
   237          2
   238          1
   239          1
   240          1
   241          1
   242          1
   243          1
   244          1
   245          1
   246          1
   247          1
   248          1
   249          1
   250          1
   251          1
   252          1
   253          1
   254          1
   255          1
   261          1
   262          1
   263          1
   264          1
   265          2
   266          1
   267          1
   268          1
   269          1
   275          1
   276          1
   277          6
   278          3
   279         89
   280         61
   281         20
   282          6
   283          1
   284          1
   289          1
   290          1
   291          3
   292          4
   293        126
   294         78
   295         17
   296          3
   297          1
   301          1
   302          1
   303          1
   304          1
   305          6
   306          4
   307        141
   308         39
   309          6
   310          1
   311          1
   318          1
   319          2
   320          1
   321          7
   322          2
   323          1
   324          1
   333          1
   334          1
   335          4
   336          1
   337          1
   338          1
   347          1
   348          1
   349          1
   350          1
   351          1
   362          1
   363          1
   364          1
   365          1
   376          1
   377          1
   378          1
   390          1
   391          1
   404          1
   405          1
   406          1
   412          1
   414          1
   415          1
   416          1
   417          1
   418          5
   419          6
   420        367
   421        132
   422         26
   423          4
   424          1