##TITLE=Library Entry 73113
##JCAMP-DX=Revision 4.10 
##DATA TYPE=MASS SPECTRUM
##SAMPLE DESCRIPTION=Patti Price, Georgia Bureau of Investigation, Decatur,
 Georgia
##NAMES=HP
##CAS NAME=Phentermine, acetyl
##MOLFORM=C12H17NO
##CAS REGISTRY NO=5531-33-9
##MP= -300
##BP= -300
##MW= 191
##$RETENTION INDEX=0
##$CONDENSED SPECTRUM=NO
##NPOINTS= 69
##XYDATA=(XY..XY) 1 
    42         49
    43        100
    50          3
    51         15
    52          4
    53          2
    54          2
    56         10
    57         14
    58        974
    59         37
    60          5
    62          3
    63         16
    64          4
    65         64
    66          3
    67          1
    68          1
    69          1
    71          2
    72          1
    73          1
    74          1
    75          2
    76          1
    77         16
    78          6
    79          3
    87          1
    88          1
    89         20
    90          8
    91        208
    92         23
    93          2
    94          1
    99          5
   100        999
   101         53
   102          5
   103          7
   104          4
   105          4
   113          1
   114          1
   115         37
   116         13
   117        102
   118         13
   119          3
   127          1
   128          3
   129          3
   130          2
   131         20
   132        111
   133         17
   134         84
   135          8
   136          1
   145          1
   146          1
   148          5
   152          1
   153          1
   160          1
   191          4
   192          1