##TITLE=Library Entry 43968
##JCAMP-DX=Revision 4.10 
##DATA TYPE=MASS SPECTRUM
##SAMPLE DESCRIPTION=BAY 0289
##NAMES=HP
##CAS NAME=Phosphoric acid, 2-(methoxyimino)-3-[(trimethylsilyl)oxy]propyl b
is(trimethylsilyl) ester
##MOLFORM=C13H34NO6PSi3
##CAS REGISTRY NO=55319-85-2
##MP= -300
##BP= -300
##MW= 415
##$RETENTION INDEX=0
##$CONDENSED SPECTRUM=NO
##NPOINTS= 214
##XYDATA=(XY..XY) 1 
    41        200
    42         19
    43         35
    44         35
    45        246
    46         12
    47         19
    50          4
    51          8
    52         12
    53          4
    54         19
    55         12
    56          8
    57         12
    58         58
    59        115
    60         15
    61         19
    63          4
    65          4
    67          4
    68          8
    69          4
    70         19
    71          8
    72         46
    73        999
    74        162
    75        123
    76         12
    77         15
    78          8
    79         15
    83          4
    84         38
    85         12
    86         12
    87          8
    88         46
    89        377
    90         35
    91         19
    93          8
    95          4
    98         27
    99         15
   100         19
   101         19
   102         15
   103        223
   104         35
   105         31
   106          8
   107          8
   109          4
   112          4
   113         15
   114         31
   115         31
   116         12
   117         19
   119         27
   120          4
   121         15
   122          4
   123          8
   126          4
   127          8
   128         38
   129         12
   130          8
   131         23
   132          8
   133        185
   134         23
   135         85
   136          8
   137         27
   138          4
   139          4
   142        231
   143         31
   144         19
   145          8
   147        131
   148         19
   149         19
   150          4
   151         15
   153          4
   158         42
   159         12
   160          8
   163         12
   165          8
   167         12
   172          8
   173        385
   174         69
   175         19
   176          4
   177          4
   179         12
   181         23
   182          4
   183         12
   189          4
   191         12
   192          4
   193         19
   194          8
   195         58
   196          8
   197         23
   198          4
   205          8
   206          4
   207         31
   208          8
   209         12
   210         15
   211        231
   212         35
   213         27
   214          4
   221          8
   222          4
   223          4
   225        185
   226         38
   227         42
   228          8
   229          4
   236         54
   237         15
   238          8
   240         15
   241        100
   242         19
   243         23
   244          4
   248          4
   250          8
   251          4
   252         15
   253          8
   254          4
   255          8
   256         31
   257         27
   258          8
   259          4
   266         38
   267          8
   268          4
   269          8
   271          4
   280         12
   281          8
   282         46
   283         27
   284         15
   285         23
   286          8
   294         19
   295          8
   296          4
   298          8
   299        608
   300        177
   301         85
   302         15
   303          8
   312         15
   313         15
   314         31
   315        768
   316        192
   317        123
   318         23
   319          8
   325         54
   326         19
   327          8
   328          4
   329          4
   340          8
   341         12
   342          4
   353          4
   354         31
   355         12
   356         12
   357          4
   368         54
   369        100
   370        108
   371         31
   372         12
   373          8
   383          4
   384         12
   385          8
   386          4
   400        569
   401        154
   402         81
   403         19
   404          4
   414          4
   415          5
   416          3
   417          2