##TITLE=Library Entry 42859
##JCAMP-DX=Revision 4.10 
##DATA TYPE=MASS SPECTRUM
##SAMPLE DESCRIPTION=S. MARKEY UNIV. OF COLO. MED. CTR., DENVER, COLORADO, U
SA
##NAMES=HP
##CAS NAME=L-Norleucine, 2TMS derivative
##MOLFORM=C12H29NO2Si2
##CAS REGISTRY NO=55320-11-1
##MP= -300
##BP= -300
##MW= 275
##$RETENTION INDEX=0
##$CONDENSED SPECTRUM=NO
##NPOINTS= 70
##XYDATA=(XY..XY) 1 
    26          8
    27         54
    29         67
    30         10
    31         16
    39         26
    41         62
    42         11
    43        124
    44         52
    45        232
    46          5
    47        141
    48          6
    49         25
    54         13
    55         21
    56          8
    57         22
    58         39
    59        153
    60         14
    61         34
    63         33
    69         44
    70          6
    72         31
    73        999
    74        105
    75        134
    77        165
    78          5
    79          6
    81          8
    84         10
    85          8
    86         15
    87          6
    93          8
   100         64
   101         16
   102          6
   103          5
   114         66
   115         17
   117         13
   119         21
   128         40
   130         21
   131         37
   132         31
   133         32
   134          8
   147        124
   148         15
   149         30
   158        855
   159        118
   160         42
   170          6
   186         18
   188          6
   202          6
   203         13
   216          5
   218         24
   219          5
   232         71
   233         10
   260         18