##TITLE=Library Entry 58815
##JCAMP-DX=Revision 4.10 
##DATA TYPE=MASS SPECTRUM
##SAMPLE DESCRIPTION=Chuck Anderson, Aldrich Chemical Co.
##NAMES=HP
##CAS NAME=Benzyl cyanoformate
##MOLFORM=C9H7NO2
##CAS REGISTRY NO=5532-86-5
##MP= -300
##BP= -300
##MW= 161
##$RETENTION INDEX=0
##$CONDENSED SPECTRUM=NO
##NPOINTS= 63
##XYDATA=(XY..XY) 1 
    16          1
    17          0
    26         14
    27         26
    28          8
    29         13
    30          0
    36          1
    37          4
    38         14
    39         87
    40          4
    41         15
    42          1
    43          0
    44         20
    45         10
    49          2
    50         32
    51        104
    52         20
    53          2
    54         48
    55          2
    61         13
    62          1
    63         51
    64          4
    65        112
    66          4
    73          1
    74         13
    75          8
    76          2
    77        172
    78         14
    79        112
    80          4
    85          1
    86          2
    87          1
    89         84
    90        999
    91        522
    92         32
    93          1
   104          1
   105         48
   106          4
   107         65
   108          3
   115          7
   116          6
   117         25
   118          1
   126          0
   132         10
   133         10
   134          5
   143          3
   161        344
   162         26
   163          2