##TITLE=Library Entry 7161
##JCAMP-DX=Revision 4.10 
##DATA TYPE=MASS SPECTRUM
##SAMPLE DESCRIPTION=Exported from NIST MS Search
##NAMES=HP
##CAS NAME=9,12,15-Octadecatrienoic acid, 2,3-bis(acetyloxy)propyl ester, (Z
,Z,Z)-
##MOLFORM=C25H40O6
##CAS REGISTRY NO=55320-02-0
##MP= -300
##BP= -300
##MW= 436
##$RETENTION INDEX=0
##$CONDENSED SPECTRUM=NO
##NPOINTS= 115
##XYDATA=(XY..XY) 1 
    26         10
    27         60
    28         50
    29         80
    31         20
    32         10
    38         10
    39         50
    40         10
    41        160
    42         50
    43        999
    44         50
    45         40
    50         10
    51         20
    52         30
    53         30
    54         20
    55        230
    56         30
    57        120
    58         10
    59         20
    60         30
    61         10
    65         10
    66         10
    67        110
    68         30
    69         70
    70         20
    71         30
    72         10
    73         30
    74         10
    75         10
    77         20
    78         20
    79        110
    80         40
    81        110
    82         40
    83        100
    84         40
    85         30
    86         20
    87         10
    91         40
    92         10
    93         50
    94         30
    95         70
    96         30
    97         70
    98         60
    99         50
   100         10
   101         10
   103         40
   104         10
   105         20
   106         10
   107         50
   108         20
   109         50
   110         20
   111         30
   112         10
   113         10
   114         10
   115         10
   116         20
   117         50
   118         10
   119         20
   120         10
   121         30
   122         20
   123         20
   124         10
   125         40
   126         10
   127         10
   129         10
   131         10
   133         10
   134         10
   135         20
   136         10
   137         10
   138         10
   139         10
   141         10
   145         20
   147         10
   148         10
   149         10
   150         10
   151         10
   152         10
   153         10
   154         10
   155         20
   158         20
   159        100
   160         10
   161         10
   163         10
   171         40
   172         10
   185         10
   209         10
   213         10
   227         10