##TITLE=Library Entry 6322
##JCAMP-DX=Revision 4.10 
##DATA TYPE=MASS SPECTRUM
##SAMPLE DESCRIPTION=CARL DJERASSI DEPT OF CHEM STANFORD UNIV STANFORD CALIF
 94305
##NAMES=HP
##CAS NAME=Androst-5-ene-3,19-diol, 3-acetate, (3.beta.)-
##MOLFORM=C21H32O3
##CAS REGISTRY NO=55320-48-4
##MP= -300
##BP= -300
##MW= 332
##$RETENTION INDEX=0
##$CONDENSED SPECTRUM=NO
##NPOINTS= 101
##XYDATA=(XY..XY) 1 
    41        416
    42         54
    43        999
    44         37
    45         45
    46          8
    50          4
    51         20
    52         12
    53        116
    54         16
    55        308
    56         20
    57         41
    60          4
    61         16
    63          4
    65         50
    66         12
    67        295
    68         25
    69         83
    70          8
    71          8
    73         12
    77        112
    78         33
    79        195
    80         29
    81        187
    82         12
    83         29
    91        287
    92         37
    93        141
    94         16
    95        341
    96         25
    97         20
   103         12
   104         29
   105        150
   106         29
   107         79
   108         12
   109         70
   110          4
   111          4
   115         37
   116         16
   117         95
   118         20
   119         83
   120          8
   121         54
   122          4
   123         16
   127          4
   128         37
   129         66
   130         29
   131        137
   132         20
   133         75
   134         16
   135        229
   136         20
   137         95
   138          8
   141         16
   142         12
   143         54
   144         16
   145        183
   146         37
   147         54
   148         12
   149         25
   155          4
   157         16
   158          8
   159         75
   160          8
   161          8
   163          4
   169          4
   171         12
   173          4
   185         16
   187          4
   199          8
   213          4
   227          4
   239          8
   240         29
   241        341
   242        112
   243         20
   254          4
   255          4
   272         16