##TITLE=Library Entry 7158
##JCAMP-DX=Revision 4.10 
##DATA TYPE=MASS SPECTRUM
##SAMPLE DESCRIPTION=Exported from NIST MS Search
##NAMES=HP
##CAS NAME=9,12,15-Octadecatrienoic acid, 2-(acetyloxy)-1-[(acetyloxy)methyl
]ethyl ester, (Z,Z,Z)-
##MOLFORM=C25H40O6
##CAS REGISTRY NO=55320-01-9
##MP= -300
##BP= -300
##MW= 436
##$RETENTION INDEX=0
##$CONDENSED SPECTRUM=NO
##NPOINTS= 123
##XYDATA=(XY..XY) 1 
    26         10
    27         90
    28         50
    29        140
    30         10
    31         20
    32         10
    38         10
    39         80
    40         20
    41        270
    42         80
    43        999
    44         60
    45         30
    46         10
    51         10
    52         10
    53         40
    54         50
    55        330
    56         60
    57        210
    58         20
    59         20
    60         20
    61         30
    65         20
    66         20
    67        230
    68         70
    69        120
    70         40
    71         80
    72         10
    73         40
    74         10
    75         10
    77         30
    78         10
    79         90
    80         60
    81        210
    82         70
    83        140
    84         60
    85         40
    86         20
    87         10
    91         40
    92         10
    93         60
    94         40
    95        120
    96         50
    97         70
    98         80
    99         90
   100         10
   101         10
   103         20
   105         20
   106         10
   107         40
   108         20
   109        120
   110         40
   111         40
   112         10
   113         10
   115         30
   116         30
   117         60
   118         10
   119         20
   120         10
   121         40
   122         10
   123         30
   124         20
   125         30
   126         10
   127         40
   129         10
   131         10
   133         10
   134         10
   135         30
   136         10
   137         20
   138         10
   139         10
   140         10
   141         20
   145         10
   147         10
   149         20
   150         10
   151         20
   152         10
   153         10
   155         60
   156         10
   158         20
   159        120
   160         10
   161         10
   163         10
   164         10
   165         10
   167         10
   171         30
   177         10
   178         10
   179         10
   185         10
   191         10
   193         10
   199         10
   209         10
   227         10
   262         10
   263         10