##TITLE=Library Entry 50074
##JCAMP-DX=Revision 4.10 
##DATA TYPE=MASS SPECTRUM
##SAMPLE DESCRIPTION=CARL DJERASSI DEPT OF CHEM STANFORD UNIV STANFORD CALIF
 94305
##NAMES=HP
##CAS NAME=2-Pentenoic acid, 5-phenyl-, (E)-
##MOLFORM=C11H12O2
##CAS REGISTRY NO=55320-96-2
##MP= -300
##BP= -300
##MW= 176
##$RETENTION INDEX=0
##$CONDENSED SPECTRUM=NO
##NPOINTS= 15
##XYDATA=(XY..XY) 1 
    44         20
    51         20
    65         80
    77         10
    78         10
    81        999
    82         60
   114         20
   115         20
   116         60
   128         30
   129         40
   130         60
   158         30
   176         50