##TITLE=Library Entry 7168
##JCAMP-DX=Revision 4.10 
##DATA TYPE=MASS SPECTRUM
##SAMPLE DESCRIPTION=Exported from NIST MS Search
##NAMES=HP
##CAS NAME=9,12-Octadecadienoic acid (Z,Z)-, 2,3-bis(acetyloxy)propyl ester
##MOLFORM=C25H42O6
##CAS REGISTRY NO=55320-04-2
##MP= -300
##BP= -300
##MW= 438
##$RETENTION INDEX=0
##$CONDENSED SPECTRUM=NO
##NPOINTS= 118
##XYDATA=(XY..XY) 1 
    26         20
    27        130
    28         70
    29        190
    30         10
    31         20
    38         10
    39         80
    40         20
    41        230
    42         80
    43        999
    44        110
    45         60
    46         10
    51         10
    53         30
    54         20
    55        240
    56         70
    57        170
    58         20
    59         10
    60         60
    61         20
    65         10
    66         10
    67         90
    68         40
    69         70
    70         40
    71         80
    72         20
    73         50
    74         20
    75         10
    77         10
    79         30
    80         20
    81         70
    82         40
    83        110
    84         60
    85         40
    86         30
    87         20
    91         10
    93         20
    94         20
    95         50
    96         20
    97         50
    98         70
    99         60
   100         10
   101         10
   102         10
   103         40
   105         10
   107         20
   108         10
   109         80
   110         20
   111         30
   112         10
   113         10
   114         10
   115         10
   116         20
   117         50
   118         10
   119         10
   121         10
   122         10
   123         10
   124         10
   125         30
   126         20
   127         30
   128         10
   129         10
   133         10
   135         10
   136         10
   137         10
   138         10
   139         10
   140         10
   141         20
   143         10
   145         30
   149         10
   151         10
   152         10
   153         10
   154         10
   155        190
   156         20
   157         10
   158         30
   159        160
   160         10
   165         10
   167         10
   169         10
   171         50
   172         10
   177         10
   185         10
   199         10
   213         20
   227         20
   242         10
   271         10
   277         30
   297         20
   310         30
   329         40