##TITLE=Library Entry 41578
##JCAMP-DX=Revision 4.10 
##DATA TYPE=MASS SPECTRUM
##SAMPLE DESCRIPTION=NIST Mass Spectrometry Data Center
##NAMES=HP
##CAS NAME=Chenodeoxycholic acid, (3.alpha.,5.beta.,7.alpha.)-, 3TMS
##MOLFORM=C33H64O4Si3
##CAS REGISTRY NO=55320-14-4
##MP= -300
##BP= -300
##MW= 608
##$RETENTION INDEX=3261
##$CONDENSED SPECTRUM=NO
##NPOINTS= 309
##XYDATA=(XY..XY) 1 
    15          3
    17         17
    27          5
    29          7
    39          8
    41         37
    43         56
    44         45
    45         54
    46          5
    47         33
    53         14
    54          4
    55        295
    56         19
    57         27
    58         13
    59         37
    60         12
    61         42
    62          3
    65          4
    66          6
    67        108
    68         12
    69         79
    70          7
    71          9
    72         22
    73        999
    74         93
    75        646
    76         47
    77         56
    78          7
    79        108
    80         17
    81        236
    82         22
    83        104
    84         11
    85         31
    86          4
    87          9
    89         20
    90          5
    91        125
    92         28
    93        227
    94         66
    95        244
    96         24
    97         30
    98          4
    99         14
   100          3
   101         43
   102          8
   103         36
   104         12
   105        235
   106         49
   107        253
   108         59
   109        138
   110         17
   111         23
   112          9
   113         20
   115         22
   116         45
   117        257
   118         54
   119        188
   120         82
   121        213
   122         44
   123         59
   124         11
   125         20
   126         15
   127         19
   128         21
   129        389
   130         69
   131        190
   132         80
   133        211
   134         58
   135        150
   136         22
   137         18
   138          9
   139         11
   140          5
   141         19
   142         35
   143         88
   144         41
   145        252
   146         66
   147        352
   148        105
   149        149
   150         25
   151         21
   152          4
   153         12
   154          9
   155         35
   156         23
   157         97
   158         37
   159        185
   160         99
   161        190
   162         40
   163         87
   164         19
   165         19
   166         16
   167         11
   168         37
   169         47
   170         19
   171         67
   172         32
   173        148
   174         56
   175         93
   176         20
   177         55
   178         16
   179         20
   180          3
   181         19
   182         18
   183         32
   184         11
   185         59
   186         33
   187         67
   188         16
   189         46
   190         13
   191         14
   192          9
   193         17
   194          3
   195         20
   196         12
   197         22
   198          7
   199         96
   200         59
   201        145
   202         31
   203         27
   204         13
   205          6
   206          3
   207         25
   208          8
   209         27
   210         22
   211         39
   212         24
   213        162
   214         56
   215         78
   216         24
   217         25
   218          6
   219          8
   220          4
   221          3
   223          9
   224          3
   225         10
   226          4
   227         34
   228         58
   229         59
   230         29
   231          8
   233          9
   234          3
   235          5
   236          6
   237          9
   238          2
   239         26
   240          9
   241         20
   242         15
   243        123
   244         27
   245         14
   246          3
   247          3
   249          9
   250          2
   251          8
   252          6
   253         30
   254         36
   255        532
   256        120
   257         16
   258          6
   263          8
   264          4
   265         16
   266         42
   267         24
   268          9
   269          6
   271          2
   272          2
   273          4
   274          4
   275          4
   278          4
   279         16
   280          7
   281         18
   282          6
   283         26
   284          9
   287          2
   289          3
   291          4
   292          5
   293          7
   294          5
   295         10
   296         12
   297         61
   298          8
   299          3
   303         13
   305         23
   306         14
   307         39
   308          9
   309          4
   310          8
   311          5
   313          4
   318          9
   319         17
   320         34
   321         21
   322          6
   323         22
   324          3
   331          4
   332          4
   333          5
   334          7
   335          4
   338          8
   339          8
   340          4
   341          6
   344          4
   345         68
   346         20
   347         11
   348          5
   356          3
   361          2
   371          7
   372          8
   373         10
   374         16
   375          4
   376          5
   386         10
   387          7
   388          4
   389          2
   393          6
   400          7
   406          2
   409          4
   410          4
   411          2
   413        163
   414         52
   415         13
   416          5
   424          5
   425          2
   427          6
   428        636
   429        279
   430         91
   431         18
   432          4
   436          3
   462          2
   503         13
   504          4
   516          2
   517          5
   518         12
   519          4
   607          2