##TITLE=Library Entry 57653
##JCAMP-DX=Revision 4.10 
##DATA TYPE=MASS SPECTRUM
##SAMPLE DESCRIPTION=CARL DJERASSI DEPT OF CHEM STANFORD UNIV STANFORD CALIF
 94305
##NAMES=HP
##CAS NAME=Acetamide, N-[(3.beta.,5.alpha.)-cholestan-3-yl]-N-ethyl-
##MOLFORM=C31H55NO
##CAS REGISTRY NO=55320-47-3
##MP= -300
##BP= -300
##MW= 457
##$RETENTION INDEX=0
##$CONDENSED SPECTRUM=NO
##NPOINTS= 91
##XYDATA=(XY..XY) 1 
    41        120
    42         30
    43        310
    44         40
    53         10
    55        140
    56         70
    57        120
    58         30
    67         60
    68         20
    69         80
    70         20
    71         90
    72         40
    77         10
    79         50
    80         10
    81        110
    82         30
    83         50
    84        130
    85         20
    86         30
    87         20
    88        999
    89         50
    91         30
    92         10
    93         70
    94         20
    95         90
    96         10
    97         40
    98         10
   105         40
   106         20
   107         80
   108         30
   109         50
   110         50
   111         20
   112         20
   119         20
   120         10
   121         40
   122         10
   123         20
   124         10
   126         30
   127         50
   133         20
   134         10
   135         30
   136         10
   137         10
   139         30
   145         10
   147         30
   148         10
   149         30
   152         50
   153         10
   159         10
   161         20
   162         10
   163         10
   175         10
   176         10
   177         10
   201         10
   203         10
   207         20
   215         40
   216         30
   217         20
   230         10
   257         20
   316         40
   317         10
   355         40
   356         20
   370         80
   371         30
   414         20
   428         80
   429         20
   442         20
   457        250
   458         80
   459         10