##TITLE=Library Entry 24218
##JCAMP-DX=Revision 4.10 
##DATA TYPE=MASS SPECTRUM
##SAMPLE DESCRIPTION=Exported from NIST MS Search
##NAMES=HP
##CAS NAME=Heneicosane, 11-decyl-
##MOLFORM=C31H64
##CAS REGISTRY NO=55320-06-4
##MP= -300
##BP= -300
##MW= 436
##$RETENTION INDEX=0
##$CONDENSED SPECTRUM=NO
##NPOINTS= 173
##XYDATA=(XY..XY) 1 
    12          1
    13          1
    15          3
    16          1
    25          1
    26          4
    27         48
    29        168
    30          4
    36          1
    37          1
    38          1
    39         19
    40          4
    41        237
    42         58
    43        796
    44         27
    49          1
    50          1
    51          1
    52          1
    53          8
    54         28
    55        282
    56        134
    57        999
    58         44
    59          1
    65          2
    66          3
    67         42
    68         36
    69        215
    70         96
    71        587
    72         32
    73          1
    77          2
    78          1
    79          5
    80          2
    81         24
    82         32
    83        168
    84         54
    85        424
    86         27
    87          1
    91          1
    92          1
    93          1
    94          1
    95         12
    96         17
    97        113
    98         31
    99        115
   100          9
   101          1
   105          1
   106          1
   107          1
   108          1
   109          5
   110          9
   111         55
   112         22
   113         80
   114          8
   115          1
   116          4
   117          1
   118          1
   119          1
   121          1
   122          1
   123          2
   124          6
   125         26
   126         17
   127         60
   128          6
   129          1
   131          1
   137          1
   138          5
   139         13
   140         16
   141         46
   142          5
   143          1
   145          1
   151          1
   152          4
   153          8
   154          9
   155         36
   156          4
   157          1
   165          1
   166          4
   167         10
   168          8
   169         31
   170          4
   171          1
   179          1
   180          3
   181          5
   182         11
   183         27
   184          4
   185          1
   193          1
   194          2
   195          4
   196          5
   197         23
   198          4
   199          1
   200          1
   201          1
   202          1
   203          1
   204          1
   205          1
   207          1
   208          3
   209          4
   210          4
   211         21
   212          4
   213          1
   221          1
   222          2
   223          3
   224          4
   225         17
   226          1
   227          1
   236          1
   237          2
   238          3
   239         12
   240          2
   242          1
   252          3
   253          8
   254          2
   255          1
   266         10
   267          5
   268          1
   280          6
   281          7
   282          1
   294        187
   295        242
   296         49
   297          5
   298          1
   308          6
   309          8
   310          2
   311          1
   322          2
   323          3
   324          1
   337          2
   338          1
   435          1
   436          1