##TITLE=Library Entry 81667
##JCAMP-DX=Revision 4.10 
##DATA TYPE=MASS SPECTRUM
##SAMPLE DESCRIPTION=CARL DJERASSI DEPT OF CHEM STANFORD UNIV STANFORD CALIF
 94305
##NAMES=HP
##CAS NAME=Benzoic acid, 2-(methylamino)-, propyl ester
##MOLFORM=C11H15NO2
##CAS REGISTRY NO=55320-72-4
##MP= -300
##BP= -300
##MW= 193
##$RETENTION INDEX=1560
##$CONDENSED SPECTRUM=NO
##NPOINTS= 81
##XYDATA=(XY..XY) 1 
    41        230
    42         80
    43        210
    44         20
    45         20
    46         20
    50         90
    51        220
    52         80
    53         40
    54         10
    55         60
    56         20
    57         80
    58         20
    62         30
    63         80
    64         90
    65         80
    66         30
    67         30
    68         10
    69         30
    70         20
    71         30
    72         10
    73         10
    74         20
    75         20
    76         60
    77        510
    78        270
    79        110
    80         10
    81         20
    82         10
    83         20
    84         10
    85         20
    89         10
    90         20
    91        130
    92         70
    93         30
    94         10
    95         20
    96         10
    97         10
    98         10
    99         10
   102         10
   103         30
   104        460
   105        999
   106        240
   107         40
   108         10
   109         10
   111         10
   115         10
   116         40
   117         10
   118         10
   119         10
   122         10
   123         10
   127         10
   128         10
   132        400
   133        320
   134        330
   135         30
   141         10
   142         10
   149         10
   150         30
   151        200
   152         10
   180         10
   193        570
   194         70