##TITLE=Library Entry 53688
##JCAMP-DX=Revision 4.10 
##DATA TYPE=MASS SPECTRUM
##SAMPLE DESCRIPTION=CARL DJERASSI DEPT OF CHEM STANFORD UNIV STANFORD CALIF
 94305
##NAMES=HP
##CAS NAME=Hexanal, 3,3-dimethyl-
##MOLFORM=C8H16O
##CAS REGISTRY NO=55320-57-5
##MP= -300
##BP= -300
##MW= 128
##$RETENTION INDEX=916
##$CONDENSED SPECTRUM=NO
##NPOINTS= 31
##XYDATA=(XY..XY) 1 
    27        160
    28         40
    29        320
    39        150
    40         20
    41        600
    42         50
    43        810
    44         30
    45         10
    53         40
    55        160
    56        340
    57        520
    58         20
    59         20
    67         80
    69        800
    70         40
    71         60
    72         10
    82         20
    83         20
    84        999
    85        650
    86         30
    95         90
   100         10
   110         10
   113         10
   128         10