##TITLE=Library Entry 43652
##JCAMP-DX=Revision 4.10 
##DATA TYPE=MASS SPECTRUM
##SAMPLE DESCRIPTION=O A MAMER, MCGILL UNIVERSITY, MONTRE
##NAMES=HP
##CAS NAME=2-Pentenoic acid, 3-methyl-2-[(trimethylsilyl)oxy]-, trimethylsil
yl ester
##MOLFORM=C12H26O3Si2
##CAS REGISTRY NO=55320-09-7
##MP= -300
##BP= -300
##MW= 274
##$RETENTION INDEX=1318
##$CONDENSED SPECTRUM=NO
##NPOINTS= 192
##XYDATA=(XY..XY) 1 
    14          1
    15          6
    16          1
    20          1
    25          1
    26          6
    27         21
    29         12
    30          2
    31          9
    38          1
    39         15
    40          5
    42          6
    43         10
    44          0
    45        181
    46         15
    47         19
    48          2
    49          2
    50          2
    51          5
    52          8
    53         17
    54          3
    55         39
    56         19
    57         23
    58         18
    59         15
    60          8
    61         28
    62          2
    63          3
    64          1
    65          9
    66         28
    67         38
    68         14
    69         11
    70          6
    71          8
    72         27
    73        999
    74         87
    75         96
    76         18
    77         20
    78          3
    79          7
    80          1
    81          8
    82          4
    83        210
    84         17
    85         12
    86          3
    87          4
    88          3
    89          2
    90          1
    91          3
    92          7
    93          9
    94         14
    95         10
    96          2
    97         20
    98          3
    99         19
   100          4
   101          5
   102          1
   103          4
   104          1
   105          3
   106          1
   107          2
   108          3
   109          4
   110          4
   111         13
   112          8
   113         48
   114          7
   115         10
   116          4
   117         12
   118          2
   119          5
   120          1
   121          1
   122          2
   123          2
   124          2
   125         11
   126          3
   127         60
   128         10
   129          8
   130          3
   132          5
   133         56
   134          8
   135          6
   136          1
   137          1
   138          1
   139          3
   140          6
   141         34
   142          8
   143          5
   144          1
   145          2
   147        592
   148        113
   149         75
   150          8
   151         10
   152          1
   153          1
   154          1
   155         24
   156         17
   157         43
   158          6
   159          3
   160          1
   161          1
   163          1
   165          3
   166          3
   167          4
   168          2
   169         43
   170          8
   171         11
   172          2
   173          2
   175          1
   182          2
   183         26
   184        175
   185        139
   186         28
   187          8
   188          1
   189          1
   190          1
   191          1
   197          1
   198         11
   199         10
   200          2
   201          2
   202          1
   203          1
   204          1
   205          1
   207          2
   208          1
   215          2
   216          1
   217          7
   218         12
   219          3
   220          1
   221          1
   229          4
   230          1
   231          6
   232          3
   233          1
   243          6
   245        104
   246         25
   247         12
   248          2
   249          1
   257          8
   259        735
   260        178
   261         76
   262         12
   263          2
   273         18
   274         96
   275         26
   276          9
   277          2