##TITLE=Library Entry 50831
##JCAMP-DX=Revision 4.10 
##DATA TYPE=MASS SPECTRUM
##SAMPLE DESCRIPTION=Exported from NIST MS Search
##NAMES=HP
##CAS NAME=1,3-Cyclohexanediol, 2TMS derivative
##MOLFORM=C12H28O2Si2
##CAS REGISTRY NO=55320-10-0
##MP= -300
##BP= -300
##MW= 260
##$RETENTION INDEX=0
##$CONDENSED SPECTRUM=NO
##NPOINTS= 24
##XYDATA=(XY..XY) 1 
    45         90
    73        510
    74         30
    75        250
    76         20
    81        999
    82         90
   101        140
   102         10
   115         30
   116        320
   117         30
   129        110
   130         10
   147        610
   148         60
   155        110
   156         10
   169         80
   170        440
   171         50
   217        230
   218         30
   245         30