##TITLE=Library Entry 87013
##JCAMP-DX=Revision 4.10 
##DATA TYPE=MASS SPECTRUM
##SAMPLE DESCRIPTION=CARL DJERASSI DEPT OF CHEM STANFORD UNIV STANFORD CALIF
 94305
##NAMES=HP
##CAS NAME=Cholest-2-en-3-amine, N,N-diethyl-, (5.alpha.)-
##MOLFORM=C31H55N
##CAS REGISTRY NO=55320-50-8
##MP= -300
##BP= -300
##MW= 441
##$RETENTION INDEX=0
##$CONDENSED SPECTRUM=NO
##NPOINTS= 184
##XYDATA=(XY..XY) 1 
    41        600
    42        190
    43        910
    44        130
    45         10
    50         10
    51         20
    52         20
    53         80
    54        100
    55        580
    56        180
    57        420
    58         70
    59         10
    63         10
    65         20
    66         20
    67        190
    68        100
    69        270
    70        160
    71        150
    72         50
    73         20
    74         10
    75         10
    77         60
    78         20
    79        150
    80         40
    81        260
    82        200
    83        120
    84         50
    85         30
    86         10
    87         10
    91        110
    92         30
    93        130
    94         50
    95        180
    96         90
    97        130
    98         60
    99         30
   102         10
   103         10
   104         10
   105         90
   106         40
   107        130
   108         80
   109        110
   110        999
   111        140
   112        150
   113         20
   115         10
   117         10
   118         10
   119         60
   120         30
   121         80
   122         60
   123        100
   124        120
   125        610
   126        120
   127         80
   128         20
   129         20
   130         10
   131         50
   132         10
   133         30
   134         40
   135         40
   136         40
   137         50
   138        100
   139         30
   140         10
   141         10
   142         10
   143         20
   144         10
   145         20
   147         40
   148         20
   149         30
   150         70
   151         30
   152         60
   153         10
   154         10
   157         10
   158         20
   159         30
   160         30
   161         30
   162         40
   163         90
   164        130
   165        100
   166         30
   167         10
   168         10
   169         10
   172         20
   173         10
   174         20
   175         20
   176         20
   177         10
   178        130
   179         50
   180         10
   181         10
   182         10
   188         10
   189         10
   190         20
   191         10
   192         30
   193         10
   195         10
   201         10
   202         10
   203         20
   204         20
   205         10
   207         20
   209         10
   213         10
   215         20
   216         10
   217         60
   218         20
   219         10
   229         10
   230         10
   231        220
   232        150
   233         50
   234         10
   243         10
   244         10
   246         30
   247         10
   258         10
   261         10
   272         20
   273         10
   286         10
   287         10
   288         10
   298         10
   300         10
   312         10
   313         10
   314         10
   315         10
   328         10
   329         10
   356         10
   371         30
   384         50
   385         20
   386        100
   387         30
   398         10
   412        190
   413         70
   414         20
   426        140
   427         50
   428         10
   439         30
   440        130
   441        620
   442        220
   443         50