##TITLE=Library Entry 46711
##JCAMP-DX=Revision 4.10 
##DATA TYPE=MASS SPECTRUM
##SAMPLE DESCRIPTION=CARL DJERASSI DEPT OF CHEM STANFORD UNIV STANFORD CALIF
 94305
##NAMES=HP
##CAS NAME=Hexanal, 4-methyl-, (2-nitrophenyl)hydrazone
##MOLFORM=C13H19N3O2
##CAS REGISTRY NO=55320-77-9
##MP= -300
##BP= -300
##MW= 249
##$RETENTION INDEX=0
##$CONDENSED SPECTRUM=NO
##NPOINTS= 74
##XYDATA=(XY..XY) 1 
    41        610
    42        190
    43        630
    44        140
    50         30
    51        180
    52        290
    53         70
    54         30
    55        680
    56        110
    57        290
    58         60
    63         70
    64         80
    65        170
    66         20
    67         40
    69        130
    70        120
    71         50
    76         70
    77        999
    78        250
    79        110
    80         30
    81         40
    82         40
    83         30
    90         50
    91        200
    92        120
    93         80
    95         60
    96         40
    97        160
    98         40
   103         40
   104        410
   105        130
   106         70
   107        110
   115         30
   117         60
   118         50
   119         80
   120         70
   121         30
   130         20
   131         70
   132        110
   133        180
   134         30
   135         70
   136        110
   138        140
   144         20
   145         60
   146         30
   148         30
   151         80
   152         10
   158         10
   159         10
   160        170
   161        400
   162         50
   173         20
   178         20
   179        160
   180         10
   193         60
   249        380
   250         50