##TITLE=Library Entry 9268
##JCAMP-DX=Revision 4.10 
##DATA TYPE=MASS SPECTRUM
##SAMPLE DESCRIPTION=R. RYHAGE KAROLINSKA INSTITUTET, STOCKHOLM
##NAMES=HP
##CAS NAME=Heneicosanoic acid, 3-ethyl-3-methyl-, methyl ester
##MOLFORM=C25H50O2
##CAS REGISTRY NO=55334-80-0
##MP= -300
##BP= -300
##MW= 382
##$RETENTION INDEX=0
##$CONDENSED SPECTRUM=NO
##NPOINTS= 225
##XYDATA=(XY..XY) 1 
    13          3
    14          7
    15         60
    16          4
    17          7
    18         23
    25          2
    26         14
    27        120
    28         50
    29        310
    30         14
    31         62
    32         37
    33          4
    37          3
    38          5
    39         93
    40         22
    41        670
    42        150
    43        999
    44         41
    45         17
    50          4
    51          4
    52          4
    53         48
    54         51
    55        780
    56        190
    57        810
    58         39
    59        120
    60          5
    61          3
    65          9
    66          7
    67        120
    68         93
    69        760
    70        490
    71        500
    72        360
    73         49
    74        960
    75        350
    76         17
    77         11
    78          4
    79         21
    80          8
    81        100
    82         96
    83        410
    84         87
    85        340
    86         30
    87        200
    88         15
    89          3
    91          8
    92          3
    93         15
    94          7
    95         93
    96         90
    97        740
    98         90
    99        150
   100         13
   101         60
   102          8
   103          2
   106          2
   107         13
   108          6
   109         48
   110         22
   111        140
   112         34
   113        110
   114         23
   115         24
   116          3
   117          2
   119          4
   120          2
   121         10
   122         15
   123         25
   124         11
   125         66
   126         24
   127         85
   128         48
   129         99
   130         52
   131          6
   133          3
   135         11
   136          5
   137         13
   138          6
   139         34
   140         60
   141         70
   142         10
   143         10
   147         23
   151          8
   152          4
   153         25
   154         10
   155         53
   156          7
   157          9
   158          2
   161          2
   163          7
   164          2
   165          6
   166          4
   167         15
   168          4
   169         47
   170          7
   171          5
   177          5
   179          4
   180          3
   181         11
   182          3
   183         43
   184          7
   185          8
   191          4
   193          4
   194          3
   195          9
   196          3
   197         40
   198          7
   199          5
   205          3
   207          4
   208          3
   209          5
   210          3
   211         38
   212          7
   213          4
   219          3
   221          3
   222          3
   223          6
   224          2
   225         37
   226          7
   227          4
   233          3
   236          4
   237          5
   238          7
   239         32
   240          6
   241          5
   247          2
   249          2
   250          3
   251          5
   252          4
   253         23
   254          5
   255          4
   263          2
   265          3
   266          2
   267         13
   268          3
   269          3
   277          2
   278         19
   279         49
   280         16
   281          4
   283          3
   292          2
   293          4
   294          3
   295          4
   297          6
   298          3
   303         18
   304          5
   306          7
   307          4
   308         80
   309        660
   310        160
   311         59
   312         11
   313          3
   317          3
   320          6
   321        120
   322         33
   323          6
   325          4
   331          2
   335          4
   336          2
   349          4
   350          8
   351         31
   352         16
   353        250
   354         67
   355         10
   367         13
   368          4
   381          8
   382         38
   383         41
   384         10