##TITLE=Library Entry 28440
##JCAMP-DX=Revision 4.10 
##DATA TYPE=MASS SPECTRUM
##SAMPLE DESCRIPTION=Exported from NIST MS Search
##NAMES=HP
##CAS NAME=Pregnan-20-ol, 3,18-bis[(1-methylethylidene)amino]-, (3.beta.)-
##MOLFORM=C27H46N2O
##CAS REGISTRY NO=55331-85-6
##MP= -300
##BP= -300
##MW= 414
##$RETENTION INDEX=0
##$CONDENSED SPECTRUM=NO
##NPOINTS= 116
##XYDATA=(XY..XY) 1 
    41        150
    42         90
    43        140
    44         40
    45         70
    53         50
    54         20
    55        150
    56         50
    57         50
    58        999
    59         50
    65         10
    66         10
    67        130
    68         80
    69         60
    70        310
    71        949
    72        160
    73         10
    76         50
    77         10
    78        100
    79         50
    80        120
    81         50
    82         70
    83         90
    84         20
    90        100
    91         20
    92        100
    93         50
    94        100
    95        110
    96         50
    97         50
    98         10
   104         80
   105         30
   106         80
   107         50
   108         60
   109         30
   110         10
   117         40
   118         10
   119         50
   120         20
   121         30
   122         30
   130         10
   132         40
   133         10
   134         40
   135         10
   136         10
   143         10
   145         30
   146         10
   147         30
   148         10
   149         10
   150         10
   151         10
   152         30
   157         20
   158         10
   159         20
   160         10
   162         20
   163         10
   164         10
   273         50
   274         40
   275         20
   283         30
   284         20
   285         30
   286         10
   298         30
   299         10
   300        220
   301         70
   302         10
   313         20
   314         20
   315         60
   316         20
   326         10
   327         30
   328         30
   329         10
   330         10
   340         10
   341         20
   342         60
   343         50
   344        100
   345         30
   355        370
   356        120
   357         90
   358         40
   369         20
   370         20
   371         20
   396         30
   397         20
   399        120
   400         50
   413         20
   414        120
   415         60
   416         10