##TITLE=Library Entry 43873
##JCAMP-DX=Revision 4.10 
##DATA TYPE=MASS SPECTRUM
##SAMPLE DESCRIPTION=BAY 0280
##NAMES=HP
##CAS NAME=Phosphoric acid, 3-(ethoxyimino)-2-[(trimethylsilyl)oxy]propyl bi
s(trimethylsilyl) ester, (Z)-(.+/-.)-
##MOLFORM=C14H36NO6PSi3
##CAS REGISTRY NO=55334-96-8
##MP= -300
##BP= -300
##MW= 429
##$RETENTION INDEX=0
##$CONDENSED SPECTRUM=NO
##NPOINTS= 216
##XYDATA=(XY..XY) 1 
    41         14
    42         28
    43         79
    44         32
    45        157
    46          9
    47         19
    51          5
    52          5
    53          5
    54          9
    55          5
    56          5
    57          9
    58         19
    59        111
    60          9
    61         37
    63          5
    68          9
    70         46
    71         19
    72         46
    73        999
    74        139
    75        157
    76         19
    77         23
    78          5
    79          9
    83          5
    84          9
    85         19
    86         14
    87         14
    88          5
    89         23
    91         37
    92          5
    93          9
    98         14
    99         28
   100         23
   101        148
   102         32
   103         83
   104         19
   105          9
   107          5
   112          9
   113          9
   114         19
   115         28
   116         46
   117         46
   118          9
   119        120
   120         14
   121         23
   122          5
   123          9
   126         19
   127          9
   128         51
   129         14
   130         14
   131         23
   132          9
   133        259
   134         28
   135        102
   136          9
   137         28
   141          5
   142        315
   143         65
   144        102
   145         19
   146          9
   147        222
   148         23
   149         32
   150          5
   151          9
   153          5
   155          5
   158         19
   159          9
   160          5
   164          5
   166          9
   167         14
   172        250
   173         28
   174        769
   175         79
   176         32
   177         14
   179         14
   181         23
   182          9
   183          9
   187         93
   188        259
   189         65
   190         19
   191         19
   192          9
   193         32
   194          9
   195         74
   196          9
   197         28
   198          9
   200          9
   205          9
   206          5
   207         28
   208         19
   209         23
   210          9
   211        648
   212         65
   213         65
   214          9
   215          5
   221          9
   223          5
   225        139
   226         19
   227        222
   228         28
   229         14
   230          5
   240          5
   241         19
   242          9
   243         65
   244         19
   245          5
   253         37
   254          9
   255         23
   256          9
   257          5
   267          9
   269         28
   270          9
   271          9
   272          5
   278         14
   283         28
   284         14
   285         46
   286         19
   287         14
   294         37
   295         19
   296          9
   298         74
   299        925
   300        241
   301        185
   302         32
   303          9
   313         37
   314         28
   315        398
   316        111
   317         37
   318          9
   319          5
   325          5
   326          5
   327          9
   328        778
   329        139
   330        111
   331         23
   332          5
   340          9
   341        194
   342         88
   343         46
   344          9
   345          5
   352         14
   353          5
   354          9
   355          9
   356          9
   357        171
   358         42
   359         19
   360          5
   368         28
   369         19
   370          9
   371          9
   372          5
   384        509
   385        111
   386         56
   387        139
   388         42
   389         19
   390          5
   398          5
   399          9
   400          5
   414        176
   415         46
   416         19
   417          9
   429          9
   430          5