##TITLE=Library Entry 76374
##JCAMP-DX=Revision 4.10 
##DATA TYPE=MASS SPECTRUM
##SAMPLE DESCRIPTION=V.G. Zaikin, R.S.Borisov, TIPS RAS, Moscow, Russia
##NAMES=HP
##CAS NAME=Butanoic acid, 3-methyl-, hexadecyl ester
##MOLFORM=C21H42O2
##CAS REGISTRY NO=55334-36-6
##MP= -300
##BP= -300
##MW= 326
##$RETENTION INDEX=0
##$CONDENSED SPECTRUM=NO
##NPOINTS= 111
##XYDATA=(XY..XY) 1 
    26          7
    27         34
    28         32
    29         80
    30          2
    31          1
    36          2
    37          1
    39         35
    40          9
    41        219
    42         66
    43        319
    44          1
    45          5
    50          1
    51          2
    52          1
    53         13
    54         42
    55        276
    56        165
    57        512
    58         24
    59         12
    60         39
    61         45
    65          2
    66          5
    67         60
    68         78
    69        248
    70        165
    71        177
    72         10
    73          1
    77          2
    78          1
    79          6
    80          3
    81         38
    82        126
    83        300
    84        127
    85        450
    86         27
    87         55
    88          2
    91          2
    92          1
    93          1
    94          1
    95         21
    96         62
    97        278
    98         84
    99         24
   100          8
   101         13
   102         76
   103        999
   104         56
   105          5
   109          9
   110         28
   111        146
   112         57
   113         16
   115          6
   116          6
   117          1
   123          3
   124         15
   125         68
   126         40
   127          9
   128          1
   129          3
   130          1
   137          1
   138          9
   139         25
   140         28
   141          5
   143          7
   144          1
   152          5
   153         12
   154         18
   155          3
   158         18
   159          1
   166          3
   167          7
   168         13
   169          2
   172          1
   180          1
   181          3
   182          6
   183          1
   195          1
   196         41
   197          7
   222          1
   224         60
   225         12
   239          1
   269         18
   270          2
   311          2