##TITLE=Library Entry 65126
##JCAMP-DX=Revision 4.10 
##DATA TYPE=MASS SPECTRUM
##SAMPLE DESCRIPTION=Exported from NIST MS Search
##NAMES=HP
##CAS NAME=Benzene, [6-cyclopentyl-3-(3-cyclopentylpropyl)hexyl]-
##MOLFORM=C25H40
##CAS REGISTRY NO=55334-31-1
##MP= -300
##BP= -300
##MW= 340
##$RETENTION INDEX=0
##$CONDENSED SPECTRUM=NO
##NPOINTS= 213
##XYDATA=(XY..XY) 1 
    36          1
    37          1
    38          3
    39         39
    40          9
    41        243
    42         26
    43         37
    44         14
    45          1
    46          1
    48          1
    49          1
    50          3
    51          7
    52          3
    53         20
    54         17
    55        200
    56         17
    57         23
    58          1
    59          1
    60          1
    61          1
    62          1
    63          3
    64          2
    65         20
    66          7
    67         80
    68         20
    69        165
    70         13
    71         11
    72          1
    73          1
    74          1
    75          1
    76          1
    77         17
    78          9
    79         22
    80          7
    81         38
    82         25
    83        151
    84         11
    85          5
    86          1
    87          1
    89          3
    90          3
    91        368
    92        999
    93         95
    94         11
    95         44
    96         12
    97        102
    98          8
    99          1
   100          1
   101          1
   102          1
   103          7
   104         59
   105         55
   106          9
   107          3
   108          2
   109         16
   110          4
   111         40
   112          4
   113          1
   114          1
   115          4
   116          2
   117         18
   118          4
   119          7
   120          2
   121          5
   122          1
   123         10
   124          2
   125         19
   126          2
   127          1
   128          2
   129          3
   130          2
   131         11
   132          2
   133          5
   134          2
   135          4
   136          4
   137         18
   138          3
   139         10
   140          1
   141          1
   142          1
   143          1
   144          1
   145          4
   146          4
   147          3
   148          1
   149          1
   150          1
   151          6
   152          5
   153         20
   154          3
   155          1
   156          1
   157          1
   158          1
   159          2
   160          1
   161          1
   162          1
   163          1
   164          1
   165          3
   166          2
   167          9
   168          1
   169          1
   170          1
   171          1
   172          1
   173          1
   174          1
   175          1
   176          1
   177          1
   178          1
   179          3
   180          1
   181          1
   182          1
   183          1
   184          1
   185          1
   186          1
   187          1
   188          1
   189          1
   190          1
   191          1
   192          1
   193          2
   194          1
   195          1
   196          1
   199          1
   200          1
   201          1
   202          1
   203          1
   204          1
   205          1
   206          1
   207          1
   208          1
   215          1
   216          1
   217          1
   220          1
   221          1
   222          1
   223          1
   224          1
   225          1
   227          1
   228          1
   229          2
   230          1
   231          1
   232          1
   233          1
   234          1
   235          1
   236          1
   241          1
   242          1
   243          2
   244          1
   245          1
   246          1
   247          1
   248          7
   249          8
   250          2
   251          1
   257          1
   258          1
   259          1
   260          1
   262          1
   263          1
   271          1
   272          1
   285          1
   338          1
   339          1
   340         14
   341          4
   342          1