##TITLE=Library Entry 46179
##JCAMP-DX=Revision 4.10 
##DATA TYPE=MASS SPECTRUM
##SAMPLE DESCRIPTION=NIST Mass Spectrometry Data Center
##NAMES=HP
##CAS NAME=Cholestan-3-ol, (3.alpha.,5.beta.)-, TMS derivative
##MOLFORM=C30H56OSi
##CAS REGISTRY NO=55331-93-6
##MP= -300
##BP= -300
##MW= 460
##$RETENTION INDEX=3073
##$CONDENSED SPECTRUM=NO
##NPOINTS= 316
##XYDATA=(XY..XY) 1 
    15          2
    26          2
    27         19
    29         47
    30          1
    31          1
    37          1
    38          2
    39         23
    40          6
    41        197
    42         28
    43        366
    44         16
    45         32
    46          2
    47         16
    48          1
    49          1
    50          2
    51          3
    52          2
    53         29
    54         13
    55        351
    56        113
    57        334
    58         17
    59         30
    60          9
    61         48
    62          4
    63          3
    64          1
    65         14
    66          7
    67        230
    68         54
    69        283
    70         68
    71        180
    72         20
    73        421
    74         56
    75        999
    76         74
    77         85
    78         14
    79        222
    80         45
    81        412
    82         60
    83        180
    84         22
    85         34
    86          4
    87          7
    88          6
    89         43
    90          5
    91        231
    92         62
    93        334
    94        145
    95        459
    96         52
    97        123
    98         11
    99         12
   100          2
   101         41
   102          6
   103         23
   104         20
   105        312
   106        194
   107        369
   108        180
   109        245
   110         36
   111         73
   112          8
   113         17
   114          3
   115         33
   116         16
   117         66
   118         43
   119        198
   120        134
   121        236
   122        102
   123        128
   124         28
   125         30
   126          5
   127         25
   128         11
   129        104
   130         32
   131        115
   132         37
   133        192
   134        172
   135        257
   136         91
   137         48
   138         70
   140          3
   141         10
   142         83
   143         45
   144         18
   145        220
   146         66
   147        279
   148        100
   149        165
   150         29
   151         26
   152         24
   153          8
   154          3
   155         56
   156         15
   157         20
   158         14
   159        126
   160         78
   161        281
   162        180
   163         84
   164         13
   165         21
   166         10
   167          8
   168          5
   169         10
   170          2
   171         12
   172          7
   173        104
   174         80
   175        127
   176         94
   177         35
   178          8
   179         13
   180          6
   181         11
   182          7
   183         13
   184          3
   185         12
   186          5
   187         71
   188         55
   189         70
   190         17
   191         13
   192          5
   193         24
   194          5
   195          4
   196          4
   197          4
   198          1
   199         17
   200          6
   201        149
   202         55
   203         60
   204         12
   205         11
   206         15
   207          9
   208          5
   209          4
   210          1
   211          2
   212          1
   213          8
   215        698
   216        364
   217        159
   218         29
   219         13
   220         11
   221          5
   223          4
   224          1
   225          1
   227          3
   228          4
   229         72
   230        106
   231         44
   232         10
   233         10
   234          3
   235          3
   236          1
   237          3
   238          1
   239          1
   240          1
   241         14
   242          4
   243         19
   244          9
   245         20
   246          8
   247         21
   248          8
   249          4
   250          3
   251          2
   255         14
   256         16
   257        225
   258         48
   259         16
   260         60
   261         42
   262         23
   263          7
   264          1
   269          3
   270          1
   271          3
   272          1
   273          7
   274        114
   275         47
   276         11
   277          4
   278          1
   283          1
   285         12
   286          5
   287          9
   288          6
   289          3
   290          1
   291          5
   292          1
   293          1
   297          1
   298          1
   299          5
   300          3
   301          9
   302          5
   303          2
   304          1
   305          8
   306          2
   307          1
   312          1
   313         15
   314         22
   315         58
   316         84
   317         24
   318          4
   319          9
   320          4
   321          1
   327          6
   328         22
   329         14
   330          6
   331          9
   332          6
   333          2
   334          1
   341          5
   342         34
   343         10
   344          1
   345          2
   346          1
   347          1
   353          2
   355        302
   356         90
   357         12
   358          1
   359          1
   361          1
   368          2
   369         55
   370        847
   371        245
   372         39
   373          4
   374          1
   375          2
   376          1
   387          1
   389          8
   390          3
   391          1
   403          3
   404          1
   427          1
   429          1
   443          1
   445         52
   446         20
   447          5
   448          1
   458          1
   459          2
   460          3
   461          1