##TITLE=Library Entry 25648
##JCAMP-DX=Revision 4.10 
##DATA TYPE=MASS SPECTRUM
##SAMPLE DESCRIPTION=R. RYHAGE KAROLINSKA INSTITUTET, STOCKHOLM
##NAMES=HP
##CAS NAME=Heneicosanoic acid, 18-propyl-, methyl ester
##MOLFORM=C25H50O2
##CAS REGISTRY NO=55334-67-3
##MP= -300
##BP= -300
##MW= 382
##$RETENTION INDEX=0
##$CONDENSED SPECTRUM=NO
##NPOINTS= 229
##XYDATA=(XY..XY) 1 
    14          3
    15         13
    16         12
    17         39
    18        180
    25          4
    26         24
    27         76
    28         64
    29        170
    30         10
    31         16
    32          5
    37          7
    38         10
    39         87
    40         24
    41        480
    42        120
    43        720
    44         46
    45         22
    48          6
    49          2
    50         10
    51          9
    52          6
    53         39
    54         52
    55        620
    56        170
    57        999
    58         56
    59        120
    60          7
    61          4
    63          2
    64          9
    65          9
    66          7
    67         89
    68         48
    69        400
    70        120
    71        260
    72         18
    73         32
    74        760
    75        220
    76         18
    77         11
    78          5
    79         19
    80          9
    81         84
    82         38
    83        280
    84         84
    85        140
    86         10
    87        460
    88         54
    89          5
    91          7
    93         15
    94          7
    95         72
    96         36
    97        210
    98        110
    99         41
   100          7
   101         46
   102         11
   103          2
   107         15
   108          4
   109         42
   110         21
   111        110
   112         47
   113         37
   114          9
   115         33
   116         11
   117          2
   119          3
   121         26
   122          6
   123         29
   124         12
   125         69
   126         12
   127         13
   128          6
   129         54
   130         18
   131          3
   132          2
   133          4
   134          2
   135         27
   136          5
   137         16
   138          9
   139         46
   140          8
   141         11
   142          3
   143        110
   144         13
   145          2
   147          3
   148          3
   149          3
   150          3
   151          9
   152          6
   153         31
   154          6
   155          7
   157         19
   158          3
   163         16
   164          3
   165          6
   166          5
   167         28
   168          6
   169          5
   171         16
   172          4
   177         11
   178          3
   179          4
   180          3
   181         15
   182          4
   183          4
   185         27
   186          6
   191         10
   192          3
   193          4
   194          4
   195         13
   196          3
   197          4
   198          3
   199         33
   200          9
   201          4
   205          7
   206          2
   207          4
   208          5
   209         12
   210          4
   211          3
   213         13
   214          3
   219          6
   221          3
   222          6
   223         11
   224          4
   225          3
   227         15
   228          4
   233          6
   235          2
   236          3
   237          9
   238          3
   239          2
   241         29
   242          7
   247          4
   249          3
   250          4
   251          9
   252          4
   253          3
   255         16
   256          5
   262          2
   263          3
   264          7
   265          8
   266          2
   269         12
   270          7
   278          3
   279         11
   280          2
   283         23
   284         87
   285         62
   286         10
   289         32
   290          7
   297         12
   298          4
   306         33
   307        110
   308         29
   309          5
   311          2
   312          2
   321          7
   322          2
   325          6
   326          4
   333         10
   334          2
   338          4
   339        240
   340         64
   341         10
   349          4
   350          7
   351         21
   352          4
   353          8
   354          2
   367          4
   382        560
   383        140
   384         21