##TITLE=Library Entry 55625
##JCAMP-DX=Revision 4.10 
##DATA TYPE=MASS SPECTRUM
##SAMPLE DESCRIPTION=Exported from NIST MS Search
##NAMES=HP
##CAS NAME=Pregnan-18-ol, 3,20-bis[(1-methylethylidene)amino]-, (3.beta.)-
##MOLFORM=C27H46N2O
##CAS REGISTRY NO=55331-87-8
##MP= -300
##BP= -300
##MW= 414
##$RETENTION INDEX=0
##$CONDENSED SPECTRUM=NO
##NPOINTS= 108
##XYDATA=(XY..XY) 1 
    41        100
    42         80
    43         30
    44        200
    45         30
    53         30
    54         20
    55         90
    56        100
    57         80
    58        350
    59         20
    60         20
    66         70
    67         30
    68         50
    69         60
    70         30
    71         20
    77         30
    79         60
    80         10
    81         70
    82         70
    83         40
    84        150
    85        999
    86         80
    91         60
    92         20
    93         60
    94         20
    95         50
    96         50
    97         20
    98         10
   105         50
   106         20
   107         50
   108         20
   109         40
   110         20
   117         30
   119         30
   120         20
   121         30
   122         20
   123         20
   131         30
   133         30
   134         20
   135         20
   145         30
   146         20
   147         40
   148         20
   149         20
   150         20
   152         20
   159         20
   161         20
   256         20
   257         20
   260         50
   261         20
   270         10
   274         10
   275         10
   283         10
   286         30
   287         20
   291         30
   292         10
   298         50
   299         40
   300        599
   301        140
   302         30
   311         20
   312         40
   313         20
   315         20
   326         20
   327         70
   328         30
   329         20
   330         20
   340         20
   341         20
   342         20
   344         30
   345         20
   355         40
   356         10
   359         20
   360         20
   368         30
   369         20
   370         20
   373         20
   383         20
   384         90
   385         30
   399        180
   400         20
   413         20
   414         30
   415         20