##TITLE=Library Entry 42714
##JCAMP-DX=Revision 4.10 
##DATA TYPE=MASS SPECTRUM
##SAMPLE DESCRIPTION=John Halket,Royal Holloway, University of London, UK
##NAMES=HP
##CAS NAME=2-Hexenedioic acid, 2-[(trimethylsilyl)oxy]-, bis(trimethylsilyl)
 ester
##MOLFORM=C15H32O5Si3
##CAS REGISTRY NO=55334-16-2
##MP= -300
##BP= -300
##MW= 376
##$RETENTION INDEX=1736
##$CONDENSED SPECTRUM=NO
##NPOINTS= 211
##XYDATA=(XY..XY) 1 
    15          5
    27         10
    28          9
    29         10
    30          1
    31          4
    39          7
    40          3
    41         11
    42          7
    43         46
    44         37
    45        198
    46         13
    47         33
    48          2
    49          1
    51          1
    52          3
    53         17
    55        191
    56          8
    57          9
    58         16
    59         31
    60          7
    61         20
    62          2
    63          1
    65          2
    66          5
    67          5
    68         31
    69         18
    70          7
    71          9
    73        999
    74         99
    75        206
    76         14
    77          7
    78          2
    79          2
    81         16
    82          1
    83          4
    84          1
    85         11
    86          2
    87          5
    88          4
    89          5
    90          1
    93          1
    94          1
    95          8
    96          3
    97         18
    98          6
    99         11
   100          2
   101          8
   102          2
   103          6
   104          1
   105          4
   107          1
   109          1
   111          5
   112          1
   113          6
   114          2
   115          9
   116         24
   117         13
   118          2
   119          7
   120          1
   121          1
   124          1
   125          2
   126          1
   127         10
   129         45
   130          7
   131         35
   133         82
   134         11
   135         10
   136          1
   137          1
   140          7
   141         28
   142          7
   143          7
   144          2
   145          3
   147        596
   148         95
   149         82
   150          8
   151          4
   153          3
   154          4
   155          7
   157         40
   158          7
   159          4
   160          1
   161          2
   162          1
   163          1
   167          2
   168          9
   169         16
   170         10
   171          6
   172          1
   173          5
   174          1
   175          2
   180          1
   181          3
   183          1
   186          1
   188          1
   189          3
   190          3
   191          3
   192          1
   193          1
   197          1
   199          2
   201         14
   202          4
   203         17
   204         11
   205          4
   206          2
   207          4
   209          2
   211          2
   212          1
   213          1
   215         31
   216          7
   217         13
   218          2
   219          1
   221         17
   222          3
   223          2
   225          1
   226          1
   227          3
   228          3
   229          6
   230         14
   231          8
   232          2
   239          1
   240          1
   241          3
   242         42
   243        119
   244         29
   245         25
   246          5
   247          1
   255          2
   257        106
   258        313
   259         74
   260         28
   261          6
   262          1
   271          6
   273          9
   274          2
   275          2
   278          1
   286         14
   287          3
   288          3
   289          1
   291         86
   292         22
   293         10
   294          2
   305          1
   317          1
   318          1
   319         14
   320          5
   321          2
   331          6
   332          4
   333          4
   334          2
   335          1
   359          1
   361        219
   362         68
   363         33
   364          6
   365          2
   376         51
   377         15
   378          8
   379          2
   380          1