##TITLE=Library Entry 74705
##JCAMP-DX=Revision 4.10 
##DATA TYPE=MASS SPECTRUM
##SAMPLE DESCRIPTION=R. RYHAGE KAROLINSKA INSTITUTET, STOCKHOLM
##NAMES=HP
##CAS NAME=Docosanoic acid, 3,4-dimethyl-, methyl ester, (R*,S*)-
##MOLFORM=C25H50O2
##CAS REGISTRY NO=55334-76-4
##MP= -300
##BP= -300
##MW= 382
##$RETENTION INDEX=0
##$CONDENSED SPECTRUM=NO
##NPOINTS= 181
##XYDATA=(XY..XY) 1 
    15          4
    16          4
    17         21
    18         72
    27          7
    28          9
    29         24
    30          3
    39          8
    40          2
    41         71
    42         21
    43        130
    44         59
    45          4
    53          6
    54          9
    55        110
    56         36
    57        160
    58         10
    59         32
    60          4
    64          5
    67         18
    68         14
    69        150
    70         88
    71        130
    72         10
    73         17
    74        250
    75         76
    76          5
    77          3
    79          5
    80          3
    81         21
    82         17
    83         99
    84         24
    85        100
    86          9
    87        150
    88         26
    89          5
    91          3
    93          4
    94          3
    95         23
    96         16
    97         94
    98         19
    99         32
   100          7
   101        999
   102        350
   103         36
   104          2
   107          4
   109         15
   110          8
   111         44
   112         15
   113         30
   114          4
   115         36
   116          9
   117          2
   119          2
   121          5
   122          3
   123         10
   124          5
   125         22
   126          8
   127         31
   128          7
   129         38
   130          6
   131          6
   135          4
   137          6
   138          3
   139         12
   140          5
   141         27
   142          5
   143         17
   144          4
   145          3
   151          3
   152          3
   153          8
   154          3
   155         24
   156          4
   157          5
   158          5
   163          3
   165          3
   167          8
   168          3
   169         23
   170          3
   171          4
   177          2
   180          3
   181          5
   182          3
   183         20
   184          4
   185          3
   195          4
   196          2
   197         19
   198          6
   199          6
   207          3
   209          3
   211         18
   212          3
   213          3
   222          2
   223          3
   225         17
   226          4
   227          3
   228          3
   236          3
   237          3
   238          4
   239         14
   240          3
   241          3
   251          3
   252          2
   253         11
   254          3
   255          3
   256          5
   257          6
   264          3
   265          3
   267          7
   268          3
   269          6
   270          3
   278          5
   279         17
   280          8
   281          3
   295          3
   298          6
   299          8
   300         17
   306          4
   307          3
   308         34
   309        290
   310         69
   311         39
   312         11
   313          2
   325          2
   331          2
   333          9
   334          3
   335          4
   339         37
   340         10
   349          3
   350          3
   351         59
   352         16
   353          5
   367          6
   368          2
   381          6
   382         29
   383         10