##TITLE=Library Entry 4005
##JCAMP-DX=Revision 4.10 
##DATA TYPE=MASS SPECTRUM
##SAMPLE DESCRIPTION=CARL DJERASSI DEPT OF CHEM STANFORD UNIV STANFORD CALIF
 94305
##NAMES=HP
##CAS NAME=2(1H)-Naphthalenone, octahydro-3-methyl-, (3.alpha.,4a.beta.,8a.a
lpha.)-
##MOLFORM=C11H18O
##CAS REGISTRY NO=55332-01-9
##MP= -300
##BP= -300
##MW= 166
##$RETENTION INDEX=0
##$CONDENSED SPECTRUM=NO
##NPOINTS= 80
##XYDATA=(XY..XY) 1 
    37         10
    38         30
    39        620
    40        130
    41        999
    42        180
    43        140
    44         10
    45         10
    46         10
    47         10
    50         30
    51         90
    52         60
    53        210
    54        210
    55        600
    56        120
    57         50
    58         20
    59         10
    63         30
    64         10
    65         90
    66         70
    67        680
    68        310
    69        200
    70         60
    71         30
    72         10
    77        110
    78         60
    79        280
    80        130
    81        690
    82        250
    83         50
    84         70
    85         30
    91        110
    92         20
    93        190
    94        110
    95        350
    96        360
    97        100
    98         30
   105         60
   106         50
   107        150
   108        170
   109        150
   110         50
   111         50
   112         10
   119         50
   120         20
   121         20
   122        950
   123        170
   124        110
   125         10
   133         70
   134         10
   135         20
   136         10
   137        100
   138        160
   139         20
   147         10
   148         70
   149         10
   150         10
   151         20
   152         10
   164         10
   165         10
   166        360
   167         50