##TITLE=Library Entry 44747
##JCAMP-DX=Revision 4.10 
##DATA TYPE=MASS SPECTRUM
##SAMPLE DESCRIPTION=R. RYHAGE KAROLINSKA INSTITUTET, STOCKHOLM
##NAMES=HP
##CAS NAME=Nonadecanoic acid, 11-methyl-, methyl ester
##MOLFORM=C21H42O2
##CAS REGISTRY NO=55334-33-3
##MP= -300
##BP= -300
##MW= 326
##$RETENTION INDEX=0
##$CONDENSED SPECTRUM=NO
##NPOINTS= 131
##XYDATA=(XY..XY) 1 
    15         27
    16          9
    17         22
    18         53
    27          2
    28         42
    29        170
    30          9
    31         16
    39         49
    40         16
    41        430
    42        110
    43        710
    44         62
    45         20
    53         33
    54         36
    55        530
    56        140
    57        550
    58         36
    59        160
    67         69
    68         36
    69        350
    70         78
    71        220
    72         22
    73         58
    74        999
    75        240
    76         13
    77         13
    79         20
    80          9
    81         69
    83        280
    84         89
    85        220
    86         13
    87        830
    88         78
    89          7
    93         27
    94          9
    95         73
    96          7
    97        200
    98        120
    99         47
   100         11
   101        120
   102         18
   107         31
   109         58
   110         29
   111        140
   112         29
   113         25
   114          9
   115         58
   116         29
   121         46
   122          9
   123         33
   124         16
   125         73
   126         13
   127          9
   129        140
   130        100
   131         11
   136         33
   137          9
   138         20
   139         23
   140         76
   141         25
   142         11
   143        490
   144         62
   151         11
   152          7
   153         25
   154         20
   155         16
   157         53
   163        130
   164         20
   165          7
   167         13
   171         73
   172         22
   177         11
   179          7
   180         18
   181        130
   182         27
   185        200
   186        110
   187         53
   188          9
   191          7
   194          7
   195         18
   199         17
   213        210
   214         40
   215          9
   223          7
   227         22
   228          7
   241         11
   255         10
   261          7
   269         22
   270          7
   277         12
   279          9
   283        170
   284         29
   294         11
   295         45
   296          9
   297         22
   298          7
   311          9
   326        530
   327        150
   328         18