##TITLE=Library Entry 43859
##JCAMP-DX=Revision 4.10 
##DATA TYPE=MASS SPECTRUM
##SAMPLE DESCRIPTION=BAY 0300
##NAMES=HP
##CAS NAME=3,5-Dioxa-4-phospha-2-silaoctan-8-oic acid, 7-[[bis[(trimethylsil
yl)oxy]phosphinyl]oxy]-2,2-dimethyl-4-[(trimethylsilyl)oxy]-, trimethylsilyl
 ester, 4-oxide, (R)-
##MOLFORM=C18H48O10P2Si5
##CAS REGISTRY NO=55334-89-9
##MP= -300
##BP= -300
##MW= 626
##$RETENTION INDEX=0
##$CONDENSED SPECTRUM=NO
##NPOINTS= 248
##XYDATA=(XY..XY) 1 
    41         16
    42          8
    43         25
    44         37
    45        102
    46          8
    47         33
    49         12
    53          4
    55         49
    56          4
    57         12
    58         12
    59         33
    60          8
    61         16
    62          4
    63         12
    64          4
    65          8
    66          4
    67          8
    68         12
    69          8
    70          4
    71          8
    72         29
    73        999
    74         86
    75        139
    76         16
    77         82
    78          8
    79          8
    81          8
    82          4
    83          8
    84          8
    85         16
    87          8
    89          8
    91          8
    92          4
    93         49
    94          4
    95         16
    98          8
    99          8
   100          4
   101         12
   103         12
   104          4
   105          8
   106          4
   107          8
   108          4
   109          8
   113          4
   115         16
   116          8
   117         16
   118          4
   119         16
   120          4
   121         16
   122          4
   123          8
   127          4
   129         41
   130          8
   131         25
   132          8
   133        139
   134         25
   135         49
   136          8
   137         25
   138          4
   139          4
   141          4
   142          8
   143         12
   144          4
   145          8
   147        213
   148         37
   149         25
   150          4
   151         16
   152          4
   153          8
   155          8
   157          4
   159          4
   161          8
   163          8
   165          8
   167          8
   177          8
   179         12
   181         25
   182          4
   183          8
   189          8
   191         25
   192          8
   193         41
   194          8
   195         45
   196         16
   197         16
   198          8
   205         16
   206          4
   207         66
   208         16
   209         20
   210          8
   211        393
   212         66
   213         37
   214         20
   215          8
   216          4
   217         66
   218         16
   219          8
   221          8
   222          4
   223          8
   225        119
   226         25
   227        164
   228         29
   229         25
   230          4
   231          4
   237         12
   238          8
   239          8
   240          4
   241          8
   242          8
   243         66
   244         16
   245          8
   253         90
   254         16
   255         16
   256          8
   257          4
   267         25
   268         57
   269         53
   270         20
   271         12
   281          8
   282          8
   283         49
   284         16
   285         74
   286         20
   287         16
   295         12
   297        295
   298         90
   299        819
   300        197
   301        135
   302         25
   303          8
   311         12
   312          4
   313         33
   314        115
   315        246
   316         74
   317         33
   318          8
   319          4
   327          8
   328          8
   329          4
   339          4
   340          8
   341         57
   342         16
   343         12
   344          4
   355          4
   357         16
   358          4
   359          8
   363         12
   364          4
   369        160
   370         45
   371         25
   372          8
   373         16
   374          4
   375          4
   379         12
   383          8
   384         45
   385         66
   386         45
   387        246
   388         98
   389         45
   390         12
   391          4
   421          4
   431         33
   432         12
   433          8
   435          4
   437          8
   438          4
   449          4
   450          8
   451         41
   452         16
   453         20
   454          4
   455          4
   459          8
   467         12
   468          4
   469          4
   479          4
   509          8
   510          4
   511          4
   523         16
   524          8
   525          4
   539         12
   540          8
   541          4
   597          4
   611        193
   612         94
   613         57
   614         20
   615          4
   626          8
   627          4