##TITLE=Library Entry 59363
##JCAMP-DX=Revision 4.10 
##DATA TYPE=MASS SPECTRUM
##SAMPLE DESCRIPTION=C.E.A., C.E.N., GRENOBLE, FRANCE
##NAMES=HP
##CAS NAME=Benzene, (2-decyldodecyl)-
##MOLFORM=C28H50
##CAS REGISTRY NO=55334-72-0
##MP= -300
##BP= -300
##MW= 386
##$RETENTION INDEX=0
##$CONDENSED SPECTRUM=NO
##NPOINTS= 259
##XYDATA=(XY..XY) 1 
    27         42
    28         96
    29        122
    30          1
    36          7
    38          2
    39         27
    40          3
    41        240
    42         34
    43        494
    44         22
    50          3
    51          6
    52          2
    53         11
    54         26
    55        275
    56         70
    57        659
    58         25
    63          2
    65         19
    66          2
    67         70
    68         27
    69        215
    70         58
    71        439
    72         22
    74          1
    75          1
    76          1
    77         16
    78         20
    79         22
    80          7
    81         53
    82         42
    83        238
    84         42
    85        314
    86         19
    87          1
    89          3
    90          4
    91        999
    92        259
    93         23
    94          3
    95         39
    96         31
    97        234
    98         33
    99        102
   100          6
   101          2
   102          1
   103         10
   104         97
   105        141
   106         12
   107          2
   109         16
   110         12
   111        130
   112         22
   113         64
   114          5
   116         16
   117        202
   118         52
   119         50
   120          5
   121          1
   123          6
   124         12
   125         67
   126         16
   127         52
   128         28
   129         78
   130         23
   131         76
   132        212
   133         55
   134          3
   135          1
   137          3
   138          6
   139         34
   140         10
   141         53
   142         14
   143         36
   144          7
   145         20
   146          4
   147         27
   148          2
   151          3
   152         10
   153         27
   154         10
   155         47
   156          5
   157          8
   158          2
   159          3
   160          1
   161         15
   162          1
   163          1
   164          1
   165         27
   166         23
   167         80
   168         20
   169         25
   170          4
   171          3
   172          1
   173          2
   174          1
   175         10
   176          2
   177          1
   178         12
   179         30
   180         14
   181         29
   182         10
   183         15
   184          1
   187          1
   188          2
   189          9
   190          3
   191          7
   192          4
   193         14
   194          7
   195         42
   196          9
   197         12
   198          2
   199          3
   200          5
   201          6
   202         15
   203         30
   204          8
   205          8
   206          3
   207          6
   208          5
   209          6
   210          3
   211          9
   215          7
   216          5
   217          7
   218          3
   219          2
   220          1
   221          4
   222          4
   223          5
   224          5
   225          6
   226          2
   227          2
   228          3
   229          4
   230          4
   231         35
   232          7
   233          4
   234          1
   235          4
   236          2
   237          4
   238          3
   239          8
   240          3
   241         17
   242          4
   243         25
   244         25
   245         20
   246          4
   247          1
   250          1
   251          6
   252          5
   253          5
   254          5
   255          5
   256          3
   257         16
   258         37
   259          8
   260          1
   263          3
   264          1
   265          5
   266          9
   267          4
   268          3
   269         15
   270          4
   271          5
   272          3
   273          2
   277          2
   278          2
   279          5
   280          6
   281          5
   282          6
   283          2
   284          5
   285          5
   286          1
   287          2
   288          1
   289          3
   290          2
   291          6
   292         15
   293         15
   294        132
   295         58
   296          9
   297          1
   358          5
   362          1
   364          2
   366          4
   368          5
   369          1
   370         30
   371          8
   372         10
   373          3
   374          5
   375          1
   376         17
   377          2
   378         48
   379         10
   380         18
   381          3
   382         10
   383          2
   384         60
   385         18
   386         25
   387          5