##TITLE=Library Entry 44802
##JCAMP-DX=Revision 4.10 
##DATA TYPE=MASS SPECTRUM
##SAMPLE DESCRIPTION=R. RYHAGE KAROLINSKA INSTITUTET, STOCKHOLM
##NAMES=HP
##CAS NAME=Nonadecanoic acid, 10-methyl-, methyl ester
##MOLFORM=C21H42O2
##CAS REGISTRY NO=55334-32-2
##MP= -300
##BP= -300
##MW= 326
##$RETENTION INDEX=0
##$CONDENSED SPECTRUM=NO
##NPOINTS= 179
##XYDATA=(XY..XY) 1 
    15          9
    17          2
    18         10
    27         19
    28          7
    29         64
    30          2
    31          2
    39         15
    40          4
    41        160
    42         37
    43        330
    44         12
    45          8
    53         10
    54         13
    55        260
    56         73
    57        380
    58         20
    59         64
    60          3
    61          2
    64          4
    65          2
    66          2
    67         35
    68         21
    69        230
    70         54
    71        200
    72         13
    73         25
    74        999
    75        300
    76         14
    77          4
    79          9
    80          4
    81         51
    82         19
    83        220
    84         60
    85        130
    86          9
    87        710
    88         64
    89          6
    93         19
    94          5
    95         47
    96         26
    97        170
    98         60
    99         32
   100          4
   101         95
   102         11
   103          2
   107         18
   108          4
   109         36
   110         13
   111         81
   112         22
   113         18
   114         10
   115         50
   116         28
   117          3
   121         20
   122          6
   123         26
   124         19
   125         77
   126         14
   127          8
   128          4
   129        150
   130        120
   131         11
   132          6
   135         11
   136          2
   137         12
   138          7
   139         39
   140         13
   141          8
   143        400
   144         43
   145          4
   149        110
   150         13
   151          7
   152          4
   153         15
   154          8
   155          6
   157         30
   158         12
   159          3
   163         13
   164          3
   165          5
   166         12
   167        130
   168         31
   169          9
   170          2
   171         47
   172         75
   173         37
   174          4
   177          5
   179          3
   180          3
   181         16
   182          4
   183          2
   185         21
   186          4
   191          3
   193          2
   194         64
   195         17
   196          3
   197          2
   198          2
   199        160
   200         28
   201          7
   205          3
   207          3
   208          3
   209          4
   210          2
   211          2
   213         24
   214          5
   219          2
   221          2
   223          4
   224          2
   227          9
   228          3
   237          3
   241         11
   251          2
   252          4
   253          3
   255          5
   256          2
   261          4
   265          3
   269         16
   270          4
   276          3
   277         12
   278          3
   279          8
   280          2
   283        160
   284         33
   285          4
   293          4
   294          6
   295         45
   296         10
   297         25
   298          6
   311          9
   312          4
   325          6
   326        590
   327        160
   328         24
   329          3