##TITLE=Library Entry 7723
##JCAMP-DX=Revision 4.10 
##DATA TYPE=MASS SPECTRUM
##SAMPLE DESCRIPTION=R. RYHAGE KAROLINSKA INSTITUTET, STOCKHOLM
##NAMES=HP
##CAS NAME=Octadecanoic acid, 12-hexyl-, methyl ester
##MOLFORM=C25H50O2
##CAS REGISTRY NO=55334-68-4
##MP= -300
##BP= -300
##MW= 382
##$RETENTION INDEX=0
##$CONDENSED SPECTRUM=NO
##NPOINTS= 195
##XYDATA=(XY..XY) 1 
    14          3
    15         39
    16          6
    17         31
    18         68
    25          4
    26         22
    27        120
    28        100
    29        260
    30          8
    31         13
    32         16
    33          2
    37          5
    38          8
    39         89
    40         23
    41        540
    42        140
    43        999
    44         48
    45         21
    48          4
    50          5
    51          7
    52          5
    53         36
    54         52
    55        590
    56        170
    57        760
    58         39
    59        110
    60          5
    61          3
    64          5
    65          5
    66          5
    67         79
    68         37
    69        350
    70         91
    71        360
    72         21
    73         27
    74        450
    75        130
    76          9
    77          7
    78          3
    79         15
    80          6
    81         69
    82         31
    83        230
    84         71
    85        190
    86         14
    87        320
    88         27
    89          3
    91          7
    92          3
    93         14
    94          5
    95         57
    96         35
    97        180
    98         57
    99         39
   100          8
   101         40
   102          5
   107         14
   108          4
   109         36
   110         20
   111        100
   112         27
   113         28
   114          8
   115         30
   116          8
   119          3
   121         24
   122          5
   123         23
   124         11
   125         63
   126         16
   127         16
   128          6
   129         41
   130         16
   133          4
   134          2
   135         26
   136          5
   137         14
   138          8
   139         41
   140          8
   141         13
   142          4
   143         91
   144         11
   151         10
   152          7
   153         29
   154          8
   155          6
   157         52
   158          8
   163         15
   164          3
   165          8
   166          6
   167         30
   168          6
   169          6
   171         19
   172          7
   177         11
   178          2
   179          4
   180          9
   181         17
   182         22
   183         12
   184          2
   185         14
   186          7
   191          8
   193          3
   194          3
   195         11
   196          6
   197          6
   198          3
   199         49
   200        260
   201         76
   202         13
   203          2
   205          6
   207          3
   208          3
   209          9
   210          2
   213         10
   214          4
   220          4
   221          3
   222         11
   223         11
   224          2
   227          8
   228          2
   233          2
   237          4
   241          8
   242          2
   246          2
   247         41
   248          9
   251          4
   255          5
   264         48
   265        100
   266         22
   267          4
   269          3
   279         10
   280          3
   283          8
   284          2
   296         11
   297        370
   298         84
   299         16
   300          2
   310          4
   311          8
   333          5
   339         11
   340          3
   350          5
   351         21
   352          4
   353          3
   367          3
   382        220
   383         60
   384          6