##TITLE=Library Entry 97450
##JCAMP-DX=Revision 4.10 
##DATA TYPE=MASS SPECTRUM
##SAMPLE DESCRIPTION=Chemical Concepts
##NAMES=HP
##CAS NAME=Bicyclo[4.2.0]octa-1,3,5-triene, 7-methyl-
##MOLFORM=C9H10
##CAS REGISTRY NO=55337-80-9
##MP= -300
##BP= -300
##MW= 118
##$RETENTION INDEX=0
##$CONDENSED SPECTRUM=NO
##NPOINTS= 82
##XYDATA=(XY..XY) 1 
    24          1
    26         10
    27         57
    28          9
    29          1
    31          0
    33          0
    34          0
    36          0
    37         13
    38         29
    39        177
    40         20
    41         18
    42          1
    43          3
    44          0
    45          1
    46          0
    47          0
    48          0
    49          6
    50         80
    51        149
    52         38
    53         19
    54          1
    55          2
    56          2
    57         26
    58         85
    59          0
    60          1
    61         15
    62         41
    63        111
    64         22
    65         92
    66         11
    67          1
    68          0
    69          0
    70          1
    71          1
    72          0
    73          5
    74         30
    75         24
    76         23
    77         97
    78         61
    79          9
    80          0
    84          1
    85          5
    86         10
    87         12
    88          6
    89         60
    90         27
    91        349
    92         36
    93          1
    97          0
    98          3
    99          1
   101          5
   102         36
   103        122
   104          9
   105          0
   109          0
   110          1
   111          0
   113         13
   114         12
   115        365
   116        124
   117        999
   118        751
   119         61
   120          2