##TITLE=Library Entry 43973
##JCAMP-DX=Revision 4.10 
##DATA TYPE=MASS SPECTRUM
##SAMPLE DESCRIPTION=BAY 0335
##NAMES=HP
##CAS NAME=D-Arabino-Hexopyranose, 2-deoxy-1,3,4-tris-O-(trimethylsilyl)-, b
is(trimethylsilyl) phosphate
##MOLFORM=C21H53O8PSi5
##CAS REGISTRY NO=55334-84-4
##MP= -300
##BP= -300
##MW= 604
##$RETENTION INDEX=0
##$CONDENSED SPECTRUM=NO
##NPOINTS= 260
##XYDATA=(XY..XY) 1 
    41         25
    42          5
    43         30
    44         20
    45         64
    46          5
    47         15
    53          5
    54          5
    55         17
    56          5
    57         10
    58          5
    59         44
    60          5
    61         15
    65          5
    66          5
    67         10
    68          5
    69         20
    70          5
    71          5
    72         25
    73        999
    74         89
    75        143
    76         10
    77         22
    78          5
    79          5
    81         10
    83         10
    85         10
    87          5
    89          7
    91          5
    93         10
    94          5
    95          7
    99         12
   100          5
   101         62
   102         12
   103         59
   104         10
   105          7
   109          5
   111         10
   113         42
   114         10
   115         20
   116         32
   117         34
   118          7
   119         15
   121          5
   127         10
   128          7
   129        113
   130         22
   131         34
   132          7
   133         84
   134         15
   135         25
   137          7
   139          5
   141          5
   142         10
   143         20
   144          5
   145         17
   146          5
   147        232
   148         39
   149         34
   150          7
   151         10
   153          5
   154         15
   155         30
   156         12
   157         17
   158          5
   159          7
   161          7
   163          5
   166          5
   167         15
   168          5
   169         10
   171          5
   173          5
   174         12
   175         10
   177          7
   179          5
   181         10
   182        330
   183         99
   184         25
   185         10
   189         20
   190          5
   191         39
   192         10
   193         15
   194          5
   195         17
   196         10
   197         10
   198          5
   203          7
   204        251
   205         59
   206         25
   207         39
   208         10
   209         10
   210          7
   211        113
   212         22
   213         15
   214          5
   215          7
   217        106
   218         30
   219         15
   220          5
   221         10
   225         25
   226         12
   227         89
   228         20
   229         32
   230         30
   231         25
   232         10
   233         17
   241          7
   242          5
   243         99
   244         20
   245         15
   246         10
   247         10
   253         15
   254          5
   255         49
   256         20
   257         57
   258         12
   259         10
   269         30
   270          7
   271         10
   272         59
   273         22
   274         10
   281          5
   282          7
   283         22
   284         15
   285         59
   286         15
   287          7
   291          5
   297          5
   298         25
   299        355
   300         89
   301         57
   302         12
   303          5
   305         10
   313         20
   314         49
   315        492
   316        131
   317        113
   318         25
   319         22
   320          5
   328         25
   329         10
   330          5
   334         15
   335         10
   336          5
   341          7
   342          2
   343          5
   357        172
   358         52
   359         30
   360         10
   369         15
   370         64
   371         25
   372         12
   373         20
   374          7
   375          5
   386          5
   387         13
   388          6
   389         26
   390          8
   391          5
   392          1
   396          2
   397          1
   398          1
   399          1
   400          1
   401          1
   403          1
   409          5
   410          2
   411          1
   415          2
   416          1
   417          1
   424          8
   425          5
   426          2
   427          2
   431          2
   442          1
   443          1
   444          1
   445          1
   457          1
   458          1
   459          2
   460          1
   461          1
   462          1
   463          1
   470          1
   471          5
   472          2
   473          3
   474          1
   475          1
   499          6
   500          2
   501          3
   502          1
   503          1
   513          1
   514          1
   515          1
   589         71
   590         35
   591         21
   592          7
   593          2
   594          1