##TITLE=Library Entry 60899
##JCAMP-DX=Revision 4.10 
##DATA TYPE=MASS SPECTRUM
##SAMPLE DESCRIPTION=Exported from NIST MS Search
##NAMES=HP
##CAS NAME=Benzene, 1,1'-[3-(2-phenylethylidene)-1,5-pentanediyl]bis-
##MOLFORM=C25H26
##CAS REGISTRY NO=55334-57-1
##MP= -300
##BP= -300
##MW= 326
##$RETENTION INDEX=0
##$CONDENSED SPECTRUM=NO
##NPOINTS= 164
##XYDATA=(XY..XY) 1 
    63         51
    64         17
    65        151
    66         13
    67          6
    68          3
    69          4
    70          1
    71          2
    73          3
    74         15
    75         15
    76         16
    77        138
    78         15
    79         47
    80          4
    81          3
    82          3
    83          3
    84          1
    85          1
    86          3
    87          5
    88          3
    89         27
    90         12
    91        999
    92        148
    93         16
    94          7
    95          3
    96          1
    97          1
    98          2
    99          1
   100          1
   101          7
   102         20
   103         60
   104         98
   105        353
   106         60
   107          8
   108          3
   109          1
   110          1
   111          1
   112          1
   113          3
   114          3
   115         62
   116          6
   117        150
   118         21
   119          7
   120          8
   121          3
   122          1
   123          1
   124          1
   125          1
   126          7
   127         29
   128        128
   129        130
   130         31
   131         88
   132         12
   133         48
   134         11
   135          2
   136          1
   137          1
   138          1
   139          5
   140          2
   141         57
   142         22
   143         86
   144         21
   145         18
   146         11
   147         18
   148          9
   149          2
   150          1
   151          3
   152          7
   153          6
   154          3
   155         33
   156          7
   157         25
   158          4
   159          4
   160          6
   161          1
   162          1
   163          1
   164          1
   165         11
   166          4
   167          7
   168          2
   169          1
   170          1
   171          1
   174          1
   175          1
   176          2
   177          2
   178         10
   179         11
   180         10
   181         12
   182         30
   183          5
   184          1
   185          1
   187          1
   188          1
   189          3
   190          1
   191          4
   192          3
   193          4
   194          3
   195          5
   196          3
   197          1
   200          1
   201          1
   202          6
   203          4
   204          4
   205          5
   206          2
   207          2
   208          2
   209          1
   210          1
   213          1
   214          1
   215          7
   216          3
   217          5
   218          3
   219         14
   220          7
   221         13
   222         10
   223          2
   234         17
   235         15
   236          7
   237          6
   249          3
   250          1
   324          5
   325          2
   326         32
   327          9
   328          1