##TITLE=Library Entry 43695
##JCAMP-DX=Revision 4.10 
##DATA TYPE=MASS SPECTRUM
##SAMPLE DESCRIPTION=M.G.HORNING,INST. LIPID RES,BAYLOR COLL. MED,HOUSTON,TE
XAS, USA
##NAMES=HP
##CAS NAME=Methyl 4-hydroxymandelatem, 2TMS derivative
##MOLFORM=C15H26O4Si2
##CAS REGISTRY NO=55334-40-2
##MP= -300
##BP= -300
##MW= 326
##$RETENTION INDEX=0
##$CONDENSED SPECTRUM=NO
##NPOINTS= 87
##XYDATA=(XY..XY) 1 
    43         50
    45        186
    46         16
    47         13
    57         13
    58         26
    59        116
    60          6
    61         16
    63         10
    65          6
    70          6
    71         10
    72         16
    73        999
    74         80
    75         76
    76         10
    77         20
    78          6
    79          6
    83         10
    85          6
    88          6
    89        216
    90         23
    91         56
    92         10
    93         10
    95         26
    96          6
   103         10
   105         13
   107          6
   109          6
   115          6
   117          6
   121         13
   123         10
   131          6
   133         23
   135         23
   137         10
   147         13
   148          6
   149         20
   150          6
   151         93
   152         10
   153          6
   161         16
   163         40
   164         10
   177         20
   178         16
   179        133
   180         16
   181          6
   191         10
   192         13
   193         76
   194         16
   195         16
   206          6
   207         13
   209         33
   210          6
   221          6
   237         33
   238         13
   251         30
   252         13
   262          6
   263          6
   264         10
   265         43
   266         50
   267        666
   268        240
   269        110
   270         16
   283         90
   284         20
   285         10
   311         36
   312         13
   313         10