##TITLE=Library Entry 44825
##JCAMP-DX=Revision 4.10 
##DATA TYPE=MASS SPECTRUM
##SAMPLE DESCRIPTION=R. RYHAGE KAROLINSKA INSTITUTET, STOCKHOLM
##NAMES=HP
##CAS NAME=Eicosanoic acid, 3-methyl-, methyl ester
##MOLFORM=C22H44O2
##CAS REGISTRY NO=55334-53-7
##MP= -300
##BP= -300
##MW= 340
##$RETENTION INDEX=0
##$CONDENSED SPECTRUM=NO
##NPOINTS= 124
##XYDATA=(XY..XY) 1 
    14          2
    15         25
    16          3
    17         13
    18         53
    26          9
    27         70
    28         29
    29        170
    30          5
    31         13
    32          5
    33          2
    37          3
    38          4
    39         65
    40         16
    41        390
    42         95
    43        520
    44         38
    45         10
    50          5
    51          6
    52          4
    53         28
    54         29
    55        370
    56         95
    57        290
    58         17
    59        110
    60          6
    61          3
    63          2
    65          6
    66          4
    67         45
    68         30
    69        230
    70         47
    71        110
    72         31
    73         47
    74        999
    75        360
    76         18
    77          8
    78          7
    79         11
    80          3
    81         33
    82         22
    83        110
    84         26
    85         27
    86          5
    87         51
    88          4
    91          6
    92          2
    93          6
    94          3
    95         19
    96         11
    97         62
    98         26
    99         11
   100          3
   101        740
   102         51
   103          5
   107          4
   108          2
   109          8
   110          5
   111         26
   112         23
   113          8
   114          2
   115         12
   121          3
   123          3
   124          2
   125         10
   126          5
   127          3
   129          6
   130          2
   135          2
   137          2
   139          4
   140          2
   141          2
   143          6
   144          2
   153          3
   157         18
   158          2
   167          2
   171          3
   185          2
   199          3
   213          5
   227          5
   241          3
   255          2
   265          2
   267          8
   268          2
   270          3
   283         15
   284          4
   297         21
   298          5
   309         22
   310          5
   311          2
   325         13
   326          3
   339          2
   340         95
   341         26
   342          4