##TITLE=Library Entry 14074
##JCAMP-DX=Revision 4.10 
##DATA TYPE=MASS SPECTRUM
##SAMPLE DESCRIPTION=TNO Volatile Compounds in Food - Chemical Concepts
##NAMES=HP
##CAS NAME=1,4-Benzenediol, 2,3,5,6-tetrachloro-, diacetate
##MOLFORM=C10H6Cl4O4
##CAS REGISTRY NO=5533-10-8
##MP= -300
##BP= -300
##MW= 330
##$RETENTION INDEX=0
##$CONDENSED SPECTRUM=NO
##NPOINTS= 152
##XYDATA=(XY..XY) 1 
    35          7
    36         50
    37          3
    38          7
    42         56
    43        999
    44         22
    45          3
    46          3
    47          5
    48          8
    50          1
    53          4
    55          0
    57          1
    59          5
    60         12
    61          3
    62          1
    63          1
    64          0
    65          5
    66          3
    67          2
    68          3
    70          0
    72          0
    74          0
    77          1
    79          1
    82          4
    83         12
    84          8
    85          2
    86          8
    87         93
    88          2
    89         30
    91          0
    92          9
    93          4
    94          2
    95         27
    96         16
    97          5
    98          0
    99          1
   100          0
   103          5
   104          1
   105          1
   106          1
   107          2
   109          0
   111          9
   112          5
   113          8
   118         19
   119          8
   120          9
   121         10
   122          3
   123          1
   124          1
   125          1
   128          1
   130         12
   132          4
   135          3
   141          1
   142          0
   143          1
   144          1
   147         14
   148          0
   149          6
   150          2
   153         11
   154          7
   155         10
   156          4
   157          4
   159          0
   163          0
   165          6
   166          1
   167          7
   170          3
   174          0
   175          2
   177          0
   180          1
   181          5
   182          8
   183         15
   184          5
   185          3
   186          5
   188          5
   189          0
   190          5
   191          1
   192          5
   193          3
   196          1
   197          1
   199          0
   201          1
   202          1
   203          1
   209          5
   210          9
   211          9
   212          3
   213          3
   214          4
   215          1
   216          1
   217          7
   218          2
   219          4
   220          2
   221          2
   230          2
   232          4
   234          1
   236          0
   241          0
   244          1
   245         17
   246        539
   247         36
   248        757
   250        341
   252         78
   254          6
   255          7
   256          0
   257          5
   273          1
   274          0
   276          0
   281          1
   288         42
   290         74
   292         35
   294          2
   327          1
   330         41
   332         50
   334         28
   336          1