##TITLE=Library Entry 96888
##JCAMP-DX=Revision 4.10 
##DATA TYPE=MASS SPECTRUM
##SAMPLE DESCRIPTION=GULF OIL CANADA LIMITED, SHERIDAN PARK, ONTARIO, CANADA
.
##NAMES=HP
##CAS NAME=1H-Indene, 1-hexadecyl-2,3-dihydro-
##MOLFORM=C25H42
##CAS REGISTRY NO=55334-29-7
##MP= -300
##BP= -300
##MW= 342
##$RETENTION INDEX=0
##$CONDENSED SPECTRUM=NO
##NPOINTS= 129
##XYDATA=(XY..XY) 1 
    14          2
    15          1
    26          1
    27         28
    28         20
    29         67
    30          1
    38          0
    39         16
    40          3
    41         83
    42         17
    43        120
    44          4
    50          0
    51          2
    52          0
    53          5
    54          3
    55         38
    56         13
    57         35
    58          1
    62          0
    63          1
    64          0
    65          3
    66          0
    67          4
    68          2
    69         12
    70          5
    71          7
    72          0
    74          0
    75          1
    76          1
    77          5
    78          2
    79          1
    80          0
    81          1
    82          0
    83          4
    84          1
    85          2
    86          4
    87          0
    88          0
    89          2
    90          0
    91         36
    92          3
    93          0
    95          0
    96          0
    97          1
    98          0
    99          0
   101          0
   102          2
   103          2
   104          2
   105          2
   106          0
   109          0
   110          0
   111          0
   112          0
   114          2
   115         50
   116         50
   117        999
   118        105
   119          6
   120          0
   121          0
   125          0
   126          0
   127          4
   128         14
   129         17
   130         37
   131         20
   132          3
   133          0
   134          0
   139          0
   140          0
   141          2
   142          2
   143         12
   144          3
   145          2
   146          0
   152          0
   153          0
   154          0
   155          1
   156          0
   157          0
   158          0
   159          0
   165          0
   166          0
   167          0
   168          0
   169          1
   170          0
   171          0
   172          0
   178          0
   179          0
   180          0
   181          0
   183          0
   191          0
   192          0
   193          0
   194          0
   334          0
   336          0
   338          0
   339          0
   340          1
   341          1
   342         34
   343          9
   344          1