##TITLE=Library Entry 15116
##JCAMP-DX=Revision 4.10 
##DATA TYPE=MASS SPECTRUM
##SAMPLE DESCRIPTION=J. CHARALAMBOUS NORTHERN POLYTECHNIC, HOLLOWAY, LONDON,
 UK
##NAMES=HP
##CAS NAME=Copper, bis(4-methoxy-3,5-cyclohexadiene-1,2-dione 1-oximato-N1,O
2)-
##MOLFORM=C14H12CuN2O6
##CAS REGISTRY NO=55334-23-1
##MP= -300
##BP= -300
##MW= 367
##$RETENTION INDEX=0
##$CONDENSED SPECTRUM=NO
##NPOINTS= 64
##XYDATA=(XY..XY) 1 
    26         50
    27         60
    28        340
    29        250
    30        100
    31        250
    32        190
    37         50
    38        100
    39        250
    41        100
    44        999
    50        100
    51        200
    52        250
    53        140
    54         30
    55         50
    59        100
    62         30
    63         50
    64         30
    65        100
    67         80
    68         30
    69        190
    77         80
    78         60
    79        150
    80        150
    92         30
    93         80
    94         50
    95         80
   107         15
   108        100
   109        190
   110         30
   122         30
   134         30
   135         15
   136        310
   137         60
   149         50
   150         30
   152         15
   153        270
   154         30
   157         50
   159         15
   165         30
   167         30
   198         15
   200         15
   201         30
   203         15
   215         80
   217         30
   322         10
   324          5
   335         10
   337          5
   367         45
   369         20