##TITLE=Library Entry 43861
##JCAMP-DX=Revision 4.10 
##DATA TYPE=MASS SPECTRUM
##SAMPLE DESCRIPTION=BAY 0279
##NAMES=HP
##CAS NAME=Phosphoric acid, 3-(ethoxyimino)-2-[(trimethylsilyl)oxy]propyl bi
s(trimethylsilyl) ester, (E)-(.+/-.)-
##MOLFORM=C14H36NO6PSi3
##CAS REGISTRY NO=55334-95-7
##MP= -300
##BP= -300
##MW= 429
##$RETENTION INDEX=0
##$CONDENSED SPECTRUM=NO
##NPOINTS= 220
##XYDATA=(XY..XY) 1 
    41         29
    42         21
    43         61
    44         50
    45        179
    46         18
    47         36
    50         11
    51         14
    52         14
    53         11
    54          7
    55         14
    56         14
    57         14
    58         21
    59        129
    60         18
    61         39
    67          7
    68         14
    69         14
    70         29
    71         18
    72         50
    73        999
    74        150
    75        179
    76         29
    77         29
    78         14
    79         29
    80          7
    81         11
    84         21
    85         18
    86         18
    87         21
    88          7
    89         36
    91         29
    93         14
    95          7
    97          7
    98         18
    99         18
   100         29
   101        150
   102         39
   103        100
   104         21
   105         14
   107          7
   112          7
   113         11
   114         14
   115         36
   116         71
   117        229
   118         21
   119         75
   120          7
   121         18
   123          7
   126         36
   127          7
   128         32
   129         14
   130          7
   131         36
   132         14
   133        229
   134         29
   135         86
   136         14
   137         21
   138          7
   142        186
   143         36
   144         79
   145         25
   146         11
   147        186
   148         25
   149         36
   150          7
   151         14
   152          4
   153          7
   155          7
   157          7
   158         14
   159          7
   160         14
   161         25
   162          7
   163         11
   165         11
   167         14
   172        114
   173         21
   174        257
   175         43
   176         14
   177         21
   179         18
   180          7
   181         21
   182          7
   183         14
   187         75
   188         71
   189         21
   190         11
   191         36
   192         14
   193         50
   194         11
   195         79
   196         18
   197         29
   198          7
   200          7
   211        564
   212         71
   213         57
   214         14
   221         14
   222          4
   225        157
   226         36
   227        650
   228        100
   229         50
   230         14
   241         21
   242         14
   243         79
   244         25
   245         11
   249          7
   253         64
   254         14
   255         32
   256         14
   257          7
   267         21
   268          7
   269         43
   270         14
   271         14
   272          7
   278         11
   279          4
   283         43
   284         21
   285         71
   286         21
   287         14
   294         50
   295         21
   296         14
   298        114
   299        714
   300        157
   301        136
   302         29
   303         14
   310         18
   311          7
   312          7
   313         32
   314         50
   315        379
   316        121
   317         50
   318         14
   319          7
   327         29
   328        364
   329         71
   330         50
   331         14
   340          7
   341         93
   342         43
   343         29
   344          7
   345          7
   352         14
   354         14
   355         29
   356         21
   357        200
   358         57
   359         25
   360         11
   361          4
   367          7
   368         64
   369         36
   370         21
   371         11
   372          7
   383         21
   384        607
   385        179
   386         79
   387         57
   388         21
   389          7
   399         14
   400          7
   401          4
   414         43
   415         21
   416          7
   429         18
   430          7
   431          4