##TITLE=Library Entry 24308
##JCAMP-DX=Revision 4.10 
##DATA TYPE=MASS SPECTRUM
##SAMPLE DESCRIPTION=Exported from NIST MS Search
##NAMES=HP
##CAS NAME=Eicosane, 7-hexyl-
##MOLFORM=C26H54
##CAS REGISTRY NO=55333-99-8
##MP= -300
##BP= -300
##MW= 366
##$RETENTION INDEX=0
##$CONDENSED SPECTRUM=NO
##NPOINTS= 179
##XYDATA=(XY..XY) 1 
    38          3
    39         39
    40         10
    41        385
    42         91
    43        930
    44         10
    45          1
    46          1
    47          1
    48          1
    49          1
    50          1
    51          2
    52          1
    53         16
    54         30
    55        309
    56        137
    57        999
    58         45
    59          1
    60          1
    61          1
    62          1
    63          1
    64          1
    65          3
    66          3
    67         32
    68         25
    69        165
    70         83
    71        613
    72         34
    73          1
    74          1
    75          1
    76          1
    77          3
    78          1
    79          5
    80          2
    81         15
    82         23
    83        106
    84         46
    85        404
    86         27
    87          1
    89          1
    90          1
    91          2
    92          1
    93          5
    94          1
    95          7
    96         15
    97         77
    98         25
    99        130
   100         11
   101          1
   102          1
   103          1
   104          1
   105          1
   106          1
   107          1
   108          1
   109          2
   110          9
   111         42
   112         17
   113         89
   114          8
   115          1
   116          1
   117          1
   118          1
   119          1
   120          1
   121          1
   122          1
   123          1
   124          5
   125         23
   126         13
   127         62
   128          6
   129          1
   130          1
   131          1
   132          1
   133          1
   134          1
   135          1
   136          1
   137          1
   138          4
   139         11
   140          8
   141         39
   142          4
   143          1
   148          1
   149          1
   151          1
   152          2
   153          7
   154          9
   155         24
   156          3
   157          1
   165          1
   166          2
   167          4
   168          4
   169         18
   170          3
   171          1
   178          1
   179          1
   180          1
   181          3
   182         51
   183         43
   184          6
   185          1
   194          1
   195          2
   196          3
   197         13
   198          2
   199          1
   200          1
   202          1
   203          1
   208          1
   209          1
   210          2
   211          9
   212          2
   213          1
   222          1
   223          1
   224          1
   225          6
   226          1
   227          1
   236          1
   237          1
   238          1
   239          3
   240          1
   241          1
   249          1
   250          1
   251          1
   252          3
   253          1
   254          1
   266          1
   267          1
   268          1
   280         27
   281         36
   282          8
   283          1
   284          1
   294          1
   295          1
   296          1
   308          1
   309          1
   310          1
   322          1
   323          1
   337          1