##TITLE=Library Entry 20722
##JCAMP-DX=Revision 4.10 
##DATA TYPE=MASS SPECTRUM
##SAMPLE DESCRIPTION=Exported from NIST MS Search
##NAMES=HP
##CAS NAME=Cyclohexane, 1,1'-tetradecylidenebis-
##MOLFORM=C26H50
##CAS REGISTRY NO=55334-08-2
##MP= -300
##BP= -300
##MW= 362
##$RETENTION INDEX=0
##$CONDENSED SPECTRUM=NO
##NPOINTS= 167
##XYDATA=(XY..XY) 1 
    41        726
    42        106
    43        538
    44         17
    45          1
    49          1
    50          5
    51          7
    52          5
    53         53
    54        141
    55        999
    56        119
    57        350
    58         15
    59          1
    61          1
    62          1
    63          2
    64          1
    65         11
    66         15
    67        337
    68         95
    69        341
    70         48
    71        188
    72         10
    73          1
    74          1
    75          1
    76          1
    77         14
    78          6
    79         44
    80         24
    81        240
    82        433
    83        828
    84         73
    85        128
    86          8
    87          1
    89          1
    90          1
    91         12
    92          3
    93         15
    94         11
    95        116
    96        357
    97        597
    98         47
    99         33
   100          3
   103          1
   104          1
   105          3
   106          1
   107          6
   108         11
   109        114
   110         42
   111        193
   112         19
   113         20
   114          2
   115          1
   117          1
   118          1
   119          1
   120          1
   121          3
   122          5
   123         25
   124         15
   125         88
   126         10
   127         13
   128          2
   129          1
   131          1
   133          1
   134          1
   135          3
   136          2
   137         11
   138         13
   139         42
   140          5
   141         11
   142          1
   143          1
   147          1
   149          1
   150          1
   151          6
   152          9
   153         26
   154          4
   155          5
   156          1
   163          1
   164          1
   165          4
   166          2
   167         17
   168          3
   169          4
   170          1
   175          1
   176          1
   177          2
   178         18
   179         62
   180         10
   181         14
   182          5
   183          6
   184          1
   191          1
   192          2
   193          4
   194          3
   195         11
   196          3
   197          6
   198          1
   206          1
   207          2
   208          2
   209          8
   210          1
   211          1
   220          1
   221          1
   222          2
   223          6
   224          1
   225          1
   234          1
   235          1
   236          3
   237          3
   238          1
   249          1
   250          9
   251          3
   252          1
   264          1
   265          2
   266          1
   274          1
   275          1
   276          1
   277          2
   278        322
   279        215
   280         41
   281          4
   282          1
   294          1
   295          1
   360          1
   361          1
   362          3
   363          1