##TITLE=Library Entry 44213
##JCAMP-DX=Revision 4.10 
##DATA TYPE=MASS SPECTRUM
##SAMPLE DESCRIPTION=NIST Mass Spectrometry Data Center
##NAMES=HP
##CAS NAME=Homogentisic acid, 3TMS derivative
##MOLFORM=C17H32O4Si3
##CAS REGISTRY NO=55334-62-8
##MP= -300
##BP= -300
##MW= 384
##$RETENTION INDEX=1860
##$CONDENSED SPECTRUM=NO
##NPOINTS= 241
##XYDATA=(XY..XY) 1 
    15          1
    27          1
    29          2
    31          1
    39          1
    41          1
    42          1
    43         14
    44         11
    45        115
    46          7
    47         12
    48          1
    51          2
    52          1
    53          1
    55          3
    56          1
    57          5
    58          6
    59         18
    60          3
    61          8
    62          1
    63          2
    65          2
    66          1
    67          1
    68          1
    69          2
    70          2
    71          4
    73        999
    74         86
    75        115
    76          9
    77         11
    78          2
    79          2
    81          1
    82          1
    83          6
    84          1
    85          3
    87          1
    88          1
    89          5
    90          1
    91         14
    92          2
    93          4
    94          1
    95          5
    96          1
    97          4
    98          1
    99          2
   101          1
   102          2
   103         10
   104          6
   105         14
   106          1
   107          4
   108          1
   109          4
   110          2
   111          8
   112          1
   113          1
   115          9
   116          2
   117         11
   118          3
   119         18
   120          3
   121          8
   122          1
   123          2
   124          1
   125          1
   126          1
   127          1
   128          1
   129          2
   130          1
   131         14
   132          3
   133         52
   134          8
   135         19
   136          4
   137          4
   138          1
   139          1
   141          1
   143          4
   144          1
   145          6
   147        284
   148         47
   149         39
   150          6
   151         10
   152          1
   153          1
   155          1
   157          2
   158          1
   159          3
   160          1
   161         15
   162          5
   163         45
   164          9
   165          7
   166          2
   167          3
   168          1
   169          1
   171          1
   173          1
   174          1
   175          4
   176          3
   177         27
   178         20
   179         16
   180          4
   181          5
   182          1
   183          1
   184          4
   189          2
   190          1
   191         16
   192          5
   193         31
   194         27
   195         10
   196          2
   197          1
   203          1
   204          1
   205          2
   206          1
   207         14
   208          3
   209         10
   210          2
   211          1
   217          1
   218          1
   219          4
   220          1
   221         11
   222          7
   223         17
   224          4
   225          6
   226          1
   227          1
   231          1
   233          4
   234          1
   235         11
   236          6
   237        118
   238         28
   239         16
   240          3
   241          1
   247          1
   248          1
   249         17
   250          9
   251         36
   252        187
   253         55
   254         19
   255          4
   256          1
   263          3
   264          2
   265         45
   266         14
   267         80
   268         42
   269         13
   270          4
   271          1
   278          1
   279          2
   280          1
   281         14
   282          4
   283          2
   284          1
   293          1
   294         11
   295          5
   296          8
   297         21
   298          6
   299          3
   300          1
   309          1
   310          1
   311          5
   312         31
   313         24
   314          9
   315          3
   316          1
   321          1
   323          3
   324          1
   325         21
   326          7
   327          4
   328          1
   339          3
   341        380
   342        122
   343         57
   344         12
   345          3
   346          1
   355          2
   356          1
   369         50
   370         17
   371          8
   372          2
   373          1
   384        717
   385        249
   386        128
   387         30
   388          7
   389          1