##TITLE=Library Entry 6142
##JCAMP-DX=Revision 4.10 
##DATA TYPE=MASS SPECTRUM
##SAMPLE DESCRIPTION=Exported from NIST MS Search
##NAMES=HP
##CAS NAME=1,1'-Bicyclopentyl, 2-hexadecyl-
##MOLFORM=C26H50
##CAS REGISTRY NO=55334-11-7
##MP= -300
##BP= -300
##MW= 362
##$RETENTION INDEX=0
##$CONDENSED SPECTRUM=NO
##NPOINTS= 241
##XYDATA=(XY..XY) 1 
    36          1
    37          1
    38          3
    39        108
    40         29
    41        965
    42        148
    43        999
    44         35
    45          1
    50          2
    51          6
    52          6
    53         76
    54        153
    55        784
    56        143
    57        533
    58         29
    59          4
    60          1
    61          1
    62          1
    63          1
    64          1
    65         17
    66         89
    67        822
    68        394
    69        676
    70         90
    71        202
    72         12
    73          2
    74          1
    75          1
    76          1
    77         23
    78          7
    79         79
    80         67
    81        509
    82        794
    83        685
    84         72
    85        117
    86          8
    87          1
    88          1
    89          1
    90          1
    91         22
    92          6
    93         47
    94         79
    95        677
    96        303
    97        336
    98         36
    99         20
   100          2
   101          1
   102          1
   103          1
   104          1
   105          6
   106          3
   107         17
   108         29
   109        146
   110         66
   111        121
   112         17
   113         13
   114          1
   115          2
   116          1
   117          4
   118          1
   119          3
   120          2
   121         18
   122         17
   123         87
   124         47
   125         47
   126          7
   127          8
   128          2
   129          1
   130          1
   131          2
   132          1
   133          6
   134          5
   135         45
   136        107
   137        455
   138        114
   139         26
   140          4
   141          5
   142          1
   143          1
   144          1
   145          1
   146          1
   147          3
   148          3
   149          7
   150          4
   151         18
   152          9
   153         11
   154          3
   155          4
   156          1
   157          1
   158          1
   159          1
   160          1
   161          2
   162          2
   163          2
   164          2
   165          4
   166          2
   167         10
   168          2
   169          2
   170          1
   171          1
   172          1
   173          1
   174          1
   175          1
   176          1
   177          1
   178          1
   179          2
   180          2
   181          4
   182          1
   183          2
   184          1
   185          1
   186          1
   187          1
   188          1
   189          1
   190          1
   191          1
   192          1
   193          1
   194          1
   195          3
   196          1
   197          2
   198          1
   199          1
   200          1
   201          1
   202          1
   203          1
   207          1
   208          1
   209          3
   210          2
   211          2
   212          1
   220          1
   221          1
   222          1
   223          2
   224          1
   225          1
   226          1
   234          1
   235          2
   236          2
   237          2
   238          1
   239          1
   249          1
   250          2
   251          1
   252          1
   253          1
   263          1
   264          4
   265          1
   266          1
   267          1
   268          1
   277          1
   278          2
   279          1
   280          2
   281          1
   289          1
   290          1
   291          3
   292         80
   293         34
   294          6
   295          1
   304          1
   305         12
   306          7
   307          3
   308          1
   309          1
   318          1
   319          8
   320          4
   321          1
   322          1
   329          1
   330          1
   331          1
   332          1
   333          1
   334          6
   335          2
   344          1
   345          1
   346          1
   347          1
   348          1
   354          1
   355          1
   356          1
   357          1
   358          1
   359          1
   360          2
   361          1
   362         96
   363         25
   364          3
   365          1