##TITLE=Library Entry 74627
##JCAMP-DX=Revision 4.10 
##DATA TYPE=MASS SPECTRUM
##SAMPLE DESCRIPTION=R. RYHAGE KAROLINSKA INSTITUTET, STOCKHOLM
##NAMES=HP
##CAS NAME=Tetracosanoic acid, 2,4,6-trimethyl-, methyl ester
##MOLFORM=C28H56O2
##CAS REGISTRY NO=55335-01-8
##MP= -300
##BP= -300
##MW= 424
##$RETENTION INDEX=0
##$CONDENSED SPECTRUM=NO
##NPOINTS= 144
##XYDATA=(XY..XY) 1 
    17          9
    18         26
    27          3
    28          4
    29          7
    30          2
    39          2
    41         58
    42          9
    43         62
    44         33
    45          2
    53          6
    54          7
    55        120
    56         40
    57        180
    58         10
    59         33
    67          9
    68          6
    69        110
    70          3
    71         86
    72          6
    73         27
    74         15
    75          3
    77          3
    78          2
    79          5
    80          2
    81         21
    82         14
    83        100
    84         22
    85         83
    86          6
    87         27
    88        700
    89         36
    90          4
    91          5
    93          4
    94          2
    95         22
    96         16
    97         71
    98         14
    99         36
   100          4
   101        999
   102         63
   103          7
   107          3
   109         17
   110          6
   111         69
   112         17
   113         26
   114          3
   115          4
   119          2
   121          6
   122          2
   123         11
   124          5
   125         22
   126         11
   127         24
   128          4
   129         63
   130          6
   135          4
   137          7
   138          3
   139         27
   140         13
   141         18
   142          3
   143         24
   144          4
   145          3
   151          3
   152          2
   153          6
   154          3
   155         14
   156          2
   157          2
   163          3
   165          2
   167          3
   169         13
   170          2
   171         23
   172          3
   181          3
   183         11
   184          2
   185          2
   197         11
   198          3
   199          6
   200          3
   211         10
   212          2
   223          3
   225          9
   239          9
   240          2
   253          8
   254          2
   267          7
   279          3
   280          3
   281          6
   295          3
   311          4
   319          3
   323          2
   334         13
   335          5
   337         32
   338          9
   339          6
   350          2
   353         10
   354          3
   365          3
   374          2
   375         12
   376          4
   377          4
   381         21
   382          6
   391          3
   393          7
   394          2
   409          3
   423          3
   424        100
   425         36
   426          6