##TITLE=Library Entry 21079
##JCAMP-DX=Revision 4.10 
##DATA TYPE=MASS SPECTRUM
##SAMPLE DESCRIPTION=Exported from NIST MS Search
##NAMES=HP
##CAS NAME=Cyclohexane, 1,1'-dodecylidenebis[4-methyl-
##MOLFORM=C26H50
##CAS REGISTRY NO=55334-09-3
##MP= -300
##BP= -300
##MW= 362
##$RETENTION INDEX=0
##$CONDENSED SPECTRUM=NO
##NPOINTS= 289
##XYDATA=(XY..XY) 1 
    37          2
    39         61
    40         14
    41        393
    42         57
    43        333
    44         11
    45          1
    48          1
    49          1
    50          2
    51          3
    52          3
    53         39
    54         74
    55        999
    56         82
    57        187
    58          9
    59          1
    60          1
    61          1
    62          1
    63          1
    64          1
    65          8
    66          7
    67        132
    68         96
    69        268
    70         34
    71         97
    72          6
    73          1
    74          1
    75          1
    76          1
    77         12
    78          3
    79         29
    80         13
    81        212
    82         52
    83        261
    84         22
    85         69
    86          5
    87          1
    88          1
    89          1
    90          1
    91          9
    92          2
    93         14
    94          9
    95        146
    96        200
    97        543
    98         45
    99         19
   100          1
   101          1
   102          1
   103          1
   104          1
   105          3
   106          1
   107          6
   108          4
   109         42
   110        141
   111        239
   112         22
   113         12
   114          1
   115          1
   116          1
   117          1
   118          1
   119          1
   120          1
   121          2
   122          5
   123         40
   124         13
   125         82
   126          9
   127          7
   128          1
   129          1
   130          1
   131          1
   132          1
   133          1
   134          1
   135          2
   136          2
   137         10
   138          7
   139         33
   140          4
   141          5
   142          1
   143          1
   144          1
   145          1
   146          1
   147          1
   148          1
   149          2
   150          1
   151          7
   152          6
   153         20
   154          4
   155          4
   156          1
   157          1
   158          1
   159          1
   160          1
   161          1
   162          1
   163          1
   164          1
   165          4
   166          5
   167         15
   168          3
   169          6
   170          1
   171          1
   172          1
   173          1
   174          1
   175          1
   176          1
   177          1
   178          1
   179          1
   180          2
   181         12
   182          2
   183          6
   184          1
   185          1
   186          1
   187          1
   189          1
   190          1
   191          1
   192          1
   193          2
   194          1
   195          9
   196          2
   197          1
   198          1
   199          1
   200          1
   201          1
   202          1
   203          1
   204          1
   205          1
   206          5
   207         19
   208          5
   209          7
   210          1
   211          1
   212          1
   213          1
   214          1
   215          1
   216          1
   217          1
   218          1
   219          1
   220          1
   221          2
   222          2
   223          2
   224          1
   225          1
   226          1
   227          1
   228          1
   229          1
   230          1
   231          1
   232          1
   233          1
   234          1
   235          2
   236          8
   237          2
   238          1
   239          1
   240          1
   241          1
   242          1
   243          1
   244          1
   245          1
   246          1
   247          1
   248          1
   249          3
   250          1
   251          1
   252          1
   253          1
   254          1
   255          1
   256          1
   257          1
   258          1
   259          1
   260          1
   261          1
   262          1
   263          1
   264        155
   265        105
   266         19
   267          2
   268          1
   269          1
   270          1
   271          1
   272          1
   273          1
   274          1
   275          1
   276          1
   277          1
   278          1
   279          1
   280          1
   281          1
   282          1
   283          1
   284          1
   285          1
   286          1
   287          1
   288          1
   289          1
   290          1
   291          1
   292          1
   293          1
   294          1
   295          1
   296          1
   297          1
   298          1
   299          1
   300          1
   301          1
   302          1
   303          1
   304          1
   305          1
   306          1
   307          1
   308          1
   309          1
   310          1
   311          1
   312          1
   313          1
   314          1
   315          1
   316          1
   317          1
   318          1
   319          1
   320          1
   321          1
   356          1
   357          1
   358          1
   359          1
   360          1
   361          1
   362          1
   363          1