##TITLE=Library Entry 9640
##JCAMP-DX=Revision 4.10 
##DATA TYPE=MASS SPECTRUM
##SAMPLE DESCRIPTION=Exported from NIST MS Search
##NAMES=HP
##CAS NAME=Cyclohexane, 1,4-didecyl-
##MOLFORM=C26H52
##CAS REGISTRY NO=55334-20-8
##MP= -300
##BP= -300
##MW= 364
##$RETENTION INDEX=0
##$CONDENSED SPECTRUM=NO
##NPOINTS= 217
##XYDATA=(XY..XY) 1 
    12          2
    13          2
    14          4
    15         12
    16          4
    17          2
    18          7
    19          1
    20          1
    24          1
    25          3
    26         15
    27        150
    28         46
    29        381
    30         10
    32          1
    33          1
    34          1
    35          1
    36          1
    37          2
    38          4
    39         69
    40         17
    41        636
    42        105
    43        999
    44         33
    45          1
    49          1
    50          2
    51          4
    52          3
    53         41
    54        148
    55        928
    56        155
    57        822
    58         37
    59          1
    60          1
    61          1
    62          1
    63          1
    64          1
    65         12
    66         17
    67        348
    68        139
    69        638
    70        112
    71        374
    72         21
    73          1
    74          1
    75          1
    76          2
    77         14
    78          5
    79         42
    80         33
    81        330
    82        200
    83        960
    84         87
    85        235
    86         16
    87          1
    88          1
    89          1
    90          1
    91          9
    92          2
    93         18
    94         13
    95        177
    96        336
    97        861
    98         77
    99         37
   100          3
   101          1
   102          1
   103          1
   104          2
   105          3
   106          1
   107          7
   108          9
   109         99
   110         36
   111        383
   112         42
   113         17
   114          2
   115          1
   116          1
   117          1
   118          1
   119          1
   120          1
   121          3
   122          3
   123         28
   124         14
   125        172
   126         24
   127         19
   128          2
   129          1
   130          1
   131          1
   132          1
   133          1
   134          1
   135          2
   136          2
   137         14
   138         12
   139         81
   140         27
   141         24
   142          3
   143          1
   144          1
   145          1
   146          1
   147          1
   148          1
   149          1
   150          2
   151          9
   152          8
   153         50
   154          8
   155          4
   156          1
   163          1
   164          1
   165          7
   166          5
   167         35
   168          7
   169          2
   177          1
   178          1
   179          6
   180          7
   181         13
   182         10
   183          2
   191          1
   192          1
   193          4
   194         19
   195          4
   196          3
   197          2
   205          1
   206          1
   207          4
   208          4
   209          3
   210          2
   211          1
   219          1
   220          1
   221          5
   222        327
   223        379
   224         67
   225          6
   226          1
   230          1
   231          1
   232          1
   233          1
   234          1
   235          1
   236          3
   237          3
   238          2
   239          1
   240          1
   249          1
   250          1
   251          1
   252          1
   260          1
   261          1
   262          1
   263          1
   264          1
   265          1
   266          1
   267          1
   278          1
   279          2
   280          1
   281          1
   293          1
   294          1
   295          1
   333          1
   334          1
   335          1
   336          4
   337          1
   338          1
   360          1
   361          1
   362          1
   363          1
   364         48
   365         14
   366          2