##TITLE=Library Entry 44548
##JCAMP-DX=Revision 4.10 
##DATA TYPE=MASS SPECTRUM
##SAMPLE DESCRIPTION=R. RYHAGE KAROLINSKA INSTITUTET, STOCKHOLM
##NAMES=HP
##CAS NAME=Hexacosanoic acid, 5-methyl-, methyl ester
##MOLFORM=C28H56O2
##CAS REGISTRY NO=55335-02-9
##MP= -300
##BP= -300
##MW= 424
##$RETENTION INDEX=0
##$CONDENSED SPECTRUM=NO
##NPOINTS= 240
##XYDATA=(XY..XY) 1 
    12          3
    13          2
    14          6
    15         29
    16          9
    17         23
    18         91
    19          2
    25          5
    26         24
    27         91
    28         87
    29        190
    30         13
    31         42
    32         27
    33          2
    37          6
    38          9
    39         93
    40         22
    41        430
    42        140
    43        690
    44        150
    45          9
    46          2
    49          2
    50          8
    51         10
    52          6
    53         33
    54         44
    55        480
    56        170
    57        460
    58         29
    59         84
    60          6
    61          3
    62          2
    63          3
    64          2
    65          8
    66          7
    67         65
    68         51
    69        330
    70        110
    71        200
    72         13
    73         14
    74        999
    75        350
    76         19
    77         11
    78          7
    79         17
    80          9
    81         57
    82         44
    83        160
    84         42
    85         98
    86          9
    87        340
    88         60
    89          6
    92          9
    93         19
    94         16
    95         48
    96         29
    97        180
    98        110
    99         31
   100          7
   101        150
   102         79
   103          9
   107         11
   108          8
   109         33
   110         27
   111         72
   112         31
   113         17
   114          3
   115         25
   116          3
   117          3
   118          2
   119          4
   120          3
   121         13
   122          5
   123         15
   124          9
   125         30
   126         11
   127         11
   128          7
   129        240
   130         26
   131          5
   132          2
   133          3
   134          2
   135         10
   136          4
   137          7
   138          6
   139         14
   140          6
   141          9
   142          9
   143         27
   144          6
   145          3
   151          5
   152          4
   153          9
   154          4
   155          7
   156          3
   157         25
   158          4
   159          2
   163          5
   164          2
   165          4
   166          4
   167          6
   168          3
   169          5
   170          2
   171          6
   172          2
   177          3
   178          2
   179          3
   180          3
   181          5
   182          3
   183          5
   184          2
   185          6
   186          2
   191          3
   193          2
   194          3
   195          3
   196          3
   197          3
   198          3
   199          6
   200          3
   206          3
   208          2
   209          2
   210          3
   211          2
   212          3
   213          5
   222          3
   223          3
   224          2
   225          3
   227          4
   236          2
   237          2
   238          2
   239          3
   241          4
   247          2
   251          2
   252          2
   253          2
   255          3
   256          2
   264          5
   265          3
   266          2
   267          3
   269          3
   270          3
   278          2
   279          2
   280          2
   283          2
   292          2
   293          2
   294          2
   296          2
   297          2
   298          8
   299          2
   308          2
   309          3
   310          2
   311          3
   312          2
   320          2
   321          4
   322          3
   323          2
   325          3
   326          2
   339          3
   340          2
   348         33
   349         11
   350         10
   351         10
   352          4
   353         15
   354          6
   367          2
   373          3
   374         25
   375         12
   376          3
   377          3
   380          8
   381        150
   382         48
   383          9
   390          2
   391          4
   392          6
   393         24
   394          8
   395          3
   409          6
   410          4
   423         12
   424        230
   425         80
   426         15
   427          3