##TITLE=Library Entry 45190
##JCAMP-DX=Revision 4.10 
##DATA TYPE=MASS SPECTRUM
##SAMPLE DESCRIPTION=Exported from NIST MS Search
##NAMES=HP
##CAS NAME=1-Docosanol, propanoate
##MOLFORM=C25H50O2
##CAS REGISTRY NO=55334-75-3
##MP= -300
##BP= -300
##MW= 382
##$RETENTION INDEX=2699
##$CONDENSED SPECTRUM=NO
##NPOINTS= 231
##XYDATA=(XY..XY) 1 
    14          2
    15          3
    16          6
    17         40
    18        170
    26          2
    27         12
    28         19
    29         74
    30          3
    31          3
    39         11
    40          3
    41        130
    42         33
    43        260
    44         81
    45          4
    48          9
    50          2
    53          7
    54         37
    55        250
    56        140
    57        540
    58         23
    59          5
    60          6
    61          9
    64         20
    65          3
    66          9
    67         72
    68         98
    69        320
    70        170
    71        260
    72         22
    73         12
    74        280
    75        999
    76         36
    77          7
    78          2
    79          9
    80          7
    81         69
    82        250
    83        450
    84        120
    85        170
    86         15
    87         16
    88         15
    89         27
    90          2
    91          5
    92          2
    93          6
    94          5
    95         47
    96        140
    97        520
    98        120
    99         62
   100          9
   101          9
   102          4
   103          2
   104          2
   105          3
   106          2
   107          4
   108          4
   109         26
   110         71
   111        330
   112        110
   113         62
   114          7
   115         12
   116          5
   117          2
   119          3
   120          2
   121          5
   122          5
   123         20
   124         56
   125        210
   126         75
   127         46
   128          7
   129          7
   130         42
   131          5
   133          3
   134          2
   135          5
   136          5
   137         16
   138         46
   139        130
   140         58
   141         39
   142          5
   143          5
   144          7
   145          2
   147          2
   148          2
   149          5
   150          3
   151          7
   152         36
   153         89
   154         49
   155         31
   156          5
   157          3
   158          2
   159          2
   161          2
   163          2
   164          2
   165          5
   166         31
   167         72
   168         41
   169         26
   170          4
   171          3
   173          2
   175          2
   177          2
   178          2
   179          3
   180         27
   181         54
   182         35
   183         22
   184          3
   185          3
   189          2
   191          2
   192          2
   193          3
   194         23
   195         43
   196         32
   197         17
   198          2
   199          2
   200          3
   201          3
   202          4
   204          2
   205          2
   206          2
   207          5
   208         20
   209         35
   210         27
   211         15
   212          3
   213          3
   220          2
   221          2
   222         18
   223         28
   224         31
   225         16
   226          3
   227          2
   228          2
   235          2
   236         14
   237         22
   238         21
   239         12
   240          3
   241          2
   242          2
   249          2
   250         10
   251         17
   252         19
   253          9
   254          2
   255          2
   256          4
   257          2
   264         10
   265         15
   266         12
   267          7
   268          2
   270          2
   278          5
   279         12
   280         85
   281         25
   282          4
   283          2
   292          2
   293          2
   294          2
   295          2
   296          2
   297          2
   298          2
   306          6
   307          3
   308        220
   309         66
   310         11
   311          2
   323          5
   324          2
   325          3
   326          2
   335          2
   336          2
   353        120
   354         32
   355          5
   380          2
   381         15
   382         26
   383          7
   384          2