##TITLE=Library Entry 84537
##JCAMP-DX=Revision 4.10 
##DATA TYPE=MASS SPECTRUM
##SAMPLE DESCRIPTION=Chemical Concepts
##NAMES=HP
##CAS NAME=4-(Ethoxymethyl)-6-hydroxy-5-(4-isopropoxybenzyl)-2-mercaptopyrim
idine
##MOLFORM=C17H22N2O3S
##CAS REGISTRY NO=55342-46-6
##MP= -300
##BP= -300
##MW= 334
##$RETENTION INDEX=0
##$CONDENSED SPECTRUM=NO
##NPOINTS= 110
##XYDATA=(XY..XY) 1 
    36         16
    38         18
    39        124
    41        307
    42         81
    43        356
    44         52
    45         50
    51         30
    52         21
    53         26
    54         12
    55         40
    57         12
    59         42
    60         22
    63         21
    64         14
    65         39
    66         12
    68         37
    69         13
    75         16
    77        112
    78         45
    79         37
    82         19
    83         14
    84         16
    86         18
    89         13
    90         48
    91        101
    92         12
    94         32
    95         13
   100         13
   102         17
   103         33
   104         12
   105         20
   107        999
   108         91
   110         35
   115         57
   116         16
   117         12
   118         18
   119         36
   120         40
   121         27
   123         11
   126         15
   127         24
   128         15
   129         11
   130         26
   131         36
   132         13
   133         15
   135         12
   136         14
   137         16
   142         24
   143         25
   144         25
   145         17
   146         22
   147         37
   148         24
   149        209
   150         24
   156         16
   157         14
   158         21
   159         31
   160         30
   164         24
   165         17
   166         31
   169         49
   170         31
   171         29
   172         13
   186         90
   187         25
   188         26
   198         21
   201         27
   202         28
   207         17
   208         18
   213         20
   217         14
   228         47
   229        100
   230         32
   231         19
   233         24
   245        626
   246        162
   247         73
   248         29
   252         25
   263         51
   291         25
   292         50
   334        227
   335         48
   336         17