##TITLE=Library Entry 107151
##JCAMP-DX=Revision 4.10 
##DATA TYPE=MASS SPECTRUM
##SAMPLE DESCRIPTION=Japan AIST/NIMC Database- Spectrum MS-IW-7364
##NAMES=HP
##CAS NAME=2-Chloroethyl phenyl sulfide
##MOLFORM=C8H9ClS
##CAS REGISTRY NO=5535-49-9
##MP= -300
##BP= -300
##MW= 172
##$RETENTION INDEX=0
##$CONDENSED SPECTRUM=NO
##NPOINTS= 84
##XYDATA=(XY..XY) 1 
    26          7
    27         33
    28          8
    35          1
    36          7
    37          2
    38          7
    39         41
    40          2
    44          1
    45        240
    46          6
    47         10
    49          4
    50         22
    51         58
    52          6
    53          1
    57          6
    58         11
    59         16
    60          3
    61          4
    62          5
    63         24
    64          3
    65         95
    66         40
    67          3
    68          1
    69         41
    70          3
    71          5
    73          2
    74          9
    75          7
    76          5
    77         60
    78         12
    79         40
    80          3
    81          5
    82         11
    83          6
    84         12
    85          1
    89          2
    90          1
    91         24
    92          2
    93          2
    95          1
    97          3
   102          1
   103          7
   104          5
   105          1
   107          1
   108         25
   109        173
   110        162
   111         19
   112          8
   121          7
   122          2
   123        999
   124         88
   125         50
   126          4
   134          4
   135         28
   136         11
   137         80
   138          8
   139          4
   143          1
   144          5
   145          1
   146          1
   172        532
   173         52
   174        196
   175         19
   176          8