##TITLE=Library Entry 109172
##JCAMP-DX=Revision 4.10 
##DATA TYPE=MASS SPECTRUM
##SAMPLE DESCRIPTION=Japan AIST/NIMC Database- Spectrum MS-NW-9515
##NAMES=HP
##CAS NAME=Benzene, (ethenylsulfonyl)-
##MOLFORM=C8H8O2S
##CAS REGISTRY NO=5535-48-8
##MP= -300
##BP= -300
##MW= 168
##$RETENTION INDEX=0
##$CONDENSED SPECTRUM=NO
##NPOINTS= 85
##XYDATA=(XY..XY) 1 
    26          7
    27         58
    28          8
    29          4
    32          1
    37          2
    38          5
    39         28
    40          1
    41          1
    43          1
    44          3
    45         10
    46          1
    47          7
    48          2
    49          3
    50         68
    51        248
    52         19
    53         16
    55          1
    57          1
    58          4
    59          4
    61          1
    62          3
    63          9
    64          3
    65        107
    66         13
    69          7
    70          1
    71          1
    73          3
    74         22
    75         33
    76         16
    77        623
    78         91
    79          5
    81         16
    82          2
    83          5
    84          1
    85          3
    89          1
    90          1
    91         37
    92          9
    93         65
    94         35
    95          3
    97        109
    98          7
    99          5
   102          3
   103         11
   104         19
   105          2
   108          2
   109         14
   110          6
   111          1
   119         16
   120         14
   121          3
   122          1
   123          7
   124          1
   125        999
   126         89
   127         49
   128          4
   134          1
   135          2
   136          1
   137          1
   141         37
   142          4
   143          2
   168        183
   169         21
   170         10
   171          1