##TITLE=Library Entry 58731
##JCAMP-DX=Revision 4.10 
##DATA TYPE=MASS SPECTRUM
##SAMPLE DESCRIPTION=Div. of Experiment Therapeutics WRAIR, WRAMC, Washingto
n DC 20307
##NAMES=HP
##CAS NAME=2,5-Di-p-bromophenyl-oxazole
##MOLFORM=C15H9Br2NO
##CAS REGISTRY NO=55368-58-6
##MP= -300
##BP= -300
##MW= 377
##$RETENTION INDEX=0
##$CONDENSED SPECTRUM=NO
##NPOINTS= 164
##XYDATA=(XY..XY) 1 
    41          8
    42          4
    43         11
    44         32
    47          5
    48          1
    49         40
    50        474
    51        160
    52         26
    53         25
    55          6
    56          2
    57         16
    60          1
    61         84
    62        515
    63        467
    64         55
    65         12
    66          2
    67          2
    68          2
    69          5
    70          2
    71          2
    73         21
    74        161
    75        411
    76        511
    77         44
    79         15
    82         75
    84         20
    85         32
    86        128
    87        236
    88        685
    89        999
    90         75
    91          4
    93          3
    95        152
    98         17
    99         12
   100          8
   101         21
   102         86
   104         57
   105          9
   107          9
   109         10
   111          6
   112          5
   113         16
   114        104
   115        127
   117        140
   119         54
   121         72
   122         80
   125          5
   126          7
   127          7
   129         13
   130          2
   131         19
   132          0
   134         13
   135         16
   137          6
   138          7
   139          4
   140          6
   141         14
   143         22
   144          2
   145          1
   149          7
   150          2
   151          3
   152          4
   154          5
   155        343
   157        384
   158         19
   161         28
   162         63
   163        221
   164        257
   165         35
   167        251
   169        315
   170         27
   171          4
   172          0
   174         16
   175         42
   177         27
   180         13
   181         21
   183        180
   185        207
   186         11
   188         58
   190        289
   191        267
   192         30
   194        196
   196        236
   197         17
   198          1
   199          6
   201          1
   204          1
   206          2
   207          1
   216          0
   217          1
   218          5
   219         50
   220          8
   222          6
   224          7
   227          0
   232          0
   241          2
   242         10
   243        562
   245        426
   246         41
   247          1
   249          0
   256          1
   258          1
   268          1
   269          4
   270         52
   271         18
   272         37
   273         13
   274          1
   297          7
   298         17
   299          8
   300         16
   301          2
   321          1
   322         34
   324         74
   326         27
   327          0
   333          3
   335          3
   337          0
   349          5
   351         11
   352          1
   353          4
   376          6
   377        418
   379        708
   381        380
   382         53