##TITLE=Library Entry 3139
##JCAMP-DX=Revision 4.10 
##DATA TYPE=MASS SPECTRUM
##SAMPLE DESCRIPTION=Insect Chem. Ecol. Lab., USDA, Beltsville, MD 20705
##NAMES=HP
##CAS NAME=Propanoic acid, 2-chloro-, 2-propenyl ester
##MOLFORM=C6H9ClO2
##CAS REGISTRY NO=55360-11-7
##MP= -300
##BP= -300
##MW= 148
##$RETENTION INDEX=928
##$CONDENSED SPECTRUM=NO
##NPOINTS= 87
##XYDATA=(XY..XY) 1 
    41        999
    42         92
    43        102
    45        334
    47         40
    48         25
    49        137
    50         14
    51         45
    52          2
    53         33
    55        177
    56        155
    57        186
    58        178
    59         20
    60         15
    61         57
    62         86
    63        899
    64        462
    65        295
    66        136
    67         18
    68          2
    69         51
    70          4
    71         13
    72         21
    73         49
    74          5
    75         14
    76         12
    77         13
    78          9
    79         17
    81         15
    82          6
    83         16
    84         95
    85        170
    86         59
    87         10
    88         11
    89          9
    90         38
    91        277
    93        120
    94          7
    95          6
    97         68
    99         49
   100         10
   101          8
   102         17
   103          1
   104         27
   105          8
   106          3
   107         18
   108         25
   109         32
   110          9
   111         12
   112         12
   113         20
   114          4
   115          6
   116          2
   117          1
   119         19
   120          4
   121          9
   122          6
   123          1
   130          1
   131         13
   132          1
   133         46
   134          2
   135         11
   136          1
   146          2
   147         10
   148         24
   149          5
   150         10