##TITLE=Library Entry 20125
##JCAMP-DX=Revision 4.10 
##DATA TYPE=MASS SPECTRUM
##SAMPLE DESCRIPTION=Chuck Anderson, Aldrich Chemical Co.
##NAMES=HP
##CAS NAME=1-Nonanol, 9-bromo-
##MOLFORM=C9H19BrO
##CAS REGISTRY NO=55362-80-6
##MP= -300
##BP= -300
##MW= 222
##$RETENTION INDEX=0
##$CONDENSED SPECTRUM=NO
##NPOINTS= 108
##XYDATA=(XY..XY) 1 
    15          6
    17          1
    18          3
    19          6
    25          0
    26         14
    27        264
    28         80
    29        341
    30         13
    31        339
    32          5
    33          1
    35          2
    36         17
    37          2
    38         11
    39        192
    40         39
    41        838
    42        229
    43        313
    44         42
    45         27
    46          1
    49          1
    50          2
    51          9
    52          5
    53         61
    54        116
    55        999
    56        189
    57        145
    58          7
    59          3
    63          3
    65         11
    66          9
    67        204
    68        235
    69        896
    70        160
    71         27
    72          2
    73         19
    74          0
    75          0
    76          0
    77          7
    78          1
    79         18
    80          3
    81        136
    82        165
    83        402
    84         33
    85          4
    87          1
    90          3
    91         11
    92          1
    93         14
    94          1
    95         77
    96         38
    97        522
    98         40
    99          2
   104         20
   105          3
   106          9
   107         35
   108          2
   109         38
   110          0
   111          2
   117          0
   118          4
   119          3
   120          9
   121         11
   122          8
   123         13
   124          3
   125          2
   132          5
   133          3
   134         61
   135        244
   136         65
   137        255
   138          9
   147          1
   148        149
   149         12
   150        153
   151         11
   161          3
   162         82
   163          8
   164         84
   165          5
   175          1
   176         37
   177          4
   178         37
   179          2