##TITLE=Library Entry 91256
##JCAMP-DX=Revision 4.10 
##DATA TYPE=MASS SPECTRUM
##SAMPLE DESCRIPTION=Div. of Experiment Therapeutics WRAIR, WRAMC, Washingto
n DC 20307
##NAMES=HP
##CAS NAME=2,5-Bis-p-cyanophenyl oxazole
##MOLFORM=C17H9N3O
##CAS REGISTRY NO=55368-59-7
##MP= -300
##BP= -300
##MW= 271
##$RETENTION INDEX=0
##$CONDENSED SPECTRUM=NO
##NPOINTS= 114
##XYDATA=(XY..XY) 1 
    41         16
    42         14
    43         11
    44         11
    45          2
    47         15
    48          6
    49         94
    50        388
    51        489
    52        113
    53         26
    54          2
    55          4
    57         13
    61        107
    62        414
    63        638
    64        284
    65         36
    66          4
    67          2
    68          1
    69          3
    70          4
    71          4
    74        102
    75        391
    76        252
    77         30
    78          5
    79          1
    81          7
    84         25
    85         13
    86         80
    87        222
    88        573
    89         94
    90         21
    91          4
    94         16
    97          3
    98          8
    99         45
   100         38
   102        828
   103         60
   104          4
   105          1
   108        108
   110          2
   111         10
   112         16
   113         39
   114        999
   115        449
   116         34
   117          4
   118          1
   121         35
   123          1
   124          1
   125          2
   127          8
   128         22
   130        234
   131         21
   133          0
   135         81
   138          1
   139          4
   141        424
   142         44
   143         10
   146          1
   149          1
   151          2
   152          1
   155          0
   159          1
   161          2
   162          3
   163          3
   164          3
   165          2
   169         16
   170          1
   175          0
   176          1
   178          1
   188         31
   189        116
   190         24
   191          2
   192          1
   202          3
   203          1
   215        480
   216        279
   217         24
   218          1
   228          1
   229          0
   240          1
   241          4
   242         28
   243         59
   244         10
   245          2
   271        870
   272        102
   273         10
   274          1