##TITLE=Library Entry 83677
##JCAMP-DX=Revision 4.10 
##DATA TYPE=MASS SPECTRUM
##SAMPLE DESCRIPTION=R. JAHN, KULMGASSE, VIENNA, AUST
##NAMES=HP
##CAS NAME=1,2-Bis[[(2,4-dinitrophenyl)thio]methyl]-1-cyclohexene
##MOLFORM=C20H18N4O8S2
##CAS REGISTRY NO=55370-40-6
##MP= -300
##BP= -300
##MW= 506
##$RETENTION INDEX=0
##$CONDENSED SPECTRUM=NO
##NPOINTS= 111
##XYDATA=(XY..XY) 1 
    26         10
    27         42
    28         39
    29         81
    30         96
    38         10
    39         75
    40         20
    41        141
    42         18
    43         36
    44         62
    45         61
    48         13
    50         18
    51         46
    52         30
    53         62
    54         21
    55         68
    56         13
    57         27
    58         12
    60         16
    61         11
    62         20
    63         90
    64         25
    65         69
    66         28
    67         97
    68         18
    69         42
    70         14
    71         13
    73         18
    75         19
    76         10
    77        156
    78         43
    79        471
    80         67
    81         67
    82         12
    83         18
    89         12
    91        280
    92         49
    93        176
    94         23
    95         67
    96         20
    97         71
   103         16
   104         13
   105        101
   106         30
   107        999
   108        164
   109         30
   110         10
   111         20
   115         17
   121         23
   122         28
   123        126
   124         20
   129         11
   135         14
   136         28
   137         73
   138         17
   139        252
   140         31
   141         21
   149         30
   151         20
   153         13
   167         10
   170         20
   171         10
   181         14
   183        128
   184         28
   185         17
   197         15
   199         18
   200         28
   201         11
   213         10
   215         10
   227         10
   243         10
   247         12
   259         10
   261         19
   273         10
   275         11
   277         10
   289         25
   290         10
   291         11
   305         10
   306        156
   307        317
   308         64
   309         26
   323         25
   459          8
   474         10
   506          9