##TITLE=Library Entry 44734
##JCAMP-DX=Revision 4.10 
##DATA TYPE=MASS SPECTRUM
##SAMPLE DESCRIPTION=NIST Mass Spectrometry Data Center
##NAMES=HP
##CAS NAME=Pentacosanoic acid, methyl ester
##MOLFORM=C26H52O2
##CAS REGISTRY NO=55373-89-2
##MP= -300
##BP= -300
##MW= 396
##$RETENTION INDEX=2823
##$CONDENSED SPECTRUM=NO
##NPOINTS= 219
##XYDATA=(XY..XY) 1 
    15          5
    26          2
    27         19
    29         71
    30          3
    31          4
    33          1
    38          1
    39         23
    40          6
    41        262
    42         62
    43        612
    44         20
    45         10
    50          1
    51          1
    52          1
    53         15
    54         31
    55        423
    56         94
    57        464
    58         26
    59         85
    60          5
    61          4
    65          3
    66          2
    67         52
    68         24
    69        214
    70         46
    71        158
    72          9
    73         13
    74        999
    75        371
    76         16
    77          4
    78          2
    79         11
    80          4
    81         45
    82         23
    83        159
    84         48
    85         86
    87        801
    88         63
    89          5
    91          2
    92          1
    93         10
    94          3
    95         41
    96         18
    97        134
    98         49
    99         19
   100          3
   101         73
   102          9
   103          1
   105          2
   106          1
   107          9
   108          2
   109         22
   110          9
   111         57
   112         13
   113         10
   114          3
   115         29
   116         18
   117          2
   119          1
   120          1
   121         16
   122          2
   123         12
   124          5
   125         29
   126          5
   127          6
   128          1
   129         92
   130         27
   131          2
   133          1
   134          1
   135         16
   136          2
   137          5
   138          3
   139         17
   140          4
   141          4
   143        269
   144         28
   145          2
   147          1
   149         11
   150          2
   151          3
   152          2
   153          8
   154          2
   155          2
   157         23
   158          3
   159          1
   163          6
   164          1
   165          1
   166          1
   167          6
   168          2
   169          1
   171         13
   172          4
   173          1
   177          4
   178          1
   179          1
   180          1
   181          4
   182          1
   183          1
   185         43
   186          8
   187          1
   191          3
   192          1
   193          1
   194          1
   195          3
   196          1
   197          1
   199         59
   200          9
   201          1
   205          2
   206          1
   208          1
   209          2
   210          1
   213          9
   214          2
   219          1
   220          1
   222          1
   223          2
   224          1
   227          9
   228          2
   229          1
   233          1
   236          1
   237          2
   238          1
   241         25
   242          6
   243          1
   247          1
   251          2
   252          1
   255         25
   256          5
   257          1
   261          1
   264          1
   265          1
   269          6
   270          1
   278          1
   279          1
   280          1
   283          9
   284          3
   285          1
   289          1
   293          1
   294          1
   297         47
   298         11
   299          1
   307          1
   311         25
   312          5
   313          1
   320          1
   321          1
   322          1
   325          7
   326          2
   327          1
   335          1
   339         15
   340          4
   341          1
   345          1
   346          1
   353         96
   354         24
   355          4
   362          1
   363          2
   364          1
   365         21
   366          6
   367         16
   368          4
   369          1
   396        235
   397         65
   398         10
   399          1