##TITLE=Library Entry 33271
##JCAMP-DX=Revision 4.10 
##DATA TYPE=MASS SPECTRUM
##SAMPLE DESCRIPTION=NIST Mass Spectrometry Data Center, 1994
##NAMES=HP
##CAS NAME=1-Ethynyl-1-cyclooctanol
##MOLFORM=C10H16O
##CAS REGISTRY NO=55373-76-7
##MP= -300
##BP= -300
##MW= 152
##$RETENTION INDEX=0
##$CONDENSED SPECTRUM=NO
##NPOINTS= 83
##XYDATA=(XY..XY) 1 
    13          7
    15         68
    17          5
    18          9
    19          1
    24          5
    25         18
    26        114
    27        691
    28        165
    29        381
    30         12
    37         15
    38         66
    39        947
    40        312
    41        948
    42        270
    43        453
    44         11
    50         70
    51        206
    52         70
    53        724
    54        142
    55        684
    56        128
    57         56
    58         10
    61          4
    62         21
    63         58
    64         31
    65        100
    66         76
    67        430
    68        999
    69        312
    70        125
    71         42
    72          3
    75          6
    77        127
    78         59
    79        236
    80         94
    81        899
    82        222
    83        157
    84         78
    85         11
    89          7
    91        157
    92         41
    93         99
    94         51
    95        444
    96        203
    97         93
    98         30
    99          3
   103          8
   104          5
   105         55
   106         35
   107         17
   108          3
   109        320
   110         94
   111         26
   115          2
   117          4
   119         41
   121          3
   123        143
   124         31
   125          3
   133          6
   134          3
   137         39
   138          3
   151         20
   152          3