##TITLE=Library Entry 24259
##JCAMP-DX=Revision 4.10 
##DATA TYPE=MASS SPECTRUM
##SAMPLE DESCRIPTION=SHELL OIL CO., HOUSTON, TEXAS, USA
##NAMES=HP
##CAS NAME=Docosane, 7-hexyl-
##MOLFORM=C28H58
##CAS REGISTRY NO=55373-86-9
##MP= -300
##BP= -300
##MW= 394
##$RETENTION INDEX=0
##$CONDENSED SPECTRUM=NO
##NPOINTS= 246
##XYDATA=(XY..XY) 1 
    37          1
    38          2
    39         37
    40          9
    41        343
    42         87
    43        892
    44         31
    45          0
    46          0
    47          0
    48          0
    49          0
    50          1
    51          2
    52          1
    53         14
    54         30
    55        308
    56        143
    57        999
    58         46
    59          1
    60          0
    61          0
    62          0
    63          0
    64          0
    65          3
    66          3
    67         40
    68         30
    69        198
    70         93
    71        620
    72         34
    73          0
    74          0
    75          0
    76          0
    77          3
    78          1
    79          6
    80          2
    81         20
    82         27
    83        138
    84         54
    85        421
    86         28
    87          0
    89          0
    90          0
    91          3
    92          1
    93          5
    94          2
    95         11
    96         17
    97        100
    98         31
    99        141
   100         10
   101          0
   102          0
   103          0
   104          0
   105          1
   106          0
   107          1
   108          0
   109          4
   110         10
   111         58
   112         22
   113        105
   114          9
   115          0
   116          0
   117          0
   118          0
   119          1
   120          0
   121          1
   122          0
   123          2
   124          6
   125         29
   126         19
   127         78
   128          8
   129          0
   130          0
   131          0
   132          0
   133          0
   134          1
   135          0
   136          1
   137          1
   138          4
   139         14
   140         10
   141         52
   142          5
   143          0
   144          0
   145          0
   146          0
   147          0
   148          0
   149          0
   150          0
   151          0
   152          3
   153          9
   154         11
   155         32
   156          3
   157          0
   158          0
   159          0
   160          0
   161          0
   162          0
   163          0
   164          0
   165          0
   166          2
   167          5
   168          6
   169         26
   170          3
   171          0
   172          0
   173          0
   174          0
   175          0
   176          0
   177          0
   178          0
   179          0
   180          2
   181          4
   182         93
   183         77
   184         10
   185          1
   186          0
   187          0
   189          0
   191          0
   192          0
   193          0
   194          1
   195          3
   196          5
   197         20
   198          3
   199          0
   200          0
   201          0
   202          0
   203          0
   204          0
   205          0
   207          0
   208          1
   209          2
   210          4
   211         16
   212          2
   213          0
   221          0
   222          1
   223          2
   224          2
   225         13
   226          2
   227          0
   228          0
   235          0
   236          1
   237          1
   238          2
   239         10
   240          2
   241          0
   242          0
   248          0
   249          0
   250          0
   251          1
   252          2
   253          7
   254          1
   255          0
   256          0
   263          0
   264          0
   265          0
   266          1
   267          4
   268          0
   269          0
   277          0
   278          0
   279          0
   280          4
   281          3
   282          0
   283          0
   291          0
   292          0
   293          0
   294          2
   295          2
   296          0
   297          0
   305          0
   306          0
   307          0
   308         51
   309         75
   310         16
   311          2
   312          0
   322          1
   323          2
   324          0
   325          0
   336          0
   337          1
   338          0
   350          0
   351          0
   352          0
   363          0
   364          0
   365          0
   379          0
   392          0
   393          0
   394          0
   395          0
   396          0