##TITLE=Library Entry 58510
##JCAMP-DX=Revision 4.10 
##DATA TYPE=MASS SPECTRUM
##SAMPLE DESCRIPTION=Exported from NIST MS Search
##NAMES=HP
##CAS NAME=Butanoic acid, docosyl ester
##MOLFORM=C26H52O2
##CAS REGISTRY NO=55373-87-0
##MP= -300
##BP= -300
##MW= 396
##$RETENTION INDEX=2781
##$CONDENSED SPECTRUM=NO
##NPOINTS= 192
##XYDATA=(XY..XY) 1 
    16          4
    17         35
    18        140
    27         10
    28         11
    29         24
    30          2
    31          2
    39          8
    40          3
    41         89
    42         25
    43        230
    44         63
    45          3
    48          3
    53          5
    54         25
    55        160
    56         68
    57        260
    58         12
    59          2
    60         10
    61          7
    64          8
    65          2
    66          5
    67         41
    68         61
    69        180
    70        110
    71        300
    72         16
    73         12
    74          4
    75          3
    76          2
    77          2
    79          5
    80          5
    81         41
    82        160
    83        260
    84         88
    85        120
    86         13
    87         11
    88        190
    89        999
    90         47
    91          8
    92          2
    93          3
    94          3
    95         29
    96         81
    97        320
    98         71
    99         49
   100          5
   101          8
   102          2
   104          2
   105          2
   107          2
   108          2
   109         16
   110         44
   111        210
   112         59
   113         38
   114          5
   115          6
   116          4
   117          2
   119          2
   121          3
   122          3
   123         13
   124         37
   125        130
   126         51
   127         29
   128          5
   129          7
   130          3
   133          2
   135          2
   136          3
   137         10
   138         31
   139         83
   140         38
   141         23
   142          4
   143          3
   144         38
   145          5
   147          2
   148          2
   149          2
   150          2
   151          4
   152         24
   153         57
   154         33
   155         19
   156          3
   157          3
   158          5
   159          2
   163          2
   165          3
   166         21
   167         49
   168         28
   169         16
   170          3
   171          2
   172          2
   179          2
   180         18
   181         37
   182         24
   183         13
   184          2
   185          3
   191          2
   193          2
   194         16
   195         28
   196         20
   197         11
   198          2
   199          2
   207          3
   208         14
   209         24
   210         19
   211          9
   212          2
   213          2
   221          2
   222         12
   223         20
   224         20
   225         10
   226          2
   228          2
   236         10
   237         16
   238         14
   239          8
   240          2
   250          7
   251         13
   252         12
   253          6
   254          2
   256          2
   264          6
   265         10
   266          9
   267          5
   268          2
   278          3
   279          9
   280         65
   281         22
   282          3
   295          2
   296          2
   306          4
   307          2
   308        180
   309         55
   310         10
   311          2
   323          4
   324          3
   325          2
   335          2
   336          2
   353        110
   354         28
   355          4
   368          3
   378          2
   396         24
   397          7
   398          1