##TITLE=Library Entry 68204
##JCAMP-DX=Revision 4.10 
##DATA TYPE=MASS SPECTRUM
##SAMPLE DESCRIPTION=Exported from NIST MS Search
##NAMES=HP
##CAS NAME=Naphthalene, 1,1'-undecylidenebis[decahydro-
##MOLFORM=C31H56
##CAS REGISTRY NO=55373-96-1
##MP= -300
##BP= -300
##MW= 428
##$RETENTION INDEX=0
##$CONDENSED SPECTRUM=NO
##NPOINTS= 285
##XYDATA=(XY..XY) 1 
    12          2
    13          1
    15          7
    16          3
    25          2
    26         11
    27         73
    29        167
    30          5
    37          2
    38          3
    39         47
    40         11
    41        445
    42         42
    43        281
    44          8
    49          1
    50          2
    51          6
    52          3
    53         45
    54         87
    55        507
    56         48
    57        168
    58          8
    62          1
    63          2
    64          1
    65         17
    66         22
    67        576
    68        107
    69        456
    70         36
    71         61
    72          4
    74          1
    75          1
    77         35
    78         14
    79         39
    80         72
    81        971
    82        115
    83        284
    84         23
    85         35
    86          2
    87          1
    88          1
    89          1
    90          1
    91         46
    92         12
    93        110
    94        102
    95        999
    96        123
    97        178
    98         16
    99          8
   100          1
   101          1
   102          1
   103          2
   104          2
   105         16
   106          7
   107         61
   108        127
   109        241
   110         29
   111         81
   112          8
   113          6
   114          1
   116          2
   117          5
   118          2
   119          8
   120          6
   121         84
   122         38
   123        301
   124         33
   125         42
   126          5
   127          4
   128          4
   129          7
   130          4
   131          6
   132          2
   133          7
   134         24
   135        429
   136        945
   137        897
   138         99
   139         25
   140          3
   141          5
   142          2
   143          7
   144          4
   145         60
   146         10
   147          4
   148          5
   149         35
   150         41
   151         74
   152         13
   153         14
   154          2
   155          2
   156          1
   157          2
   158          2
   159          2
   160          1
   161          4
   162          2
   163         14
   164          5
   165         26
   166          8
   167         10
   168          2
   169          2
   170          1
   171          2
   172          1
   173          1
   174          1
   175          4
   176          2
   177          5
   178          2
   179         13
   180          3
   181         10
   182          2
   183          1
   184          1
   185          1
   186          1
   187          1
   188          1
   189          2
   190          1
   191          6
   192          2
   193         12
   194         23
   195         33
   196          5
   197          1
   198          1
   199          1
   200          1
   201          1
   202          1
   203          1
   204          1
   205          3
   206          1
   207         11
   208          3
   209         35
   210          6
   211          1
   213          1
   214          1
   215          1
   216          1
   217          1
   218          1
   219          1
   220          1
   221          8
   222          3
   223          3
   224          1
   229          1
   230          1
   231          1
   232          1
   233          1
   234          1
   235         13
   236          2
   237          1
   245          1
   246          1
   247          2
   248          5
   249          7
   250          1
   251          1
   259          1
   260          1
   261          3
   262          2
   263          1
   264          1
   265          1
   270          1
   271          1
   272          1
   273          1
   274          1
   275          6
   276          3
   277          3
   278          1
   279          1
   280          1
   281          2
   282          2
   283          2
   284          6
   285         15
   286         18
   287         18
   288         13
   289         32
   290        347
   291        369
   292         76
   293          9
   294          2
   295          1
   297          1
   298          1
   299          1
   300          1
   301          1
   302          1
   303          1
   304          1
   305          1
   306          1
   307          1
   308          1
   309          1
   310          1
   313          1
   314          1
   315          1
   316          1
   317          1
   318          1
   319          1
   320          1
   321          1
   322          1
   323          1
   328          1
   329          1
   330          1
   331          1
   337          1
   338          1
   343          1
   344          1
   345          1
   350          1
   416          2
   417          1
   418          1
   419          1
   420          2
   421          1
   422          2
   423          1
   424          1
   425          1
   426          2
   427          1
   428          1
   429          1
   430          1