##TITLE=Library Entry 89452
##JCAMP-DX=Revision 4.10 
##DATA TYPE=MASS SPECTRUM
##SAMPLE DESCRIPTION=W.T.RAINEY OAK RIDGE NATIONAL LABORATORY,OAK RIDGE,TN.U
SA
##NAMES=HP
##CAS NAME=Piperazine, 2,6-dimethyl-1,4-dinitroso-
##MOLFORM=C6H12N4O2
##CAS REGISTRY NO=55380-34-2
##MP= -300
##BP= -300
##MW= 172
##$RETENTION INDEX=0
##$CONDENSED SPECTRUM=NO
##NPOINTS= 18
##XYDATA=(XY..XY) 1 
    30         79
    43        239
    44         65
    45         92
    56        399
    57         65
    58         42
    69        265
    70        599
    71        119
    83        239
    84         29
    85         35
   112        999
   113         79
   142         39
   172         79
   173          5