##TITLE=Library Entry 6720
##JCAMP-DX=Revision 4.10 
##DATA TYPE=MASS SPECTRUM
##SAMPLE DESCRIPTION=H. Fales, LC, NHLBI, NIH, Bethesda, MD 20892
##NAMES=HP
##CAS NAME=2-Naphthalenecarboxylic acid, 4,4'-methylenebis[3-methoxy-
##MOLFORM=C25H20O6
##CAS REGISTRY NO=55388-44-8
##MP= -300
##BP= -300
##MW= 416
##$RETENTION INDEX=0
##$CONDENSED SPECTRUM=NO
##NPOINTS= 196
##XYDATA=(XY..XY) 1 
    41        492
    42        193
    43        999
    44        884
    45        522
    46         44
    47          9
    48          5
    49         58
    50        123
    51        207
    52         84
    53        152
    54         77
    55        433
    56        185
    57        418
    58         54
    59         99
    60        206
    61         80
    62         46
    63         83
    64         34
    65        105
    66         48
    67        121
    68         92
    69        278
    70        127
    71        218
    72         26
    73        213
    74         52
    75         44
    76         55
    77        246
    78        207
    79         98
    80         53
    81        130
    82        101
    83        159
    84        121
    85        117
    86         52
    87         65
    88         35
    89         36
    91         54
    92         31
    93         74
    94         54
    95        106
    96         72
    97        120
    98         72
    99         50
   100         32
   101         59
   102         28
   103         33
   104         27
   105        155
   106        141
   107        136
   108         57
   109         72
   110         46
   111         72
   112         47
   113         91
   114         77
   115         94
   116         21
   117          1
   119        205
   120         56
   121         60
   122         58
   123         62
   124        111
   125        109
   126        109
   127         98
   128         56
   129         95
   130         15
   131         29
   132         43
   133         43
   134         35
   135         56
   136         75
   137         70
   138         35
   139         55
   140         44
   141         81
   142         71
   143         31
   144         17
   146          2
   147         31
   148         34
   149        178
   150         45
   151         41
   152         33
   153         63
   154         74
   155         70
   156         26
   157         32
   159         10
   161         31
   162         19
   163         41
   164         61
   165         57
   166         29
   167         51
   168        139
   169         60
   170         97
   171         41
   176         46
   177         26
   179         44
   180         15
   181         53
   182         95
   183        145
   184         34
   185         87
   186         10
   188         41
   189          4
   194          3
   195         11
   196         90
   197         27
   198         26
   199         31
   202         42
   207         12
   212          1
   213         24
   215         13
   216         14
   226          9
   227          6
   228         19
   237         29
   238          8
   239         60
   240         11
   250         38
   251         12
   252         47
   253         17
   256         13
   257         54
   260         38
   262         27
   263         10
   265         16
   267          2
   268          4
   279         11
   280         10
   281         35
   283          2
   295          2
   307          2
   309          9
   321         53
   322          4
   323         14
   324         84
   325         38
   337         73
   338         33
   339         56
   340          4
   352          2
   353         15
   369         88
   370         30
   383         22
   397          4
   398         71
   399         20
   412          4
   416         64
   417         13