##TITLE=Library Entry 68177
##JCAMP-DX=Revision 4.10 
##DATA TYPE=MASS SPECTRUM
##SAMPLE DESCRIPTION=Exported from NIST MS Search
##NAMES=HP
##CAS NAME=Bicyclo[4.1.0]heptane, 3,7,7-trimethyl-
##MOLFORM=C10H18
##CAS REGISTRY NO=554-59-6
##MP= -300
##BP= -300
##MW= 138
##$RETENTION INDEX=973
##$CONDENSED SPECTRUM=NO
##NPOINTS= 34
##XYDATA=(XY..XY) 1 
    27        130
    29        110
    39        180
    40         30
    41        460
    42         40
    43        100
    53        120
    54         60
    55        390
    56         50
    57         50
    67        550
    68        140
    69        220
    70         30
    77         60
    79        100
    80         40
    81        740
    82        270
    83         60
    91         30
    93         40
    94         70
    95        999
    96        170
    97         30
   109         70
   110         10
   123        240
   124         20
   138        200
   139         20