##TITLE=Library Entry 66525
##JCAMP-DX=Revision 4.10 
##DATA TYPE=MASS SPECTRUM
##SAMPLE DESCRIPTION=Japan AIST/NIMC Database- Spectrum MS-NW-9408
##NAMES=HP
##CAS NAME=2-Carene
##MOLFORM=C10H16
##CAS REGISTRY NO=554-61-0
##MP= -300
##BP= -300
##MW= 136
##$RETENTION INDEX=1001
##$CONDENSED SPECTRUM=NO
##NPOINTS= 88
##XYDATA=(XY..XY) 1 
    15          6
    26          4
    27        105
    28          7
    29         95
    30          2
    31          1
    37          1
    38          8
    39        163
    40         27
    41        223
    42         14
    43        213
    44          6
    45          3
    50         13
    51         59
    52         26
    53         93
    54         10
    55         99
    56          7
    57          7
    58         12
    59         14
    60          6
    61          2
    62          5
    63         19
    64          6
    65         73
    66         17
    67         92
    68         28
    69         19
    70          3
    71          3
    74          2
    75          3
    76          2
    77        332
    78         52
    79        385
    80         83
    81         58
    82         13
    83          8
    84          3
    85          1
    86          1
    87          1
    89          7
    90          2
    91        404
    92        124
    93        999
    94        108
    95         35
    96          9
    97          4
    98          1
   102          3
   103         26
   104          8
   105        202
   106         53
   107        143
   108         62
   109         34
   110          5
   111          2
   115         10
   116          3
   117         12
   118          2
   119         63
   120         10
   121        903
   122         90
   123          7
   132          3
   133          2
   134          9
   135         13
   136        549
   137         67
   138          3