##TITLE=Library Entry 570
##JCAMP-DX=Revision 4.10 
##DATA TYPE=MASS SPECTRUM
##SAMPLE DESCRIPTION=Chuck Anderson, Aldrich Chemical Co.
##NAMES=HP
##CAS NAME=Methyl propionate
##MOLFORM=C4H8O2
##CAS REGISTRY NO=554-12-1
##MP= -300
##BP= -300
##MW= 88
##$RETENTION INDEX=627
##$CONDENSED SPECTRUM=NO
##NPOINTS= 43
##XYDATA=(XY..XY) 1 
    12          0
    13          2
    14         15
    15        257
    16          5
    17          0
    19          0
    24          0
    25          7
    26         84
    27        341
    28        163
    29        999
    30         40
    31         87
    32          2
    33         16
    36          0
    37          2
    38          3
    39         11
    40          3
    41         13
    42         40
    43         19
    44          3
    45         53
    46          0
    52          0
    53          4
    54          1
    55         40
    56         27
    57        841
    58         29
    59        307
    60         11
    61          2
    73          0
    87         31
    88        496
    89         24
    90          2