##TITLE=Library Entry 27734
##JCAMP-DX=Revision 4.10 
##DATA TYPE=MASS SPECTRUM
##SAMPLE DESCRIPTION=Patti Price, Georgia Bureau of Investigation, Decatur,
 Georgia
##NAMES=HP
##CAS NAME=1,2-Benzenediol, 4-[2-(dimethylamino)-1-hydroxyethyl]-
##MOLFORM=C10H15NO3
##CAS REGISTRY NO=554-99-4
##MP= -300
##BP= -300
##MW= 197
##$RETENTION INDEX=0
##$CONDENSED SPECTRUM=NO
##NPOINTS= 77
##XYDATA=(XY..XY) 1 
    41        155
    42         33
    43         34
    44         19
    50         10
    51         26
    52         13
    53         28
    54         12
    55         19
    56         28
    57          8
    58        999
    59         43
    63         16
    64         10
    65         85
    66         10
    67          5
    69          4
    75          3
    76          3
    77         15
    78          6
    79          5
    80          4
    81         19
    82          7
    83          4
    84          3
    91          5
    92          4
    93         77
    94         12
    95          5
   103          3
   104          9
   105          5
   106          7
   107          6
   109         18
   110          9
   111         27
   112          3
   115          3
   117          3
   121          5
   122         13
   123         34
   124         23
   125          5
   131          3
   132         25
   133          9
   134          3
   136          3
   137         67
   138         21
   139         49
   140          9
   146          3
   147          4
   148          2
   149          8
   150         20
   151         11
   160          3
   162         11
   163          3
   164          3
   168          3
   177          4
   178          3
   179         21
   180          4
   197         42
   198          5