##TITLE=Library Entry 109153
##JCAMP-DX=Revision 4.10 
##DATA TYPE=MASS SPECTRUM
##SAMPLE DESCRIPTION=Japan AIST/NIMC Database- Spectrum MS-NW-8179
##NAMES=HP
##CAS NAME=2(1H)-Pyrimidinone, 4-amino-5-methyl-
##MOLFORM=C5H7N3O
##CAS REGISTRY NO=554-01-8
##MP= -300
##BP= -300
##MW= 125
##$RETENTION INDEX=0
##$CONDENSED SPECTRUM=NO
##NPOINTS= 59
##XYDATA=(XY..XY) 1 
    13          1
    14          1
    15          5
    16          2
    17          3
    18         42
    25          2
    26         17
    27         42
    28        141
    29         23
    30         18
    39         43
    40         15
    41         17
    42         45
    43         95
    44         37
    45          3
    48          1
    49          1
    50          1
    51         12
    52         54
    53         51
    54        182
    55        206
    56         54
    57          2
    64          2
    65          1
    66          5
    67          4
    68          6
    69         39
    70        279
    71         29
    72          1
    77          1
    79          8
    80         15
    81        162
    82         45
    83         80
    84          4
    95          3
    96         30
    97         84
    98          9
   107          4
   108          9
   109         11
   110          3
   111          1
   123          1
   124         10
   125        999
   126         74
   127          4