##TITLE=Library Entry 1345
##JCAMP-DX=Revision 4.10 
##DATA TYPE=MASS SPECTRUM
##SAMPLE DESCRIPTION=Japan AIST/NIMC Database- Spectrum MS-NW-6712
##NAMES=HP
##CAS NAME=Phenol, 4-(2-aminoethyl)-2-methoxy-
##MOLFORM=C9H13NO2
##CAS REGISTRY NO=554-52-9
##MP= -300
##BP= -300
##MW= 167
##$RETENTION INDEX=0
##$CONDENSED SPECTRUM=NO
##NPOINTS= 90
##XYDATA=(XY..XY) 1 
    14          3
    15         17
    26          7
    27         28
    28         58
    29         15
    30        999
    31         14
    32          1
    39         81
    40         23
    41         19
    42         11
    43         10
    44          5
    46          1
    47          1
    49          3
    50         30
    51         85
    52         37
    53         26
    54          7
    55         35
    56          2
    61          4
    62         12
    63         23
    64          9
    65         54
    66         62
    67         24
    68          5
    69          2
    70          1
    73          1
    74          6
    75          6
    76          6
    77         69
    78         39
    79         21
    80          7
    81          8
    82          1
    86          1
    87          1
    89          5
    90          4
    91         15
    92          4
    93          7
    94        123
    95         47
    96          5
   104          4
   105         15
   106         27
   107         27
   108          5
   109          5
   110          1
   114          1
   116          1
   117          1
   118          1
   119          3
   120          2
   121          5
   122         86
   123        109
   124          9
   125          1
   132          1
   133          1
   134          6
   135          8
   136          2
   137        215
   138        473
   139         45
   140          4
   148          1
   149          1
   150          6
   151          3
   165          2
   166          1
   167         62
   168          7