##TITLE=Library Entry 20747
##JCAMP-DX=Revision 4.10 
##DATA TYPE=MASS SPECTRUM
##SAMPLE DESCRIPTION=Exported from NIST MS Search
##NAMES=HP
##CAS NAME=Cyclohexane, [6-cyclopentyl-3-(3-cyclopentylpropyl)hexyl]-
##MOLFORM=C25H46
##CAS REGISTRY NO=55401-72-4
##MP= -300
##BP= -300
##MW= 346
##$RETENTION INDEX=0
##$CONDENSED SPECTRUM=NO
##NPOINTS= 214
##XYDATA=(XY..XY) 1 
    37          2
    38          4
    39         95
    40         26
    41        784
    42         80
    43        145
    44         15
    45          1
    46          1
    47          1
    48          1
    49          1
    50          3
    51          7
    52          5
    53         60
    54         97
    55        999
    56         76
    57        122
    58          9
    59          1
    60          1
    61          1
    62          1
    63          2
    64          2
    65         14
    66         29
    67        335
    68        112
    69        649
    70         51
    71         51
    72          3
    73          1
    74          1
    75          1
    76          1
    77         15
    78          5
    79         38
    80         24
    81        185
    82        222
    83        942
    84         70
    85         21
    86          2
    87          1
    88          1
    89          1
    90          1
    91         11
    92          6
    93         24
    94         19
    95        160
    96        161
    97        691
    98         56
    99          5
   100          1
   101          1
   102          1
   103          1
   104          1
   105          3
   106          1
   107          5
   108          9
   109         89
   110         32
   111        255
   112         25
   113          3
   114          1
   115          1
   116          1
   117          1
   118          1
   119          2
   120          1
   121         10
   122          8
   123         61
   124         24
   125        122
   126         14
   127          2
   128          1
   129          1
   130          1
   131          1
   132          1
   133          1
   134          1
   135          5
   136         10
   137         63
   138         28
   139        146
   140         17
   141          2
   142          1
   143          1
   144          1
   145          1
   146          1
   147          1
   148          1
   149          3
   150          4
   151         31
   152         18
   153         68
   154          9
   155          1
   156          1
   157          1
   158          1
   159          1
   160          1
   161          1
   162          1
   163          1
   164          2
   165         19
   166          4
   167          5
   168          1
   169          1
   170          1
   171          1
   172          1
   173          1
   174          1
   175          1
   176          1
   177          3
   178          3
   179         15
   180          2
   181          1
   182          1
   183          1
   185          1
   187          1
   188          1
   189          1
   190          1
   191          1
   192          3
   193          6
   194          1
   195          1
   196          1
   199          1
   200          1
   201          1
   202          1
   203          1
   204          1
   205          1
   206          8
   207          3
   208          1
   209          1
   210          1
   211          1
   215          1
   217          1
   218          1
   219          1
   220          3
   221          3
   222          1
   223          1
   224          1
   225          1
   229          1
   230          1
   231          1
   232          1
   233          1
   234        115
   235         97
   236         17
   237          2
   238          1
   239          1
   241          1
   243          1
   245          1
   246          1
   247          1
   248          3
   249          2
   250          1
   251          1
   260          1
   261          1
   262          1
   263          1
   264          1
   265          1
   276          1
   277          1
   278          1
   344          1
   345          1
   346          1
   347          1