##TITLE=Library Entry 20843
##JCAMP-DX=Revision 4.10 
##DATA TYPE=MASS SPECTRUM
##SAMPLE DESCRIPTION=Exported from NIST MS Search
##NAMES=HP
##CAS NAME=Cyclohexane, 1,1'-[3-(3-cyclopentylpropyl)-1,5-pentanediyl]bis-
##MOLFORM=C25H46
##CAS REGISTRY NO=55401-70-2
##MP= -300
##BP= -300
##MW= 346
##$RETENTION INDEX=0
##$CONDENSED SPECTRUM=NO
##NPOINTS= 94
##XYDATA=(XY..XY) 1 
    38          3
    39         78
    40         19
    41        643
    42         63
    43        117
    44          4
    50          2
    51          4
    52          3
    53         51
    54         98
    55        999
    56         64
    57          8
    58          4
    65         10
    66         17
    67        290
    68         91
    69        475
    70         35
    71         36
    72          2
    77         11
    78          4
    79         33
    80         18
    81        203
    82        187
    83        932
    84         64
    85         14
    91          8
    92          5
    93         11
    94         11
    95        137
    96        222
    97        667
    98         50
    99          3
   105          2
   107          3
   108          8
   109         52
   110         37
   111        252
   112         23
   113          2
   121          4
   122          4
   123         49
   124         15
   125         33
   126         12
   135          3
   136          7
   137         47
   138         26
   139        144
   140         15
   150          3
   151         29
   152         16
   153         72
   154          9
   165         19
   166          4
   167          5
   177          2
   178          2
   179         16
   180          3
   191          2
   192          4
   193          9
   194          2
   206         12
   207          4
   220          6
   221          7
   222          2
   234        296
   235        321
   236         58
   237          5
   248          6
   249          6
   250          2
   262          5
   263          4
   346          6
   347          2