##TITLE=Library Entry 24287
##JCAMP-DX=Revision 4.10 
##DATA TYPE=MASS SPECTRUM
##SAMPLE DESCRIPTION=SHELL OIL CO., HOUSTON, TEXAS, USA
##NAMES=HP
##CAS NAME=Docosane, 11-decyl-
##MOLFORM=C32H66
##CAS REGISTRY NO=55401-55-3
##MP= -300
##BP= -300
##MW= 450
##$RETENTION INDEX=0
##$CONDENSED SPECTRUM=NO
##NPOINTS= 247
##XYDATA=(XY..XY) 1 
    37          1
    38          2
    39         39
    40         10
    41        320
    42         83
    43        914
    44         31
    45          0
    46          0
    47          0
    48          0
    49          0
    50          1
    51          3
    52          1
    53         14
    54         32
    55        320
    56         14
    57        999
    58         45
    59          1
    60          0
    61          0
    62          0
    63          0
    64          1
    65          3
    66          3
    67         46
    68         38
    69        213
    70         95
    71        613
    72         34
    73          0
    74          0
    75          0
    76          0
    77          6
    78          1
    79          9
    80          4
    81         26
    82         34
    83        163
    84         52
    85        417
    86         27
    87          0
    88          0
    89          0
    90          0
    91          6
    92          4
    93         16
    94          3
    95         14
    96         20
    97        118
    98         31
    99        138
   100         11
   101          0
   102          0
   103          0
   104          0
   105          2
   106          1
   107          2
   108          1
   109          5
   110         10
   111         60
   112         21
   113         97
   114          9
   115          0
   116          0
   117          0
   118          0
   119          2
   120          0
   121          4
   122          0
   123          2
   124          7
   125         31
   126         16
   127         73
   128          7
   129          0
   130          0
   131          0
   132          0
   133          0
   134          1
   135          0
   136          1
   137          1
   138          6
   139         17
   140         14
   141         57
   142          6
   143          0
   144          0
   145          0
   146          0
   147          0
   148          0
   149          0
   150          0
   151          0
   152          5
   153         12
   154         11
   155         45
   156          5
   157          0
   158          0
   159          0
   160          0
   161          0
   162          0
   163          0
   164          0
   165          0
   166          4
   167         11
   168          8
   169         37
   170          5
   171          0
   172          0
   173          0
   174          0
   175          0
   176          0
   177          0
   178          0
   179          0
   180          3
   181          8
   182          9
   183         31
   184          4
   185          0
   186          0
   187          0
   192          0
   193          0
   194          3
   195          5
   196          6
   197         27
   198          4
   199          0
   200          0
   201          0
   202          0
   203          0
   204          0
   205          0
   206          0
   207          0
   208          2
   209          4
   210          4
   211         22
   212          3
   213          0
   221          0
   222          1
   223          3
   224          3
   225         18
   226          3
   227          0
   228          0
   229          0
   235          0
   236          1
   237          2
   238          2
   239         13
   240          2
   241          0
   242          0
   243          0
   250          0
   251          1
   252          2
   253          8
   254          1
   255          0
   256          0
   257          0
   262          0
   263          0
   264          0
   265          1
   266          3
   267          4
   268          1
   269          0
   278          0
   279          0
   280          5
   281          3
   282          0
   283          0
   291          0
   292          0
   293          0
   294         32
   295         39
   296          8
   297          1
   304          0
   305          0
   306          0
   307          0
   308         52
   309         69
   310         16
   311          2
   312          0
   322          1
   323          2
   324          0
   336          0
   337          0
   338          0
   350          0
   351          0
   352          0
   364          0
   365          0
   366          0
   378          0
   379          0
   380          0
   392          0
   393          0
   394          0