##TITLE=Library Entry 7139
##JCAMP-DX=Revision 4.10 
##DATA TYPE=MASS SPECTRUM
##SAMPLE DESCRIPTION=Exported from NIST MS Search
##NAMES=HP
##CAS NAME=9-Octadecenoic acid (Z)-, 2,3-bis(acetyloxy)propyl ester
##MOLFORM=C25H44O6
##CAS REGISTRY NO=55401-64-4
##MP= -300
##BP= -300
##MW= 440
##$RETENTION INDEX=2897
##$CONDENSED SPECTRUM=NO
##NPOINTS= 109
##XYDATA=(XY..XY) 1 
    27         40
    28         50
    29        100
    31         10
    32         10
    39         30
    40         10
    41        240
    42         40
    43        999
    44         30
    45         10
    53         20
    54         70
    55        280
    56         50
    57        120
    58         10
    60         10
    61         10
    62         10
    65         10
    66         10
    67         10
    68         50
    69        150
    70         30
    71         30
    73         20
    74         10
    77         10
    79         30
    80         20
    81        120
    82         60
    83         90
    84         30
    85         20
    86         10
    87         10
    91         10
    92         10
    93         20
    94         20
    95         80
    96         50
    97         60
    98         80
    99         40
   100         10
   103         30
   105         10
   107         10
   108         10
   109         40
   110         30
   111         30
   112         30
   113         10
   115         10
   116         10
   117         70
   118         10
   119         10
   121         20
   122         10
   123         20
   124         20
   125         10
   126         10
   129         10
   133         10
   134         10
   135         20
   136         10
   137         20
   138         10
   139         10
   141         10
   145         20
   147         10
   148         10
   149         10
   151         20
   152         20
   153         10
   155         10
   158         20
   159        240
   160         20
   161         10
   165         10
   166         10
   171         50
   172         10
   179         10
   185         10
   207         10
   222         10
   227         10
   247         10
   263         10
   264         40
   265         40
   266         10
   306         10
   334         10
   380         10
   381         10