##TITLE=Library Entry 15940
##JCAMP-DX=Revision 4.10 
##DATA TYPE=MASS SPECTRUM
##SAMPLE DESCRIPTION=NIST Mass Spectrometry Data Center, 1994
##NAMES=HP
##CAS NAME=4-Chloro-3-nitrophenylacetamide
##MOLFORM=C8H7ClN2O3
##CAS REGISTRY NO=5540-60-3
##MP= -300
##BP= -300
##MW= 214
##$RETENTION INDEX=0
##$CONDENSED SPECTRUM=NO
##NPOINTS= 84
##XYDATA=(XY..XY) 1 
    16         31
    17         16
    18         10
    28         24
    30        152
    35         10
    37         29
    38         64
    39        147
    42         10
    44        999
    46         27
    49         19
    50         94
    51        119
    52         34
    53         13
    54          9
    61         52
    62        189
    63        374
    64         43
    65         21
    72         21
    73         89
    74          8
    75         77
    76         30
    77        180
    78         37
    84         12
    85         30
    86         58
    87         67
    88          8
    89        878
    90         92
    91         13
    97         38
    99         59
   100          8
   101         17
   102         25
   103          8
   104         41
   105         21
   106         16
   111         11
   112         29
   113         68
   114         25
   115         29
   123        109
   124        592
   125        159
   126        203
   127         36
   131         14
   133         10
   136         16
   138         13
   139         13
   140         26
   141         44
   142          9
   143         15
   150          9
   154        470
   155         63
   156        158
   157         20
   166         10
   168         15
   171        740
   172         83
   173        230
   174         20
   184         12
   196         28
   198         16
   214        126
   215         12
   216         42
   217          4