##TITLE=Library Entry 7414
##JCAMP-DX=Revision 4.10 
##DATA TYPE=MASS SPECTRUM
##SAMPLE DESCRIPTION=CARL DJERASSI DEPT OF CHEM STANFORD UNIV STANFORD CALIF
 94305
##NAMES=HP
##CAS NAME=3-Pentyn-2-one, 5,5-diethoxy-
##MOLFORM=C9H14O3
##CAS REGISTRY NO=55402-04-5
##MP= -300
##BP= -300
##MW= 170
##$RETENTION INDEX=0
##$CONDENSED SPECTRUM=NO
##NPOINTS= 36
##XYDATA=(XY..XY) 1 
    41        140
    42        140
    43        999
    44        230
    45         20
    47         10
    50         60
    51         50
    52         20
    53        160
    54         70
    55        450
    56         30
    57         50
    63         10
    65         10
    66         10
    68         20
    69        100
    70         20
    71         20
    81         50
    82        120
    83        220
    84         60
    97        260
    98         60
    99         10
   103         10
   108         10
   111         20
   125        170
   126         30
   127         10
   141         10
   169         30