##TITLE=Library Entry 49917
##JCAMP-DX=Revision 4.10 
##DATA TYPE=MASS SPECTRUM
##SAMPLE DESCRIPTION=CARL DJERASSI DEPT OF CHEM STANFORD UNIV STANFORD CALIF
 94305
##NAMES=HP
##CAS NAME=2-Hexyne, 6-bromo-
##MOLFORM=C6H9Br
##CAS REGISTRY NO=55402-12-5
##MP= -300
##BP= -300
##MW= 160
##$RETENTION INDEX=0
##$CONDENSED SPECTRUM=NO
##NPOINTS= 32
##XYDATA=(XY..XY) 1 
    39        210
    40         60
    41        340
    42         50
    50        110
    51        170
    52        130
    53        760
    54        390
    55         50
    63         20
    65         80
    66         30
    67         30
    77        110
    78         20
    79        280
    80         80
    81        999
    82         70
    93         10
    95         10
   107         40
   109         40
   132          5
   134          5
   145         10
   147         10
   160        280
   161         20
   162        260
   163         10