##TITLE=Library Entry 20741
##JCAMP-DX=Revision 4.10 
##DATA TYPE=MASS SPECTRUM
##SAMPLE DESCRIPTION=Exported from NIST MS Search
##NAMES=HP
##CAS NAME=Cyclohexane, 1,1'-[3-(2-cyclopentylpropyl)-1,5-pentanediyl]bis-
##MOLFORM=C25H46
##CAS REGISTRY NO=55401-71-3
##MP= -300
##BP= -300
##MW= 346
##$RETENTION INDEX=0
##$CONDENSED SPECTRUM=NO
##NPOINTS= 142
##XYDATA=(XY..XY) 1 
    36          1
    37          3
    38          4
    39         85
    40         18
    41        556
    42         47
    43        102
    44          3
    49          1
    50          3
    51          6
    52          5
    53         52
    54         91
    55        999
    56         58
    57         58
    58          3
    61          1
    62          1
    63          1
    64          1
    65          9
    66         12
    67        226
    68         63
    69        286
    70         21
    71         25
    72          1
    73          1
    74          1
    75          1
    76          1
    77         12
    78          4
    79         31
    80         16
    81        187
    82        140
    83        744
    84         53
    85         10
    86          1
    91          7
    92          2
    93          9
    94          7
    95         91
    96        208
    97        477
    98         37
    99          2
   103          1
   104          1
   105          1
   106          1
   107          3
   108          6
   109         78
   110         33
   111        177
   112         16
   113          1
   114          1
   115          1
   116          1
   117          1
   119          1
   120          1
   121          2
   122          2
   123         28
   124          8
   125         80
   126          8
   127          1
   128          1
   129          1
   131          1
   133          1
   135          2
   136          5
   137         26
   138         18
   139         91
   140         10
   141          1
   149          1
   150          2
   151         19
   152          9
   153         46
   154          6
   155          1
   163          1
   164          1
   165         11
   166          2
   167          3
   168          1
   169          1
   177          1
   178          1
   179          9
   180          2
   181          1
   182          1
   191          1
   192          2
   193          6
   194          1
   205          1
   206          9
   207          4
   208          1
   220          5
   221          7
   222          1
   223          1
   232          1
   233          1
   234        241
   235        306
   236         53
   237          5
   238          1
   248          5
   249          5
   250          1
   251          1
   262          4
   263          4
   264          1
   276          1
   277          1
   344          1
   345          1
   346          6
   347          2
   348          1