##TITLE=Library Entry 7844
##JCAMP-DX=Revision 4.10 
##DATA TYPE=MASS SPECTRUM
##SAMPLE DESCRIPTION=Exported from NIST MS Search
##NAMES=HP
##CAS NAME=Tetracosane, 9-octyl-
##MOLFORM=C32H66
##CAS REGISTRY NO=55401-54-2
##MP= -300
##BP= -300
##MW= 450
##$RETENTION INDEX=0
##$CONDENSED SPECTRUM=NO
##NPOINTS= 190
##XYDATA=(XY..XY) 1 
    36          1
    37          2
    38          3
    39         43
    40         10
    41        376
    42        105
    43        999
    44         34
    45          1
    50          1
    51          2
    52          2
    53         16
    54         39
    55        358
    56        168
    57        999
    58         46
    59          1
    63          1
    64          1
    65          1
    66          3
    67         41
    68         36
    69        222
    70        104
    71        576
    72         33
    73          1
    74          1
    75          1
    76          1
    77          2
    78          1
    79          5
    80          2
    81         23
    82         31
    83        166
    84         55
    85        412
    86         28
    87          1
    88          1
    89          1
    90          1
    91          5
    92          2
    93          2
    94          1
    95         13
    96         18
    97        113
    98         32
    99        115
   100          9
   101          1
   102          1
   103          1
   104          1
   105          6
   106          1
   107          1
   108          1
   109          5
   110         10
   111         55
   112         23
   113         78
   114          7
   115          1
   116          1
   117          1
   118          1
   119          3
   120          1
   121          1
   122          1
   123          2
   124          6
   125         27
   126         14
   127         58
   128          6
   129          1
   130          1
   131          1
   132          1
   133          2
   134          1
   135          1
   136          1
   137          1
   138          5
   139         15
   140         11
   141         45
   142          6
   143          1
   151          1
   152          4
   153          9
   154         10
   155         38
   156          5
   157          1
   165          1
   166          3
   167          7
   168          7
   169         31
   170          5
   171          1
   179          1
   180          3
   181          5
   182          6
   183         23
   184          4
   185          1
   194          2
   195          4
   196          4
   197         18
   198          3
   199          1
   208          2
   209          3
   210          9
   211         14
   212          3
   213          1
   222          1
   223          2
   224          5
   225         13
   226          2
   235          1
   236          2
   237          3
   238         89
   239         89
   240         15
   241          1
   250          1
   251          1
   252          5
   253         11
   254          2
   255          1
   264          1
   265          1
   266          2
   267          8
   268          2
   269          1
   278          1
   279          1
   280          2
   281          6
   282          1
   292          1
   293          1
   294          2
   295          4
   296          1
   307          1
   308          5
   309          3
   310          1
   322          3
   323          4
   324          1
   336         84
   337        129
   338         31
   339          5
   340          1
   350          3
   351          4
   352          1
   364          1
   365          2
   366          1
   378          1
   379          1
   380          1
   393          1