##TITLE=Library Entry 37774
##JCAMP-DX=Revision 4.10 
##DATA TYPE=MASS SPECTRUM
##SAMPLE DESCRIPTION=Exported from NIST MS Search
##NAMES=HP
##CAS NAME=Hydrazinecarboxylic acid, butylidene-, methyl ester
##MOLFORM=C6H12N2O2
##CAS REGISTRY NO=55401-87-1
##MP= -300
##BP= -300
##MW= 144
##$RETENTION INDEX=0
##$CONDENSED SPECTRUM=NO
##NPOINTS= 70
##XYDATA=(XY..XY) 1 
    41        556
    42        227
    43        349
    44        278
    45        454
    46        150
    47         17
    50         11
    51         17
    52         22
    53         39
    54         85
    55        201
    56        105
    57        122
    58         28
    59        522
    60         28
    61         11
    64         19
    66         22
    67         22
    68         73
    69        147
    70        999
    71        125
    72         17
    73         17
    74         17
    75        332
    76        142
    77         19
    81         17
    82         19
    83         28
    84        397
    85         56
    86         28
    89         62
    90         36
    91          8
    93         14
    95         17
    97        247
    98         28
    99         11
   100         25
   101        122
   102         22
   103         14
   109         19
   110         19
   111         45
   112         22
   113         31
   114         14
   115         45
   116        772
   117         56
   118         17
   124         22
   127         19
   128         22
   129        255
   130         28
   131         17
   141         22
   143         28
   144        227
   145         28