##TITLE=Library Entry 7135
##JCAMP-DX=Revision 4.10 
##DATA TYPE=MASS SPECTRUM
##SAMPLE DESCRIPTION=Exported from NIST MS Search
##NAMES=HP
##CAS NAME=9-Octadecenoic acid (Z)-, 2-(acetyloxy)-1-[(acetyloxy)methyl]ethy
l ester
##MOLFORM=C25H44O6
##CAS REGISTRY NO=55401-63-3
##MP= -300
##BP= -300
##MW= 440
##$RETENTION INDEX=0
##$CONDENSED SPECTRUM=NO
##NPOINTS= 118
##XYDATA=(XY..XY) 1 
    26         10
    27         80
    28         40
    29        170
    30         10
    31         10
    32         10
    39         60
    40         10
    41        350
    42         70
    43        999
    44         30
    45         10
    51         10
    53         30
    54         90
    55        360
    56         70
    57        170
    58         10
    59         10
    60         10
    61         20
    65         10
    66         10
    67        180
    68         60
    69        170
    70         40
    71         50
    72         10
    73         20
    74         10
    77         20
    78         10
    79         50
    80         30
    81        140
    82         60
    83        110
    84         40
    85         30
    86         10
    87         10
    91         20
    92         10
    93         40
    94         20
    95         90
    96         50
    97         70
    98         80
    99         50
   100         10
   101         10
   103         10
   105         20
   106         10
   107         20
   108         20
   109         60
   110         30
   111         40
   112         30
   113         10
   115         20
   116         20
   117         50
   119         10
   120         10
   121         30
   122         10
   123         30
   124         20
   125         10
   126         10
   127         10
   129         10
   133         10
   134         10
   135         20
   136         10
   137         20
   138         10
   139         10
   141         30
   147         10
   148         10
   149         10
   150         10
   151         20
   152         20
   153         10
   155         20
   158         20
   159        160
   160         10
   161         10
   163         10
   165         10
   166         10
   167         10
   169         10
   171         40
   172         10
   177         10
   179         10
   185         10
   207         10
   221         10
   227         10
   247         10
   262         10
   263         10
   264         30
   265         40
   266         10