##TITLE=Library Entry 32484
##JCAMP-DX=Revision 4.10 
##DATA TYPE=MASS SPECTRUM
##SAMPLE DESCRIPTION=D.HENNEBERG, MAX-PLANCK INSTITUTE, MULHEIM, WEST GERMAN
Y
##NAMES=HP
##CAS NAME=3-Octyne, 2-methyl-
##MOLFORM=C9H16
##CAS REGISTRY NO=55402-15-8
##MP= -300
##BP= -300
##MW= 124
##$RETENTION INDEX=0
##$CONDENSED SPECTRUM=NO
##NPOINTS= 63
##XYDATA=(XY..XY) 1 
    26          8
    27        274
    28        317
    29         99
    30          8
    33          1
    34          0
    35          0
    36          2
    38         16
    39        250
    40         38
    41        444
    42         37
    43        195
    45          2
    46          1
    47          3
    48          2
    50         26
    51         56
    52         30
    53        158
    54         58
    55        256
    56         28
    57         14
    58          1
    62          5
    63         28
    64          9
    65         73
    66         31
    67        999
    68        100
    69         52
    75          4
    76          2
    77         79
    78         15
    79        102
    80         27
    81        216
    82        425
    83         37
    84          4
    85          0
    89          2
    91         12
    92          1
    93         27
    94          8
    95        160
    96         23
    97          0
   103          0
   107          6
   109        110
   110          3
   122          0
   123          0
   124         58
   125          7