##TITLE=Library Entry 7148
##JCAMP-DX=Revision 4.10 
##DATA TYPE=MASS SPECTRUM
##SAMPLE DESCRIPTION=CARL DJERASSI DEPT OF CHEM STANFORD UNIV STANFORD CALIF
 94305
##NAMES=HP
##CAS NAME=30-Norlupan-28-oic acid, 3-hydroxy-21-methoxy-20-oxo-, methyl est
er, (3.beta.)-
##MOLFORM=C31H50O5
##CAS REGISTRY NO=55401-91-7
##MP= -300
##BP= -300
##MW= 502
##$RETENTION INDEX=0
##$CONDENSED SPECTRUM=NO
##NPOINTS= 170
##XYDATA=(XY..XY) 1 
    41        474
    42        101
    43        999
    44         90
    45        232
    53        181
    54         30
    55        545
    56        101
    57        333
    58        181
    59        141
    60         10
    61         20
    65         30
    66         10
    67        333
    68        181
    69        454
    70         60
    71        313
    72         40
    73         20
    75        181
    77        121
    78         30
    79        292
    80         80
    81        424
    82        161
    83        323
    84         70
    85        131
    86         10
    91        272
    92         50
    93        333
    94        111
    95        434
    96        131
    97        191
    98         20
    99         30
   101        171
   103         10
   105        282
   106         50
   107        292
   108        101
   109        323
   110         60
   111        111
   112         10
   114        343
   115         90
   116         10
   117        121
   118         20
   119        323
   120         80
   121        333
   122        111
   123        232
   124         30
   125         50
   128         10
   129         60
   130         50
   131        292
   132         60
   133        282
   134        121
   135        313
   136        131
   137        101
   138         10
   139         60
   142        111
   143        131
   144         20
   145        323
   146         90
   147        272
   148         70
   149        111
   150         10
   151         50
   152         40
   153         40
   155         20
   156         30
   157         70
   158         10
   159        141
   160         20
   161        121
   162         30
   163         90
   164         10
   165         30
   167         10
   169         10
   171         70
   173         90
   174         30
   175        151
   176         20
   177         70
   178         10
   179         10
   183         20
   185         50
   187        111
   188         60
   189        353
   190        161
   191        101
   199         20
   201         50
   202         10
   203         70
   204         20
   205         80
   206         70
   207        212
   208         30
   213         30
   215         60
   217         20
   219         20
   220         20
   221         10
   227         10
   229         20
   231         20
   233         10
   234         10
   235         10
   239         10
   241         10
   243         10
   245         20
   247         30
   248         10
   249         20
   257         20
   263         10
   267         10
   271         10
   273         10
   367         10
   368         10
   369         10
   393         10
   404         10
   409         10
   410         20
   411         20
   412         10
   426         10
   427         10
   428         10
   442         10
   451         20
   470        131
   471         40
   484         40
   485         10
   502        101
   503         30