##TITLE=Library Entry 12739
##JCAMP-DX=Revision 4.10 
##DATA TYPE=MASS SPECTRUM
##SAMPLE DESCRIPTION=Exported from NIST MS Search
##NAMES=HP
##CAS NAME=Octadecanoic acid, 2-(acetyloxy)-1-[(acetyloxy)methyl]ethyl ester
##MOLFORM=C25H46O6
##CAS REGISTRY NO=55401-62-2
##MP= -300
##BP= -300
##MW= 442
##$RETENTION INDEX=2962
##$CONDENSED SPECTRUM=NO
##NPOINTS= 172
##XYDATA=(XY..XY) 1 
    26         10
    27         40
    28         40
    29        120
    30         10
    31         10
    39         40
    40         10
    41        240
    42         70
    43        999
    44         40
    45        160
    46         10
    51         10
    53         20
    54         30
    55        310
    56        100
    57        420
    58         50
    59         20
    60         20
    61         30
    65         10
    66         10
    67         70
    68         40
    69        190
    70         70
    71        220
    72         20
    73        280
    74         30
    75         10
    76         10
    77         10
    78         70
    79         20
    80         20
    81         80
    82         50
    83        160
    84        240
    85        160
    86         20
    87         20
    88         10
    91         10
    92         10
    93         20
    94         20
    95        100
    96         50
    97        140
    98        360
    99        100
   100         20
   101         10
   103         20
   104         10
   105         10
   106         10
   107         20
   108         20
   109         60
   110         20
   111         80
   112        160
   113         40
   114         10
   115        100
   116        100
   117        130
   118         90
   119         90
   120         10
   121         20
   122         10
   123         30
   124         10
   125         40
   126         50
   127         20
   128         10
   129         20
   130         10
   133         10
   135         20
   136         10
   137         20
   138         10
   139         20
   140         20
   141         20
   142         10
   143         10
   145         10
   147         10
   149         90
   150         10
   151         10
   152         10
   153         10
   154         20
   155         10
   156         10
   157         10
   158        300
   159        710
   160         60
   161         10
   163         10
   165         10
   166         10
   167         10
   168         20
   169         10
   170         10
   171        110
   172         10
   176         10
   177        110
   178         20
   179         10
   180         10
   181         10
   182         30
   183        120
   184         20
   185         10
   193         10
   195         10
   196         20
   197         10
   199         10
   205         10
   209         10
   210         20
   211         10
   213         10
   214         10
   218         30
   219         10
   222         10
   223         10
   224         10
   227         30
   228         10
   239         10
   241         10
   255         10
   264         10
   265         10
   266         50
   267        340
   268         70
   269         10
   283         10
   285         10
   297         10
   298         10
   338         20
   339         10
   352         10
   353         10
   368         20
   369         10
   381         10
   382         60
   383         20
   384         10