##TITLE=Library Entry 89710
##JCAMP-DX=Revision 4.10 
##DATA TYPE=MASS SPECTRUM
##SAMPLE DESCRIPTION=CARL DJERASSI DEPT OF CHEM STANFORD UNIV STANFORD CALIF
 94305
##NAMES=HP
##CAS NAME=Hydrazinecarboxylic acid, (1-ethylpentylidene)-, methyl ester
##MOLFORM=C9H18N2O2
##CAS REGISTRY NO=55401-88-2
##MP= -300
##BP= -300
##MW= 186
##$RETENTION INDEX=0
##$CONDENSED SPECTRUM=NO
##NPOINTS= 70
##XYDATA=(XY..XY) 1 
    41        640
    42        150
    43        150
    44         60
    45         10
    46         10
    50         10
    51         30
    52         10
    53         70
    54        220
    55        520
    56        340
    57         90
    58         60
    59        160
    60         10
    63         10
    65         10
    66         10
    67         50
    68         70
    69        130
    70        100
    71         60
    76         70
    77         20
    79         10
    80         10
    81         20
    82         80
    83         70
    84        160
    85         70
    86         10
    87         20
    88         10
    89        170
    90         60
    91         20
    96         10
    97        170
    98         20
   103         10
   109         10
   110         20
   111         20
   112        999
   113         80
   115        160
   116         20
   125        160
   126         30
   127         10
   128         10
   129         40
   130         20
   139         20
   143         20
   144        750
   145         60
   146         10
   153         10
   154         30
   157        100
   158         30
   159         10
   171         20
   186         60
   187         10