##TITLE=Library Entry 3699
##JCAMP-DX=Revision 4.10 
##DATA TYPE=MASS SPECTRUM
##SAMPLE DESCRIPTION=Exported from NIST MS Search
##NAMES=HP
##CAS NAME=Cyclopentane, 1,1'-hexadecylidenebis-
##MOLFORM=C26H50
##CAS REGISTRY NO=55401-76-8
##MP= -300
##BP= -300
##MW= 362
##$RETENTION INDEX=0
##$CONDENSED SPECTRUM=NO
##NPOINTS= 165
##XYDATA=(XY..XY) 1 
    36          1
    37          1
    38          2
    39         80
    40         22
    41        999
    42        129
    43        870
    44         28
    45          1
    50          1
    51          3
    52          4
    53         59
    54        103
    55        802
    56        111
    57        599
    58         26
    59          1
    62          1
    63          1
    64          1
    65         12
    66         37
    67        489
    68        537
    69        846
    70         76
    71        309
    72         17
    73          1
    75          1
    76          1
    77         14
    78          4
    79         43
    80         25
    81        264
    82        352
    83        952
    84         71
    85        189
    86         13
    87          1
    89          1
    90          1
    91         11
    92          3
    93         21
    94         24
    95        411
    96        147
    97        592
    98         49
    99         44
   100          3
   101          1
   102          1
   103          1
   104          2
   105          2
   106          1
   107          6
   108         10
   109        122
   110         36
   111        249
   112         24
   113         27
   114          2
   115          1
   116          1
   117          1
   118          1
   119          1
   120          1
   121          5
   122          6
   123         34
   124         18
   125        109
   126         11
   127         18
   128          2
   131          1
   132          1
   135          3
   136          4
   137         25
   138         12
   139         49
   140          6
   141         12
   142          1
   147          1
   148          1
   149          3
   150         38
   151        157
   152         23
   153         31
   154          4
   155          8
   156          1
   161          1
   163          1
   164          1
   165          3
   166          3
   167         21
   168          3
   169          4
   170          1
   178          1
   179          1
   180          1
   181         15
   182          2
   183          3
   184          1
   191          1
   192          1
   193          1
   194          1
   195         11
   196          2
   197          6
   198          1
   207          1
   208          1
   209          9
   210          3
   211          6
   212          1
   221          1
   222          1
   223          6
   224          1
   225          1
   235          1
   236          2
   237          4
   238          1
   249          1
   250          1
   251          2
   252          1
   263          1
   264          4
   265          1
   266          1
   278          1
   279          1
   292        161
   293        195
   294         39
   295          4
   305          1
   306          1
   307          1
   310          1
   311          1
   362          2
   363          1