##TITLE=Library Entry 54980
##JCAMP-DX=Revision 4.10 
##DATA TYPE=MASS SPECTRUM
##SAMPLE DESCRIPTION=CARL DJERASSI DEPT OF CHEM STANFORD UNIV STANFORD CALIF
 94305
##NAMES=HP
##CAS NAME=Lup-20(29)-en-21-ol, 3,28-bis[(tetrahydro-2H-pyran-2-yl)oxy]-, 3,
3-dimethylbutanoate, (3.beta.,21.beta.)-
##MOLFORM=C46H76O6
##CAS REGISTRY NO=55401-92-8
##MP= -300
##BP= -300
##MW= 724
##$RETENTION INDEX=0
##$CONDENSED SPECTRUM=NO
##NPOINTS= 160
##XYDATA=(XY..XY) 1 
    41         40
    43         50
    55         40
    56         10
    57        110
    58         10
    67         50
    69         30
    71         10
    79         10
    81         30
    83         60
    84         20
    85        999
    86         60
    91         10
    93         20
    95         30
    96         60
   101          2
   105         10
   106          3
   107         15
   108          2
   109         15
   110          2
   111          2
   117          2
   118          1
   119         11
   120          4
   121         13
   122          4
   123          8
   125          3
   131          5
   132          2
   133          9
   134          5
   135         14
   136          7
   137         12
   138          2
   139          2
   143          2
   145          7
   146          2
   147          8
   148          3
   149          7
   150          3
   151          2
   161          8
   162          2
   163          4
   164          1
   165          3
   171          2
   173          6
   174          2
   175          6
   176          2
   177          4
   178          2
   179          2
   182          8
   183          4
   185          4
   186          2
   187          9
   188          3
   189         13
   190         12
   191         16
   192          3
   199          4
   200          2
   201          8
   202          3
   203          7
   204          4
   205          7
   206          2
   207          9
   208          2
   213          2
   214          1
   215          4
   216          2
   217          4
   218          2
   219          4
   220          2
   227          2
   229          4
   230          1
   231          3
   232          2
   233          1
   243          3
   245          4
   359          2
   365          2
   379          3
   382          3
   383         11
   384          5
   391          3
   392          1
   393          1
   405          4
   406          1
   407          2
   408          1
   409          3
   410          2
   411          1
   421          2
   422          9
   423         22
   424          7
   425          3
   439          4
   440          5
   441          3
   493          3
   494          2
   495          4
   496          2
   497          1
   499          2
   500          2
   505          1
   506          5
   507          3
   508          2
   510          2
   521          1
   522          1
   523          3
   524          6
   525          3
   537          1
   538         29
   539         19
   540          6
   541          2
   542          1
   584          2
   608          2
   622          2
   623          3
   625          3
   626          8
   627          3
   640          1
   709          4
   710          2
   724          3
   725          1