##TITLE=Library Entry 69305
##JCAMP-DX=Revision 4.10 
##DATA TYPE=MASS SPECTRUM
##SAMPLE DESCRIPTION=GULF R. ' D. CO., PITTSBURGH, PA, USA
##NAMES=HP
##CAS NAME=1H-Indene, 1-hexadecyloctahydro-
##MOLFORM=C25H48
##CAS REGISTRY NO=55401-73-5
##MP= -300
##BP= -300
##MW= 348
##$RETENTION INDEX=0
##$CONDENSED SPECTRUM=NO
##NPOINTS= 220
##XYDATA=(XY..XY) 1 
    17          6
    18          6
    20          0
    24          0
    25          0
    26          3
    27         34
    28        124
    29         85
    30          1
    31          0
    37          0
    38          0
    39         19
    40          4
    41        163
    42         23
    43        187
    44          6
    45          0
    50          0
    51          1
    52          1
    53         15
    54         41
    55        157
    56         27
    57         82
    58          4
    59          0
    60          0
    61          0
    62          0
    63          0
    64          0
    65          3
    66         14
    67        182
    68         49
    69         67
    70         14
    71         25
    72          1
    73          0
    74          0
    75          0
    76          0
    77         23
    78          8
    79         74
    80         53
    81        660
    82        307
    83        182
    84         24
    85         35
    86          2
    87          0
    88          0
    89          0
    90          0
    91         17
    92          5
    93         39
    94         35
    95        230
    96        999
    97        374
    98         36
    99          5
   100          0
   101          0
   102          0
   103          0
   104          0
   105          3
   106          1
   107         11
   108         15
   109         98
   110         59
   111         28
   112          5
   113          2
   114          0
   115          0
   116          0
   117          1
   118          0
   119          1
   120          2
   121         49
   122        100
   123        314
   124         50
   125         10
   126          2
   127          1
   128          0
   129          0
   130          0
   131          0
   132          0
   133          0
   134          1
   135          7
   136          7
   137         33
   138         18
   139          4
   140          1
   141          1
   142          0
   143          0
   144          0
   145          0
   146          0
   147          0
   148          0
   149          1
   150          1
   151          6
   152          7
   153          2
   154          1
   155          0
   156          0
   157          0
   158          0
   159          0
   161          0
   162          0
   163          0
   164          0
   165          1
   166          1
   167          1
   168          0
   169          0
   175          0
   176          0
   177          0
   178          1
   179          1
   180          0
   181          0
   182          0
   183          0
   184          0
   189          0
   190          0
   191          0
   192          0
   193          0
   194          0
   195          0
   196          0
   197          0
   206          0
   207          0
   208          0
   209          0
   210          0
   211          0
   219          0
   220          0
   221          0
   222          0
   223          0
   224          0
   225          0
   235          0
   236          0
   237          0
   238          0
   239          0
   249          0
   250          2
   251          0
   252          2
   253          0
   263          0
   264          1
   265          0
   266          1
   267          0
   269          0
   277          0
   278          1
   279          0
   280          0
   281          0
   290          0
   291          6
   292          3
   293          0
   304          0
   305          1
   306          2
   307          0
   317          0
   318          0
   319          2
   320         34
   321          8
   322          1
   333          0
   334          0
   335          0
   338          0
   339          0
   342          0
   343          0
   344          0
   345          0
   346          1
   347          1
   348        181
   349         50
   350          6