##TITLE=Library Entry 3515
##JCAMP-DX=Revision 4.10 
##DATA TYPE=MASS SPECTRUM
##SAMPLE DESCRIPTION=Exported from NIST MS Search
##NAMES=HP
##CAS NAME=1,3,2-Benzodioxaborol-4(3aH)-one, 2-butyl-6-hydroxy-3a,7-bis(3-me
thyl-2-butenyl)-5-(3-methyl-1-oxobutyl)-
##MOLFORM=C25H37BO5
##CAS REGISTRY NO=55429-03-3
##MP= -300
##BP= -300
##MW= 428
##$RETENTION INDEX=0
##$CONDENSED SPECTRUM=NO
##NPOINTS= 172
##XYDATA=(XY..XY) 1 
    39        142
    40        100
    41        999
    42         71
    43        457
    44         51
    50         28
    51         57
    52         42
    53        157
    54         22
    55        157
    56         42
    57        371
    65         51
    66         54
    67        114
    68         28
    69        985
    70         22
    73         51
    75         22
    77         85
    78         42
    79         57
    80         28
    81         85
    82          5
    83         57
    87          5
    88        114
    91        100
    92         22
    93         51
    94          5
    95         42
    96          8
   105         51
   106          5
   107         51
   108          5
   109        142
   110         20
   116         42
   117         22
   118         22
   119          5
   120         28
   121         22
   122         51
   123         22
   124         42
   126          5
   128          5
   129         22
   130         22
   131         22
   132          5
   133         42
   134         20
   135         57
   136         20
   137         20
   143          5
   144          5
   145         22
   146         20
   147         42
   148         22
   149         37
   150          5
   159         22
   160         22
   161         22
   163         20
   164         42
   165         20
   166         20
   171          5
   173         20
   174          5
   175         20
   176          5
   177         20
   178          5
   179          2
   188         42
   189         57
   190         85
   191         20
   192         22
   193         20
   200          5
   201         20
   202         20
   203         42
   205         31
   206         31
   207          5
   208         17
   217         28
   218          5
   219         28
   220         28
   230         22
   231         22
   232         22
   233         62
   237         22
   238          5
   243          5
   244         20
   245         37
   246        105
   247        285
   248        128
   249         37
   257         31
   258         28
   259         37
   260         20
   261         20
   262          5
   263         20
   270          5
   271         20
   272          2
   273          5
   274         17
   275          5
   276         51
   277         80
   278         20
   285         20
   286         28
   287         71
   288         51
   289        128
   290         22
   301         17
   302         65
   303        222
   304        228
   305        557
   306        100
   307         17
   316         20
   317         57
   318         22
   327         31
   328         22
   329         22
   330         28
   331         71
   341         22
   342         22
   343         51
   344         51
   345         85
   346         22
   347         20
   358         71
   359        262
   360         37
   361         91
   362         20
   371          5
   372         17
   373          5
   427         20
   428         51
   429         48