##TITLE=Library Entry 42996
##JCAMP-DX=Revision 4.10 
##DATA TYPE=MASS SPECTRUM
##SAMPLE DESCRIPTION=S. MARKEY UNIV. OF COLO. MED. CTR., DEDVER, COLORADO, U
SA
##NAMES=HP
##CAS NAME=L-Lysine, 4TMS derivative
##MOLFORM=C18H46N2O2Si4
##CAS REGISTRY NO=55429-07-7
##MP= -300
##BP= -300
##MW= 434
##$RETENTION INDEX=0
##$CONDENSED SPECTRUM=NO
##NPOINTS= 72
##XYDATA=(XY..XY) 1 
    41         15
    43         39
    44         30
    45         81
    47         24
    59        114
    62         17
    64         32
    72         16
    73        999
    74        116
    75        138
    76          8
    77         50
    84         69
    86         81
    87          6
    88         57
    92        177
    93         12
    94         75
   100         86
   101          8
   102         47
   103          8
   112         21
   114         34
   115         37
   116         11
   117         13
   128        173
   129         31
   130         48
   131         33
   132         29
   140         22
   142         24
   146         37
   147        116
   148         17
   149          8
   151         13
   154         29
   155         34
   156        183
   157         24
   158         18
   160         13
   172         17
   174        837
   175        134
   176         68
   186         25
   191         13
   200         49
   202         21
   214         17
   218         31
   227         13
   228         15
   230        151
   231         29
   232         15
   317        649
   318        206
   319        100
   320         17
   329          8
   419         27
   420          8
   434         35
   435         13