##TITLE=Library Entry 12745
##JCAMP-DX=Revision 4.10 
##DATA TYPE=MASS SPECTRUM
##SAMPLE DESCRIPTION=Exported from NIST MS Search
##NAMES=HP
##CAS NAME=Eicosanoic acid, 2-(acetyloxy)-1-[(acetyloxy)methyl]ethyl ester
##MOLFORM=C27H50O6
##CAS REGISTRY NO=55429-68-0
##MP= -300
##BP= -300
##MW= 470
##$RETENTION INDEX=0
##$CONDENSED SPECTRUM=NO
##NPOINTS= 139
##XYDATA=(XY..XY) 1 
    26         10
    27         40
    28         20
    29        100
    31         10
    39         30
    40         10
    41        250
    42         70
    43        999
    44         30
    45         10
    53         20
    54         30
    55        350
    56         90
    57        460
    58         50
    59         20
    60         20
    61         30
    65         10
    66         10
    67        100
    68         50
    69        270
    70         80
    71        290
    72         30
    73         50
    74         40
    75         10
    77         10
    78         10
    79         30
    80         20
    81        160
    82         70
    83        270
    84        340
    85        220
    86         30
    87         30
    88         10
    91         20
    92         10
    93         30
    94         20
    95        180
    96         70
    97        270
    98        540
    99        220
   100         30
   101         20
   102         10
   103         50
   104         10
   105         10
   106         10
   107         20
   108         20
   109        120
   110         30
   111        170
   112        200
   113         60
   114         10
   115        130
   116        130
   117        210
   118         10
   119         10
   121         40
   122         10
   123         70
   124         20
   125         80
   126         50
   127         30
   128         10
   129         20
   135         30
   136         10
   137         40
   138         20
   139         30
   140         20
   141         20
   142         10
   143         10
   145         10
   149         20
   150         10
   151         20
   152         10
   153         10
   154         20
   155         10
   156         10
   158        260
   159        710
   160         60
   161         10
   163         10
   165         10
   166         10
   167         10
   168         10
   169         10
   171        130
   172         10
   177         50
   178         10
   179         10
   181         10
   182         10
   183         10
   185         10
   195         10
   196         10
   199         10
   210         10
   213         10
   218         10
   224         10
   227         30
   228         10
   238         10
   239         10
   241         10
   269         10
   283         10
   294         10
   295         50
   296         10
   367         10
   410         10
   411         10