##TITLE=Library Entry 45319
##JCAMP-DX=Revision 4.10 
##DATA TYPE=MASS SPECTRUM
##SAMPLE DESCRIPTION=NIST Mass Spectrometry Data Center
##NAMES=HP
##CAS NAME=7-Ketocholesterol, TMS derivative
##MOLFORM=C30H52O2Si
##CAS REGISTRY NO=55429-58-8
##MP= -300
##BP= -300
##MW= 472
##$RETENTION INDEX=4398
##$CONDENSED SPECTRUM=NO
##NPOINTS= 268
##XYDATA=(XY..XY) 1 
    14          3
    15          4
    26          4
    29         21
    31          3
    39          7
    41         69
    42         11
    43        159
    44         13
    45        126
    46         12
    47         88
    48          7
    49         13
    51          4
    53         13
    55        105
    56         28
    57        131
    58          8
    59         33
    60         13
    61         40
    63          4
    67         49
    68         11
    69         92
    70         17
    71         74
    72         17
    73        589
    74         58
    75        999
    76         79
    77         75
    78          9
    79         85
    80         21
    81        135
    82          7
    83         49
    85         10
    87          4
    89          8
    91        131
    92         24
    93        113
    94         18
    95         99
    96         10
    97         30
    99          6
   100          2
   101         14
   102          4
   103         11
   104          6
   105        114
   106         25
   107        107
   108         68
   109         61
   110          8
   111          7
   112          4
   113         11
   115         24
   116         12
   117         59
   118         20
   119         62
   120         20
   121         63
   122         22
   123         29
   124          6
   127         54
   128         32
   129        506
   130         71
   131        121
   132         22
   133         72
   134        108
   135         67
   136         24
   137         14
   138          6
   139          4
   141         26
   142        148
   143        118
   144         30
   145         69
   146         20
   147         60
   148         50
   149         28
   150          4
   151         10
   153          3
   155         27
   156         11
   157         41
   158         37
   159        113
   160         33
   161        208
   162         38
   163         15
   164          7
   165         11
   166          5
   167         14
   168          8
   169         26
   170          8
   171         31
   172         23
   173         45
   174        188
   175         69
   176         23
   179         14
   180         21
   181         59
   182         56
   183         28
   184         10
   185         25
   186         13
   187         90
   188         19
   189         18
   190          6
   194          8
   195         58
   196         70
   197         33
   198         11
   199         31
   200         14
   201         29
   202          6
   203          8
   204          2
   207         30
   208         16
   209         27
   210          7
   211         12
   212          8
   213         23
   214         21
   215         16
   216          7
   218          6
   219         12
   220         12
   221         12
   222          5
   223         16
   224         26
   225         12
   226          3
   227         58
   228         12
   229         31
   233          6
   235         10
   236          7
   237          7
   239          4
   240          4
   241         22
   242         17
   243         15
   248         13
   249         13
   250          5
   251         13
   252          3
   253         10
   254          2
   255          8
   256          6
   258          4
   261          5
   262          2
   263         10
   264         43
   265          9
   266          3
   267          5
   268          2
   269         45
   275          5
   276          4
   277         27
   278          7
   279          7
   284          3
   289          4
   290          3
   291          4
   292          3
   295          1
   297          8
   299          5
   302          4
   303          6
   304          8
   305          6
   311          5
   312          5
   313          6
   314          4
   317         13
   318          9
   319         12
   324          2
   325          4
   331          4
   332          6
   333          5
   339          4
   341         22
   349         13
   350          4
   351          2
   353          4
   354          6
   355          6
   357          2
   359         15
   360          7
   364          5
   365          3
   367        189
   368         54
   369          8
   370          4
   381          3
   382         95
   383         32
   384         10
   387          9
   388          3
   402          5
   403         22
   404          5
   415         11
   416         29
   417          7
   439          4
   444          4
   454          5
   455         61
   456         18
   457         52
   458         17
   459          7
   471         86
   472        392
   473        164
   474         41
   475          9