##TITLE=Library Entry 24361
##JCAMP-DX=Revision 4.10 
##DATA TYPE=MASS SPECTRUM
##SAMPLE DESCRIPTION=Exported from NIST MS Search
##NAMES=HP
##CAS NAME=Hexacosane, 9-octyl-
##MOLFORM=C34H70
##CAS REGISTRY NO=55429-83-9
##MP= -300
##BP= -300
##MW= 478
##$RETENTION INDEX=0
##$CONDENSED SPECTRUM=NO
##NPOINTS= 248
##XYDATA=(XY..XY) 1 
    39         33
    40          9
    41        274
    42         77
    43        856
    44         30
    49          1
    50          2
    51          2
    52          1
    53         11
    54         32
    55        312
    56        153
    57        999
    58         47
    59          1
    61          1
    62          1
    63          1
    64          1
    65          2
    66          3
    67         36
    68         33
    69        208
    70        100
    71        623
    72         36
    73          1
    74          1
    75          1
    76          1
    77          2
    78          1
    79          5
    80          3
    81         22
    82         35
    83        169
    84         55
    85        424
    86         30
    87          1
    88          1
    89          1
    90          1
    91          2
    92          1
    93          2
    94          1
    95         13
    96         22
    97        124
    98         32
    99        145
   100         11
   101          1
   102          1
   103          1
   104          1
   105          2
   106          1
   107          1
   108          1
   109          5
   110         11
   111         64
   112         24
   113         99
   114          9
   115          1
   116          1
   117          1
   118          1
   119          1
   120          1
   121          1
   122          1
   123          3
   124          8
   125         34
   126         16
   127         73
   128          8
   129          1
   130          1
   131          1
   132          1
   133          1
   134          1
   135          1
   136          1
   137          2
   138          7
   139         20
   140         12
   141         57
   142          7
   143          1
   144          1
   145          1
   146          1
   147          1
   148          1
   149          1
   150          1
   151          1
   152          4
   153         11
   154         11
   155         46
   156          6
   157          1
   158          1
   159          1
   160          1
   163          1
   164          1
   165          1
   166          4
   167          8
   168          7
   169         37
   170          5
   171          1
   172          1
   173          1
   174          1
   175          1
   176          1
   177          1
   178          1
   179          1
   180          3
   181          6
   182          5
   183         29
   184          4
   185          1
   186          1
   187          1
   189          1
   193          1
   194          3
   195          5
   196          4
   197         21
   198          3
   199          1
   200          1
   207          1
   208          2
   209          3
   210          7
   211         15
   212          2
   213          1
   214          1
   215          1
   216          1
   217          1
   218          1
   219          1
   220          1
   221          1
   222          1
   223          2
   224          4
   225         12
   226          2
   227          1
   235          1
   236          2
   237          2
   238         54
   239         52
   240          9
   241          1
   242          1
   243          1
   250          1
   251          1
   252          3
   253         10
   254          2
   255          1
   263          1
   264          1
   265          2
   266          3
   267         10
   268          2
   269          1
   278          1
   279          1
   280          2
   281          8
   282          2
   283          1
   292          1
   293          1
   294          2
   295          7
   296          2
   297          1
   306          1
   307          1
   308          1
   309          5
   310          1
   311          1
   320          1
   321          1
   322          1
   323          3
   324          1
   325          1
   334          1
   335          1
   336          4
   337          2
   338          1
   339          1
   350          2
   351          3
   352          1
   353          1
   362          1
   363          1
   364         55
   365         91
   366         25
   367          4
   368          1
   378          2
   379          3
   380          1
   392          1
   393          2
   394          1
   406          1
   407          1
   408          1
   420          1
   421          1
   422          1
   435          1