##TITLE=Library Entry 55124
##JCAMP-DX=Revision 4.10 
##DATA TYPE=MASS SPECTRUM
##SAMPLE DESCRIPTION=Exported from NIST MS Search
##NAMES=HP
##CAS NAME=Propanoic acid, 2,2-dimethyl-, [3-(2,2-dimethyl-1-oxopropoxy)-2,3
,3a,8a-tetrahydro-5-oxo-5H-furo[3',2':3,4]azeto[1,2-a]pyrimidin-2-yl]methyl
 ester, [2S-(2.alpha.,3.beta.,3a.beta.,8aa.beta.)]-
##MOLFORM=C19H26N2O6
##CAS REGISTRY NO=55429-21-5
##MP= -300
##BP= -300
##MW= 378
##$RETENTION INDEX=0
##$CONDENSED SPECTRUM=NO
##NPOINTS= 84
##XYDATA=(XY..XY) 1 
    53         71
    54         42
    55        214
    56        500
    57        557
    58        100
    68        114
    69        371
    70        121
    71        553
    72        571
    73         50
    81        371
    82         60
    83        107
    84         82
    85        999
    86        107
    87         21
    94        207
    95        103
    96        114
    97        189
    98         50
    99         28
   108         60
   109         35
   110         28
   111         71
   112         53
   113        410
   114         23
   115          3
   135         35
   136        150
   137        492
   138         71
   148        132
   149         96
   154        100
   155         14
   162         46
   163         53
   164         42
   165         71
   166         25
   167        100
   168         35
   169         25
   170         71
   171         14
   177        250
   178         28
   179        314
   180         64
   181        164
   182         46
   183        107
   184         17
   207         35
   208        132
   210         21
   221         35
   222          3
   225         17
   236         21
   237         28
   238          7
   251         28
   252          7
   254         21
   263         25
   264          7
   265         21
   279         21
   280         21
   281         21
   282          3
   293        342
   294        121
   295         35
   378        242
   379         53
   380          5