##TITLE=Library Entry 44145
##JCAMP-DX=Revision 4.10 
##DATA TYPE=MASS SPECTRUM
##SAMPLE DESCRIPTION=B.F. MAUME, DEP. BIOCHIM., UNIV. DIJON, DIJON, FR.
##NAMES=HP
##CAS NAME=Benzeneethanamine, N-[(pentafluorophenyl)methylene]-.beta.,3,4-tr
is[(trimethylsilyl)oxy]-
##MOLFORM=C24H34F5NO3Si3
##CAS REGISTRY NO=55429-13-5
##MP= -300
##BP= -300
##MW= 563
##$RETENTION INDEX=0
##$CONDENSED SPECTRUM=NO
##NPOINTS= 97
##XYDATA=(XY..XY) 1 
    40         11
    41         20
    42          8
    43         16
    44         50
    45        109
    46          9
    47         13
    55          7
    56          4
    57          7
    58          3
    59         24
    61          5
    69          5
    71          4
    72          7
    73        999
    74         85
    75        103
    76         11
    77         32
    78          5
    79          7
    81          5
    91          7
    96          5
    99          4
   104          5
   105          7
   115          5
   117         11
   119          5
   129          3
   131          9
   132          5
   133         14
   135          5
   137          3
   145          3
   147         32
   148          5
   149          7
   161          5
   162          7
   163          5
   168          7
   177          9
   179         29
   180          7
   181         13
   189          3
   191          9
   192         13
   193         24
   194          5
   205          7
   207         30
   208         28
   209          9
   218          3
   221         11
   223          5
   251         16
   252          5
   253          4
   265         22
   266          7
   267         32
   268          9
   269          8
   279          7
   280          9
   281         35
   282         12
   283          7
   339          9
   341          5
   354         17
   355        829
   356        282
   357        131
   358         29
   359         16
   386         11
   429          7
   458         11
   459          4
   460          5
   473          9
   474          5
   534          7
   548         18
   549          9
   550          3
   563          9
   564          3