##TITLE=Library Entry 45367
##JCAMP-DX=Revision 4.10 
##DATA TYPE=MASS SPECTRUM
##SAMPLE DESCRIPTION=C.J.W.BROOKS CHEM. DEPT., THE UNIVERSITY GLASGOW, U.K.
##NAMES=HP
##CAS NAME=5.beta.-Pregnane-3.alpha.,17,20.alpha.-triol, cyclic 17,20-(2-met
hyl-2-propaneboronate), TMS derivative
##MOLFORM=C28H51BO3Si
##CAS REGISTRY NO=55429-59-9
##MP= -300
##BP= -300
##MW= 474
##$RETENTION INDEX=0
##$CONDENSED SPECTRUM=NO
##NPOINTS= 158
##XYDATA=(XY..XY) 1 
    41        220
    42         50
    43        420
    44         20
    45         70
    53         60
    55        330
    56         40
    57        160
    61         50
    67        300
    68         80
    69        230
    70         50
    71        120
    72         50
    73        700
    74        100
    75        999
    76        100
    77        110
    78         20
    79        270
    80         50
    81        440
    82         50
    83        210
    84         40
    85         90
    89         40
    91        280
    92         60
    93        360
    94        150
    95        360
    96         40
    97        140
    98         40
    99         20
   101         40
   103         20
   104         20
   105        330
   106        220
   107        420
   108        140
   109        230
   110         40
   111         60
   113         30
   115         30
   116         30
   117         80
   118         30
   119        210
   120        100
   121        270
   122        100
   123        140
   124         20
   125         20
   127         20
   128         50
   129        250
   130         40
   131        110
   132         40
   133        150
   134        120
   135        280
   136         50
   137         40
   138         20
   139         80
   140         20
   141         20
   142         50
   143         50
   144         20
   145        150
   146         50
   147        200
   148         50
   149        120
   150         30
   151         20
   152         40
   153        140
   154         50
   155        140
   156         20
   157         50
   158         40
   159        180
   160         70
   161        210
   162        100
   163         30
   165         50
   166        270
   167        340
   168        100
   169         30
   171         20
   172         20
   173        110
   174         70
   175        120
   176         70
   185         30
   186         30
   187         60
   188         40
   189         40
   199         40
   201        140
   202         40
   203         20
   213         40
   214         20
   215        700
   216        220
   217        580
   218        120
   227         50
   228         60
   229         60
   230        200
   231         60
   241         20
   243         20
   253         20
   254         20
   255        250
   256         60
   257         40
   267         80
   268         20
   281         40
   282         50
   283        140
   284         30
   329         40
   330        100
   331         20
   342         20
   368         20
   369         70
   370         20
   383        150
   384        520
   385        150
   458         20
   459         40
   460         20
   473         30
   474        100
   475         30