##TITLE=Library Entry 24363
##JCAMP-DX=Revision 4.10 
##DATA TYPE=MASS SPECTRUM
##SAMPLE DESCRIPTION=Exported from NIST MS Search
##NAMES=HP
##CAS NAME=Tetracosane, 11-decyl-
##MOLFORM=C34H70
##CAS REGISTRY NO=55429-84-0
##MP= -300
##BP= -300
##MW= 478
##$RETENTION INDEX=0
##$CONDENSED SPECTRUM=NO
##NPOINTS= 220
##XYDATA=(XY..XY) 1 
    36          1
    37          1
    38          2
    39         31
    40          8
    41        280
    42         78
    43        862
    44         30
    45          1
    49          1
    50          1
    51          2
    52          1
    53         11
    54         32
    55        304
    56        149
    57        999
    58         45
    59          1
    61          1
    62          1
    63          1
    64          1
    65          2
    66          3
    67         37
    68         32
    69        200
    70         92
    71        613
    72         34
    73          1
    75          1
    76          1
    77          2
    78          1
    79          4
    80          3
    81         22
    82         34
    83        156
    84         50
    85        403
    86         27
    87          1
    90          1
    91          3
    92          1
    93          2
    94          1
    95         12
    96         21
    97        118
    98         29
    99        140
   100         11
   101          1
   103          1
   104          1
   105          1
   106          1
   107          1
   108          1
   109          5
   110         10
   111         59
   112         19
   113         95
   114          9
   115          1
   116          1
   117          1
   118          1
   119          1
   120          1
   121          1
   122          1
   123          2
   124          7
   125         31
   126         14
   127         69
   128          7
   129          1
   130          1
   131          1
   132          1
   133          1
   134          1
   135          1
   136          1
   137          1
   138          6
   139         17
   140         12
   141         51
   142          6
   143          1
   144          1
   145          1
   146          1
   147          1
   149          1
   150          1
   151          1
   152          5
   153         11
   154          8
   155         39
   156          5
   157          1
   158          1
   159          1
   165          1
   166          4
   167         10
   168          7
   169         31
   170          4
   171          1
   172          1
   175          1
   179          1
   180          3
   181          6
   182          7
   183         25
   184          4
   185          1
   193          1
   194          3
   195          5
   196          4
   197         20
   198          3
   199          1
   207          1
   208          2
   209          4
   210          3
   211         16
   212          3
   213          1
   221          1
   222          2
   223          3
   224          3
   225         13
   226          2
   227          1
   235          1
   236          1
   237          2
   238          2
   239         10
   240          2
   241          1
   250          1
   251          1
   252          2
   253          8
   254          2
   255          1
   264          1
   265          1
   266          3
   267          5
   268          1
   269          1
   278          1
   279          1
   280          2
   281          4
   282          1
   283          1
   292          1
   293          1
   294         22
   295         26
   296          6
   297          1
   298          1
   306          1
   307          1
   308          3
   309          2
   310          1
   311          1
   322          1
   323          1
   324          1
   325          1
   333          1
   334          1
   335          1
   336         27
   337         38
   338         10
   339          1
   340          1
   350          1
   351          1
   352          1
   364          1
   365          1
   366          1
   378          1
   379          1
   380          1
   392          1
   393          1
   394          1
   406          1
   407          1
   408          1
   420          1
   421          1
   422          1