##TITLE=Library Entry 64937
##JCAMP-DX=Revision 4.10 
##DATA TYPE=MASS SPECTRUM
##SAMPLE DESCRIPTION=R.I.REED CHEMISTRY DEPT., GLASGOW UNIVERSITY, GLASGOW,
 UK
##NAMES=HP
##CAS NAME=1'H-Cholest-2-eno[3,2-b]indol-6-one, 1'-(phenylmethyl)-, oxime, (
5.alpha.)-
##MOLFORM=C40H54N2O
##CAS REGISTRY NO=55429-15-7
##MP= -300
##BP= -300
##MW= 578
##$RETENTION INDEX=0
##$CONDENSED SPECTRUM=NO
##NPOINTS= 309
##XYDATA=(XY..XY) 1 
    50         24
    51         24
    52         13
    53         33
    54         18
    55        204
    56         88
    57        239
    58         10
    59          8
    63         16
    64          9
    65         40
    66         10
    67         73
    68         23
    69        128
    70         45
    71         94
    72          5
    76          9
    77         31
    78         23
    79         58
    80         18
    81         82
    82         21
    83         52
    84         11
    85         11
    89         10
    90         10
    91        999
    92         97
    93         63
    94         22
    95         93
    96         16
    97         25
    98          5
   102          6
   103          9
   104          8
   105         37
   106         18
   107         42
   108         18
   109         40
   110          7
   111          9
   115         18
   116         10
   117         18
   118         11
   119         22
   120         37
   121         26
   122         10
   123         16
   127          7
   128         13
   129         14
   130         26
   131         18
   132         14
   133         21
   134         16
   135         27
   136          9
   137          6
   139          5
   140          5
   141          6
   142         22
   143         38
   144         44
   145         13
   146         13
   147         13
   148          6
   149         11
   152          9
   153          5
   154         10
   155         11
   156         13
   157         16
   158         11
   159         11
   160          6
   161          6
   165          6
   166          9
   167         41
   168         26
   169         10
   170          8
   171          6
   172          7
   173          5
   174          9
   175          7
   176          6
   178          7
   179         11
   180         78
   181         52
   182         63
   183         22
   184          9
   191          9
   192         16
   193         22
   194         97
   195         31
   196         14
   197          6
   202          6
   203          5
   204         20
   205         21
   206         30
   207         27
   208         37
   209         19
   210         10
   216          7
   217         26
   218         50
   219         32
   220         85
   221         40
   222         14
   223          9
   224          6
   229          7
   230         29
   231         34
   232        119
   233        194
   234         71
   235         18
   236          6
   241          5
   242          6
   243          8
   244         28
   245         61
   246         36
   247         20
   248         13
   249          9
   254          8
   255          6
   256         11
   257         14
   258         24
   259         16
   260         14
   261         13
   262          5
   268         10
   269         11
   270         74
   271         61
   272        138
   273         78
   274         22
   275          6
   281         11
   282         11
   283         14
   284         78
   285         60
   286         22
   287         11
   288          7
   294          7
   295         10
   296         42
   297         42
   298         44
   299         37
   300         16
   301         11
   302          5
   308         11
   309         14
   310         25
   311         21
   312         16
   313         10
   314         10
   315          6
   320         14
   321         11
   322         29
   323         23
   324         16
   325         11
   326          7
   327          6
   328         14
   329         18
   330         11
   334          9
   335         24
   336         20
   337         16
   338         10
   339          6
   340          5
   349          5
   351         10
   352          5
   353          5
   354         54
   355         16
   391          5
   392          7
   393          6
   394          6
   406          6
   407          5
   408          7
   409          5
   417          7
   418         10
   419          7
   424          6
   425          5
   431          7
   432         10
   433          9
   434          5
   435          6
   438          5
   446          5
   447         11
   448          6
   449          5
   450          7
   451          5
   452          6
   453          5
   454         29
   455         22
   456         11
   457          9
   460          5
   461          6
   465          6
   466          5
   468         13
   469         14
   470         13
   471         50
   472         23
   473          9
   474          7
   475          8
   476          6
   477          6
   485          5
   487          7
   488          7
   489          7
   491          6
   492          7
   493          5
   503          7
   515          6
   516          8
   517          9
   518          7
   519          5
   527          6
   528         18
   529         34
   530         47
   531         26
   532         16
   533          9
   534          5
   541          7
   542          7
   543         50
   544         84
   545        304
   546        238
   547        168
   548         61
   549         16
   556          6
   557          6
   558         35
   559         36
   560        354
   561        264
   562        529
   563        234
   564         66
   565         10
   576         51
   577         45
   578        889
   579        394
   580         84
   581         11