##TITLE=Library Entry 51935
##JCAMP-DX=Revision 4.10 
##DATA TYPE=MASS SPECTRUM
##SAMPLE DESCRIPTION=Exported from NIST MS Search
##NAMES=HP
##CAS NAME=Cyclopentane, 1,1'-[4-(3-cyclopentylpropyl)-1,7-heptanediyl]bis-
##MOLFORM=C25H46
##CAS REGISTRY NO=55429-35-1
##MP= -300
##BP= -300
##MW= 346
##$RETENTION INDEX=0
##$CONDENSED SPECTRUM=NO
##NPOINTS= 130
##XYDATA=(XY..XY) 1 
    36          1
    37          1
    38          2
    39         83
    40         27
    41        898
    42         93
    43        173
    44          6
    50          1
    51          3
    52          3
    53         56
    54         98
    55        886
    56         83
    57        119
    58          5
    61          1
    62          1
    63          1
    64          1
    65         10
    66         34
    67        376
    68        148
    69        850
    70         62
    71         49
    72          3
    74          1
    75          1
    76          1
    77          9
    78          3
    79         26
    80         19
    81        152
    82        275
    83        999
    84         71
    85         20
    86          1
    87          1
    88          1
    89          1
    91          5
    92          2
    93         10
    94         18
    95        190
    96         68
    97        698
    98         54
    99          3
   100          1
   105          1
   106          1
   107          3
   108          7
   109         80
   110         27
   111        264
   112         24
   113          2
   117          1
   119          1
   120          1
   121          5
   122          7
   123         58
   124         22
   125        112
   126         13
   127          1
   135          4
   136          6
   137         54
   138         18
   139        110
   140         13
   141          1
   149          1
   150          3
   151         24
   152         12
   153         51
   154          7
   155          1
   163          1
   164          1
   165         15
   166          4
   167          4
   168          1
   169          1
   177          3
   178          4
   179         12
   180          2
   181          1
   191          1
   192          3
   193          6
   194          1
   195          1
   206          1
   207          8
   208          3
   209          1
   220          1
   221          5
   222          3
   223          1
   224          1
   234          1
   235        169
   236         98
   237         14
   238          1
   249          4
   250          2
   251          1
   252          1
   263          1
   264          1
   277          1
   278          1
   346          1
   347          1