##TITLE=Library Entry 24417
##JCAMP-DX=Revision 4.10 
##DATA TYPE=MASS SPECTRUM
##SAMPLE DESCRIPTION=R. RYHAGE KAROLINSKA INSTITUTET, STOCKHOLM
##NAMES=HP
##CAS NAME=Tricosanoic acid, 10,14,18,22-tetramethyl-, methyl ester
##MOLFORM=C28H56O2
##CAS REGISTRY NO=55429-72-6
##MP= -300
##BP= -300
##MW= 424
##$RETENTION INDEX=0
##$CONDENSED SPECTRUM=NO
##NPOINTS= 287
##XYDATA=(XY..XY) 1 
    12          9
    13          4
    14          7
    15         47
    16         29
    17        160
    18        650
    19          3
    26         11
    27         57
    28        150
    29        140
    30         21
    31         40
    32         18
    33          3
    37          4
    38          5
    39         45
    40         12
    41        360
    42         83
    43        800
    44        300
    45         21
    47          4
    48         12
    49          8
    50          7
    51          5
    52          5
    53         22
    54         24
    55        520
    56        230
    57        999
    58         55
    59         71
    60         11
    61          3
    62          4
    63          4
    64         21
    65         12
    66          5
    67         62
    68         40
    69        420
    70        120
    71        610
    72         38
    73         30
    74        720
    75        320
    76         20
    77         11
    78          4
    79         18
    80          8
    81         86
    82         36
    83        280
    84         82
    85        310
    86         24
    87        490
    88         46
    89          9
    91          7
    92          4
    93         25
    94          8
    95         76
    96         42
    97        230
    98         75
    99         95
   100         15
   101         62
   102         11
   103          4
   106          4
   107         23
   108          9
   109         51
   110         28
   111        130
   112         51
   113         72
   114         13
   115         41
   116         24
   117          5
   118          5
   119          7
   121         28
   122         11
   123         37
   124         21
   125        100
   126         65
   127         58
   128          9
   129         99
   130        120
   131         12
   132          7
   133          7
   135         25
   136          7
   137         24
   138         15
   139         66
   140         18
   141         34
   142          4
   143        280
   144         32
   145          4
   146          3
   147          5
   148          4
   150         18
   151         13
   152          9
   153         42
   154         12
   155         22
   156          4
   157         46
   158          9
   159          8
   160          3
   162          3
   163         29
   164          5
   165         15
   166         13
   167        100
   168         22
   169         17
   170          3
   171         53
   172         50
   173         17
   175          3
   177         20
   178          5
   179          8
   180         13
   181         37
   182         12
   183         18
   184          4
   185         26
   186          5
   190          3
   191         13
   192          4
   193          7
   194          4
   195         26
   196         20
   197         20
   198          8
   199        160
   200         29
   201          3
   205         12
   206          3
   207          9
   208          4
   209         21
   210          8
   211          8
   212          5
   213         34
   214          7
   218          3
   219         26
   220          7
   221          4
   222          3
   223         17
   224          4
   225          7
   226          5
   227         28
   228          9
   229          7
   233          5
   235          4
   236          4
   237         54
   238         15
   239          7
   241         28
   242         37
   243         21
   244          7
   247          4
   251         13
   252          7
   253          5
   254          3
   255         17
   256          5
   262          3
   263          4
   264          3
   265          8
   266          8
   267          5
   268          4
   269         75
   270         20
   271          5
   277          3
   278          4
   279          7
   280          4
   281          4
   282          3
   283         17
   284          5
   289          8
   290          4
   291          5
   292         26
   293          8
   294          4
   295          7
   296          3
   297         12
   298          7
   299          4
   301          4
   303          3
   307         20
   308         12
   309          4
   311         17
   312         28
   313         21
   314          5
   315          4
   321          7
   322          4
   325          8
   326          4
   337          4
   338          3
   339         37
   340         13
   341          5
   350          4
   351          3
   353          7
   354          3
   355          3
   356          3
   367          9
   368          7
   369          8
   370          4
   375          8
   376          5
   377          8
   378          4
   381         86
   382         26
   383          8
   391          4
   392         13
   393         17
   394          7
   395         12
   396          4
   406          9
   407          4
   409         11
   410          4
   411          3
   424        670
   425        200
   426         29
   427          8