##TITLE=Library Entry 42476
##JCAMP-DX=Revision 4.10 
##DATA TYPE=MASS SPECTRUM
##SAMPLE DESCRIPTION=Drug Lab
##NAMES=HP
##CAS NAME=Morphine, 2TMS derivative
##MOLFORM=C23H35NO3Si2
##CAS REGISTRY NO=55449-66-6
##MP= -300
##BP= -300
##MW= 429
##$RETENTION INDEX=2551
##$CONDENSED SPECTRUM=NO
##NPOINTS= 133
##XYDATA=(XY..XY) 1 
    42         82
    43         17
    44         91
    45        135
    55         13
    56          9
    57         55
    58         37
    59         87
    70         29
    73        999
    74         91
    75        177
    77         16
    78         15
    80         11
    81         29
    82         27
    91         18
    94         36
    96         32
   103         10
   105          9
   107          9
   109         10
   115          7
   116         10
   117         28
   118         11
   126          9
   127         11
   128         21
   129         14
   130         10
   131         13
   132          9
   133         17
   134         10
   142          5
   144         24
   146        293
   147         45
   148         15
   149         10
   151         13
   152         22
   153          9
   154         11
   157         10
   162         25
   163         10
   164         12
   165         54
   166         23
   167         26
   168         10
   177         23
   179         40
   180         14
   181         22
   186         13
   189         11
   193         22
   194         10
   195         14
   196        190
   197         48
   200         10
   201         17
   202         11
   203         71
   205         21
   207         33
   210         12
   212          9
   215         29
   216         72
   217         21
   219         25
   220        137
   221         48
   229         31
   230         10
   231         11
   234        155
   235         18
   236        219
   237        136
   238         15
   240          9
   241         13
   242         10
   244          9
   246         18
   247         11
   248         20
   250         15
   253         58
   254         12
   255         37
   256         15
   266         53
   267         31
   269         33
   270         29
   272         49
   280         21
   281         26
   283         11
   284          7
   285         16
   287        111
   289         12
   293         11
   295          9
   298          9
   300          9
   312         15
   324         46
   340         13
   356         39
   357         14
   358         10
   371         25
   372         15
   401         82
   414        101
   415         27
   416         15
   428         33
   429        195
   430         71
   431         11