##TITLE=Library Entry 17668
##JCAMP-DX=Revision 4.10 
##DATA TYPE=MASS SPECTRUM
##SAMPLE DESCRIPTION=Chemical Concepts
##NAMES=HP
##CAS NAME=3,6,9,12,15-Pentaoxabicyclo[15.3.1]heneicosa-1(21),17,19-triene-2
1-carboxylic acid
##MOLFORM=C17H24O7
##CAS REGISTRY NO=55440-83-0
##MP= -300
##BP= -300
##MW= 340
##$RETENTION INDEX=0
##$CONDENSED SPECTRUM=NO
##NPOINTS= 240
##XYDATA=(XY..XY) 1 
    25          0
    26          7
    27         64
    28        109
    29         76
    30         11
    31         92
    33          0
    34          0
    36          0
    37          0
    38          1
    39         22
    40         10
    41         26
    42         20
    43        173
    44        106
    45        999
    46         24
    47          2
    50          5
    51         29
    52         11
    53          9
    54          3
    55          9
    56         12
    57         21
    58         39
    59         69
    60          9
    61          6
    62          3
    63         20
    64          6
    65         53
    66          6
    67          2
    68          2
    69          4
    70         11
    71         26
    72         73
    73         92
    74         16
    75         44
    76          9
    77        110
    78         43
    79         38
    80          2
    81          2
    82          2
    83          6
    84          0
    85          2
    86          5
    87         94
    88         35
    89        178
    90         59
    91        229
    92         25
    93          3
    94          1
    95          1
    96          1
    97          0
    98          1
    99          2
   100          3
   101         19
   102         22
   103         43
   104         59
   105         66
   106          9
   107          5
   108          1
   109          3
   110          3
   111          5
   112          4
   113          3
   114          1
   115         18
   116          6
   117         29
   118        307
   119        609
   120         56
   121          7
   122          0
   123          0
   124          0
   125          2
   126          0
   127          1
   128          5
   129         10
   130          4
   131         11
   132         25
   133         37
   134         72
   135         27
   136          4
   137          4
   138         13
   139         19
   140          2
   141          0
   142          0
   143          2
   144         10
   145         12
   146        937
   147        589
   148        189
   149         36
   150          4
   151          2
   152          0
   153          0
   155          0
   156          0
   157          1
   158          2
   159         12
   160         22
   161         74
   162         55
   163        201
   164         34
   165         12
   166          5
   167         14
   168         18
   169          1
   170          0
   171          3
   172         24
   173         28
   174         36
   175         16
   176         16
   177         24
   178          3
   179          2
   180          1
   181          0
   182          0
   185          0
   186          2
   187          2
   188         16
   189         92
   190         99
   191         63
   192         10
   193          1
   194          0
   195          0
   197          0
   198          1
   199          0
   200          0
   201          1
   202          1
   203          4
   204          1
   205         21
   206          7
   207          7
   208          7
   209         21
   210          3
   211          0
   214          1
   215          2
   216          6
   217          1
   218          1
   219          1
   220          3
   221          1
   222          1
   223          0
   230          0
   232          0
   233          4
   234         61
   235         20
   236          4
   237          0
   238          0
   244          0
   245          0
   247          0
   248          0
   249          1
   250          0
   251          0
   252         31
   253         54
   254          7
   255          0
   259          0
   260          0
   261          1
   262          0
   264          0
   266          0
   271          0
   273          0
   277          2
   278         24
   279         22
   280          3
   281          0
   283          0
   291          0
   292          0
   294          0
   295          1
   296          8
   297          8
   298          1
   304          1
   307          0
   310          0
   318          0
   319          0
   321          0
   322        746
   323        132
   324         18
   325          1
   326          0