##TITLE=Library Entry 67997
##JCAMP-DX=Revision 4.10 
##DATA TYPE=MASS SPECTRUM
##SAMPLE DESCRIPTION=CARL DJERASSI DEPT OF CHEM STANFORD UNIV STANFORD CALIF
 94305
##NAMES=HP
##CAS NAME=Pentaleno[1,2-b]oxirene, octahydro-, (1a.alpha.,1b.alpha.,4a.beta
.,5a.alpha.)-
##MOLFORM=C8H12O
##CAS REGISTRY NO=55449-71-3
##MP= -300
##BP= -300
##MW= 124
##$RETENTION INDEX=0
##$CONDENSED SPECTRUM=NO
##NPOINTS= 52
##XYDATA=(XY..XY) 1 
    41        210
    42         20
    43         50
    44         20
    45         10
    50         60
    51        130
    52         80
    53        150
    54         60
    55        150
    56         10
    57         10
    61         10
    62         10
    63         40
    64         10
    65         90
    66         60
    67        360
    68         50
    69         10
    70         10
    74         10
    77        170
    78        210
    79        340
    80        290
    81        210
    82        110
    83         20
    89         10
    91        330
    92         30
    93         60
    94         40
    95        999
    96         80
   102         10
   103         30
   104         20
   105        110
   106        170
   107         20
   109         30
   118         10
   120         20
   121         10
   122         50
   123         20
   124        210
   125         30