##TITLE=Library Entry 80358
##JCAMP-DX=Revision 4.10 
##DATA TYPE=MASS SPECTRUM
##SAMPLE DESCRIPTION=LAC, NIDDK, NIH, Bethesda, MD 20892
##NAMES=HP
##CAS NAME=Xylitol, 1,3:2,4-bis-O-(phenylmethylene)-
##MOLFORM=C19H20O5
##CAS REGISTRY NO=55448-52-7
##MP= -300
##BP= -300
##MW= 328
##$RETENTION INDEX=0
##$CONDENSED SPECTRUM=NO
##NPOINTS= 130
##XYDATA=(XY..XY) 1 
    41         40
    42          7
    43         57
    44         11
    45         16
    47          1
    50         15
    51         58
    52         18
    53         11
    54         12
    55         41
    56          7
    57         48
    58          4
    59          3
    60          1
    61          2
    62          2
    63         10
    64          4
    65         10
    66          2
    67          1
    68         43
    69         64
    70         57
    71         19
    72         12
    73         14
    74          4
    75          4
    76          8
    77        325
    78         99
    79        246
    80         16
    81         16
    82         57
    83          8
    84          1
    85         41
    86         21
    87         20
    89         35
    90         33
    91        396
    92         39
    93          3
    95          1
    97          2
    98          1
    99         76
   100         80
   101          7
   102          3
   103         11
   105        999
   106        155
   107        300
   108         25
   109          2
   115          5
   116         15
   117          8
   118         14
   119         16
   120         12
   121          8
   122          7
   123         39
   124          4
   125          1
   127          1
   129          3
   131          7
   132          4
   133         16
   134         10
   135          4
   136         14
   137          3
   144          5
   145         12
   146          4
   147          4
   148         16
   149        295
   150         31
   151          4
   152          1
   155          4
   161         92
   162         64
   163         19
   164          2
   165         10
   166          7
   167          2
   174          4
   175          6
   176          2
   177          2
   179        171
   180         19
   181          3
   190          4
   191         15
   192         15
   193          5
   204          6
   205          6
   211         16
   212          2
   221         16
   222          5
   223          2
   239          1
   251         16
   252          2
   267          6
   268          7
   269          3
   297         96
   298         24
   299          3
   327        123
   328        206
   329         46
   330          6