##TITLE=Library Entry 17419
##JCAMP-DX=Revision 4.10 
##DATA TYPE=MASS SPECTRUM
##SAMPLE DESCRIPTION=Chemical Concepts
##NAMES=HP
##CAS NAME=3,6,9,12,15-Pentaoxabicyclo[15.3.1]heneicosa-1(21),17,19-triene,
 21-bromo-
##MOLFORM=C16H23BrO5
##CAS REGISTRY NO=55440-88-5
##MP= -300
##BP= -300
##MW= 374
##$RETENTION INDEX=0
##$CONDENSED SPECTRUM=NO
##NPOINTS= 224
##XYDATA=(XY..XY) 1 
    25          0
    26          2
    27         22
    28         11
    29         26
    30          6
    31         40
    33          0
    37          0
    38          1
    39         10
    41          8
    42          6
    43         69
    44         25
    45        999
    46         19
    47          2
    50          4
    51         26
    52          5
    53          3
    54          0
    55          1
    56          1
    57          7
    58          9
    59         27
    60          1
    61          2
    62          3
    63         15
    64          3
    65         14
    66          1
    67          0
    68          0
    69          1
    70          0
    71          4
    72          4
    73         32
    74          3
    75          8
    76          7
    77         84
    78         26
    79          8
    80          0
    81          0
    82          0
    83          0
    85          0
    86          4
    87         34
    88          6
    89        616
    90         45
    91         51
    92         16
    93          0
    94          0
    95          0
    96          0
    97          0
    98          1
    99          1
   100          0
   101          3
   102         20
   103        226
   104         89
   105         35
   106          3
   107          1
   108          0
   109          0
   111          0
   113         14
   114         13
   115         11
   116          5
   117         63
   118         23
   119         60
   120          7
   121          3
   122          0
   123          0
   126          0
   128          0
   129          4
   130          1
   131         15
   132          5
   133        146
   134         11
   135          4
   136          2
   138          1
   139          0
   140          0
   141          0
   142          0
   143          1
   144          0
   145         12
   146          3
   147         10
   148          1
   149          1
   150          0
   151          0
   152          0
   153          0
   155          0
   156          0
   157          0
   158          0
   159          1
   160          0
   161          1
   162          1
   163          4
   164          0
   165          0
   168          5
   169          4
   170          5
   171          4
   172          0
   174          0
   175          2
   176          0
   177        243
   178         21
   179          3
   180          0
   181          0
   182        160
   183         52
   184        169
   185         50
   186          4
   187          0
   189          1
   190          0
   191          1
   192          0
   193          0
   194          0
   195          1
   196          6
   197         18
   198         12
   199         18
   200          6
   201          3
   202          0
   203          0
   204          0
   205          0
   207          2
   208          0
   209          5
   210          1
   211          1
   212          1
   213          3
   214          1
   215          1
   216          0
   221          0
   223          0
   224          0
   225          1
   226          0
   227          1
   228          0
   229          0
   233          0
   239          0
   240          1
   241          1
   242          5
   243          2
   244          2
   245          0
   246          0
   251          2
   252          0
   253          0
   255          0
   256          0
   257          1
   258          0
   259          0
   268          0
   270          0
   271          0
   272          0
   286          1
   287          0
   288          1
   289          0
   290          0
   295         58
   296         15
   297          2
   298          0
   301          0
   303          0
   309          4
   310          1
   311          0
   330          1
   331          0
   332          1
   333          0
   374         24
   375          4
   376         25
   377          4
   378          0