##TITLE=Library Entry 334
##JCAMP-DX=Revision 4.10 
##DATA TYPE=MASS SPECTRUM
##SAMPLE DESCRIPTION=E.BAYER UNIV. OF TUBINGEN, W. GERMANY
##NAMES=HP
##CAS NAME=Iron, [.mu.-[(1,2,3,4-.eta.:1,2-.eta.)-1,4-bis(ethoxycarbonyl)-1,
3-butadiene-1,4-diyl]]di-, (Fe-Fe)
##MOLFORM=C16H12Fe2O10
##CAS REGISTRY NO=55450-73-2
##MP= -300
##BP= -300
##MW= 476
##$RETENTION INDEX=0
##$CONDENSED SPECTRUM=NO
##NPOINTS= 29
##XYDATA=(XY..XY) 1 
    28        999
    29        250
    31        350
    43        100
    44        120
    45        200
    46         60
    56        120
    81        100
   112        390
   137        600
   138        220
   193        520
   210        180
   236        450
   280         20
   306        120
   308        999
   309        140
   336        100
   362         20
   364        250
   365         20
   390         30
   392        390
   393         40
   431         20
   448         20
   476         20