##TITLE=Library Entry 15077
##JCAMP-DX=Revision 4.10 
##DATA TYPE=MASS SPECTRUM
##SAMPLE DESCRIPTION=ORMSBG,9(11)1063(1974); YEMUL
##NAMES=HP
##CAS NAME=1,5-Methano-1H,7H,11H-furo[3,4-g]pyrano[3,2-b]xanthene-7,15-dione
, 3,3a,4,5-tetrahydro-8-hydroxy-1-(4-hydroxy-3-methyl-2-butenyl)-3,3,11,11-t
etramethyl-13-(3-methyl-2-butenyl)-, [1R-[1.alpha.,1(Z),3a.beta.,5.alpha.,14
as*]]-
##MOLFORM=C33H38O7
##CAS REGISTRY NO=55452-65-8
##MP= -300
##BP= -300
##MW= 546
##$RETENTION INDEX=0
##$CONDENSED SPECTRUM=NO
##NPOINTS= 89
##XYDATA=(XY..XY) 1 
    43        999
    51        107
    53        250
    55        312
    57        127
    65        150
    67        159
    69        270
    71         70
    77        210
    79        177
    81        143
    83         85
    85         45
    89         50
    91        250
    93         66
    95        112
   103         87
   104         43
   105        208
   107         87
   109        110
   115        145
   117         64
   119         90
   121         60
   123         50
   127         41
   128         87
   129         77
   131         62
   135        104
   141         50
   143         45
   145         77
   147         98
   152         48
   153         43
   157         41
   159         73
   161         52
   165         50
   171         48
   173        112
   187         56
   189         87
   199         41
   201         52
   203         43
   213        147
   215        239
   216         50
   217         43
   227         60
   229         70
   231        292
   233         64
   243         66
   245         77
   271         40
   285        102
   287        200
   288         43
   295         41
   307         79
   347         98
   349         93
   363        145
   364         43
   389         79
   391         79
   405        229
   406        160
   407        110
   419        100
   433         52
   434         66
   435         60
   449         45
   503        170
   504         41
   518        229
   519         87
   531        110
   544         40
   546        541
   547        208
   548        122