##TITLE=Library Entry 43854
##JCAMP-DX=Revision 4.10 
##DATA TYPE=MASS SPECTRUM
##SAMPLE DESCRIPTION=BAY 0357
##NAMES=HP
##CAS NAME=D-Altro-2-Heptulose, 1,3,4,5,6-pentakis-O-(trimethylsilyl)-, bis(
trimethylsilyl) phosphate
##MOLFORM=C28H71O10PSi7
##CAS REGISTRY NO=55470-93-4
##MP= -300
##BP= -300
##MW= 794
##$RETENTION INDEX=0
##$CONDENSED SPECTRUM=NO
##NPOINTS= 293
##XYDATA=(XY..XY) 1 
    41         10
    42          7
    43         17
    44         15
    45         63
    46          3
    47         25
    49          7
    51          3
    53          8
    54          7
    55         13
    56          3
    57          7
    58          7
    59         28
    60          7
    61         10
    63          7
    65          3
    66          7
    67          7
    68          3
    69         17
    71          3
    72         20
    73        999
    74        103
    75        133
    76         13
    77         47
    78          7
    79          7
    81         17
    83          7
    85         10
    87          3
    88          5
    89         13
    91          3
    93         10
    95          7
    97          7
    99          8
   101         40
   102         10
   103         57
   104          8
   105          7
   107          3
   111          3
   113         13
   115         10
   116         30
   117         33
   118          7
   119         10
   120          3
   121          7
   122          3
   123          3
   125          7
   126          3
   127         13
   128          3
   129         73
   130         15
   131         23
   132          7
   133         63
   134         10
   135         17
   136          3
   137          7
   139          3
   140          3
   141         10
   142         13
   143         30
   144          7
   145         10
   146          2
   147        283
   148         43
   149         40
   150          7
   151         13
   152          3
   153          7
   154          3
   155         17
   156          8
   157         17
   158          3
   159          8
   161          7
   163          3
   167          7
   168          7
   169         33
   170         30
   171         13
   172          3
   173          7
   175          3
   177          7
   181          7
   182          3
   183          7
   185          3
   187          7
   189         23
   190          7
   191         50
   192         13
   193         20
   194          7
   195         17
   196          3
   197         17
   198          3
   199          3
   200          3
   201          7
   202          3
   203         10
   204         47
   205         33
   206         10
   207         30
   208         10
   209          7
   210         13
   211         57
   212         10
   213          7
   214          3
   215         17
   216          7
   217        140
   218         40
   219         23
   220          7
   221         17
   222          3
   223          3
   225         20
   226          7
   227         37
   228          7
   229         13
   230         13
   231         23
   232          7
   233          7
   234          3
   240          3
   241         10
   242         17
   243         50
   244         20
   245         13
   246          7
   247          7
   253          3
   255         10
   256          7
   257         20
   258          7
   259         20
   260          7
   261          3
   267          3
   269         13
   270          7
   271         10
   272          3
   282          7
   283         47
   284         23
   285         33
   286         10
   287          7
   291         10
   292          3
   293         13
   294          3
   298         13
   299        333
   300         90
   301         50
   302         13
   303         10
   304          3
   305         23
   306         10
   307          7
   308          3
   313         17
   314         37
   315        270
   316         67
   317         50
   318         17
   319         17
   320          7
   321          3
   328         17
   329          7
   330          3
   331         13
   332         20
   333         10
   334          7
   335          3
   341         10
   342          3
   343         10
   344          3
   345          7
   346          3
   347          7
   357         50
   358         20
   359         27
   360         10
   361          7
   369          3
   370          7
   371         10
   372          7
   373         30
   374         13
   375         10
   376          3
   377          7
   386         33
   387        190
   388         77
   389         57
   390         17
   391         10
   392          3
   429          3
   431          2
   433          2
   434          2
   435          5
   436          2
   437          2
   445          3
   447          5
   448          2
   449          3
   459          3
   461          3
   462          2
   463          3
   471          3
   473          2
   484          5
   485          3
   486          2
   511          7
   512          3
   513          2
   520          3
   521          2
   601          5
   602          3
   603          8
   604          5
   605          3
   606          2
   614          2
   615          2
   616          2
   617          2
   619          7
   620          3
   621          2
   691        203
   692        117
   693         77
   694         33
   695         13
   696          7
   697          2
   779         20
   780         13
   781          7
   782          3
   783          2