##TITLE=Library Entry 24328
##JCAMP-DX=Revision 4.10 
##DATA TYPE=MASS SPECTRUM
##SAMPLE DESCRIPTION=Exported from NIST MS Search
##NAMES=HP
##CAS NAME=Eicosane, 10-heptyl-10-octyl-
##MOLFORM=C35H72
##CAS REGISTRY NO=55470-98-9
##MP= -300
##BP= -300
##MW= 492
##$RETENTION INDEX=0
##$CONDENSED SPECTRUM=NO
##NPOINTS= 270
##XYDATA=(XY..XY) 1 
    36          2
    37          5
    38          6
    39         56
    40         15
    41        373
    42        125
    43        957
    44         33
    45          2
    46          1
    47          1
    48          1
    49          1
    50          3
    51          4
    52          3
    53         18
    54         32
    55        405
    56        214
    57        999
    58         48
    59          1
    60          1
    61          1
    62          1
    63          2
    64          1
    65          3
    66          3
    67         60
    68         38
    69        294
    70         98
    71        622
    72         37
    73          1
    74          1
    75          1
    76          1
    77          4
    78          2
    79         10
    80          4
    81         42
    82         22
    83        204
    84         44
    85        470
    86         32
    87          1
    88          1
    89          1
    90          1
    91          3
    92          1
    93          4
    94          2
    95         26
    96         13
    97        132
    98         25
    99        149
   100         13
   101          4
   102          2
   103          1
   104          1
   105          2
   106          1
   107          2
   108          1
   109         10
   110          7
   111         61
   112         20
   113        108
   114         11
   115          2
   116          1
   117          1
   118          1
   119          1
   120          1
   121          1
   122          1
   123          5
   124          6
   125         33
   126         16
   127         84
   128         10
   129          2
   130          1
   131          1
   132          1
   133          1
   134          1
   135          1
   136          1
   137          3
   138          4
   139         17
   140         21
   141         70
   142          9
   143          1
   144          1
   145          1
   146          1
   147          1
   148          1
   149          1
   150          1
   151          2
   152          4
   153         12
   154         15
   155         57
   156          7
   157          1
   158          1
   159          1
   160          1
   161          1
   162          1
   163          1
   164          1
   165          2
   166          3
   167          9
   168         12
   169         48
   170          7
   171          1
   172          1
   173          1
   175          1
   176          1
   177          1
   178          1
   179          1
   180          1
   181          3
   182          9
   183         42
   184          7
   185          1
   186          1
   189          1
   191          1
   192          1
   193          1
   194          1
   195          2
   196          2
   197         34
   198          9
   199         12
   200         16
   201          9
   202         20
   203          1
   204          5
   205          1
   206          1
   207          1
   208          1
   209          2
   210          2
   211         30
   212          5
   213          1
   217          1
   218          1
   219          1
   220          1
   221          1
   222          1
   223          3
   224          4
   225         29
   226          6
   227          1
   228          1
   229          1
   230          1
   231          1
   232          1
   235          1
   236          1
   237          3
   238          7
   239         29
   240          6
   241          1
   249          1
   250          2
   251          5
   252          9
   253         28
   254          6
   255          1
   256          1
   263          1
   264          1
   265          3
   266         13
   267         29
   268          6
   269          1
   276          1
   277          1
   278          1
   279          3
   280          6
   281         22
   282          5
   283          1
   291          1
   292          1
   293          1
   294          5
   295         17
   296          4
   297          1
   308          1
   309         12
   310          3
   311          1
   322          1
   323          8
   324          3
   336          1
   337         16
   338          4
   339          1
   348          1
   349          1
   350         14
   351        195
   352         55
   353          8
   354          1
   362          1
   363          1
   364         12
   365        170
   366         50
   367          8
   368          1
   376          1
   377          1
   378         12
   379        169
   380         51
   381          8
   382          1
   389          1
   390          1
   391          1
   392          9
   393        136
   394         43
   395          7
   396          1
   406          1
   407          1
   408          1