##TITLE=Library Entry 22805
##JCAMP-DX=Revision 4.10 
##DATA TYPE=MASS SPECTRUM
##SAMPLE DESCRIPTION=A.A.Kutin, Moscow, Russia
##NAMES=HP
##CAS NAME=Oxazolidin-2-one, 3-(4-chlorophenyl)-4-methylidene-5,5-dimethyl-
##MOLFORM=C12H12ClNO2
##CAS REGISTRY NO=55476-05-6
##MP= -300
##BP= -300
##MW= 237
##$RETENTION INDEX=0
##$CONDENSED SPECTRUM=NO
##NPOINTS= 138
##XYDATA=(XY..XY) 1 
    33         19
    34          2
    35          3
    36         10
    37         15
    38         41
    39        204
    40        106
    41        491
    42         61
    43        183
    44         27
    45          7
    46          0
    47          2
    50        120
    51         91
    52         21
    53         42
    54         14
    56        999
    57         48
    59         28
    61         20
    62         28
    63         68
    64         37
    65         40
    66          9
    67         25
    68        125
    69          9
    71         12
    72         26
    73         25
    74         53
    75        281
    76         68
    77         29
    78         14
    79          7
    80          1
    81          2
    82          8
    83          4
    84          8
    85         28
    86          5
    87         14
    88          9
    89         36
    90         35
    91         29
    92          6
    93          1
    95          0
    97          5
    98          5
    99         16
   100          9
   101         14
   102         50
   103         18
   104          3
   105          1
   106          0
   108          0
   109          2
   111        250
   112         24
   113         76
   114         10
   115         21
   116         22
   117         50
   118         33
   119          3
   123          4
   124          5
   125         25
   126         26
   127         25
   128         14
   129          9
   130         19
   131          5
   132          0
   135          2
   137        112
   138        549
   139         76
   140        188
   141         21
   142         15
   143         61
   144          7
   145          0
   149          3
   150          6
   151         27
   152         40
   153         30
   154         16
   155          9
   156         13
   157         44
   158        358
   159         41
   160          1
   162          0
   164          7
   165          4
   166          2
   167          2
   168          1
   169          1
   171          2
   175          0
   178        318
   179         37
   180         93
   181          9
   182          0
   187          0
   190          1
   192        130
   193         79
   194         48
   195         26
   196          3
   222          2
   224          0
   234          1
   237        295
   238         40
   239         95
   240         12
   241          0