##TITLE=Library Entry 24655
##JCAMP-DX=Revision 4.10 
##DATA TYPE=MASS SPECTRUM
##SAMPLE DESCRIPTION=Div. of Experiment Therapeutics WRAIR, WRAMC, Washingto
n DC 20307
##NAMES=HP
##CAS NAME=12,14,14-Trimethyl-3,6,9-trioxapentadecan-1-ol
##MOLFORM=C15H32O4
##CAS REGISTRY NO=55489-54-8
##MP= -300
##BP= -300
##MW= 276
##$RETENTION INDEX=0
##$CONDENSED SPECTRUM=NO
##NPOINTS= 204
##XYDATA=(XY..XY) 1 
    41        263
    42        112
    43        296
    44        109
    45        505
    46         14
    47          6
    48          1
    49         17
    50          3
    51          9
    52          2
    53         14
    54          6
    55        166
    56        109
    57        999
    58        108
    59         65
    60         19
    61         32
    62          3
    63          3
    64          0
    65          4
    66          1
    67         17
    68         13
    69        160
    70        277
    71        277
    72         47
    73         93
    74          8
    75         35
    76          7
    77         10
    78          2
    79          5
    80          1
    81         14
    82         18
    83        145
    84         44
    85         40
    86        153
    87        210
    88         67
    89        141
    90         12
    91          5
    92          0
    93          3
    94          2
    95         21
    96         17
    97         28
    98         32
    99         39
   100         16
   101         54
   102         64
   103        161
   104         23
   105         13
   106          5
   107          8
   108          1
   109         14
   110         11
   111         42
   112         11
   113         33
   114         18
   115         48
   116         16
   117         52
   118         10
   119         19
   120          1
   121          7
   122          1
   123         10
   124         21
   125         55
   126         48
   127         53
   128         14
   129         35
   130         20
   131         19
   132          7
   133         47
   134         16
   135          8
   136          1
   137          4
   138         19
   139         11
   140          7
   141        112
   142         13
   143         22
   144         10
   145         29
   146         17
   147         47
   148         18
   149         23
   150          3
   151         16
   152          4
   153          4
   154          1
   155         41
   156          7
   157          7
   158          3
   159         17
   160         22
   161         48
   162         36
   163         14
   164          2
   165          5
   166          2
   167          1
   168          3
   169         28
   170         11
   171         39
   172         12
   173          8
   174         12
   175         12
   176          5
   177          7
   178          3
   179          3
   181          0
   182          3
   183         11
   184         14
   185        349
   186         47
   187         25
   188         10
   189         16
   190         11
   191         26
   192          4
   193          5
   194          0
   197          1
   198          2
   199         13
   200          3
   201         10
   202          3
   203         11
   204          9
   205         26
   206          4
   207          4
   208          0
   209          3
   210          0
   211          0
   213          3
   214          3
   215         20
   216          9
   217          9
   218          4
   219          8
   220          2
   221          4
   222          2
   223          4
   227          3
   228         11
   229         20
   230          6
   231          7
   232          4
   233          9
   234          2
   235          5
   236          2
   237          2
   240          0
   241          5
   242          3
   243         25
   244         10
   258          2
   259          8
   260          3
   261          4
   262          1
   274          0
   275          3
   276         11
   277          1