##TITLE=Library Entry 19881
##JCAMP-DX=Revision 4.10 
##DATA TYPE=MASS SPECTRUM
##SAMPLE DESCRIPTION=NIST Mass Spectrometry Data Center
##NAMES=HP
##CAS NAME=Carbonochloridic acid, decyl ester
##MOLFORM=C11H21ClO2
##CAS REGISTRY NO=55488-51-2
##MP= -300
##BP= -300
##MW= 220
##$RETENTION INDEX=1453
##$CONDENSED SPECTRUM=NO
##NPOINTS= 90
##XYDATA=(XY..XY) 1 
    15          1
    26          7
    27         87
    28         30
    29        171
    30          7
    31          3
    35          1
    37          1
    39        155
    40         38
    41        656
    42        226
    43        633
    44         31
    45          4
    47          1
    49          1
    50          4
    51         11
    52          7
    53         76
    54        104
    55        999
    56        749
    57        648
    58         29
    59          1
    63        267
    64          6
    65         96
    66         12
    67        127
    68        218
    69        711
    70        740
    71        291
    72         16
    73          1
    75          1
    76          1
    77         10
    78          2
    79         13
    80          3
    81         45
    82        250
    83        593
    84        412
    85        273
    86         18
    87          1
    89          1
    91          4
    93         41
    94          1
    95         21
    96         67
    97        433
    98        179
    99         41
   100          4
   101          1
   105          1
   106          1
   107          2
   109          2
   110         21
   111        225
   112        200
   113         18
   114          1
   121          4
   122          1
   123          1
   125          4
   126          1
   127          3
   128          1
   135          1
   138          1
   140         35
   141         16
   142          1
   154          1
   155         10
   169          1
   183          1
   185         10
   186          1