##TITLE=Library Entry 42545
##JCAMP-DX=Revision 4.10 
##DATA TYPE=MASS SPECTRUM
##SAMPLE DESCRIPTION=S. MARKEY UNIV. OF COLO. MED. CTR., DENVER, COLORADO, U
SA
##NAMES=HP
##CAS NAME=Itaconic acid, 2TMS derivative
##MOLFORM=C11H22O4Si2
##CAS REGISTRY NO=55494-04-7
##MP= -300
##BP= -300
##MW= 274
##$RETENTION INDEX=1398
##$CONDENSED SPECTRUM=NO
##NPOINTS= 101
##XYDATA=(XY..XY) 1 
    39         38
    40         70
    41         10
    42          5
    43         60
    44         36
    45        198
    46         13
    47         57
    48          1
    49          3
    51          2
    52          2
    53          7
    54          3
    55         15
    56          3
    57         15
    58         37
    59         47
    60         11
    61         28
    62          1
    66         11
    67         59
    68         54
    69         21
    70          7
    71         10
    72         40
    73        999
    74         93
    75        257
    76         16
    77         10
    82          1
    83        120
    84         10
    85         11
    87          3
    89          3
    93          2
    94         18
    95          9
    96          2
    97         53
    98         25
    99         11
   100          7
   101         11
   102          1
   103          5
   105          1
   112          5
   113          2
   115          5
   116          2
   117         23
   118          4
   119          5
   122         28
   127          3
   131         21
   132          3
   133         54
   134          7
   135          4
   140          7
   141         27
   142         20
   143          6
   147        936
   148        146
   149         86
   150          9
   151          2
   155          2
   156          2
   157          8
   159          3
   169          5
   173          4
   184          7
   185          6
   187         10
   188          1
   201         60
   202          1
   215         41
   216          8
   217          3
   228          4
   229         11
   230         77
   231         15
   232          6
   259        158
   260         34
   261         14
   262          1
   274          3