##TITLE=Library Entry 41537
##JCAMP-DX=Revision 4.10 
##DATA TYPE=MASS SPECTRUM
##SAMPLE DESCRIPTION=John Halket,Royal Holloway, University of London, UK
##NAMES=HP
##CAS NAME=Hexanedioic acid, 2-(methoxyimino)-, bis(trimethylsilyl) ester
##MOLFORM=C13H27NO5Si2
##CAS REGISTRY NO=55494-14-9
##MP= -300
##BP= -300
##MW= 333
##$RETENTION INDEX=0
##$CONDENSED SPECTRUM=NO
##NPOINTS= 176
##XYDATA=(XY..XY) 1 
    15          6
    27         10
    29         17
    30          4
    31          5
    39          8
    40          4
    41         34
    42         12
    43         44
    44         25
    45        146
    46         10
    47         44
    48          2
    49          2
    53          5
    54          9
    55        107
    56         11
    57         12
    58         42
    59         72
    60         15
    61         34
    62          2
    63          1
    66          5
    67          5
    68         24
    69          7
    70         12
    71         18
    73        999
    74        125
    75        523
    76         40
    77         22
    81          1
    82          2
    84         27
    85         28
    86          6
    87          3
    89         83
    90          6
    91         10
    92          1
    94         10
    95          4
    96         28
    97          5
    98         12
    99         20
   100         22
   101         11
   102          2
   103          5
   104          1
   105          3
   110          1
   111          4
   112         18
   113          8
   114          2
   115         12
   116         14
   117         17
   118          3
   119          4
   122         16
   123          1
   124          3
   125          3
   126         14
   127          3
   128          6
   129         48
   130          8
   131         12
   132          3
   133         35
   134          4
   135          3
   137          1
   138          4
   140         48
   141          7
   142          6
   143          9
   144          3
   145          4
   147        286
   148         44
   149         30
   150          4
   152         29
   153          7
   154          5
   156         62
   157         19
   158          8
   159          3
   160          1
   163          3
   164          1
   166         21
   168         39
   169         75
   170        114
   171         17
   172          7
   173          2
   174          4
   175          1
   180          1
   182          1
   184         80
   185         14
   186         53
   187          7
   188          4
   189          9
   190          2
   191          1
   194          3
   196         17
   197         12
   198          7
   199          2
   200          3
   201          2
   202          6
   203          3
   204          1
   212         39
   213          7
   214          6
   215          2
   216         12
   217          3
   218          1
   219          1
   228          2
   229          1
   230          2
   231          1
   240          1
   242         58
   243         12
   244          8
   245          1
   247          1
   248          1
   256          1
   258        295
   259         70
   260         32
   261          6
   270          1
   274          3
   275          1
   284          1
   286          2
   287          6
   288          2
   289          1
   302        277
   303         67
   304         29
   305          5
   306          1
   318         53
   319         12
   320          6
   321          1