##TITLE=Library Entry 22492
##JCAMP-DX=Revision 4.10 
##DATA TYPE=MASS SPECTRUM
##SAMPLE DESCRIPTION=D.HENNEBERG, MAX-PLANCK INSTITUTE, MULHEIM, WEST GERMAN
Y
##NAMES=HP
##CAS NAME=3-Decene, 2-methyl-, (Z)-
##MOLFORM=C11H22
##CAS REGISTRY NO=55499-05-3
##MP= -300
##BP= -300
##MW= 154
##$RETENTION INDEX=0
##$CONDENSED SPECTRUM=NO
##NPOINTS= 75
##XYDATA=(XY..XY) 1 
    25          3
    26          8
    27        187
    28        159
    29        235
    30          5
    31          4
    34          4
    35          5
    36         29
    37          0
    38          4
    39        150
    40         15
    41        634
    42        116
    43        360
    44         39
    45          3
    46          2
    50          6
    51         13
    52          7
    53         56
    54         28
    55        722
    56        999
    57        401
    58         21
    59          3
    60          2
    62          4
    64          2
    65         15
    66         18
    67         85
    68         92
    69        989
    70        277
    71         51
    72          2
    73          8
    77         15
    78          4
    79         21
    81         26
    82         20
    83        165
    84         91
    85         18
    86          3
    89          2
    91          6
    94          3
    95         12
    96         18
    97         62
    98         44
    99          4
   103          4
   106          3
   109          4
   110          5
   111         28
   112         10
   113          7
   120          2
   123          2
   126         15
   127          3
   131          2
   135          2
   139          5
   154         88
   155          9