##TITLE=Library Entry 41714
##JCAMP-DX=Revision 4.10 
##DATA TYPE=MASS SPECTRUM
##SAMPLE DESCRIPTION=John Halket,Royal Holloway, University of London, UK
##NAMES=HP
##CAS NAME=Pentanoic acid, 2-(methoxyimino)-3-methyl-, trimethylsilyl ester
##MOLFORM=C10H21NO3Si
##CAS REGISTRY NO=55494-02-5
##MP= -300
##BP= -300
##MW= 231
##$RETENTION INDEX=0
##$CONDENSED SPECTRUM=NO
##NPOINTS= 117
##XYDATA=(XY..XY) 1 
    12          1
    15         11
    26          5
    27         50
    28         31
    29        123
    30         13
    31         13
    33          3
    38          2
    39         34
    40          9
    41        100
    42         24
    43         63
    44         24
    45        140
    46         10
    47         27
    48          1
    49          1
    51          3
    52          6
    53         17
    54         52
    55         67
    56         80
    57        118
    58         72
    59        155
    60         15
    61         16
    62          1
    64          1
    65          1
    66          3
    67          7
    68         15
    69          5
    70         22
    71         13
    73        999
    74        101
    75        127
    76          9
    77          4
    80          3
    81          7
    82         88
    83         29
    84         63
    85         68
    86         17
    87          4
    89        359
    90         29
    91         19
    92          1
    94          3
    95          1
    96          1
    97          3
    98         13
    99         17
   100         20
   101          3
   102          1
   103          3
   104          1
   105          5
   110         27
   111          3
   112          6
   113         76
   114         73
   115         10
   116         17
   117         11
   118          2
   124          1
   126          8
   127          5
   128         11
   129          7
   130          2
   140         12
   141          4
   142          3
   143          5
   144          5
   145          2
   154          5
   156         18
   157          4
   158          5
   160          1
   172         67
   173          9
   174          5
   182          1
   184          3
   185          1
   187          1
   189        175
   190         25
   191          8
   198          1
   200        179
   201         30
   202         11
   203         84
   204         12
   205          4
   216         28
   217          5
   218          1
   330          1