##TITLE=Library Entry 45189
##JCAMP-DX=Revision 4.10 
##DATA TYPE=MASS SPECTRUM
##SAMPLE DESCRIPTION=S.MARKEY UNIV OF COLO. MED CENTER,DENCER COL.USA
##NAMES=HP
##CAS NAME=Glycine, N-(2-methyl-1-oxobutyl)-, trimethylsilyl ester
##MOLFORM=C10H21NO3Si
##CAS REGISTRY NO=55493-99-7
##MP= -300
##BP= -300
##MW= 231
##$RETENTION INDEX=1490
##$CONDENSED SPECTRUM=NO
##NPOINTS= 66
##XYDATA=(XY..XY) 1 
    26         12
    27        157
    29        253
    30        204
    39        114
    40          9
    41        322
    42         83
    43        132
    44         71
    45        268
    47        126
    49          5
    53         21
    54         20
    55        116
    56        237
    57        449
    58         54
    59         50
    60         15
    61         44
    68         40
    69         91
    70         16
    71         31
    72         34
    73        386
    74         55
    75        999
    76         76
    77        107
    82         21
    84         27
    85        282
    86         45
    87         17
    93          9
    97          9
    98         29
    99         42
   102         24
   104          5
   113        205
   114         15
   116         15
   117         17
   130          5
   131         54
   132         17
   133          6
   145         25
   146          6
   147         71
   148         10
   149          4
   158         53
   159         24
   172        312
   173         48
   174         11
   187         16
   189         14
   203         76
   216        153
   217         13