##TITLE=Library Entry 78078
##JCAMP-DX=Revision 4.10 
##DATA TYPE=MASS SPECTRUM
##SAMPLE DESCRIPTION=R. TSCHESCHE ORG. CHEM. INST., BONN UNIVERSITY, W. GERM
ANY
##NAMES=HP
##CAS NAME=Pregnane-3,11,12,14,20-pentol, 3,12,20-triacetate 11-benzoate, (3
.beta.,11.alpha.,12.beta.,14.beta.)-
##MOLFORM=C34H46O9
##CAS REGISTRY NO=55493-79-3
##MP= -300
##BP= -300
##MW= 598
##$RETENTION INDEX=0
##$CONDENSED SPECTRUM=NO
##NPOINTS= 183
##XYDATA=(XY..XY) 1 
    41         97
    42         51
    43        577
    44         57
    45        103
    51         23
    53         23
    54         17
    55        103
    56         62
    57        160
    58         43
    59        114
    60         57
    61         29
    64         17
    65         11
    67         57
    68         23
    69         74
    70         34
    72         23
    73         29
    74         86
    75         23
    76         11
    77        114
    78         40
    79         51
    80          9
    81         69
    82         29
    83         51
    84         34
    85         69
    86         23
    87         40
    91         51
    92         17
    93         74
    94         29
    95         86
    96         29
    97         69
    98         17
    99         46
   100         17
   101         51
   102         23
   103         17
   105        999
   106        114
   107        108
   108         51
   109         74
   110         40
   111         46
   112         17
   113         26
   114         14
   115         43
   116         86
   117         31
   118         14
   119         54
   120         51
   121         69
   122         51
   123         69
   124         69
   125         86
   126         34
   127         34
   128         23
   129         29
   130         11
   131         51
   132         23
   133         51
   134         34
   135        103
   136         34
   137         57
   138         23
   139         17
   141         17
   142         17
   143         43
   144         34
   145         54
   146         29
   147         91
   148         57
   149         62
   150         23
   151         23
   153         23
   155         23
   156         17
   157         46
   158         40
   159         69
   160         29
   161         37
   162         23
   163         26
   166         23
   167         17
   169         17
   170         62
   171         57
   172         23
   173         46
   174         23
   175         23
   176         17
   177         11
   183         29
   184         17
   185         40
   186         23
   187         23
   188         23
   189         29
   190         17
   211         11
   213         17
   219         11
   226          9
   227         11
   228         11
   229         11
   233         11
   235         11
   237         11
   241         14
   242         14
   245         97
   246         26
   251         26
   252         17
   253         23
   264         34
   268         17
   269         11
   270         11
   277         23
   278         62
   279         29
   281         23
   296         97
   297         37
   312         23
   313         40
   314         17
   315         14
   323         62
   324         11
   328         29
   329         23
   330         17
   338        314
   339         71
   340         23
   341         34
   342          5
   345         11
   355         23
   356        514
   357        171
   358         34
   359         17
   360         17
   373         23
   374         86
   375         23
   416        182
   417        114
   418         29
   478         17
   479         11
   538         91
   539         40