##TITLE=Library Entry 36944
##JCAMP-DX=Revision 4.10 
##DATA TYPE=MASS SPECTRUM
##SAMPLE DESCRIPTION=BAY 0371
##NAMES=HP
##CAS NAME=Lanosterol, TMS derivative
##MOLFORM=C33H58OSi
##CAS REGISTRY NO=55493-84-0
##MP= -300
##BP= -300
##MW= 498
##$RETENTION INDEX=3335
##$CONDENSED SPECTRUM=NO
##NPOINTS= 135
##XYDATA=(XY..XY) 1 
    51         20
    53         40
    55        390
    56         40
    57         90
    59         20
    61         20
    65         20
    67        170
    68         20
    69        999
    70         70
    71         50
    73        510
    74         40
    75        330
    76         30
    77         50
    79        110
    81        290
    82         50
    83        190
    84         20
    85         20
    91        150
    92         20
    93        190
    94         30
    95        380
    96         50
    97         80
   103         20
   105        180
   106         30
   107        190
   108         30
   109        460
   110         50
   111         60
   115         30
   117         80
   119        210
   120         40
   121        200
   122         40
   123        170
   124         20
   128         20
   129        160
   130         30
   131        120
   132         30
   133        140
   134         40
   135        190
   136         50
   137         80
   141         20
   142         20
   143         80
   144         30
   145        130
   146         30
   147        130
   148         30
   149        120
   150         20
   151         30
   155         20
   156         20
   157         90
   158         20
   159        110
   160         40
   161        120
   162         20
   163         70
   165         30
   169         30
   171         70
   172         20
   173        110
   174         30
   175        100
   176         20
   177         30
   183         30
   185         50
   186         20
   187        140
   188         30
   189        130
   190         40
   191         60
   197         30
   199         50
   201         70
   202         20
   203         70
   205         30
   211         30
   213         60
   214         40
   215        110
   216         20
   217         30
   225         30
   227        120
   228         30
   229        100
   231         20
   239         20
   241        120
   242         30
   243         60
   253         20
   255         90
   256         20
   257         40
   269         40
   271         40
   272         20
   283         40
   297         20
   309         20
   311         50
   323         20
   393        840
   394        280
   395         60
   483        240
   484        100
   485         30
   498        180
   499         70