##TITLE=Library Entry 12436
##JCAMP-DX=Revision 4.10 
##DATA TYPE=MASS SPECTRUM
##SAMPLE DESCRIPTION=J.N.C.WHYTE FISHERIES RESEARCH BOARD, VANCOUVER CANADA
##NAMES=HP
##CAS NAME=Propanoic acid, 3-(acetyloxy)-2-[(2,3,4,6-tetra-O-acetyl-.alpha.-
d-mannopyranosyl)oxy]-, methyl ester, (R)-
##MOLFORM=C20H28O14
##CAS REGISTRY NO=55493-88-4
##MP= -300
##BP= -300
##MW= 492
##$RETENTION INDEX=0
##$CONDENSED SPECTRUM=NO
##NPOINTS= 158
##XYDATA=(XY..XY) 1 
    14          8
    15         66
    18          9
    28         74
    41         13
    42         20
    43        999
    44         47
    45         26
    53          6
    54          5
    55         26
    56          6
    57         18
    58         14
    59         18
    60         14
    61         20
    68          7
    69         57
    70         59
    71         27
    73         37
    74         24
    75         19
    80         15
    81        120
    82         14
    84         11
    85         42
    86         19
    87         30
    88          3
    89          3
    90          6
    96          6
    97         57
    98        105
    99         38
   100          6
   101          9
   102         57
   103         84
   104          7
   109        117
   110         15
   111          9
   112        103
   113         25
   114          8
   115        106
   116         34
   117         19
   118          8
   120          3
   121          2
   123          3
   125          7
   126         22
   127         60
   128         13
   129         16
   130          3
   131         54
   132          5
   133          2
   135          3
   138          2
   139         32
   140         56
   141         59
   142          8
   143          8
   144         45
   145        500
   146         50
   147          9
   155          7
   156          2
   157        109
   158         26
   159         11
   163         16
   168         16
   169        140
   170         20
   171          9
   172          3
   173          3
   176          3
   182         12
   183          7
   184          3
   185          6
   186          3
   187         11
   188          2
   189          2
   191         28
   192          3
   197          7
   199         16
   200         37
   201         10
   202          2
   203          4
   204          6
   205          6
   210          3
   211         14
   212          2
   213          2
   214          3
   215          7
   216          2
   217          7
   218          2
   219          1
   227          3
   228          4
   229         11
   230          2
   233         11
   242         36
   243         30
   244          9
   245          4
   246          4
   247          2
   257          4
   258          1
   259          5
   260          2
   270          2
   271         10
   272          2
   287          5
   288          4
   289          2
   299          3
   302          3
   303          6
   304          2
   330         12
   331         85
   332         17
   333          4
   344          2
   345          2
   347          5
   348          1
   371          1
   372          2
   419          4
   420          2
   432          0
   433          1
   434          0