##TITLE=Library Entry 15978
##JCAMP-DX=Revision 4.10 
##DATA TYPE=MASS SPECTRUM
##SAMPLE DESCRIPTION=NIST Mass Spectrometry Data Center, 1994
##NAMES=HP
##CAS NAME=4-(2-Methylamino)ethyl)pyridine
##MOLFORM=C8H12N2
##CAS REGISTRY NO=55496-55-4
##MP= -300
##BP= -300
##MW= 136
##$RETENTION INDEX=0
##$CONDENSED SPECTRUM=NO
##NPOINTS= 65
##XYDATA=(XY..XY) 1 
    13          1
    14          5
    15         50
    26         28
    27         56
    28        151
    29         22
    30         32
    31          1
    37         10
    38         31
    39        136
    40         20
    41         31
    42        103
    43          1
    44        999
    45         26
    50         52
    51         93
    52         43
    53         18
    54         10
    55          2
    56         14
    57          8
    58         42
    59          1
    60          0
    61          4
    62         12
    63         31
    64         21
    65         73
    66         21
    67         17
    68          3
    74          3
    75          5
    76          7
    77         22
    78         23
    79          8
    80          6
    81          1
    87          0
    88          0
    90          1
    93        562
    94         51
    95          2
   102          0
   104          5
   105          5
   106         21
   108          2
   117          0
   118          1
   119          7
   120          2
   132          1
   133          5
   134          2
   135          7
   136          1