##TITLE=Library Entry 42496
##JCAMP-DX=Revision 4.10 
##DATA TYPE=MASS SPECTRUM
##SAMPLE DESCRIPTION=S. MARKEY UNIV. OF COLO. MED. CTR., DENVER, COLORADO, U
SA
##NAMES=HP
##CAS NAME=Propanedioic acid, (methoxyimino)-, bis(trimethylsilyl) ester
##MOLFORM=C10H21NO5Si2
##CAS REGISTRY NO=55494-03-6
##MP= -300
##BP= -300
##MW= 291
##$RETENTION INDEX=0
##$CONDENSED SPECTRUM=NO
##NPOINTS= 41
##XYDATA=(XY..XY) 1 
    40          8
    42          1
    43        162
    44        115
    45        369
    46         13
    47          5
    54         22
    55          9
    56         33
    57         30
    58         66
    59        195
    60          1
    68          4
    70         19
    72         18
    73        999
    74         84
    75         56
    77         10
    84        317
    85         65
    89        206
    90          4
    98          2
   117         18
   131         31
   133         14
   147        487
   148         27
   149         39
   172        266
   173         44
   174          9
   204         83
   205          6
   216          6
   276         97
   277         51
   278         13