##TITLE=Library Entry 43109
##JCAMP-DX=Revision 4.10 
##DATA TYPE=MASS SPECTRUM
##SAMPLE DESCRIPTION=John Halket,Royal Holloway, University of London, UK
##NAMES=HP
##CAS NAME=Hexanoic acid, 2-(methoxyimino)-, trimethylsilyl ester
##MOLFORM=C10H21NO3Si
##CAS REGISTRY NO=55494-01-4
##MP= -300
##BP= -300
##MW= 231
##$RETENTION INDEX=0
##$CONDENSED SPECTRUM=NO
##NPOINTS= 123
##XYDATA=(XY..XY) 1 
    15         12
    26          6
    27         61
    28         25
    29         83
    30         10
    31         11
    33          3
    37          1
    38          3
    39         38
    40          8
    41         97
    42         26
    43         96
    44         31
    45        161
    46         11
    47         24
    48          1
    49          1
    50          2
    51          2
    52          4
    53         16
    54         31
    55         64
    56         32
    57         26
    58         67
    59        127
    60         17
    61         30
    62          2
    63          2
    64          1
    65          2
    66          2
    67          9
    68         14
    69          6
    70         26
    71        111
    73        999
    74        128
    75        150
    76         10
    77          4
    80          7
    81          5
    82         73
    83         19
    84         70
    85         11
    86         20
    87          5
    89        193
    90         18
    91         11
    92          1
    96          1
    97          3
    98         20
    99        190
   100         24
   101          6
   102          2
   103          9
   104          1
   105          1
   110         15
   111          2
   112         24
   113         20
   114        102
   115         85
   116         13
   117          7
   118          2
   119          1
   124          1
   126          8
   128         70
   129         16
   130          7
   131          2
   138          1
   140          6
   141         11
   142         10
   143         19
   144          4
   145          1
   154          3
   155          1
   156         24
   157          5
   158         42
   159          6
   160          7
   161          1
   170          1
   172          5
   173          6
   174          4
   175          1
   184          2
   185          1
   189        476
   190         62
   191         21
   192          2
   200        187
   201         30
   202         15
   203          4
   204          1
   214          1
   216        388
   217         58
   218         17
   219          2
   230          1