##TITLE=Library Entry 46027
##JCAMP-DX=Revision 4.10 
##DATA TYPE=MASS SPECTRUM
##SAMPLE DESCRIPTION=NIST Mass Spectrometry Data Center
##NAMES=HP
##CAS NAME=Stigmastanol, TMS derivative
##MOLFORM=C32H60OSi
##CAS REGISTRY NO=55493-85-1
##MP= -300
##BP= -300
##MW= 488
##$RETENTION INDEX=3348
##$CONDENSED SPECTRUM=NO
##NPOINTS= 338
##XYDATA=(XY..XY) 1 
    27          9
    29         22
    38          1
    39         12
    40          3
    41        135
    42         19
    43        391
    44         14
    45         19
    46          2
    47         11
    48          1
    51          2
    53         18
    54          6
    55        278
    56         33
    57        365
    58         18
    59         20
    60          7
    61         40
    62          3
    63          2
    65          7
    66          5
    67        175
    68         42
    69        239
    70         24
    71        145
    72         11
    73        333
    74         50
    75        999
    76         71
    77         77
    78         10
    79        191
    80         31
    81        355
    82         52
    83        140
    84         27
    85        154
    86         10
    87          5
    88          4
    89         42
    90          5
    91        167
    92         44
    93        271
    94         79
    95        358
    96         37
    97        123
    98         24
    99         30
   100          3
   101         35
   102          5
   103         20
   104         24
   105        185
   106        258
   107        401
   108        144
   109        221
   110         66
   111        116
   112         10
   113         15
   114          3
   115         22
   116         13
   117         42
   118         25
   119        143
   120         88
   121        234
   122         76
   123        125
   124         28
   125         40
   126          3
   127         16
   128          6
   129        108
   130         50
   131        136
   132         27
   133        144
   134         70
   135        163
   136         64
   137         55
   138         47
   139         19
   140          3
   141         11
   142        134
   143         49
   144         18
   145        125
   146         43
   147        236
   148        106
   149        137
   150         23
   151         29
   152         26
   153          9
   154          5
   155         80
   156         19
   157         17
   158         14
   159        107
   160         57
   161        136
   162         47
   163         48
   164          7
   165         36
   166         18
   167         10
   168          7
   169         16
   170          4
   171          9
   172         21
   173         77
   174         28
   175         57
   176         23
   177         23
   178          6
   179         23
   180         20
   181         20
   182         16
   183         22
   184          5
   185          9
   186          4
   187         52
   188         25
   189         36
   190         39
   191         27
   192          9
   193          6
   194          2
   195          8
   196         50
   197         17
   198          5
   199         14
   200          6
   201         99
   202         31
   203         29
   204         10
   205          8
   206          2
   207          7
   208          3
   209         19
   210          6
   211          3
   212          2
   213          9
   215        641
   216        352
   217        222
   218         30
   219         10
   220          2
   221          4
   222          3
   223          3
   224          1
   225          1
   227          3
   228          2
   229         27
   230        106
   231         41
   232          8
   233          5
   234          4
   235          7
   236          7
   237         47
   238         21
   239          7
   240          2
   241         10
   242          3
   243         10
   244          6
   245          7
   246          2
   247          8
   248          3
   249          6
   250          3
   251          3
   254          1
   255         27
   256          8
   257         42
   258         10
   259          2
   260          1
   261          5
   262          2
   263         14
   264          6
   265          4
   269          6
   270          2
   271          3
   272          1
   273          3
   274          2
   275         10
   276          4
   277          9
   278          7
   279          3
   283          3
   284          2
   285         21
   286          8
   287          5
   288          4
   289          6
   290         58
   291         38
   292         14
   293          4
   294          1
   297          1
   299          3
   300          6
   301          6
   302          4
   303          7
   304         11
   305        147
   306        148
   307         38
   308          8
   309          1
   313          3
   314          2
   315          4
   316          9
   317         14
   318          4
   319          8
   320         23
   321          5
   322          3
   327          2
   328          1
   329          3
   330          4
   331         32
   332         11
   333          8
   334          4
   335          1
   339          1
   341          7
   342          3
   343         18
   344         13
   345         17
   346          7
   347          6
   348          2
   355          8
   356          8
   357          6
   358         16
   359         24
   360          7
   361          2
   369          9
   370          5
   371          1
   372         15
   373          9
   374          3
   375         13
   376          5
   377          1
   381          2
   383        200
   384         64
   385         10
   386          1
   387          2
   388          3
   389          4
   390          6
   391          3
   392          1
   397         22
   398        127
   399         42
   400          8
   403          1
   404          1
   416          1
   429          1
   431         85
   432         30
   433          7
   434          1
   445          1
   457          1
   459          2
   471          1
   473        252
   474        102
   475         23
   476          5
   477          1
   486          3
   488        219
   489         92
   490         21
   491          4