##TITLE=Library Entry 42858
##JCAMP-DX=Revision 4.10 
##DATA TYPE=MASS SPECTRUM
##SAMPLE DESCRIPTION=ORVAL A. MAMER, ROYAL VICTORIA HOSPITAL, MONTREAL, CANA
DA
##NAMES=HP
##CAS NAME=Glycine, N-(1-oxobutyl)-, trimethylsilyl ester
##MOLFORM=C9H19NO3Si
##CAS REGISTRY NO=55493-97-5
##MP= -300
##BP= -300
##MW= 217
##$RETENTION INDEX=1452
##$CONDENSED SPECTRUM=NO
##NPOINTS= 72
##XYDATA=(XY..XY) 1 
    14          6
    15         22
    26          8
    27        111
    28        119
    29         34
    30        289
    31         11
    32         13
    39         37
    40          8
    41        131
    42         46
    43        475
    44         53
    45        163
    46         12
    47         77
    54          8
    55         42
    56         36
    57         25
    58         45
    59         40
    60         15
    61         58
    68         31
    69         23
    70         13
    71        381
    72         64
    73        999
    74        103
    75        338
    76         26
    77         18
    84         11
    86         17
    87         36
    88         30
    89          8
    99         33
   100         45
   101         18
   102         46
   103         13
   104         78
   105          9
   116         53
   117         20
   127         11
   130         55
   131         66
   132         82
   133         11
   142          9
   145        128
   146         26
   147         17
   148          9
   156          9
   158        484
   159         66
   160         22
   172         26
   173         87
   174         16
   189         31
   202        198
   203         30
   204         10
   217          7