##TITLE=Library Entry 43097
##JCAMP-DX=Revision 4.10 
##DATA TYPE=MASS SPECTRUM
##SAMPLE DESCRIPTION=John Halket,Royal Holloway, University of London, UK
##NAMES=HP
##CAS NAME=Butanoic acid, 2-(methoxyimino)-, trimethylsilyl ester
##MOLFORM=C8H17NO3Si
##CAS REGISTRY NO=55493-93-1
##MP= -300
##BP= -300
##MW= 203
##$RETENTION INDEX=0
##$CONDENSED SPECTRUM=NO
##NPOINTS= 73
##XYDATA=(XY..XY) 1 
    15         28
    26          9
    27         31
    28         48
    29         74
    30         17
    31         16
    33          5
    39         10
    41         17
    42         13
    43         88
    44         29
    45        150
    46         10
    47         22
    53         10
    54         31
    55         16
    56         33
    57         20
    58         86
    59        130
    60         19
    61         18
    68          5
    69          7
    70         19
    71          9
    73        999
    74        150
    75        121
    76         10
    82          2
    83          3
    84         58
    85         27
    86         97
    87          5
    89        203
    90         16
    91         11
    98          5
    99          5
   100          7
   103          3
   111          1
   112          6
   113         52
   114         24
   115          5
   116          3
   117         20
   118          3
   128         27
   129         86
   130         11
   131          2
   142          3
   143          4
   144          3
   145          1
   156          3
   157          5
   172         86
   173         12
   174          7
   188        395
   189         53
   190         19
   201          1
   203         17
   204          2