##TITLE=Library Entry 41855
##JCAMP-DX=Revision 4.10 
##DATA TYPE=MASS SPECTRUM
##SAMPLE DESCRIPTION=O A MAMER, MCGILL UNIVERSITY, MONTRE
##NAMES=HP
##CAS NAME=Glycine, N-(1-oxobutyl)-N-(trimethylsilyl)-, trimethylsilyl ester
##MOLFORM=C12H27NO3Si2
##CAS REGISTRY NO=55494-12-7
##MP= -300
##BP= -300
##MW= 289
##$RETENTION INDEX=1505
##$CONDENSED SPECTRUM=NO
##NPOINTS= 82
##XYDATA=(XY..XY) 1 
    15         15
    27         58
    28         20
    29         24
    30         12
    31         14
    39         16
    41         78
    42         26
    43        230
    44         50
    45        240
    46         17
    47         45
    53          8
    54         29
    55         67
    56         18
    57         23
    58         32
    59         96
    60         13
    61         29
    68         43
    69         14
    70         12
    71        117
    72         50
    73        999
    74         94
    75        225
    76         16
    77          9
    82         17
    83         13
    84          9
    86         40
    87         12
    88          9
    99          8
   100         80
   101         58
   102        713
   103         78
   104         30
   110         12
   116         49
   117         17
   129         16
   130         20
   131         21
   133         36
   142         17
   143         18
   144         58
   145         11
   147        174
   148         29
   149         17
   156         41
   157          8
   158         14
   171         50
   172        304
   173         49
   174         21
   176        145
   177         25
   178         12
   184         20
   199         34
   200         11
   218         18
   246         58
   247         13
   261         40
   262          9
   274        148
   275         35
   276         14
   289         30
   290          9