##TITLE=Library Entry 41013
##JCAMP-DX=Revision 4.10 
##DATA TYPE=MASS SPECTRUM
##SAMPLE DESCRIPTION=O A MAMER, MCGILL UNIVERSITY, MONTREX
##NAMES=HP
##CAS NAME=N-Isovaleroylglycine, TMS derivative
##MOLFORM=C10H21NO3Si
##CAS REGISTRY NO=55494-00-3
##MP= -300
##BP= -300
##MW= 231
##$RETENTION INDEX=1501
##$CONDENSED SPECTRUM=NO
##NPOINTS= 78
##XYDATA=(XY..XY) 1 
    15         23
    27         81
    28         69
    29        153
    30        368
    31         12
    39         63
    40         12
    41        233
    42         56
    43        145
    44         79
    45        168
    46         13
    47         79
    53         11
    54         15
    55         60
    56         74
    57        560
    58         65
    59         45
    60         16
    61         62
    69         64
    70         11
    71         36
    72         64
    73        999
    74        104
    75        370
    76         29
    77         21
    82         27
    83         21
    85        317
    86         40
    87         43
    88         40
    89         10
    98         13
    99        112
   100         27
   101         23
   102         63
   103         25
   104         60
   114         28
   115         11
   116         84
   117         34
   118          8
   126         11
   129          7
   130         82
   131        152
   132         67
   133         12
   141         14
   145        142
   146         40
   147         34
   148         32
   156          7
   159          9
   172        472
   173         75
   174         33
   186         19
   187         29
   189        171
   190         24
   191          8
   216        241
   217         39
   218         13
   231         12
   232          9