##TITLE=Library Entry 24602
##JCAMP-DX=Revision 4.10 
##DATA TYPE=MASS SPECTRUM
##SAMPLE DESCRIPTION=S.I.M. SKINNER & R. GREENHALGH, CHEMISTRY & BIOLOGY RES
EARCH INST., AGRICULTURE, CANADA
##NAMES=HP
##CAS NAME=Neburon
##MOLFORM=C12H16Cl2N2O
##CAS REGISTRY NO=555-37-3
##MP= -300
##BP= -300
##MW= 274
##$RETENTION INDEX=0
##$CONDENSED SPECTRUM=NO
##NPOINTS= 158
##XYDATA=(XY..XY) 1 
    36         54
    37         15
    38         35
    39         85
    40         39
    41        554
    42        253
    43        136
    44        851
    45         23
    49         11
    50         15
    51         15
    52         11
    53         11
    54         11
    55         46
    56         85
    57        999
    58        429
    59         11
    60          3
    61         11
    62         31
    63         46
    64         15
    65          7
    66          3
    68          3
    69          3
    70         11
    71          3
    72         23
    73         27
    74         19
    75         31
    76          7
    77         11
    78          3
    80          7
    83          7
    84         11
    85          7
    86         19
    87         46
    88         15
    89          7
    90         31
    91          3
    97         15
    98          3
    99         15
   100          3
   101          3
   107          3
   109         23
   110          7
   111          7
   112          7
   113         11
   114        578
   115         46
   116          7
   124         42
   125        125
   126         22
   127         10
   128          3
   129          1
   131          0
   132         18
   133          6
   134         17
   135          3
   136          3
   137          0
   138          2
   139          1
   140          3
   141          0
   145         10
   146          1
   147          7
   148          0
   149          3
   151          3
   152          1
   153          4
   154          1
   155          2
   156          0
   157          0
   158          0
   159         12
   160         20
   161         38
   162         14
   163         18
   164          3
   165          3
   166          0
   167          1
   168          2
   169          0
   174          3
   175          0
   176          2
   177          0
   178          0
   180          0
   181          2
   182          3
   183          2
   184          2
   185          0
   186          1
   187         31
   188          7
   189         22
   190          4
   191          3
   192          1
   194          0
   195          1
   196          1
   197          0
   198          0
   200          2
   201          0
   202          2
   203          0
   204          1
   207          0
   215          0
   216          0
   217          2
   218          2
   219          1
   220          0
   221          0
   223          0
   231          9
   232          3
   233          6
   234          1
   235          1
   238          0
   239          1
   240          0
   241          0
   242          0
   245          0
   273          1
   274         67
   275         10
   276         39
   277          6
   278          7