##TITLE=Library Entry 24551
##JCAMP-DX=Revision 4.10 
##DATA TYPE=MASS SPECTRUM
##SAMPLE DESCRIPTION=R.T.HOLMAN,UNIVERSITY OF MINNESOTA
##NAMES=HP
##CAS NAME=Trimyristin
##MOLFORM=C45H86O6
##CAS REGISTRY NO=555-45-3
##MP= -300
##BP= -300
##MW= 722
##$RETENTION INDEX=0
##$CONDENSED SPECTRUM=NO
##NPOINTS= 386
##XYDATA=(XY..XY) 1 
    26          6
    27         80
    28         25
    29        160
    30          6
    31         10
    38          2
    39         40
    40         10
    41        400
    42         92
    43        840
    44         28
    45         26
    46          1
    47          1
    50          1
    51          2
    52          1
    53         18
    54         44
    55        580
    56        120
    57        999
    58         48
    59         22
    60        320
    61         76
    62          3
    63          1
    65          2
    66          4
    67        100
    68         49
    69        360
    70         80
    71        500
    72         31
    73        376
    74         42
    75          6
    76          1
    77          4
    78          2
    79         21
    80         11
    81        116
    82         46
    83        228
    84        168
    85        300
    86         23
    87         64
    88          8
    89          2
    90          1
    91          4
    92          2
    93         21
    94         10
    95        148
    96         40
    97        180
    98        280
    99         68
   100         26
   101         30
   102          9
   103          2
   104          1
   105          4
   106          1
   107         17
   108          6
   109         88
   110         23
   111        112
   112         88
   113         48
   114          8
   115         41
   116         47
   117         19
   118          2
   119          2
   120          2
   121         22
   122          4
   123         43
   124         13
   125         31
   126         22
   127         21
   128          4
   129        144
   130         15
   131          2
   132          1
   133          2
   134          2
   135         16
   136          3
   137         20
   138         10
   139         14
   140         12
   141          8
   142          3
   143         26
   144          3
   145          1
   147          1
   148          1
   149          7
   150          2
   151          7
   152          3
   153          8
   154         14
   155          6
   156          2
   157         11
   158        108
   159         15
   160          2
   161          1
   162          1
   163          3
   164          2
   165          2
   166         14
   167          9
   168         10
   169          8
   170          8
   171        176
   172         26
   173          4
   174          1
   175          1
   176          1
   177          1
   178          1
   179          2
   180          2
   181          4
   182          2
   183         34
   184          7
   185         88
   186         14
   187          3
   188          1
   189          1
   190          1
   191          7
   192          4
   193          6
   194          2
   195          2
   196          1
   197          9
   198          2
   199         20
   200          6
   201          1
   202          1
   203          1
   204          1
   205          1
   206          1
   207          1
   208          6
   209         13
   210         36
   211        760
   212        112
   213         36
   214          7
   215          2
   216          1
   217          1
   218          1
   219          1
   220          1
   221          1
   222          1
   223          2
   224          3
   225         10
   226          4
   227         68
   228         37
   229         11
   230          1
   231          1
   232          1
   233          1
   234          1
   235          1
   236          1
   237          2
   238          1
   239         11
   240          2
   241         24
   242          6
   243          2
   251          1
   252         14
   253         14
   254          3
   255         16
   256          4
   257          1
   260          1
   261          1
   262          1
   263          1
   264          1
   265          2
   266          4
   267          7
   268          4
   269         22
   270          5
   271          7
   272          1
   273          1
   279          1
   280          4
   281          5
   282          4
   283         64
   284         28
   285        304
   286         59
   287          9
   288          1
   293          1
   294          1
   295          4
   296          2
   297         18
   298          4
   299          1
   301          1
   302          1
   303         11
   304          2
   307          1
   308          1
   309          3
   310          2
   311         14
   312          3
   313          3
   314          1
   321          1
   322          1
   323          2
   324          1
   325          4
   326        108
   327         68
   328         14
   329          3
   337          5
   338          3
   339        680
   340        148
   341         22
   342          3
   343          1
   344          1
   345          3
   346          1
   351          2
   352          2
   353         45
   354         12
   355          2
   356          1
   357          1
   364          1
   365          3
   366          1
   367         12
   368          6
   369          2
   371          1
   379          1
   380          1
   381         68
   382         21
   383          4
   384          1
   386          1
   391          1
   392          1
   393          2
   394          1
   395        180
   396         58
   397         11
   398          2
   399          1
   407          1
   408          1
   409         40
   410         14
   411          4
   412          1
   413          1
   414          1
   419          1
   420          2
   421          2
   422          1
   423         23
   424          9
   425          2
   426          1
   427          1
   428          1
   435          1
   436          1
   437         30
   438         10
   439          2
   440          1
   441          1
   442          1
   449          1
   450          1
   451         92
   452         31
   453          6
   454          1
   455          1
   456          1
   463          1
   464          1
   465         29
   466         12
   467          3
   468          1
   469          1
   479          4
   480          2
   481          6
   482          4
   483          1
   484          1
   491          1
   492          2
   493         19
   494        104
   495        280
   496         92
   497         18
   498          3
   499          1
   513          1
   514          1
   536          8
   537          3
   538          1
   539          4
   540          2
   549          1
   550          1
   554          2
   555          1
   564          2
   565          1
   578          1
   592          1
   606          1
   620          1
   634          1
   648          1
   649          1
   704          1
   705          1
   722          1