##TITLE=Library Entry 51547
##JCAMP-DX=Revision 4.10 
##DATA TYPE=MASS SPECTRUM
##SAMPLE DESCRIPTION=Japan AIST/NIMC Database- Spectrum MS-NW-5455
##NAMES=HP
##CAS NAME=Pargyline
##MOLFORM=C11H13N
##CAS REGISTRY NO=555-57-7
##MP= -300
##BP= -300
##MW= 159
##$RETENTION INDEX=1216
##$CONDENSED SPECTRUM=NO
##NPOINTS= 111
##XYDATA=(XY..XY) 1 
    14          2
    15         45
    17          3
    18         12
    25          1
    26          7
    27         19
    28         26
    29          3
    30          4
    32          2
    36          1
    37         10
    38         30
    39        210
    40         26
    41         84
    42        438
    43         20
    44         37
    45          3
    49          2
    50         31
    51         76
    52         20
    53          9
    54          9
    55          9
    56          2
    57          5
    58          3
    59          1
    61          5
    62         15
    63         55
    64         17
    65        209
    66         37
    67          9
    68        668
    69         33
    70          2
    71          2
    72          2
    73          1
    74          7
    75          7
    76          9
    77         56
    78         23
    79         16
    80         33
    81         17
    82        999
    83         62
    84          2
    85          1
    86          3
    87          3
    88          2
    89         47
    90         21
    91        962
    92        304
    93         22
    94          3
   101          1
   102          4
   103          9
   104         21
   105          7
   106          7
   107          3
   108          6
   109          1
   113          1
   114          2
   115         37
   116         17
   117         18
   118        119
   119         25
   120         28
   121          4
   127          4
   128         11
   129         10
   130          5
   131          6
   132         57
   133          7
   134         37
   135          6
   140          1
   141          2
   142          6
   143         11
   144         14
   145          2
   146          1
   148          5
   149          7
   150          4
   154          1
   155          1
   156          8
   157         14
   158        324
   159        418
   160         62
   161          4