##TITLE=Library Entry 24498
##JCAMP-DX=Revision 4.10 
##DATA TYPE=MASS SPECTRUM
##SAMPLE DESCRIPTION=Japan AIST/NIMC Database- Spectrum MS-NW- 609
##NAMES=HP
##CAS NAME=Tristearin
##MOLFORM=C57H110O6
##CAS REGISTRY NO=555-43-1
##MP= -300
##BP= -300
##MW= 890
##$RETENTION INDEX=0
##$CONDENSED SPECTRUM=NO
##NPOINTS= 392
##XYDATA=(XY..XY) 1 
    14          3
    15          8
    16          2
    17         13
    18         71
    20          4
    25          2
    26         19
    27        129
    28         57
    29        260
    30          7
    31          8
    32          7
    36          3
    37          2
    38          5
    39         91
    40         21
    41        548
    42        127
    43        916
    44         40
    45         19
    46          1
    50          2
    51          6
    52          4
    53         33
    54         80
    55        620
    56        187
    57        999
    58         53
    59         24
    60        316
    61        105
    62          4
    63          2
    65          8
    66         10
    67        153
    68        105
    69        428
    70        146
    71        552
    72         33
    73        361
    74         44
    75          5
    76          1
    77          9
    78          7
    79         38
    80         26
    81        164
    82        116
    83        375
    84        240
    85        337
    86         26
    87         74
    88         10
    89          2
    91         12
    92          8
    93         31
    94         22
    95        180
    96         91
    97        297
    98        623
    99        120
   100         71
   101         48
   102         13
   103          3
   104          3
   105         10
   106          4
   107         24
   108         13
   109        100
   110         41
   111        180
   112        155
   113         83
   114         14
   115         52
   116         49
   117         18
   118          4
   119          7
   120          4
   121         32
   122         10
   123         53
   124         23
   125         62
   126         31
   127         36
   128          8
   129        166
   130         21
   131          6
   132          1
   133          5
   134          4
   135         24
   136          8
   137         28
   138         16
   139         28
   140         18
   141         23
   142          5
   143         27
   144          5
   145          3
   146          1
   147          4
   148          3
   149         12
   150          4
   151         13
   152         10
   153         18
   154         16
   155         19
   156          5
   157         14
   158         65
   159          9
   160          3
   161          2
   162          2
   163          7
   164          3
   165          9
   166          8
   167         12
   168          9
   169         18
   170          6
   171        120
   172         19
   173          5
   174          1
   175          2
   177          6
   178          3
   179          5
   180          8
   181          9
   182          8
   183         17
   184          4
   185         76
   186         11
   187          3
   189          2
   191          3
   192          2
   193          4
   194          5
   195          7
   196          9
   197          8
   198          3
   199         24
   200          6
   201          2
   205          2
   206          1
   207          3
   208          3
   209          5
   210          8
   211          8
   212          2
   213         25
   214          7
   215          2
   219          2
   220          2
   221          3
   222         12
   223          9
   224          9
   225          9
   226          3
   227         54
   228         10
   229          2
   231          1
   232          1
   233          2
   234          1
   235          2
   236          3
   237          4
   238          4
   239         14
   240          4
   241         65
   242         12
   243          3
   244          1
   245          1
   246          2
   247          4
   248          5
   249          4
   250          2
   251          3
   252          2
   253          8
   254          2
   255         17
   256          7
   257          2
   258          2
   259          2
   260          1
   262          3
   263          3
   264          9
   265         14
   266         29
   267        262
   268         54
   269         16
   270          4
   271          1
   276          2
   277          1
   278          2
   279          2
   280          3
   281          9
   282          6
   283         16
   284         78
   285         19
   286          3
   292          1
   293          3
   294          3
   295          9
   296          3
   297         13
   298          5
   299          2
   307          3
   308          9
   309         17
   310          5
   311          9
   312          5
   313          6
   320          2
   321          2
   322         16
   323         10
   324          9
   325         22
   326          7
   327          4
   328          1
   335          2
   336          5
   337          5
   338          4
   339         28
   340         15
   341        129
   342         30
   343          7
   344          1
   350          1
   351          3
   352          2
   353          9
   354          5
   355          2
   359          4
   360          1
   365          2
   366          2
   367         17
   368          6
   369          5
   370          1
   379          2
   380          2
   381          6
   382         64
   383         36
   384          9
   385          2
   393          7
   394          3
   395        427
   396        114
   397         20
   398          3
   401          1
   407          2
   408          2
   409         28
   410          9
   411          3
   421          3
   422          2
   423         12
   424          6
   425          2
   435          2
   437         50
   438         17
   439          4
   449          3
   450          1
   451        125
   452         41
   453          9
   454          1
   463          1
   465         17
   466          8
   467          2
   479         14
   480          7
   481          2
   491          1
   493         20
   494          9
   495          3
   505          2
   507         27
   508         12
   509          3
   521         17
   522          9
   523          2
   524          1
   532          2
   533          2
   535         12
   536          6
   537          2
   549         12
   550          7
   551          2
   552          1
   561          2
   562          1
   563         60
   564         26
   565          8
   566          2
   577         21
   578         13
   579         10
   580          4
   581          1
   591          5
   592          3
   593          4
   594          3
   599          1
   603          2
   604          7
   605         19
   606         99
   607        156
   608         60
   609         14
   610          3
   619          1
   621          1
   634          3
   635          2
   648          4
   649          2
   651          3
   652          1
   662          1
   663          2
   666          4
   667          2
   676          1