##TITLE=Library Entry 88510
##JCAMP-DX=Revision 4.10 
##DATA TYPE=MASS SPECTRUM
##SAMPLE DESCRIPTION=RADIAN CORP
##NAMES=HP
##CAS NAME=Propanedinitrile, [(3-chlorophenyl)hydrazono]-
##MOLFORM=C9H5ClN4
##CAS REGISTRY NO=555-60-2
##MP= -300
##BP= -300
##MW= 204
##$RETENTION INDEX=0
##$CONDENSED SPECTRUM=NO
##NPOINTS= 27
##XYDATA=(XY..XY) 1 
    15         11
    38        122
    39         88
    40         14
    44         14
    50        183
    51         31
    62         31
    63        421
    64        114
    73         98
    74         69
    75        417
    89         32
    90        508
    91         21
    99        319
   101         17
   111        999
   112         17
   113        296
   125        951
   126         59
   127        201
   139         14
   204        712
   206        238