##TITLE=Library Entry 61837
##JCAMP-DX=Revision 4.10 
##DATA TYPE=MASS SPECTRUM
##SAMPLE DESCRIPTION=Japan AIST/NIMC Database- Spectrum MS-IW-1751
##NAMES=HP
##CAS NAME=Hydrazine, (phenylmethyl)-
##MOLFORM=C7H10N2
##CAS REGISTRY NO=555-96-4
##MP= -300
##BP= -300
##MW= 122
##$RETENTION INDEX=1118
##$CONDENSED SPECTRUM=NO
##NPOINTS= 51
##XYDATA=(XY..XY) 1 
    26          1
    27          5
    28         22
    29          3
    30          3
    31         14
    32          1
    39         34
    40          3
    41          9
    42          1
    43         15
    44          7
    45         14
    49          1
    50         18
    51         43
    52         11
    53          2
    61          2
    62          7
    63         22
    64          5
    65        114
    66          8
    73          1
    74          5
    75          4
    76          7
    77         50
    78         16
    79          8
    86          1
    87          1
    89         18
    90          8
    91        999
    92        150
    93         28
    94          3
   103          2
   104         19
   105          4
   106         11
   107          7
   119          3
   120          5
   121          8
   122        370
   123         31
   124          1