##TITLE=Library Entry 96546
##JCAMP-DX=Revision 4.10 
##DATA TYPE=MASS SPECTRUM
##SAMPLE DESCRIPTION=Japan AIST/NIMC Database- Spectrum MS-NW-1720
##NAMES=HP
##CAS NAME=Benzeneacetonitrile, 4-nitro-
##MOLFORM=C8H6N2O2
##CAS REGISTRY NO=555-21-5
##MP= -300
##BP= -300
##MW= 162
##$RETENTION INDEX=0
##$CONDENSED SPECTRUM=NO
##NPOINTS= 83
##XYDATA=(XY..XY) 1 
    14          3
    15          1
    16          3
    25          1
    26         12
    27         21
    28          4
    29          1
    30        191
    31          3
    32          3
    36          1
    37         32
    38         61
    39        190
    40         16
    41         10
    42          1
    43          5
    44         14
    46         14
    48          2
    49         13
    50        194
    51        122
    52         31
    53          5
    54          1
    60          3
    61         38
    62        109
    63        296
    64         79
    65         53
    66         15
    69          1
    73          9
    74         59
    75         58
    76         68
    77        186
    78         35
    79          2
    80          1
    84          2
    85          9
    86         19
    87         35
    88         66
    89        872
    90        164
    91         10
    92          7
    98          2
    99          2
   100          2
   101          1
   102         15
   103         14
   104        224
   105         23
   106          4
   107          1
   108          3
   110          1
   111          3
   112          2
   114         34
   115         36
   116        999
   117         93
   118          4
   130          1
   131          4
   132        253
   133         22
   134          1
   145          3
   146         17
   147          1
   162        645
   163         60
   164          5