##TITLE=Library Entry 66050
##JCAMP-DX=Revision 4.10 
##DATA TYPE=MASS SPECTRUM
##SAMPLE DESCRIPTION=Exported from NIST MS Search
##NAMES=HP
##CAS NAME=.beta.-Phellandrene
##MOLFORM=C10H16
##CAS REGISTRY NO=555-10-2
##MP= -300
##BP= -300
##MW= 136
##$RETENTION INDEX=1031
##$CONDENSED SPECTRUM=NO
##NPOINTS= 40
##XYDATA=(XY..XY) 1 
    27         59
    28          9
    29         17
    39         80
    40         13
    41        110
    42          6
    43         55
    50          7
    51         30
    52         15
    53         36
    54          5
    55         15
    63         13
    64          7
    65         50
    66         13
    67         15
    69         50
    77        274
    78         54
    79        168
    80         89
    81         13
    89         15
    90          5
    91        247
    92         83
    93        999
    94        151
    95         11
   103          6
   105         14
   107         18
   108          8
   119         11
   121         52
   136        177
   137         20