##TITLE=Library Entry 43142
##JCAMP-DX=Revision 4.10 
##DATA TYPE=MASS SPECTRUM
##SAMPLE DESCRIPTION=S. MARKEY UNIV. OF COLO. MED. CTR., DENVER, COLORADO, U
SA
##NAMES=HP
##CAS NAME=Glycine, N-(trimethylsilyl)-N-[3-[(trimethylsilyl)oxy]benzoyl]-,
 trimethylsilyl ester
##MOLFORM=C18H33NO4Si3
##CAS REGISTRY NO=55517-54-9
##MP= -300
##BP= -300
##MW= 411
##$RETENTION INDEX=2160
##$CONDENSED SPECTRUM=NO
##NPOINTS= 121
##XYDATA=(XY..XY) 1 
    42          4
    43         36
    44         28
    45        167
    46          8
    47         25
    57          8
    58         16
    59         54
    60          2
    61         16
    71          3
    72         27
    73        999
    74         89
    75        161
    76         23
    77         18
    86         17
    87          2
    88          2
    89          8
    90          2
    91         53
    92          8
    93          5
    95          6
   100         11
   102          3
   103          6
   104          2
   105          8
   108          6
   109         35
   116         17
   117          8
   119         13
   120          9
   121         14
   131         15
   132          2
   133         41
   134          5
   135         55
   136          6
   137          3
   141         21
   147         85
   148         20
   149         84
   150         29
   151         16
   160          5
   161          2
   162          2
   163         23
   164          5
   165         52
   166          8
   174          6
   176         26
   177         31
   178         12
   179        256
   180         40
   181         16
   188          2
   190          9
   191         21
   192         22
   193        506
   194         79
   195         29
   204         14
   205         26
   206         15
   207         12
   209          8
   218          4
   219          2
   220          2
   223         15
   234         13
   237          9
   238          2
   251          8
   264          5
   265          8
   266         40
   267         18
   268          6
   278         33
   279         14
   280         29
   281          4
   290          9
   291         21
   292         70
   293         43
   294        172
   295         46
   296         17
   306          7
   308         16
   309          2
   321         22
   322         13
   323          7
   324          9
   339         10
   366         20
   367          6
   368         24
   369          8
   396         77
   397         27
   398         11
   410         47
   411         84
   412         34
   413         14