##TITLE=Library Entry 42722
##JCAMP-DX=Revision 4.10 
##DATA TYPE=MASS SPECTRUM
##SAMPLE DESCRIPTION=MO-108
##NAMES=HP
##CAS NAME=2,4-Hexadienedioic acid, (E,E)-, 2TMS derivative
##MOLFORM=C12H22O4Si2
##CAS REGISTRY NO=55517-43-6
##MP= -300
##BP= -300
##MW= 286
##$RETENTION INDEX=0
##$CONDENSED SPECTRUM=NO
##NPOINTS= 70
##XYDATA=(XY..XY) 1 
    15         36
    18         51
    26         14
    27         15
    28         66
    29         19
    31         12
    39         16
    41         16
    43         72
    44         47
    45        225
    46         17
    47         95
    50         14
    51         74
    52        115
    53         21
    55         26
    58         23
    59         57
    60         17
    61         57
    66         24
    69         23
    72         26
    73        999
    74         98
    75        470
    76         37
    77         30
    78         20
    79        188
    80         68
    81         14
    83         19
    85         19
    95         28
    99         20
   107         95
   108         18
   109         33
   110         24
   111         35
   117         30
   124         27
   128         47
   133         53
   137         40
   143         21
   147        861
   148        138
   149         83
   152         66
   153         99
   154         23
   168         21
   169        111
   170         18
   181         15
   196         33
   197         16
   227         54
   228         14
   243         13
   271        711
   272        165
   273         73
   274         13
   286         16