##TITLE=Library Entry 45760
##JCAMP-DX=Revision 4.10 
##DATA TYPE=MASS SPECTRUM
##SAMPLE DESCRIPTION=S. MARKEY UNIV. OF COLO. MED. CTR., DENVER, COLORADO, U
SA
##NAMES=HP
##CAS NAME=5-Oxohexanoic Acid, TMS derivative
##MOLFORM=C9H18O3Si
##CAS REGISTRY NO=55517-32-3
##MP= -300
##BP= -300
##MW= 202
##$RETENTION INDEX=0
##$CONDENSED SPECTRUM=NO
##NPOINTS= 84
##XYDATA=(XY..XY) 1 
    47         84
    48          8
    49         11
    50         10
    51         15
    53         19
    55        433
    56         25
    57         25
    58         79
    59         43
    60         43
    61         82
    62         13
    63         10
    65          3
    67         25
    68         12
    69         89
    70         24
    71         36
    72         83
    73        668
    74         88
    75        999
    76         80
    77         70
    78          4
    79          9
    83         10
    84        202
    85         69
    86         18
    87          5
    88         19
    89         17
    90          4
    91         11
    93         20
    95         17
    97         44
    99         33
   100         11
   101         42
   102          4
   103          6
   104         19
   111         10
   112        619
   113        160
   114         14
   115        153
   116         83
   117        470
   118         52
   119         32
   125          2
   127         16
   129        364
   130         99
   131         37
   132        106
   133         19
   134          1
   141          7
   143         47
   144         16
   145        997
   146        120
   147         53
   148          8
   159         85
   160         49
   161         11
   169         48
   170          8
   171          4
   181          2
   184          4
   187        380
   188         57
   189         23
   202         38
   203         10