##TITLE=Library Entry 41446
##JCAMP-DX=Revision 4.10 
##DATA TYPE=MASS SPECTRUM
##SAMPLE DESCRIPTION=ORVAL A. MAMER, ROYAL VICTORIA HOSPITAL, MONTREAL, CANA
DA
##NAMES=HP
##CAS NAME=N-Formylglycine, 2TMS derivative
##MOLFORM=C9H21NO3Si2
##CAS REGISTRY NO=55517-31-2
##MP= -300
##BP= -300
##MW= 247
##$RETENTION INDEX=0
##$CONDENSED SPECTRUM=NO
##NPOINTS= 104
##XYDATA=(XY..XY) 1 
    14          7
    15         21
    16          4
    17          7
    18         29
    26          6
    27         14
    28         96
    29         27
    30         25
    31         12
    32         11
    39          4
    40          4
    41         51
    42         26
    43         66
    44         41
    45        191
    46         13
    47         55
    48          3
    49          2
    51          2
    52          4
    53          3
    54          2
    55          9
    56          8
    57         15
    58         26
    59         51
    60          9
    61         28
    62          2
    66          5
    68          3
    69          6
    70         11
    71          6
    72         32
    73        999
    74         96
    75        301
    76         21
    77         15
    79          4
    84          6
    85          5
    86         12
    87          5
    88          6
    89          3
    98         16
    99          4
   100         22
   101          9
   102         89
   103         23
   104         10
   105          3
   108         11
   109          2
   114          2
   115          7
   116         33
   117         33
   118          5
   119          4
   129         13
   130        224
   131         71
   132         22
   133         24
   134          4
   135          2
   142          3
   143          7
   147        282
   148         45
   149         26
   150          3
   157         28
   158          5
   159          2
   160         47
   161          6
   162          3
   163          8
   176          7
   188         36
   189          7
   190          4
   191          2
   203         16
   204         84
   205         17
   206          7
   207          2
   232         82
   233         16
   234          7
   247          8
   248          2