##TITLE=Library Entry 43376
##JCAMP-DX=Revision 4.10 
##DATA TYPE=MASS SPECTRUM
##SAMPLE DESCRIPTION=Exported from NIST MS Search
##NAMES=HP
##CAS NAME=Idonic acid, .gamma.-lactone, 4TMS derivavative
##MOLFORM=C18H42O6Si4
##CAS REGISTRY NO=55515-32-7
##MP= -300
##BP= -300
##MW= 466
##$RETENTION INDEX=1956
##$CONDENSED SPECTRUM=NO
##NPOINTS= 75
##XYDATA=(XY..XY) 1 
    43         10
    44         10
    45         60
    55         10
    59         30
    69         10
    72         20
    73        999
    74         80
    75        100
    81         20
    89         10
   101         20
   103        190
   104         20
   105         10
   117         60
   119         10
   129         60
   130         10
   131         30
   133         60
   143         20
   147        250
   148         40
   149         30
   155         10
   189        110
   190         20
   191         30
   203         10
   204         80
   205        150
   206         30
   207         20
   217        430
   218         90
   219         90
   220         20
   221         10
   230         10
   231         10
   243         30
   244        100
   245         50
   246         20
   271         20
   305         90
   306         30
   307         30
   332         20
   333         50
   334         60
   335         90
   336         30
   337         10
   347          1
   348          5
   349          3
   361         52
   362         19
   363         20
   364          7
   365          3
   376          1
   393          2
   423          3
   451         19
   452          7
   453          4
   454          1
   466         23
   467          9
   468          5
   469          2