##TITLE=Library Entry 44021
##JCAMP-DX=Revision 4.10 
##DATA TYPE=MASS SPECTRUM
##SAMPLE DESCRIPTION=Exported from NIST MS Search
##NAMES=HP
##CAS NAME=Gluconolactone (3R,4S,5R,6R)-, 4TMS derivative
##MOLFORM=C18H42O6Si4
##CAS REGISTRY NO=55515-29-2
##MP= -300
##BP= -300
##MW= 466
##$RETENTION INDEX=1904
##$CONDENSED SPECTRUM=NO
##NPOINTS= 85
##XYDATA=(XY..XY) 1 
    43         10
    44         20
    45         60
    47         10
    55         10
    59         30
    72         20
    73        999
    74         80
    75        110
    81         10
    89         20
   101         20
   102         20
   103         90
   117         60
   129        130
   130         40
   131         20
   133         60
   134         10
   143         30
   145         10
   147        220
   148         40
   149         30
   157         40
   169         30
   189         70
   190         20
   191         40
   201         10
   203         10
   204         90
   205         30
   206         10
   215         20
   217         90
   218         20
   219         60
   220        110
   221         30
   222         10
   229         90
   230         30
   231         20
   243         30
   244         10
   245         20
   257         10
   259         10
   271         20
   291         10
   305         20
   317         10
   318         10
   319        260
   320         90
   321         40
   331         20
   332         10
   333         40
   334         10
   335         20
   348          2
   359          2
   360          2
   361         24
   362          8
   363          6
   376          7
   377          6
   378          3
   379          1
   393          1
   395          1
   423          1
   451         24
   452         11
   453          5
   454          2
   466         25
   467         12
   468          6
   469          2