##TITLE=Library Entry 41211
##JCAMP-DX=Revision 4.10 
##DATA TYPE=MASS SPECTRUM
##SAMPLE DESCRIPTION=ORVAL A. MAMER, ROYAL VICTORIA HOSPITAL, MONTREAL, CANA
DA
##NAMES=HP
##CAS NAME=3-Methylglutaric acid, 2TMS derivative
##MOLFORM=C12H26O4Si2
##CAS REGISTRY NO=55517-41-4
##MP= -300
##BP= -300
##MW= 290
##$RETENTION INDEX=1431
##$CONDENSED SPECTRUM=NO
##NPOINTS= 90
##XYDATA=(XY..XY) 1 
    15         19
    18          9
    27         13
    28         38
    29         16
    31          7
    39         22
    41        106
    42         25
    43         97
    44         42
    45        182
    46         13
    47         77
    53          7
    55         45
    56          9
    57         12
    58         26
    59         44
    60         13
    61         50
    67         12
    68          6
    69        946
    70         47
    71          9
    72         79
    73        999
    74        101
    75        456
    76         33
    77         20
    82         10
    83         17
    85          6
    88         14
    89          9
    95          6
    99         41
   101         28
   111         21
   113         11
   115          7
   116         63
   117         99
   118         13
   119          7
   128         16
   129         14
   130         54
   131         22
   132         11
   133         43
   134          6
   141         38
   142          8
   143        105
   144         17
   145          6
   147        735
   148        118
   149         92
   150         11
   157         28
   159        123
   160         16
   161          6
   162          7
   172        180
   173         44
   174         11
   175          3
   185         24
   187          4
   189         13
   200         50
   201         35
   202          7
   204         78
   205         16
   206          7
   212         24
   217         11
   231          8
   247         51
   248         11
   275        293
   276         68
   277         29