##TITLE=Library Entry 34993
##JCAMP-DX=Revision 4.10 
##DATA TYPE=MASS SPECTRUM
##SAMPLE DESCRIPTION=R. I. REED UNIVERSITY OF GLASGOW
##NAMES=HP
##CAS NAME=22-Ergosten-3-ol, acetate, (3.beta.,5.alpha.,22E)-
##MOLFORM=C30H50O2
##CAS REGISTRY NO=55515-02-1
##MP= -300
##BP= -300
##MW= 442
##$RETENTION INDEX=0
##$CONDENSED SPECTRUM=NO
##NPOINTS= 278
##XYDATA=(XY..XY) 1 
    50         10
    51          8
    52          8
    53         84
    54         26
    55        931
    56         53
    57        237
    58         10
    59          1
    60        190
    61          9
    62          3
    63          3
    64          0
    65         34
    66         20
    67        525
    68        116
    69        999
    70        119
    71         95
    72          5
    73          1
    74          3
    75          2
    76          2
    77        147
    78         30
    79        412
    80         77
    81        913
    82        241
    83        489
    84         49
    85         14
    86          2
    87          2
    88          0
    89          1
    90          1
    91        329
    92         73
    93        572
    94        187
    95        642
    96        229
    97        142
    98         15
    99          3
   100          3
   101          2
   102          1
   103         10
   104         15
   105        277
   106        101
   107        686
   108        202
   109        640
   110         85
   111         63
   112          5
   113          2
   114          4
   115         12
   116          7
   117         49
   118         23
   119        154
   120         62
   121        275
   122        155
   123        259
   124         58
   125         96
   126          4
   127          4
   128          2
   129         17
   130          8
   131         64
   132         23
   133        173
   134         81
   135        230
   136         36
   137        124
   138         17
   139          4
   140          0
   141          4
   142          7
   143         17
   144          9
   145         86
   146         34
   147        220
   148         73
   149        217
   150         33
   151         50
   152         85
   153         11
   154          1
   155          3
   156          2
   157         12
   158          7
   159         70
   160         43
   161        257
   162         55
   163        235
   164         35
   165         25
   166         51
   167          7
   168          1
   169          3
   170          2
   171         10
   172          5
   173         46
   174         19
   175        111
   176         52
   177         65
   178         10
   179         27
   180          5
   181          1
   182          1
   183          2
   184          1
   185         11
   186          5
   187         50
   188         18
   189         68
   190         16
   191         41
   192          7
   193          3
   194          1
   195          0
   196          0
   197          2
   198          1
   199         16
   200          9
   201         95
   202         38
   203         52
   204         10
   205          9
   206          3
   207          6
   211          2
   212          1
   213         32
   214         30
   215        132
   216         46
   217         48
   218          8
   219          8
   220         10
   221          2
   227         18
   228         17
   229         68
   230         47
   231         34
   232          7
   233          5
   234          2
   239          1
   240          1
   241         41
   242         68
   243         42
   244         10
   245         36
   246          7
   247          4
   248          1
   251          1
   252          1
   253          3
   254         33
   255        313
   256        161
   257        573
   258        119
   259         16
   260          4
   261          8
   262          2
   269        122
   270         31
   271         15
   272          7
   273         10
   274         23
   275         13
   276          6
   281          1
   282          1
   283         46
   284        257
   285        122
   286         25
   287         12
   288          9
   289          3
   290          2
   297          7
   298         32
   299         10
   300          5
   301          7
   302         40
   303          8
   304          1
   311          6
   312          5
   313          4
   314         27
   315        157
   316         92
   317         21
   318          2
   325          1
   326          1
   327          1
   328          8
   329         46
   330         14
   331          2
   339        126
   340         35
   341          6
   342          1
   343         17
   344        173
   345         44
   346          6
   353          1
   354          1
   355          1
   356          1
   357          1
   358         26
   359          6
   360          1
   367         45
   368         15
   369          3
   370          1
   378          1
   379          0
   380          2
   381          3
   382        260
   383         79
   384         14
   385          2
   398          3
   399          7
   400          5
   401          1
   427         11
   428          4
   429          0
   442        163
   443         54
   444          1