##TITLE=Library Entry 43118
##JCAMP-DX=Revision 4.10 
##DATA TYPE=MASS SPECTRUM
##SAMPLE DESCRIPTION=BAY 0186
##NAMES=HP
##CAS NAME=2,4-Imidazolidinedione, 5-[3,4-bis[(trimethylsilyl)oxy]phenyl]-3-
methyl-5-phenyl-1-(trimethylsilyl)-
##MOLFORM=C25H40N2O4Si3
##CAS REGISTRY NO=55517-85-6
##MP= -300
##BP= -300
##MW= 516
##$RETENTION INDEX=0
##$CONDENSED SPECTRUM=NO
##NPOINTS= 376
##XYDATA=(XY..XY) 1 
    40          3
    41         26
    42         10
    43         35
    44         19
    45         88
    46          6
    47         21
    48          1
    49          3
    50          9
    51         15
    52         18
    53          7
    54          4
    55         32
    56         12
    57         32
    58         12
    59         25
    60          6
    61         13
    62          3
    63          4
    64          3
    65          9
    66          4
    67         13
    68          6
    69         24
    70          9
    71         18
    72         12
    73        999
    74         87
    75        171
    76         16
    77         35
    78         12
    79         29
    80          6
    81         16
    82          7
    83         18
    84          7
    85         12
    86          3
    87          4
    88          3
    89          9
    90          3
    91         24
    92          3
    93         29
    94          6
    95         15
    96          7
    97         15
    98          6
    99          7
   100         12
   101          9
   102          4
   103         24
   104         81
   105         26
   106          6
   107          9
   108          4
   109         12
   110          4
   111         12
   112          3
   113          6
   114          3
   115         10
   116          9
   117         21
   118         10
   119         10
   120          6
   121          9
   122          3
   123          7
   124          3
   125          6
   126          3
   127          6
   128          4
   129         16
   130         16
   131         21
   132          9
   133         21
   134          6
   135         15
   136          6
   137          6
   138          3
   139         12
   140          4
   141          9
   142          6
   143         15
   144          6
   145         10
   146          7
   147         74
   148         15
   149         22
   150          6
   151         15
   152          9
   153          9
   154          6
   155          7
   156          6
   157         10
   158          4
   159          9
   160          3
   161          7
   162          3
   163          6
   164          4
   165         18
   166          9
   167         71
   168         15
   169          9
   170          3
   171          6
   172          6
   173          6
   174          4
   175          6
   176          9
   177          6
   178          6
   179          9
   180         22
   181         15
   182         12
   183          6
   184          3
   185          4
   186          3
   187          4
   188          3
   189         56
   190         16
   191        294
   192         53
   193         29
   194          9
   195          9
   196          7
   197          6
   198          4
   199          4
   200          1
   201          4
   202          3
   203          4
   204          7
   205          6
   206          4
   207         10
   208          6
   209          6
   210          4
   211          6
   212          3
   213          3
   214          1
   215          4
   216          1
   217         12
   218          6
   219          6
   220          4
   221          6
   222          4
   223          9
   224          4
   225          6
   226          3
   227          4
   228          3
   229          3
   230          6
   231          4
   232          3
   233          4
   234          4
   235          3
   236          3
   237          9
   238          6
   239          6
   240          4
   241          4
   242          3
   243          4
   244          3
   245          3
   246          4
   247          4
   248          3
   249          6
   250          3
   251          3
   252          4
   253          7
   254         12
   255         50
   256         12
   257          6
   258          3
   259          3
   260          1
   261         15
   262         26
   263          7
   264          6
   265          4
   266          4
   267          4
   268         13
   269         10
   270          9
   271          4
   272          3
   273          3
   274          1
   275          1
   276          1
   277         21
   278          6
   279          4
   280          4
   281          6
   282          9
   283          4
   284          3
   285          3
   286          3
   287          3
   288          1
   289          1
   290          1
   291          1
   292          1
   293          1
   294          3
   295          3
   296          7
   297          6
   298          3
   299          4
   300          1
   301          3
   302          1
   303          1
   304          1
   305          3
   306          3
   307          1
   308          1
   309          3
   310          3
   311          4
   312          4
   313          3
   314          1
   315          1
   316          1
   317          1
   318          1
   319          1
   320          1
   321          3
   322          1
   323          3
   324          3
   325         16
   326         24
   327         15
   328          6
   329          4
   330          1
   331          3
   332          1
   333          1
   334          9
   335          4
   336          3
   337          3
   338          1
   339          6
   340          3
   341          4
   342          7
   343          6
   344          3
   345          3
   349          3
   351          1
   353          3
   354         29
   355         10
   356          4
   357          3
   358          3
   359          1
   360          1
   361          1
   367          4
   368          3
   369          6
   370          6
   371          4
   372          3
   373          1
   383          1
   384          1
   385          1
   386          4
   387          3
   397          4
   398          9
   399          6
   400          3
   401          1
   411          3
   412          1
   413          3
   414          1
   415          1
   417          3
   418          1
   421          3
   422          1
   425          3
   426         12
   427          7
   428          3
   429          6
   430          3
   431          1
   433          1
   434          3
   435          3
   439          3
   440          1
   442          1
   443          3
   444         37
   445         15
   446          6
   447          3
   460          3
   461          4
   462          3
   463          1
   476          1
   483          1
   485          1
   501          4
   502          3
   503          1
   515          3
   516         29
   517         12
   518          6
   519          3