##TITLE=Library Entry 43372
##JCAMP-DX=Revision 4.10 
##DATA TYPE=MASS SPECTRUM
##SAMPLE DESCRIPTION=Exported from NIST MS Search
##NAMES=HP
##CAS NAME=Mannonic acid, .gamma.-lactone, 4TMS derivavative
##MOLFORM=C18H42O6Si4
##CAS REGISTRY NO=55515-30-5
##MP= -300
##BP= -300
##MW= 466
##$RETENTION INDEX=2012
##$CONDENSED SPECTRUM=NO
##NPOINTS= 76
##XYDATA=(XY..XY) 1 
    41         10
    43         10
    44         20
    45         60
    55         10
    59         30
    69         10
    72         20
    73        999
    74         80
    75         80
    81         20
    89         10
   101         10
   102         10
   103        100
   104         10
   116         10
   117         40
   129         60
   130         10
   131         30
   133         60
   143         20
   147        250
   148         40
   149         30
   157         10
   189         60
   190         10
   191         20
   197         10
   204         60
   205         60
   206         10
   217        590
   218        120
   219         70
   220         10
   221         10
   229         10
   230         20
   231         30
   243         30
   245         20
   271         10
   292         10
   305         30
   307         10
   317         10
   322         10
   332         10
   333         30
   334         10
   335         30
   348          8
   349          3
   350          1
   351          1
   360          2
   361         32
   362         10
   363         12
   364          2
   365          2
   376          1
   423          2
   424          1
   451         12
   452          5
   453          2
   454          1
   466         17
   467          7
   468          4
   469          1