##TITLE=Library Entry 42765
##JCAMP-DX=Revision 4.10 
##DATA TYPE=MASS SPECTRUM
##SAMPLE DESCRIPTION=Chemical Concepts
##NAMES=HP
##CAS NAME=Ascorbic acid, 4TMS derivative
##MOLFORM=C18H40O6Si4
##CAS REGISTRY NO=55517-56-1
##MP= -300
##BP= -300
##MW= 464
##$RETENTION INDEX=1971
##$CONDENSED SPECTRUM=NO
##NPOINTS= 293
##XYDATA=(XY..XY) 1 
    39          2
    41          6
    42          2
    43         13
    44         39
    45         91
    46          6
    47         29
    48          1
    49          8
    50          0
    51          1
    52          7
    53          6
    54          0
    55          4
    56          1
    57          2
    58          5
    59         27
    60          2
    61          6
    62          1
    63          2
    64          0
    65          1
    66         17
    67          9
    68          9
    69          1
    70          1
    71          2
    72         12
    73        999
    74         89
    75        179
    76         12
    77         68
    78          4
    79          5
    80          0
    81          3
    82          0
    83          2
    84          0
    85          2
    86          0
    87          3
    88          2
    89         18
    90          2
    91          1
    92          2
    93          5
    94          1
    95          4
    96          1
    97          1
    98          1
    99          6
   100          3
   101         10
   102          2
   103         18
   104          1
   105          2
   106          0
   107          0
   108          0
   109          0
   110          0
   111          1
   112          1
   113          2
   114          1
   115          5
   116          2
   117        191
   118         18
   119         12
   120          1
   121          0
   122          0
   123          1
   124          0
   125          1
   126          0
   127          7
   128          1
   129          4
   130          1
   131         22
   132          4
   133         67
   134          9
   135          7
   136          0
   137          0
   139          0
   140          1
   141          6
   142         15
   143         13
   144          2
   145          2
   146          1
   147        637
   148        102
   149         71
   150          8
   151          3
   152          0
   153          3
   154          0
   155          3
   156          1
   157          6
   158          1
   159          3
   160          0
   161          2
   162          0
   163          4
   164          0
   165          0
   166          0
   167          2
   168          1
   169         11
   170          7
   171          3
   172          1
   173          3
   174          0
   175          3
   176          1
   177          3
   178          0
   179          0
   181          0
   182          0
   183          3
   184          1
   185          2
   186          0
   187          2
   188          0
   189          9
   190          3
   191          5
   192          1
   193          1
   194          0
   195          0
   197          5
   198          0
   199          4
   200          1
   201          5
   202          1
   203          1
   204          7
   205        244
   206         45
   207         29
   208          4
   209          1
   211          0
   212          0
   213          1
   214          3
   215         36
   216         10
   217          9
   218          1
   219          1
   220          0
   221         28
   222          6
   223          4
   224          0
   225          0
   227          1
   228          1
   229          3
   230          3
   231          5
   232          1
   233          0
   239          0
   241          5
   242          2
   243         10
   244         10
   245          7
   246          1
   247          0
   249          0
   254          1
   255          1
   256          1
   257         16
   258         21
   259         44
   260         28
   261          8
   262          2
   263          0
   267          0
   269          4
   270          0
   271          3
   272          1
   273          0
   275          0
   276          0
   281          0
   284          0
   285          3
   286          1
   287          1
   288          0
   289          4
   290          1
   291          0
   292          0
   295          0
   299          0
   303         26
   304         45
   305         17
   306          7
   307          1
   308          0
   309          0
   315          3
   316          1
   317          4
   318          1
   319          2
   320          0
   321          0
   329          1
   330          2
   331         31
   332        566
   333        180
   334         91
   335         19
   336          4
   337          0
   343          1
   344          0
   345         46
   346         16
   347          8
   348          1
   349          0
   357          0
   358          0
   359         72
   360         23
   361         37
   362         12
   363          5
   364          0
   373          2
   374         87
   375         29
   376         14
   377          3
   378          1
   405          8
   406          3
   407          1
   408          0
   419         16
   420          6
   421          3
   422          0
   433          1
   434          1
   435          0
   449         49
   450         19
   451         10
   452          3
   453          0
   463          0
   464         16
   465          6
   466          3
   467          1