##TITLE=Library Entry 42686
##JCAMP-DX=Revision 4.10 
##DATA TYPE=MASS SPECTRUM
##SAMPLE DESCRIPTION=Exported from NIST MS Search
##NAMES=HP
##CAS NAME=Allonic acid, .gamma.-lactone, 4TMS derivavative
##MOLFORM=C18H42O6Si4
##CAS REGISTRY NO=55515-34-9
##MP= -300
##BP= -300
##MW= 466
##$RETENTION INDEX=1962
##$CONDENSED SPECTRUM=NO
##NPOINTS= 74
##XYDATA=(XY..XY) 1 
    43         10
    44         20
    45         60
    55         10
    59         30
    72         20
    73        999
    74         90
    75         90
    81         20
    89         10
    97         10
   101         10
   102         10
   103        100
   104         10
   116         10
   117         60
   129         70
   130         20
   131         20
   133         50
   143         20
   147        270
   148         40
   149         30
   157         10
   189         80
   190         20
   191         30
   203         10
   204         80
   205        110
   206         30
   207         10
   217        260
   218         50
   219         40
   220         20
   221         10
   229         20
   230         20
   231         20
   243         40
   244         50
   245         20
   246         10
   271         20
   292         10
   305         10
   318         10
   319         10
   333         20
   334         10
   347          1
   348         17
   349          5
   350          2
   361         58
   362         20
   363         32
   364          8
   365          4
   367          1
   393          2
   423          2
   451         19
   452          7
   453          4
   454          1
   466         31
   467         13
   468          8
   469          2