##TITLE=Library Entry 73374
##JCAMP-DX=Revision 4.10 
##DATA TYPE=MASS SPECTRUM
##SAMPLE DESCRIPTION=H-W. FEHLHABER INST. ORGANIC CHEM., UNIV. OF BONN, W. G
ERMANY
##NAMES=HP
##CAS NAME=Butanamide, 2-(dimethylamino)-N-[5,8-dioxo-3-phenyl-7-(phenylmeth
yl)-2-oxa-6,9-diazabicyclo[10.2.2]hexadeca-12,14,15-trien-4-yl]-3-methyl-, [
3R-[3R*,4S*(S*,7S*)]]-
##MOLFORM=C33H40N4O4
##CAS REGISTRY NO=55517-68-5
##MP= -300
##BP= -300
##MW= 556
##$RETENTION INDEX=0
##$CONDENSED SPECTRUM=NO
##NPOINTS= 261
##XYDATA=(XY..XY) 1 
    40          2
    41         10
    42         25
    43         11
    44         24
    45          3
    46          2
    49          0
    50          2
    51          6
    52          2
    53          2
    54          1
    55         12
    56          4
    57         10
    58         10
    59          0
    60          0
    61          0
    62          1
    63          2
    64          1
    65          5
    66          1
    67          1
    68          2
    69          4
    70         10
    71          3
    72          1
    73          0
    74          0
    75          0
    76          1
    77         13
    78          6
    79          2
    80          0
    81          1
    82          2
    83          6
    84         19
    85         26
    86         13
    87         10
    89          3
    90          7
    91         33
    92         10
    93          1
    94          1
    95          0
    96          0
    97          1
    99         13
   100        999
   101         78
   102          3
   103         19
   104          8
   105          6
   106          2
   107         13
   108          3
   109          0
   110          0
   111          0
   112          1
   113          0
   114         19
   115          2
   116          2
   117          7
   118          8
   119         11
   120         38
   121         14
   122          1
   123          0
   124          0
   125          0
   126          1
   127          0
   128          3
   129          1
   130          2
   131         43
   132          8
   133          2
   134          1
   135          1
   136          0
   137          0
   138          0
   139          0
   140          0
   141          6
   142          1
   143          0
   144          1
   145          3
   146          7
   147          3
   148          3
   149          0
   150          0
   152          0
   153          0
   154          0
   155          0
   156          0
   157          0
   158          1
   159          0
   160          3
   161          1
   162          0
   163          0
   164          0
   165          1
   166          0
   167          0
   168          0
   169          0
   172          0
   173          1
   174          1
   175          4
   176          1
   177          0
   178          0
   179          0
   180          0
   181          1
   182          0
   183          0
   184          0
   186          0
   187          1
   188          1
   189          0
   190          0
   191          0
   192          0
   193          1
   194          0
   195          0
   196          1
   197          0
   198          0
   199          0
   200          0
   201          2
   202          1
   203          1
   204          0
   205          0
   206          0
   207          0
   208          0
   209          1
   210          1
   211          0
   214          0
   215          0
   220          0
   221          0
   222          0
   223          0
   224          0
   225          0
   226          2
   227          0
   228          0
   229          2
   230          0
   231          0
   232          0
   236          0
   237          0
   238          0
   243          0
   244          0
   245          0
   247          1
   248          0
   249          0
   250          2
   251          0
   252          0
   253          0
   254          0
   256          0
   263          2
   264          0
   265          0
   266          0
   267          0
   269          0
   273          0
   274          0
   275          0
   277          0
   278          0
   279          0
   280          0
   281          0
   284          0
   285          0
   291          0
   292          0
   293          0
   294          0
   295          0
   296          0
   297          0
   303          0
   305          0
   310          0
   311          0
   312          0
   321          0
   322          0
   331          0
   332          0
   336          0
   338          0
   339          0
   348          0
   349          0
   350          0
   373          0
   374          0
   379          0
   393          0
   394          0
   395          0
   412          0
   414          0
   428          0
   429          0
   440          0
   455          0
   457          0
   498          0
   499          0
   511          1
   512          0
   513          4
   514          1
   515          0
   517          0
   520          0
   521          0
   541          0
   542          0
   554          0
   555          0
   556          0
   557          0