##TITLE=Library Entry 43850
##JCAMP-DX=Revision 4.10 
##DATA TYPE=MASS SPECTRUM
##SAMPLE DESCRIPTION=BAY 0349
##NAMES=HP
##CAS NAME=D-Arabino-Hexonic acid, 2-deoxy-3,5-bis-O-(trimethylsilyl)-, .gam
ma.-lactone, bis(trimethylsilyl) phosphate
##MOLFORM=C18H43O8PSi4
##CAS REGISTRY NO=55517-62-9
##MP= -300
##BP= -300
##MW= 530
##$RETENTION INDEX=0
##$CONDENSED SPECTRUM=NO
##NPOINTS= 264
##XYDATA=(XY..XY) 1 
    41         32
    42         13
    43         59
    44        138
    45        109
    46         11
    47         43
    48          5
    49         11
    50         11
    51         11
    52         11
    53         13
    54          8
    55         40
    56          8
    57         21
    58         13
    59         61
    60         11
    61         21
    62          5
    63         11
    64          5
    65          8
    66          8
    67         16
    68          5
    69         21
    70         11
    71         16
    72         24
    73        999
    74         96
    75        293
    76         32
    77         59
    78         37
    79         11
    80          5
    81         21
    82         13
    83         11
    84          8
    85         16
    86          5
    87         11
    88          5
    89         11
    90          5
    91          8
    92          5
    93         16
    94          8
    95         16
    96         11
    97         11
    98         11
    99         21
   100         11
   101         74
   102         27
   103         27
   104          8
   105         11
   109         45
   110          5
   111         11
   112          3
   113         72
   114         11
   115         27
   116         37
   117         64
   118          3
   119         27
   120          5
   121         13
   122          5
   123          5
   125          8
   126          5
   127         13
   128         11
   129        122
   130         37
   131         40
   132         13
   133        106
   134         16
   135         40
   136          5
   137         16
   138          5
   139          8
   140          5
   141          5
   142         11
   143         64
   144         16
   145         16
   146          5
   147        176
   148         21
   149         37
   150          8
   151         11
   152          5
   153          8
   154         16
   155         48
   156         43
   157         29
   158          8
   159         43
   160          5
   161          8
   163          8
   165          5
   166          5
   167          5
   169         16
   170          8
   171         21
   172          5
   173         11
   174         11
   175          5
   176          5
   177         11
   178          5
   179         11
   180         11
   181         27
   182         11
   183         43
   184         11
   185          5
   189         13
   191         37
   192         11
   193         27
   194          8
   195         32
   196         11
   197         27
   198         53
   199         40
   200         11
   201         32
   202          8
   203         11
   204         21
   205         13
   207         53
   208         27
   209         27
   210         11
   211        112
   212         37
   213         21
   214          5
   215          8
   217         21
   218         13
   219          3
   221          8
   225         32
   226         32
   227        176
   228         43
   229         27
   230          5
   231         13
   232          5
   233          5
   241         13
   242          5
   243        250
   244         53
   245         43
   246          8
   247          5
   253         35
   254         11
   255         16
   256         32
   257         11
   258          5
   259          8
   267          8
   268          5
   269         32
   270         21
   271         16
   272          3
   273         16
   275         11
   276          5
   283         27
   284         11
   285         37
   286          8
   287          8
   288          8
   289          5
   298         11
   299        531
   300        112
   301         90
   302         19
   303          8
   304          3
   313         21
   314         59
   315        271
   316         90
   317         53
   318         16
   319          8
   328         32
   329         11
   330          5
   335         32
   336         11
   337          3
   341         43
   342         16
   343          8
   344          3
   350         21
   351         11
   352          5
   353          3
   357         96
   358         27
   359         16
   360          3
   369         43
   370        138
   371         59
   372         27
   373         16
   374          8
   375          5
   387          8
   389         11
   390          5
   391          3
   397         19
   398          8
   422         21
   423          5
   425         80
   426         27
   427         19
   428          3
   440          5
   441          3
   515        149
   516         59
   517         32
   518         11
   519          3