##TITLE=Library Entry 42761
##JCAMP-DX=Revision 4.10 
##DATA TYPE=MASS SPECTRUM
##SAMPLE DESCRIPTION=Exported from NIST MS Search
##NAMES=HP
##CAS NAME=Mannonic acid, lactone - 4TMS derivative
##MOLFORM=C18H42O6Si4
##CAS REGISTRY NO=55515-28-1
##MP= -300
##BP= -300
##MW= 466
##$RETENTION INDEX=1912
##$CONDENSED SPECTRUM=NO
##NPOINTS= 65
##XYDATA=(XY..XY) 1 
    43         10
    44         20
    45         60
    55         10
    59         30
    72         20
    73        999
    74         90
    75         80
    81         20
    89         10
   101         20
   102         20
   103         90
   117         50
   129        130
   130         40
   131         30
   133         50
   143         30
   147        240
   148         40
   149         30
   157         40
   169         20
   189         70
   190         10
   191         30
   204         70
   205         20
   217         90
   218         20
   219         50
   220        100
   221         30
   222         10
   229         80
   230         30
   231         20
   243         30
   245         10
   305         20
   317         10
   319        210
   320         60
   321         30
   333         30
   335         10
   347          1
   348          1
   359          1
   360          1
   361         29
   362          8
   363          5
   364          1
   376          2
   377          1
   451         13
   452          6
   453          3
   454          1
   466         11
   467          5
   468          3