##TITLE=Library Entry 40895
##JCAMP-DX=Revision 4.10 
##DATA TYPE=MASS SPECTRUM
##SAMPLE DESCRIPTION=S. MARKEY UNIV. OF COLO. MED. CTR., DENVER, COLORADO, U
SA
##NAMES=HP
##CAS NAME=8-Methoxykynurenic acid, 2TMS derivative
##MOLFORM=C17H25NO4Si2
##CAS REGISTRY NO=55517-50-5
##MP= -300
##BP= -300
##MW= 363
##$RETENTION INDEX=0
##$CONDENSED SPECTRUM=NO
##NPOINTS= 75
##XYDATA=(XY..XY) 1 
    40        231
    41          5
    43        105
    44        178
    45        350
    46          7
    47         59
    53          6
    55          9
    57          6
    58         12
    59         48
    62          6
    63         23
    73        999
    74        105
    75        224
    76         35
    77         67
    88          8
    89         33
    93         40
   100          5
   114         13
   115         37
   116         36
   117         16
   128         13
   129          5
   130         22
   133         26
   144         16
   145         18
   147         30
   158         10
   172         41
   173         52
   174         28
   186         57
   187         19
   188         18
   200         45
   201         22
   202         59
   214         19
   215         12
   216        143
   217        116
   218         95
   219          5
   230         31
   231         45
   232         37
   244         71
   245        329
   246        204
   247         94
   248         24
   261          5
   274         19
   275         60
   288          8
   289         17
   290         59
   291         10
   304         15
   318         30
   332         15
   334         84
   335         19
   348         58
   349          5
   362        189
   363        121
   364         33