##TITLE=Library Entry 43378
##JCAMP-DX=Revision 4.10 
##DATA TYPE=MASS SPECTRUM
##SAMPLE DESCRIPTION=Exported from NIST MS Search
##NAMES=HP
##CAS NAME=Gluonic acid, .gamma.-lactone, 4TMS derivavative
##MOLFORM=C18H42O6Si4
##CAS REGISTRY NO=55515-33-8
##MP= -300
##BP= -300
##MW= 466
##$RETENTION INDEX=1932
##$CONDENSED SPECTRUM=NO
##NPOINTS= 68
##XYDATA=(XY..XY) 1 
    15         30
    43         20
    45         60
    47         10
    55         10
    58         10
    59         30
    72         10
    73        999
    74         70
    75         90
    81         20
    89         10
   101         10
   103        100
   117         50
   129         60
   130         10
   131         30
   133         50
   135         10
   143         20
   145         10
   147        210
   148         30
   149         40
   155         10
   189         60
   190         20
   191         20
   203         20
   204        100
   205        120
   206         30
   207         20
   217        420
   218         80
   219         60
   221         10
   229         10
   230         10
   231         10
   243         30
   244         40
   245         20
   271         10
   292         10
   305         40
   306         10
   307         10
   317         10
   319         10
   331         10
   332         30
   333         30
   334         30
   335         30
   348          5
   349          4
   361         28
   362          9
   363          6
   423          4
   451          7
   452          1
   466         19
   467          8
   468          5