##TITLE=Library Entry 35342
##JCAMP-DX=Revision 4.10 
##DATA TYPE=MASS SPECTRUM
##SAMPLE DESCRIPTION=BAY 0382
##NAMES=HP
##CAS NAME=Cholesta-8,24-dien-3-ol, (3.beta.,5.alpha.)-, TMS derivative
##MOLFORM=C30H52OSi
##CAS REGISTRY NO=55515-19-0
##MP= -300
##BP= -300
##MW= 456
##$RETENTION INDEX=0
##$CONDENSED SPECTRUM=NO
##NPOINTS= 129
##XYDATA=(XY..XY) 1 
    61         30
    65         20
    67        230
    68         40
    69        999
    70         60
    71         20
    73        580
    74         50
    75        700
    76         50
    77        100
    78         20
    79        220
    80         30
    81        390
    82         90
    83        130
    89         20
    91        320
    92         60
    93        300
    94         60
    95        360
    96         40
    97         50
   101         20
   103         20
   105        330
   106         90
   107        520
   108         80
   109        240
   110         30
   111         30
   115         30
   116         20
   117        110
   118         40
   119        250
   120         90
   121        210
   122         80
   123        100
   128         30
   129        120
   130         40
   131        220
   132        110
   133        240
   134         80
   135        170
   136         70
   137         80
   141         20
   142         30
   143        110
   144         60
   145        220
   146         70
   147        270
   148         60
   149        100
   150         30
   155         40
   156         20
   157         90
   158         40
   159        180
   160         50
   161        130
   162         30
   163         40
   164         20
   169         50
   171         80
   172         30
   173        100
   174         30
   175         50
   177         20
   182         30
   183         40
   185         80
   186         30
   187         80
   188         20
   189         30
   196         40
   197         50
   198         20
   199         80
   200         30
   201         90
   202         20
   203         30
   205         40
   209         20
   211         50
   213        300
   214         70
   215         80
   227         80
   228         70
   229        190
   230         40
   239         30
   241         30
   243         40
   245         20
   253         30
   255         60
   257         20
   258         30
   259         30
   303         30
   318         20
   343         40
   351        190
   352         60
   366         80
   367         20
   399         20
   441        210
   442         80
   443         20
   456        360
   457        140
   458         40