##TITLE=Library Entry 43979
##JCAMP-DX=Revision 4.10 
##DATA TYPE=MASS SPECTRUM
##SAMPLE DESCRIPTION=BAY 0311
##NAMES=HP
##CAS NAME=D-Erythro-Pentose, 2-deoxy-3,4-bis-O-(trimethylsilyl)-, 5-[bis(tr
imethylsilyl) methoxyphosphorimidate]
##MOLFORM=C18H46NO7PSi4
##CAS REGISTRY NO=55517-63-0
##MP= -300
##BP= -300
##MW= 531
##$RETENTION INDEX=0
##$CONDENSED SPECTRUM=NO
##NPOINTS= 247
##XYDATA=(XY..XY) 1 
    41         81
    42         26
    43         36
    44         21
    45         94
    46         10
    47         16
    48          3
    49          5
    50          8
    51         16
    52         23
    53         10
    54         10
    55         16
    56          5
    57         10
    58          8
    59         89
    60          8
    61         13
    62          3
    63          5
    65          5
    66          5
    67         16
    68        151
    69         16
    70         23
    71         10
    72         23
    73        999
    74         89
    75        167
    76         10
    77         26
    78          8
    79         31
    80          8
    81          8
    82          5
    83          5
    84          5
    85         16
    86          8
    87          8
    88          3
    89         47
    90          3
    91          8
    92          3
    93         18
    94          5
    95         10
    96         10
    97          8
    98         10
    99         13
   100          8
   101        177
   102         18
   103         44
   104          8
   105         29
   106          5
   107          3
   109          3
   110         78
   111          8
   112          5
   113          5
   114          3
   115         13
   116        130
   117         29
   118          8
   119         10
   121          8
   125          5
   126         21
   127         16
   128         10
   129         57
   130         16
   131         16
   132          8
   133         78
   134         10
   135         23
   136          5
   137          8
   139          3
   140         13
   141          5
   142         78
   143         23
   144         10
   145          8
   146          3
   147        172
   148         23
   149         26
   150          5
   151          8
   152         10
   153          5
   154          8
   155          5
   156          8
   157          5
   158         13
   159          5
   163          5
   167          5
   168         49
   169         16
   170         10
   171          8
   172          8
   173        135
   174         52
   175         10
   176          3
   177          5
   179          5
   181          5
   183          3
   184          5
   186          8
   187          3
   189          5
   191         13
   193         13
   194          5
   195         13
   197          8
   198         10
   199         13
   200         44
   201          8
   202         10
   203          3
   204         13
   205          8
   207         31
   208          5
   209          5
   210          3
   211        125
   212         13
   213         10
   214          5
   216          5
   217         83
   218         23
   219         13
   220          3
   221          5
   225         26
   226          8
   227         78
   228         10
   229          8
   230          3
   231          5
   241          8
   242         10
   243         47
   244         13
   245          5
   246          3
   253          5
   255          5
   256          3
   257          3
   258         16
   259         10
   260          3
   267          3
   269         10
   270          3
   271          3
   274          8
   275          3
   276          5
   277          3
   281          5
   283         16
   284          5
   285         21
   286          8
   287          5
   289          8
   290         10
   291          3
   299        286
   300         78
   301         52
   302          8
   303          3
   313         13
   314         21
   315        520
   316        146
   317         73
   318         16
   319          5
   328         13
   329          5
   330          3
   331         16
   332          3
   341         13
   342          5
   343          5
   357        292
   358         78
   359         31
   360         10
   361          3
   369         10
   370          3
   371          5
   372          3
   373         10
   374          3
   387         57
   388         18
   389         13
   390          5
   394          8
   395          3
   415          5
   416          3
   429          3
   459         13
   460          5
   461          3
   484          8
   485          3
   500         13
   501          5
   502          3
   516         18
   517          8
   518          3
   531          3