##TITLE=Library Entry 77992
##JCAMP-DX=Revision 4.10 
##DATA TYPE=MASS SPECTRUM
##SAMPLE DESCRIPTION=Exported from NIST MS Search
##NAMES=HP
##CAS NAME=Benzene, 1,4-dihexadecyl-
##MOLFORM=C38H70
##CAS REGISTRY NO=55517-88-9
##MP= -300
##BP= -300
##MW= 526
##$RETENTION INDEX=0
##$CONDENSED SPECTRUM=NO
##NPOINTS= 182
##XYDATA=(XY..XY) 1 
    39         40
    40          9
    41        273
    42         66
    43        699
    44         25
    50          3
    51          4
    52          3
    53         13
    54         15
    55        192
    56         59
    57        413
    58         20
    63          2
    64          2
    65          4
    66          3
    67         21
    68         11
    69         91
    70         28
    71        158
    72         10
    77          9
    78          8
    79         11
    80          4
    81         14
    82          9
    83         51
    84         14
    85         85
    86          6
    89          2
    90          2
    91        164
    92         38
    93          9
    94          4
    95          8
    96          6
    97         27
    98          8
    99         14
   100          2
   101          2
   102          2
   103          8
   104        190
   105        999
   106        124
   107         11
   108          2
   109          3
   110          4
   111         10
   112          4
   113          9
   114          1
   115          8
   116          6
   117        116
   118         42
   119         88
   120         14
   121          3
   122          1
   123          1
   124          1
   125          3
   126          4
   127          6
   128          4
   129          9
   130         10
   131         56
   132         12
   133         20
   134          3
   135          1
   136          1
   137          1
   138          1
   139          2
   140          2
   141          6
   142          2
   143          4
   144          4
   145         25
   146          6
   147         12
   148          3
   153          1
   154          2
   155          4
   156          1
   157          1
   159         10
   160          4
   161          6
   162          1
   165          1
   166          1
   167          2
   168          2
   169          3
   170          1
   171          1
   172          2
   173          7
   174          2
   175          5
   176          1
   179          1
   180          1
   181          1
   182          2
   183          3
   187          3
   188          2
   189          4
   190          2
   196          1
   197          2
   200          1
   201          2
   202          2
   203          5
   204          2
   210          1
   211          1
   215          2
   216          1
   217          2
   218          1
   224          1
   225          1
   229          1
   231          2
   238          1
   239          1
   243          1
   244          1
   245          1
   253          1
   257          1
   258          1
   259          1
   267          1
   301          1
   302          2
   313          1
   314          2
   315         25
   316         29
   317          7
   318          1
   328          4
   329          3
   330          3
   331          1
   341          1
   342          2
   343          4
   344          4
   345          1
   355          1
   356          2
   357          4
   358          1
   498          2
   499          1
   512          8
   513          3
   524          8
   526        390
   527        169
   528         37
   529          7