##TITLE=Library Entry 40859
##JCAMP-DX=Revision 4.10 
##DATA TYPE=MASS SPECTRUM
##SAMPLE DESCRIPTION=S. MARKEY UNIV. OF COLO. MED. CTR., DENVER, COLORADO, U
SA
##NAMES=HP
##CAS NAME=Homocysteine thiolactone, TMS derivative
##MOLFORM=C7H15NOSSi
##CAS REGISTRY NO=55517-34-5
##MP= -300
##BP= -300
##MW= 189
##$RETENTION INDEX=0
##$CONDENSED SPECTRUM=NO
##NPOINTS= 79
##XYDATA=(XY..XY) 1 
    38          2
    39         56
    40          3
    41         73
    42        144
    43        488
    44        208
    45        590
    46         79
    47         52
    49         27
    50          1
    52          6
    53         34
    54         64
    55         89
    56        166
    57         75
    58        133
    59        304
    60         73
    61         64
    63          3
    67          2
    68         18
    69         13
    70         46
    71         26
    72         70
    73        999
    74        106
    75        137
    76         14
    77         29
    82         26
    83          9
    84         36
    85         17
    86         31
    87         20
    88         13
    89         16
    90         15
    91         78
    92          9
    93          8
    96          7
    97          4
    99          8
   100        461
   101         55
   102         43
   105          1
   110          1
   112         28
   113          3
   114         66
   115        148
   116         32
   117         13
   118         99
   119         14
   120          8
   126          1
   127          3
   128        523
   130         29
   132          7
   133         48
   141          3
   142          1
   146         89
   147         25
   148          6
   160          1
   161        134
   162         21
   163         11
   174         18