##TITLE=Library Entry 24439
##JCAMP-DX=Revision 4.10 
##DATA TYPE=MASS SPECTRUM
##SAMPLE DESCRIPTION=CONTINENTAL OIL CO., PONCA CITY, OKLA, USA
##NAMES=HP
##CAS NAME=Cyclohexane, (1-hexadecylheptadecyl)-
##MOLFORM=C39H78
##CAS REGISTRY NO=55517-75-4
##MP= -300
##BP= -300
##MW= 546
##$RETENTION INDEX=0
##$CONDENSED SPECTRUM=NO
##NPOINTS= 296
##XYDATA=(XY..XY) 1 
    13          3
    14          7
    15         18
    16          8
    24          1
    25          2
    26         11
    27         94
    28         68
    29        228
    30          7
    37          4
    38          6
    39         56
    40         15
    41        440
    42        101
    43        940
    44        168
    45          4
    46          2
    49          2
    50          5
    51          8
    52          5
    53         24
    54         87
    55        728
    56        203
    57        999
    58         45
    59          2
    61          2
    62          2
    63          3
    64          2
    65          7
    66         13
    67        203
    68         85
    69        407
    70        132
    71        564
    72         33
    73          3
    74          3
    75          3
    76          3
    77         10
    78         12
    79         23
    80         17
    81        132
    82        736
    83        761
    84        100
    85        244
    86         15
    91         37
    92          8
    93          8
    94          6
    95         68
    96        103
    97        298
    98         42
    99         51
   100          3
   102          0
   103          1
   104          5
   105         24
   106          4
   107          4
   108          4
   109         52
   110         29
   111        123
   112         24
   113         34
   114          2
   115          2
   116          0
   117          6
   118          3
   119          6
   120          1
   121          2
   122          2
   123         14
   124         13
   125         53
   126         14
   127         25
   128          4
   129          2
   130          0
   131          4
   132          1
   133          3
   134          0
   135          2
   136          1
   137          7
   138          7
   139         23
   140          9
   141         20
   142          2
   143          1
   144          0
   145          2
   146          0
   147          2
   148          0
   149          1
   150          0
   151          3
   152          6
   153         15
   154          8
   155         16
   156          2
   157          0
   158          0
   159          1
   160          0
   161          1
   162          0
   163          0
   164          0
   165          2
   166          4
   167         12
   168          6
   169         12
   170          1
   171          0
   173          0
   174          0
   175          0
   176          0
   177          0
   178          1
   179          2
   180          3
   181          9
   182          5
   183          9
   184          1
   185          0
   187          0
   188          0
   189          0
   190          0
   191          1
   192          0
   193          1
   194          3
   195          7
   196          5
   197          8
   198          1
   201          0
   202          0
   203          0
   204          0
   205          0
   206          0
   207          1
   208          5
   209          7
   210          5
   211          6
   212          1
   215          0
   216          0
   217          0
   218          0
   219          0
   220          0
   221          1
   222          9
   223          8
   224          5
   225          7
   226          2
   229          0
   230          0
   231          0
   233          0
   234          0
   235          1
   236          5
   237          7
   238          4
   239          6
   240          1
   243          0
   245          0
   248          0
   249          1
   250          4
   251          6
   252          4
   253          4
   254          0
   257          0
   259          0
   262          0
   263          1
   264          3
   265          5
   266          3
   267          4
   268          1
   273          0
   274          0
   277          1
   278          4
   279          4
   280          2
   281          3
   282          1
   287          0
   292          8
   293          7
   294          3
   295          3
   301          0
   304          0
   306         15
   307         19
   308          5
   309          3
   314          0
   315          2
   316          2
   317          1
   318          1
   319          3
   320        148
   321        192
   322         45
   323          7
   324          0
   328          0
   329          0
   330          0
   332          1
   333          3
   334          9
   335          8
   336          4
   337          3
   344          0
   348          2
   349          3
   350          2
   351          2
   361          0
   362          2
   363          2
   364          1
   365          2
   376          1
   377          1
   378          1
   379          2
   390          1
   391          1
   392          1
   393          2
   404          0
   405          0
   406          1
   407          1
   418          0
   420          1
   421          1
   432          0
   434          6
   435          4
   446          0
   448         13
   449         12
   461          6
   462        114
   463        113
   464         34
   476          0
   477          0
   538          0
   544          2
   545          1
   546          0