##TITLE=Library Entry 20615
##JCAMP-DX=Revision 4.10 
##DATA TYPE=MASS SPECTRUM
##SAMPLE DESCRIPTION=Chemical Concepts
##NAMES=HP
##CAS NAME=2-Butenoic acid, 2-methyl-, ethyl ester
##MOLFORM=C7H12O2
##CAS REGISTRY NO=55514-48-2
##MP= -300
##BP= -300
##MW= 128
##$RETENTION INDEX=937
##$CONDENSED SPECTRUM=NO
##NPOINTS= 67
##XYDATA=(XY..XY) 1 
    26         64
    27        405
    28         96
    29        531
    30         12
    31         10
    36          1
    37          4
    38         12
    39        201
    40         20
    41         63
    42          9
    43         51
    44         11
    45         66
    49          3
    50         23
    51         36
    52         20
    53        120
    54        132
    55        999
    56         84
    57         16
    58          7
    59         11
    60          2
    64          6
    65          1
    66          2
    67          7
    68          3
    69         18
    70          8
    71         10
    72          7
    73         14
    74          2
    75          2
    79          2
    80          1
    81         13
    82        125
    83        769
    84         53
    85        111
    86          5
    87          1
    91          2
    92          1
    95          7
    97          1
    98          1
    99         23
   100        234
   101         16
   102          1
   110          3
   111          2
   113        221
   114         16
   115          3
   127          2
   128        179
   129         17
   130          2