##TITLE=Library Entry 53299
##JCAMP-DX=Revision 4.10 
##DATA TYPE=MASS SPECTRUM
##SAMPLE DESCRIPTION=NIST Mass Spectrometry Data Center
##NAMES=HP
##CAS NAME=Glycine, N-(2-methyl-1-oxo-2-butenyl)-, trimethylsilyl ester, (E)
-
##MOLFORM=C10H19NO3Si
##CAS REGISTRY NO=55517-35-6
##MP= -300
##BP= -300
##MW= 229
##$RETENTION INDEX=1579
##$CONDENSED SPECTRUM=NO
##NPOINTS= 136
##XYDATA=(XY..XY) 1 
    15          2
    26          2
    27         33
    28         18
    29         64
    30         13
    31          2
    38          2
    39         59
    40          7
    41         12
    42         12
    43         34
    44         17
    45         95
    46          7
    47         44
    48          2
    49          2
    50          5
    51         11
    52          8
    53         75
    54         75
    55        536
    56         45
    57         10
    58         40
    59         36
    60         11
    61         40
    62          3
    63          2
    64          1
    65          2
    66          2
    67         10
    68          6
    69         15
    70          6
    71          4
    72         34
    73        732
    74         74
    75        239
    76         18
    77         14
    79          1
    80          8
    81          8
    82         79
    83        999
    84         64
    85          7
    86         17
    87         18
    88         26
    89          5
    90          1
    91          1
    92          1
    93          1
    94         11
    95          5
    96         22
    97          5
    98          5
   100         11
   101         11
   102         26
   103          4
   104          4
   105          1
   107          3
   108          1
   109          2
   110         21
   111         22
   112         56
   113         15
   114          3
   115          2
   116         14
   117          8
   118          2
   123          1
   124          2
   125          2
   126         10
   127          6
   128          3
   129          2
   130         10
   131          4
   132          2
   139         45
   140          8
   141         31
   142         26
   143          6
   144          2
   145          1
   146          3
   147          1
   148          1
   152          2
   153          1
   154         82
   155         26
   156         24
   157         12
   158          3
   159          1
   166          2
   167          1
   168          9
   170        979
   171        146
   172         45
   173          4
   174          2
   182          1
   183          1
   184         23
   185         15
   186          3
   187          1
   211          1
   212          1
   214        131
   215         20
   216          6
   217          1
   229         82
   230         14
   231          4