##TITLE=Library Entry 24356
##JCAMP-DX=Revision 4.10 
##DATA TYPE=MASS SPECTRUM
##SAMPLE DESCRIPTION=Exported from NIST MS Search
##NAMES=HP
##CAS NAME=Pentacosane, 13-undecyl-
##MOLFORM=C36H74
##CAS REGISTRY NO=55517-89-0
##MP= -300
##BP= -300
##MW= 506
##$RETENTION INDEX=0
##$CONDENSED SPECTRUM=NO
##NPOINTS= 241
##XYDATA=(XY..XY) 1 
    39         40
    40         11
    41        333
    42        100
    43        990
    44         34
    45          1
    47          1
    49          1
    50          2
    51          3
    52          2
    53         14
    54         38
    55        349
    56        173
    57        999
    58         46
    59          1
    63          1
    64          1
    65          3
    66          3
    67         45
    68         40
    69        242
    70        109
    71        599
    72         34
    73          1
    74          1
    75          1
    76          1
    77          3
    78          1
    79          6
    80          3
    81         30
    82         37
    83        196
    84         60
    85        426
    86         29
    87          1
    91          3
    92          1
    93          4
    94          2
    95         19
    96         23
    97        140
    98         33
    99        121
   100         10
   101          1
   102          1
   103          1
   104          1
   105          2
   106          1
   107          2
   108          1
   109          8
   110         11
   111         67
   112         21
   113         83
   114          8
   115          1
   116          1
   117          1
   118          1
   119          2
   120          1
   121          1
   122          1
   123          4
   124          7
   125         31
   126         15
   127         62
   128          7
   129          1
   130          1
   131          1
   132          1
   133          1
   134          1
   135          2
   136          1
   137          4
   138          6
   139         15
   140         12
   141         48
   142          6
   143          1
   144          1
   145          1
   146          1
   147          1
   148          1
   149          1
   150          1
   151          1
   152          5
   153         10
   154         11
   155         38
   156          5
   157          1
   158          1
   159          1
   162          1
   163          1
   164          1
   165          1
   166          4
   167          8
   168         11
   169         32
   170          5
   171          1
   172          1
   173          1
   178          1
   179          1
   180          4
   181          8
   182          7
   183         26
   184          5
   185          1
   186          1
   187          1
   188          1
   189          1
   190          1
   191          1
   192          1
   193          1
   194          4
   195          6
   196          6
   197         23
   198          4
   199          1
   200          1
   201          1
   202          1
   203          1
   204          1
   205          1
   206          1
   207          1
   208          3
   209          5
   210          6
   211         20
   212          4
   213          1
   221          1
   222          3
   223          4
   224          4
   225         17
   226          4
   227          1
   235          1
   236          3
   237          4
   238          4
   239         16
   240          4
   241          1
   250          2
   251          3
   252          4
   253         14
   254          3
   255          1
   264          2
   265          2
   266          3
   267         12
   268          3
   269          1
   278          1
   279          2
   280          3
   281         10
   282          3
   283          1
   292          1
   293          1
   294          3
   295          7
   296          2
   297          1
   306          1
   307          1
   308          7
   309          6
   310          1
   311          1
   320          1
   321          1
   322          6
   323          6
   324          1
   335          1
   336        101
   337        139
   338         34
   339          5
   340          1
   349          1
   350         46
   351         70
   352         18
   353          3
   354          1
   364          4
   365          6
   366          2
   367          1
   377          1
   378          2
   379          3
   380          1
   392          1
   393          1
   394          1
   406          1
   407          1
   408          1
   420          1
   421          1
   434          1
   435          1
   436          1