##TITLE=Library Entry 42165
##JCAMP-DX=Revision 4.10 
##DATA TYPE=MASS SPECTRUM
##SAMPLE DESCRIPTION=O A MAMER, MCGILL UNIVERSITY, MONTREid, trimet
##NAMES=HP
##CAS NAME=Heptadecanoic acid, TMS derivative
##MOLFORM=C20H42O2Si
##CAS REGISTRY NO=55517-58-3
##MP= -300
##BP= -300
##MW= 342
##$RETENTION INDEX=2146
##$CONDENSED SPECTRUM=NO
##NPOINTS= 99
##XYDATA=(XY..XY) 1 
    14          7
    15         17
    18         11
    26         14
    27         55
    28         42
    29        143
    32          8
    39         32
    40         10
    41        257
    42         59
    43        382
    44         20
    45         65
    47         34
    52         14
    53         16
    54         21
    55        263
    56         55
    57        152
    58         22
    59         30
    60         10
    61         51
    67         49
    68         17
    69        118
    70         25
    71         43
    72         32
    73        999
    74        100
    75        697
    76         51
    77         34
    79         28
    81         47
    82         13
    83         66
    84         29
    85         22
    86          7
    87          8
    89         25
    91          9
    93         13
    95         40
    96         11
    97         45
    98         36
    99         15
   101         10
   105         19
   109         15
   111         19
   112         12
   116         53
   117        712
   118         70
   119         32
   121          9
   129        286
   130         40
   131         89
   132        484
   133         89
   134         26
   135          8
   143         20
   145        296
   146         39
   147         19
   154          4
   159         24
   171         15
   172          5
   173          7
   185         19
   187         34
   188          9
   201         47
   202         10
   213          6
   227          8
   257          9
   283         23
   284          6
   299         21
   300          7
   311          7
   327        414
   328        112
   329         32
   330          6
   342         66
   343         19
   344          6