##TITLE=Library Entry 25569
##JCAMP-DX=Revision 4.10 
##DATA TYPE=MASS SPECTRUM
##SAMPLE DESCRIPTION=NIST Mass Spectrometry Data Center, 1998.
##NAMES=HP
##CAS NAME=Pyridate
##MOLFORM=C19H23ClN2O2S
##CAS REGISTRY NO=55512-33-9
##MP= -300
##BP= -300
##MW= 378
##$RETENTION INDEX=0
##$CONDENSED SPECTRUM=NO
##NPOINTS= 245
##XYDATA=(XY..XY) 1 
    15          1
    26          3
    27         53
    28         14
    29        135
    30          3
    32          1
    34          1
    35          3
    36          3
    37          2
    38          6
    39         89
    40         15
    41        405
    42         84
    43        598
    44         22
    45         26
    46         13
    47         42
    48          2
    49          6
    50         27
    51         49
    52         16
    53         28
    54         14
    55        234
    56         58
    57        999
    58         46
    59         15
    60         29
    61         24
    62         22
    63         78
    64          9
    65          8
    66          2
    67         85
    68        140
    69        104
    70         28
    71        789
    72         46
    73         10
    74        298
    75         32
    76        172
    77        125
    78         10
    79          4
    80          1
    81          6
    82          4
    83         15
    84          7
    85         12
    86         10
    87         42
    88         28
    89         99
    90         13
    91          3
    93          1
    94          1
    95          1
    96          2
    97          4
    98          6
    99         11
   100          9
   101         12
   102         75
   103        192
   104        391
   105         57
   106          4
   108          4
   109          2
   110          3
   111          2
   112          5
   113         30
   114         60
   115         72
   116         18
   117         11
   118         15
   119          3
   120          1
   121          7
   122          2
   123          4
   124          1
   125         15
   126        213
   127         24
   128          3
   129          3
   130         13
   131          4
   132          5
   133          1
   134          1
   135          1
   136          2
   137          1
   138         24
   139          2
   140          8
   141          4
   142         30
   143         29
   144         11
   145          7
   146          4
   147          2
   148          2
   149         27
   150          6
   151         10
   152          3
   153          1
   155          1
   156          1
   157          1
   158          8
   159          7
   160          6
   161         54
   162          9
   163         17
   164          2
   165          1
   169          1
   170          1
   171          7
   172          6
   173          5
   174          1
   175          1
   177          5
   178         16
   179          4
   180         27
   181          4
   182          1
   183          1
   185          1
   186          5
   187          1
   188          1
   190          5
   191          4
   192          2
   193          2
   197          1
   198          1
   199          1
   200          2
   201          1
   202          1
   203          2
   205        669
   206        472
   207        681
   208        205
   209        156
   210         19
   211          2
   212          1
   213          2
   214          6
   215          1
   216          2
   217          2
   218          3
   219         11
   220         12
   221          6
   222          4
   223          2
   225          1
   226          1
   227          3
   231          1
   232          1
   233         31
   234          6
   235         11
   236          3
   237         13
   238          3
   239          6
   240          1
   241          7
   242          1
   243          1
   245          1
   247          6
   248          1
   249          2
   253          1
   254          1
   255          6
   256          1
   261          5
   262          1
   263          1
   265          1
   266          1
   267          1
   275          5
   276          1
   277          1
   283        114
   284         22
   285          2
   287          1
   289         22
   290          4
   291          7
   292          1
   299          1
   301          1
   303          1
   315          3
   316          1
   317         17
   318          5
   319          6
   320          2
   343          6
   344          1
   350         40
   351          8
   352         15
   353          3
   354          1
   378         14
   379          3
   380          5
   381          2