##TITLE=Library Entry 15921
##JCAMP-DX=Revision 4.10 
##DATA TYPE=MASS SPECTRUM
##SAMPLE DESCRIPTION=Exported from NIST MS Search
##NAMES=HP
##CAS NAME=Acetamide, N-[(3.beta.)-3-amino-18-hydroxypregnan-20-yl]-
##MOLFORM=C23H40N2O2
##CAS REGISTRY NO=55515-16-7
##MP= -300
##BP= -300
##MW= 376
##$RETENTION INDEX=0
##$CONDENSED SPECTRUM=NO
##NPOINTS= 126
##XYDATA=(XY..XY) 1 
    41        160
    42         80
    43        160
    44        999
    45         40
    53         40
    54         20
    55        150
    56        480
    57        190
    58         50
    59         10
    62        150
    63         20
    66         20
    67         10
    68        120
    69         30
    70        200
    71        130
    72         40
    73         50
    74         20
    77         50
    78         20
    79        100
    80         40
    81        120
    82        320
    83        100
    84         50
    85         20
    86        619
    87        699
    88         50
    91         90
    92         30
    93        110
    94         30
    95        100
    96         30
    97         20
    98         10
   105         80
   106         30
   107        100
   108         40
   109         80
   110         30
   111         20
   112         20
   114         10
   115         10
   118         30
   119         10
   120         60
   121         20
   122         50
   123         20
   124         20
   125         20
   126         30
   127         10
   130         30
   131         10
   132         40
   133         20
   134         60
   135         30
   136         50
   137         20
   217         20
   226         10
   230         40
   231         50
   232         10
   241         30
   242         30
   243        100
   244         30
   256         20
   257         20
   258         20
   259         20
   260        470
   261        120
   262         20
   269         30
   270        100
   271         30
   272         30
   273         30
   274         10
   282         20
   285         20
   286         50
   287         70
   288         30
   289         10
   290         50
   291         50
   292         20
   299         50
   300         20
   301         10
   302         20
   312         10
   313         10
   314         20
   315         10
   316         10
   320         20
   329         30
   330         20
   331         10
   333         30
   334         10
   345         20
   346        200
   347         50
   348         10
   357         30
   358         20
   360         20
   375         10
   376         10