##TITLE=Library Entry 43374
##JCAMP-DX=Revision 4.10 
##DATA TYPE=MASS SPECTRUM
##SAMPLE DESCRIPTION=Exported from NIST MS Search
##NAMES=HP
##CAS NAME=Talonic acid, .gamma.-lactone, 4TMS derivavative
##MOLFORM=C18H42O6Si4
##CAS REGISTRY NO=55515-31-6
##MP= -300
##BP= -300
##MW= 466
##$RETENTION INDEX=1959
##$CONDENSED SPECTRUM=NO
##NPOINTS= 72
##XYDATA=(XY..XY) 1 
    15         10
    44         10
    45         60
    47         10
    59         30
    72         20
    73        999
    74         80
    75         70
    81         30
    89         10
   101         20
   103        120
   104         10
   117         60
   129         50
   130         20
   131         20
   133         40
   143         20
   147        210
   148         30
   149         40
   157         10
   189         70
   190         20
   191         20
   203         10
   204         60
   205        100
   206         20
   217        290
   218         60
   219         60
   220         20
   221         20
   227         10
   229         10
   230         10
   242         20
   244         50
   245         30
   246         10
   271         30
   292         10
   305         20
   317         20
   319         10
   333         30
   334         20
   335         20
   348          9
   349          4
   350          2
   357          2
   361         79
   362         23
   363         20
   364          6
   365          2
   393          3
   405          2
   417          3
   421          2
   451         28
   452         10
   453          7
   454          2
   466         31
   467         15
   468          8
   469          2