##TITLE=Library Entry 43575
##JCAMP-DX=Revision 4.10 
##DATA TYPE=MASS SPECTRUM
##SAMPLE DESCRIPTION=Exported from NIST MS Search
##NAMES=HP
##CAS NAME=3-Deoxyhexonic acid, 5TMS derivative
##MOLFORM=C21H52O6Si5
##CAS REGISTRY NO=55517-66-3
##MP= -300
##BP= -300
##MW= 540
##$RETENTION INDEX=1902
##$CONDENSED SPECTRUM=NO
##NPOINTS= 72
##XYDATA=(XY..XY) 1 
    41         14
    43         26
    44         26
    45         56
    55         29
    59         44
    72         26
    73        999
    74         88
    75        115
    83         29
   101         29
   103        103
   106         26
   107         41
   129        174
   130         23
   131         29
   133         56
   147        325
   148         56
   149         32
   159         14
   163         14
   189         11
   191         29
   203         26
   204         56
   205         59
   206         11
   207         11
   217         74
   218         23
   220         26
   221         26
   231         29
   243         41
   244         26
   245        763
   246        174
   247         85
   248         14
   257         26
   259          8
   271         26
   292         26
   293         14
   317         14
   319         26
   333         26
   335        118
   336         32
   337         29
   345         26
   347         32
   405         26
   406         26
   407         26
   423         29
   424         23
   434         14
   435         59
   436         29
   437         44
   438         26
   497         26
   498         17
   524         14
   525        109
   526         56
   527         29
   528         14