##TITLE=Library Entry 7832
##JCAMP-DX=Revision 4.10 
##DATA TYPE=MASS SPECTRUM
##SAMPLE DESCRIPTION=Exported from NIST MS Search
##NAMES=HP
##CAS NAME=Hexacosane, 13-dodecyl-
##MOLFORM=C38H78
##CAS REGISTRY NO=55517-73-2
##MP= -300
##BP= -300
##MW= 534
##$RETENTION INDEX=0
##$CONDENSED SPECTRUM=NO
##NPOINTS= 198
##XYDATA=(XY..XY) 1 
    37          2
    38          3
    39         43
    40         10
    41        328
    42        100
    43        999
    44         35
    45          1
    50          3
    51          3
    52          2
    53         14
    54         40
    55        344
    56        172
    57        998
    58         46
    59          2
    63          2
    64          1
    65          3
    66          4
    67         44
    68         41
    69        230
    70        103
    71        568
    72         32
    73          2
    74          2
    75          2
    76          2
    77          4
    78          2
    79          6
    80          4
    81         27
    82         36
    83        184
    84         55
    85        376
    86         26
    87          1
    91          8
    92          4
    93          4
    94          2
    95         16
    96         21
    97        127
    98         30
    99        104
   100          9
   101          2
   103          1
   104          2
   105          7
   106          2
   107          2
   108          1
   109          7
   110         10
   111         59
   112         19
   113         70
   114          7
   115          1
   116          1
   117          2
   118          1
   119          4
   120          1
   121          1
   122          1
   123          4
   124          6
   125         28
   126         13
   127         51
   128          6
   129          1
   130          1
   131          1
   132          1
   133          2
   134          1
   135          1
   136          1
   137          3
   138          5
   139         13
   140         10
   141         40
   142          5
   143          2
   151          1
   152          4
   153          8
   154          8
   155         31
   156          4
   165          1
   166          4
   167          7
   168          9
   169         25
   170          4
   171          1
   179          1
   180          4
   181          6
   182          8
   183         22
   184          4
   185          1
   193          2
   194          4
   195          6
   196          5
   197         18
   198          3
   208          3
   209          4
   210          6
   211         16
   212          3
   213          1
   214          1
   221          1
   222          2
   223          3
   224          4
   225         14
   226          3
   227          1
   228          1
   229          1
   230          2
   231          1
   236          2
   237          3
   238          3
   239         13
   240          3
   241          1
   250          4
   251          4
   252          4
   253         14
   254          4
   264          4
   265          4
   266          4
   267         12
   268          4
   278          3
   279          3
   280          4
   281         11
   282          3
   292          2
   293          2
   294          4
   295         10
   296          3
   305          2
   306          2
   307          2
   308          3
   309          7
   310          3
   321          2
   322          5
   323          6
   324          2
   336          7
   337          6
   338          3
   350         44
   351         61
   352         16
   353          3
   363          2
   364         75
   365        109
   366         31
   367          5
   378          4
   379          6
   380          2
   392          2
   393          3
   394          2
   406          1
   407          2
   420          1
   421          1