##TITLE=Library Entry 91091
##JCAMP-DX=Revision 4.10 
##DATA TYPE=MASS SPECTRUM
##SAMPLE DESCRIPTION=H-W. FEHLHABER INST. ORGANIC CHEM., UNIV. OF BONN, W. G
ERMANY
##NAMES=HP
##CAS NAME=Pentanamide, 2-(dimethylamino)-3-methyl-N-[7-(2-methylpropyl)-5,8
-dioxo-3-phenyl-2-oxa-6,9-diazabicyclo[10.2.2]hexadeca-12,14,15-trien-4-yl]-
, [3R-[3R*,4S*(2S*,3R*),7S*]]-
##MOLFORM=C31H44N4O4
##CAS REGISTRY NO=55517-65-2
##MP= -300
##BP= -300
##MW= 536
##$RETENTION INDEX=0
##$CONDENSED SPECTRUM=NO
##NPOINTS= 187
##XYDATA=(XY..XY) 1 
    40          1
    41         16
    42         19
    43         16
    44         16
    45          2
    46          5
    47          0
    48          0
    49          0
    50          1
    51          2
    52          1
    53          1
    54          1
    55          6
    56          4
    57          8
    58         13
    59          0
    60          0
    61          0
    62          0
    63          0
    64          8
    65          1
    66          0
    67          2
    68          1
    69         12
    70          7
    71          5
    72          2
    73          0
    74          0
    75          0
    76          0
    77          6
    78          3
    79          1
    80          0
    81          1
    82          2
    83          2
    84         15
    85         20
    86         15
    87         10
    88          1
    89          1
    90          4
    91         10
    92          2
    93          0
    94          0
    95          1
    96          1
    97          3
    98         12
    99          3
   100         18
   101          2
   102          1
   103         10
   104          3
   105          3
   106          2
   107          9
   108          2
   109          1
   110          0
   111          1
   112          7
   113          4
   114        999
   115         80
   116          3
   117          3
   118          4
   119          5
   120         15
   121          8
   122          1
   123          0
   124          0
   125          0
   126          1
   127          0
   128          1
   129          0
   130          1
   131         26
   132          4
   133          1
   134          0
   135          1
   136          0
   137          0
   138          0
   139          0
   140          0
   141          1
   142          0
   143          0
   144          0
   145          1
   146          2
   147          2
   148          2
   149          0
   150          0
   151          0
   152          0
   153          0
   154          0
   155          5
   156          0
   157          0
   158          0
   159          0
   160          1
   161          0
   162          0
   163          0
   164          0
   165          0
   166          0
   167          0
   168          0
   169          0
   170          0
   171          0
   172          0
   173          0
   174          0
   175          2
   176          0
   177          0
   178          0
   179          0
   180          0
   181          0
   182          0
   183          0
   184          0
   185          0
   186          0
   187          0
   188          1
   189          0
   190          0
   191          0
   192          0
   193          0
   194          0
   195          0
   196          0
   197          0
   198          0
   199          0
   200          0
   201          1
   202          0
   203          0
   204          0
   205          0
   206          0
   207          0
   208          0
   209          0
   210          0
   211          0
   212          0
   213          0
   214          0
   215          0
   216          2
   217          1
   478          0
   479          4
   480          1
   521          1
   522          0
   534          0
   535          0
   536          0
   537          0