##TITLE=Library Entry 7100
##JCAMP-DX=Revision 4.10 
##DATA TYPE=MASS SPECTRUM
##SAMPLE DESCRIPTION=R. I. REED UNIVERSITY OF GLASGOW
##NAMES=HP
##CAS NAME=Lanost-7-en-3-one, (9.beta.,13.alpha.,14.beta.,17.alpha.)-
##MOLFORM=C30H50O
##CAS REGISTRY NO=55515-18-9
##MP= -300
##BP= -300
##MW= 426
##$RETENTION INDEX=0
##$CONDENSED SPECTRUM=NO
##NPOINTS= 171
##XYDATA=(XY..XY) 1 
    39         57
    40         42
    41        651
    42         67
    43        999
    44         54
    45         12
    50         13
    51         15
    53         75
    54         21
    55        657
    56         98
    57        562
    58         20
    59         14
    65         24
    66         10
    67        235
    68         45
    69        456
    70         45
    71        221
    72         12
    77         72
    78         18
    79        176
    80         40
    81        365
    82         82
    83        234
    84         27
    85         38
    91        181
    92         62
    93        215
    94         93
    95        406
    96         91
    97        106
    98         10
    99         13
   105        231
   106         56
   107        240
   108         69
   109        209
   110         50
   111         68
   112         12
   115         22
   116         12
   117         45
   118         15
   119        193
   120         62
   121        193
   122        106
   123        141
   124         19
   125         62
   126         14
   127         14
   129         25
   130         12
   131         81
   132         36
   133        194
   134         78
   135        194
   136         45
   137         50
   138         17
   139         41
   143         32
   144         19
   145         93
   146         37
   147        132
   148         41
   149         83
   150         17
   151         28
   152         11
   157         42
   158         20
   159         83
   160         32
   161         71
   162         15
   163         62
   164         10
   165         16
   169         12
   171         27
   172         14
   173         58
   174         22
   175         83
   176         15
   177         31
   178         10
   179         13
   180         17
   185         17
   186         14
   187         79
   188         19
   189         52
   190         10
   191         27
   192         13
   193         27
   194         13
   199         14
   200         11
   201         35
   202         13
   203         27
   204         21
   205         24
   206         46
   207         42
   208         10
   213         10
   215         27
   216         14
   217         42
   218         21
   219         40
   220         33
   221         13
   227         17
   229         25
   230         10
   231         18
   232         29
   233         35
   234         12
   243         36
   244         29
   245        124
   246         32
   247         10
   257         27
   258         20
   259         32
   260         10
   261         10
   271        147
   272         58
   273         37
   274         13
   275         28
   285         14
   286         49
   287         19
   288         15
   297         12
   299         12
   313        120
   314         27
   327         14
   341         25
   411        248
   412         69
   413         13
   424         10
   426        350
   427        112
   428         19