##TITLE=Library Entry 42573
##JCAMP-DX=Revision 4.10 
##DATA TYPE=MASS SPECTRUM
##SAMPLE DESCRIPTION=O A MAMER, MCGILL UNIVERSITY, MONTRE@
##NAMES=HP
##CAS NAME=Phenylethylmalonic acid, bis(trimethylsilyl) ester
##MOLFORM=C17H28O4Si2
##CAS REGISTRY NO=55517-51-6
##MP= -300
##BP= -300
##MW= 352
##$RETENTION INDEX=1725
##$CONDENSED SPECTRUM=NO
##NPOINTS= 59
##XYDATA=(XY..XY) 1 
    15         10
    17         13
    18         50
    28         64
    29         10
    39         13
    41          9
    43         32
    44         41
    45        158
    46         12
    47         25
    51         11
    55         11
    58         15
    59         28
    61         12
    72         21
    73        999
    74         92
    75        122
    76         12
    77         31
    78         12
    89         22
    91         42
   103        326
   104         32
   105         11
   115         43
   117        147
   118         68
   119         12
   131        136
   132         16
   133         35
   135         11
   139         39
   145         29
   146        137
   147        338
   148         61
   149         34
   161          9
   175         13
   191         16
   205         61
   206         12
   219         28
   220         18
   221          6
   293         51
   294         13
   295          6
   308        154
   309         47
   310         18
   337         23
   338          7