##TITLE=Library Entry 96915
##JCAMP-DX=Revision 4.10 
##DATA TYPE=MASS SPECTRUM
##SAMPLE DESCRIPTION=J.M.BURLITCH CORNELL UNIVERSITY, ITHACA, NEW YORK, USA
##NAMES=HP
##CAS NAME=Chromium, (cadmium)hexacarbonylbis(.eta.5-2,4-cyclopentadien-1-yl
)di-, (2Cd-Cr)
##MOLFORM=C16H10CdCr2O6
##CAS REGISTRY NO=55518-02-0
##MP= -300
##BP= -300
##MW= 516
##$RETENTION INDEX=0
##$CONDENSED SPECTRUM=NO
##NPOINTS= 16
##XYDATA=(XY..XY) 1 
    52        950
   114        130
   117        999
   129          6
   145        240
   173        170
   182         64
   201        120
   231          8
   234         23
   259          3
   262          6
   290          4
   315          9
   318          6
   516         17