##TITLE=Library Entry 41203
##JCAMP-DX=Revision 4.10 
##DATA TYPE=MASS SPECTRUM
##SAMPLE DESCRIPTION=James Shoemaker, St. Louis Online Library of Metabolic
 Mass Spectra
##NAMES=HP
##CAS NAME=Tiglyl glycine, 2TMS derivative
##MOLFORM=C13H27NO3Si2
##CAS REGISTRY NO=55517-45-8
##MP= -300
##BP= -300
##MW= 301
##$RETENTION INDEX=1579
##$CONDENSED SPECTRUM=NO
##NPOINTS= 125
##XYDATA=(XY..XY) 1 
    53          9
    54         10
    55        245
    56         12
    58          9
    59         31
    61          8
    66          1
    67          6
    68          2
    69        953
    70         62
    71          4
    72         38
    73        999
    74         85
    75        193
    76          8
    77          6
    78          1
    80          6
    81          1
    82         18
    83        792
    84         49
    85          3
    86         14
    87          1
    88          3
    94         22
    95          5
    96          2
    97          2
    98         26
    99          2
   100         10
   101          3
   102         30
   103          3
   110          4
   111          1
   112         10
   113         14
   114          0
   115          2
   116         42
   117          7
   118          1
   119          0
   122          2
   124          0
   125          7
   126         20
   127          2
   128          2
   129         16
   130          3
   131          8
   132          1
   133         22
   134          1
   136          5
   139          7
   140          5
   141         19
   142          3
   143          1
   147        237
   148         32
   149         20
   150          1
   152          3
   153          1
   154         56
   155         10
   156         17
   157          3
   158          1
   166          3
   168        154
   169         18
   170        247
   171         39
   172          9
   173          1
   174          1
   176          9
   177          0
   182          7
   183          9
   184        344
   185         46
   186         12
   187          0
   191          0
   196          8
   197          0
   198          1
   200          1
   211         20
   212         18
   214         24
   215         11
   216          1
   218          2
   226          0
   228         22
   229         10
   230          0
   231          2
   242         27
   243         10
   256          7
   257          1
   258         15
   259         25
   260          2
   272          1
   286        517
   287        117
   288         43
   289          2
   301         20
   302          2
   303          0