##TITLE=Library Entry 35111
##JCAMP-DX=Revision 4.10 
##DATA TYPE=MASS SPECTRUM
##SAMPLE DESCRIPTION=S. MARKEY UNIV. OF COLO. MED. CTR., DENVER, COLORADO, U
SA
##NAMES=HP
##CAS NAME=L-Homoserine, O-[(aminoiminomethyl)amino]-N-(trifluoroacetyl)-, b
utyl ester
##MOLFORM=C11H19F3N4O4
##CAS REGISTRY NO=55521-06-7
##MP= -300
##BP= -300
##MW= 328
##$RETENTION INDEX=0
##$CONDENSED SPECTRUM=NO
##NPOINTS= 143
##XYDATA=(XY..XY) 1 
    38          2
    39         85
    40         36
    41        639
    42        114
    43        189
    44        189
    45        109
    46         19
    47         28
    50         52
    51         62
    52          3
    53         25
    54         55
    55        145
    56        245
    57        760
    58         41
    59         12
    64          2
    66         26
    68         14
    69        999
    70        152
    71         21
    72         70
    73         25
    74          6
    76         11
    77          7
    78         23
    82         24
    83         31
    84        142
    85         25
    86          6
    87         10
    90          6
    91         25
    92         19
    93          7
    94         15
    95          8
    96         45
    97         52
    98          9
    99          4
   100         21
   101         66
   102          6
   104         10
   105          1
   109          6
   110          7
   111         16
   112         18
   113          7
   114        104
   115         37
   116         15
   117          1
   118          4
   119          5
   121          1
   122          7
   124          7
   125          5
   126         19
   127          1
   128         14
   130         11
   132         13
   133          5
   134          1
   136          4
   137         25
   138         51
   139        160
   140        405
   141         30
   142          7
   149          3
   150          4
   151          1
   152        523
   153         88
   154         59
   155         22
   156          5
   157         10
   159          4
   160          6
   164          1
   165         50
   166         24
   167         18
   168        217
   169         62
   170        194
   171         32
   172          1
   178          2
   179         17
   180        169
   181         10
   182        134
   183         93
   184         27
   185          4
   195         14
   196        195
   197         37
   198        354
   199         25
   202         12
   204          3
   207          7
   214         29
   215          3
   227          9
   232         14
   236          2
   239          7
   240         14
   241          8
   249         22
   250         36
   251          1
   252        120
   253         20
   254        191
   255         21
   266          1
   267          4
   268        175
   269         13
   270         22
   279          6
   281          1
   291          1
   306          2
   319          7