##TITLE=Library Entry 42029
##JCAMP-DX=Revision 4.10 
##DATA TYPE=MASS SPECTRUM
##SAMPLE DESCRIPTION=Exported from NIST MS Search
##NAMES=HP
##CAS NAME=Butanoic acid, 2,4-bis[(trimethylsilyl)oxy]-2-[[(trimethylsilyl)o
xy]methyl]-, trimethylsilyl ester
##MOLFORM=C17H42O5Si4
##CAS REGISTRY NO=55521-19-2
##MP= -300
##BP= -300
##MW= 438
##$RETENTION INDEX=0
##$CONDENSED SPECTRUM=NO
##NPOINTS= 67
##XYDATA=(XY..XY) 1 
    28         26
    41          5
    43         26
    44         26
    45         58
    55          5
    59         29
    69         26
    72         29
    73        999
    74         88
    75         88
   101         26
   103        408
   104         44
   105         26
   115        114
   116         26
   117         26
   129         26
   131         26
   133         58
   141         26
   143         29
   145          5
   147        329
   148         38
   149         38
   159         26
   177          8
   189         29
   191         23
   205         26
   217         52
   218          8
   221         29
   231        229
   232         55
   233         26
   245          8
   246         26
   259         23
   305        202
   306         58
   307         32
   320         14
   321        150
   322         44
   323         23
   333         58
   334         26
   335         88
   336         26
   337         11
   348         20
   351         11
   394         44
   395         14
   396          5
   408        135
   409         55
   410         29
   423        382
   424        191
   425         85
   426         26
   438         14