##TITLE=Library Entry 42748
##JCAMP-DX=Revision 4.10 
##DATA TYPE=MASS SPECTRUM
##SAMPLE DESCRIPTION=BAY 0393
##NAMES=HP
##CAS NAME=D-Myo-Inisitol, 1,2,4,5,6-pentakis-O-(trimethylsilyl)-, 2,3-bis[(
trimethylsilyl)oxy]propyl trimethylsilyl phosphate, (R)-
##MOLFORM=C33H83O11PSi8
##CAS REGISTRY NO=55528-10-4
##MP= -300
##BP= -300
##MW= 910
##$RETENTION INDEX=0
##$CONDENSED SPECTRUM=NO
##NPOINTS= 328
##XYDATA=(XY..XY) 1 
    41         17
    42          5
    43         20
    44         20
    45         10
    46         37
    47          3
    48         10
    50          2
    51          3
    52          5
    53          7
    54          7
    55         12
    56          2
    57          3
    58          5
    59         28
    60          3
    61          7
    65          2
    66          3
    67          3
    68          3
    69          3
    71          2
    72         13
    73        999
    74         87
    75        100
    76          7
    77         10
    78          3
    79          7
    80          2
    81         13
    82          2
    83          3
    84          2
    85          5
    87          3
    88          2
    89          7
    91          2
    93          3
    95          2
    97          2
    99          3
   100          2
   101         30
   102          7
   103        153
   104         17
   105          8
   107          2
   109          3
   111          3
   113         13
   114          2
   115          7
   116         17
   117         20
   118          3
   119          7
   121          2
   126          2
   127         10
   128          3
   129        117
   130         17
   131         33
   132          3
   133         37
   134         10
   135         10
   136          2
   137          2
   139          2
   141          3
   142          7
   143         17
   144          3
   145          7
   146          2
   147        333
   148         53
   149         37
   150          5
   151          5
   152          2
   153          5
   154          2
   155          7
   156          3
   157          8
   158          2
   159          3
   161          7
   162          2
   163          3
   164          2
   167          2
   169          7
   170          2
   173          2
   175          3
   177          3
   179          2
   181          3
   182          2
   183          3
   185          2
   187          2
   189          8
   190         10
   191        133
   192         23
   193         12
   194          2
   195          5
   201          3
   202          2
   203         10
   204         37
   205         20
   206          7
   207         20
   208          3
   209          3
   210          2
   211         40
   212          7
   213          5
   214          2
   215          7
   216          3
   217        140
   218         47
   219         33
   220          7
   221         17
   222          3
   223          3
   225         10
   227         30
   228          7
   229          7
   230         23
   231         10
   232          3
   233          2
   238          3
   239          2
   240          7
   241          3
   242         35
   243         10
   244         10
   245         12
   246          3
   254         13
   255          7
   256          2
   257          2
   265         10
   266          3
   267          3
   268          2
   269          3
   270          3
   271         12
   272          3
   281          3
   283          7
   284          2
   285          3
   286          3
   291         10
   292          3
   293         10
   294          3
   295          2
   297          2
   298          3
   299        117
   300         30
   301         20
   302          5
   303          3
   304          5
   305         30
   306         13
   307          7
   308          2
   313          7
   314          3
   315         60
   316         17
   317         23
   318        210
   319         70
   320         30
   321          7
   322          2
   327          3
   328          3
   329          5
   330          2
   331          7
   332          5
   333          2
   341          7
   342         12
   343         27
   344         10
   345         17
   346          7
   347          3
   356          2
   357         75
   358         23
   359         13
   360          7
   361          3
   367          3
   369          7
   370         13
   371         17
   372          7
   373         15
   374          3
   375          3
   376          2
   387         13
   388          5
   389         13
   390          7
   391          3
   398          2
   399          2
   417          7
   418          3
   419         10
   420          3
   421          2
   422          2
   423          3
   429          3
   430          2
   431          3
   432         20
   433         30
   434         13
   435          7
   436          3
   442          5
   443          2
   444          2
   445         63
   446         22
   447         13
   448          3
   449          2
   457          2
   459          3
   461        167
   462         68
   463         40
   464         10
   465          3
   497          2
   498          1
   507          3
   508          2
   509          1
   533         27
   534         13
   535         18
   536         10
   537          5
   538          2
   575          2
   576          1
   577          1
   587          2
   588          2
   589          1
   590          1
   601          1
   602          1
   603          1
   604          1
   605          1
   616          3
   617          2
   618          1
   619          1
   675          1
   676          1
   677          1
   693          2
   694          1
   715          1
   716          1
   717          1
   730          1
   731          1
   732          1
   749          1
   750          1
   765          1
   766          1
   805          1
   806          1
   807          1
   808          2
   809          2
   810          1
   820          2
   821          2
   822          1
   823          1
   895         11
   896          8
   897          6
   898          3
   899          2
   910          1