##TITLE=Library Entry 20226
##JCAMP-DX=Revision 4.10 
##DATA TYPE=MASS SPECTRUM
##SAMPLE DESCRIPTION=R. I. REED UNIVERSITY OF GLASGOW
##NAMES=HP
##CAS NAME=Ergost-22-en-3-ol, (3.alpha.,5.beta.,22E)-
##MOLFORM=C28H48O
##CAS REGISTRY NO=55527-92-9
##MP= -300
##BP= -300
##MW= 400
##$RETENTION INDEX=0
##$CONDENSED SPECTRUM=NO
##NPOINTS= 331
##XYDATA=(XY..XY) 1 
    50         36
    51         46
    52         31
    53         96
    54         38
    55        999
    56         83
    57        275
    58         33
    59         10
    60         12
    61          5
    62          7
    63         15
    64         17
    65         32
    66         22
    67        516
    68        140
    69        965
    70        140
    71        113
    72          9
    73          8
    74         17
    75         13
    76         17
    77        114
    78         86
    79        105
    80         72
    81        774
    82        277
    83        475
    84         59
    85         26
    86         24
    87          6
    88          3
    89          6
    90          3
    91        268
    92         72
    93        463
    94        205
    95        658
    96        240
    97        138
    98         25
    99          6
   100          3
   101          8
   102         12
   103         12
   104         12
   105        228
   106         78
   107        497
   108        157
   109        593
   110         86
   111         59
   112         11
   113          6
   114          4
   115         17
   116         10
   117         40
   118         26
   119        155
   120         68
   121        276
   122        139
   123        225
   124         67
   125         78
   126         14
   127         25
   128         88
   129         23
   130          7
   131         61
   132         24
   133        169
   134         62
   135        272
   136         47
   137        106
   138         18
   139          7
   140          3
   141          9
   142          8
   143         17
   144          9
   145         92
   146         31
   147        260
   148         63
   149        254
   150         39
   151         39
   152        104
   153         17
   154          9
   155          4
   156          4
   157         13
   158          8
   159         75
   160         39
   161        269
   162         63
   163        164
   164         24
   165         27
   166         46
   167          8
   168          3
   169          3
   170          2
   171         13
   172          6
   173         58
   174         29
   175        185
   176         49
   177         59
   178         12
   179         12
   180          3
   181          3
   182          2
   183          3
   184          3
   185         16
   186          7
   187         59
   188         23
   189         75
   190         21
   191         25
   192          5
   193          4
   194          1
   195          1
   196          1
   197          3
   198          2
   199         23
   200         11
   201        127
   202         41
   203         72
   204         14
   205         10
   206          2
   207          3
   208          1
   209          1
   210          0
   211          4
   212          1
   213         39
   214         31
   215        167
   216         57
   217         70
   218         14
   219         12
   220          9
   221          3
   222          0
   223          1
   224          0
   225          2
   226          1
   227         31
   228         17
   229        109
   230         56
   231         48
   232         19
   233         24
   234          9
   235          1
   236          1
   237          1
   238          4
   239          4
   240          3
   241         28
   242         48
   243         27
   244         13
   245         25
   246         13
   247          8
   248          2
   249          1
   250          0
   251          0
   252          2
   253          6
   254         11
   255        196
   256         83
   257        589
   258        143
   259         28
   260         55
   261         10
   262          2
   263          1
   264          2
   265          1
   266          0
   267          9
   268          3
   269         37
   270         22
   271         61
   272         81
   273        339
   274        167
   275         38
   276          5
   277          1
   278          0
   279          0
   280          0
   281          2
   282          2
   283         35
   284        138
   285        127
   286         31
   287         87
   288         27
   289          3
   290          2
   291          0
   292          0
   293          0
   294          1
   295          2
   296          0
   297          7
   298         11
   299         14
   300         50
   301         49
   302        214
   303         49
   304          5
   305          0
   309          1
   310          0
   311          7
   312          2
   313          3
   314         10
   315          4
   316         36
   317          9
   318          1
   319          0
   320          0
   321          0
   322          0
   323          1
   324          1
   325          2
   326          3
   327          7
   328         14
   329          5
   330          2
   331          0
   332          0
   333          0
   334          3
   335          0
   336          0
   337         14
   338          4
   339        157
   340         44
   341         10
   342          1
   343          2
   344          1
   345          0
   350          1
   351          0
   352          0
   353          1
   354          1
   355         13
   356          4
   357         14
   358          2
   359          0
   360          0
   364          0
   365          4
   366          2
   367         35
   368         10
   369          3
   370          1
   371          1
   372          1
   379          0
   380          3
   381          4
   382         79
   383         27
   384          6
   385         36
   386         12
   387          2
   388          0
   396          1
   397          0
   398         45
   399         14
   400        352
   401        105
   402         15
   403          1