##TITLE=Library Entry 43367
##JCAMP-DX=Revision 4.10 
##DATA TYPE=MASS SPECTRUM
##SAMPLE DESCRIPTION=B.R. PETTIT, QUEEN CHARLOTTE'S MAT. HOSP., LONDON, U.K.
##NAMES=HP
##CAS NAME=Galactonic acid, .gamma.-lactone, 4TMS derivavative
##MOLFORM=C18H42O6Si4
##CAS REGISTRY NO=55528-74-0
##MP= -300
##BP= -300
##MW= 466
##$RETENTION INDEX=1925
##$CONDENSED SPECTRUM=NO
##NPOINTS= 114
##XYDATA=(XY..XY) 1 
    45         44
    59         23
    72         15
    73        999
    74         77
    75         46
    81         21
    88          5
    89          8
    99          8
   101         11
   102          5
   103        280
   104         17
   105          8
   116         10
   117         74
   118          8
   119          5
   127          8
   129         39
   130          6
   131         22
   133         64
   134         11
   135          9
   141          5
   142          6
   143         30
   144          6
   147        307
   148         49
   153          5
   155         19
   156          5
   159          7
   169         11
   171         11
   173          5
   175          9
   177          5
   189        197
   190         35
   191         30
   192          8
   193         11
   197         13
   203         17
   204        102
   205        263
   206         56
   215         10
   216          6
   217        934
   218        183
   219        195
   220         10
   227         19
   230         21
   231         17
   232          7
   233         11
   243         55
   244         45
   245         58
   246         20
   247          7
   259         14
   260          5
   261          8
   262         13
   271         42
   272         11
   273          8
   277         12
   278          5
   291         19
   292         27
   293          8
   304          7
   305        137
   306         39
   307         43
   308         10
   309          5
   317         15
   318         16
   322          7
   331         11
   332         10
   333         91
   334        129
   335        116
   336         41
   337         15
   348         33
   349         10
   350          5
   354          3
   361         77
   362         24
   363         21
   364          5
   369          3
   393         11
   394          3
   423          5
   451         27
   452         10
   453          5
   466         71
   467         27
   468         15
   469          4