##TITLE=Library Entry 41858
##JCAMP-DX=Revision 4.10 
##DATA TYPE=MASS SPECTRUM
##SAMPLE DESCRIPTION=ORVAL A. MAMER, ROYAL VICTORIA HOSPITAL, MONTREAL, CANA
DA
##NAMES=HP
##CAS NAME=N-Isovalerylglycine, 2TMS derivative
##MOLFORM=C13H29NO3Si2
##CAS REGISTRY NO=55520-90-6
##MP= -300
##BP= -300
##MW= 303
##$RETENTION INDEX=1525
##$CONDENSED SPECTRUM=NO
##NPOINTS= 101
##XYDATA=(XY..XY) 1 
    15         12
    27         35
    28         37
    29         65
    30         32
    31         10
    39         23
    41        121
    42         25
    43         89
    44         42
    45        190
    46         13
    47         38
    53          8
    54         33
    55         58
    56         25
    57        201
    58         33
    59         84
    60         11
    61         27
    68          6
    69         28
    70          9
    71         11
    72         47
    73        999
    74         96
    75        223
    76         16
    77         10
    82         26
    83         13
    84          6
    85         87
    86         51
    87         14
    88         11
    96         11
    98          7
    99         19
   100        103
   101         50
   102        496
   103         56
   104         25
   114          7
   115         10
   116        111
   117         28
   118          7
   119          6
   124          8
   128          6
   129         24
   130        188
   131         64
   132         21
   133         43
   134          7
   137          6
   142          7
   143         42
   144         28
   145         15
   147        207
   148         36
   149         21
   156         14
   157         11
   158         21
   170         54
   171        121
   172         46
   173         15
   174         15
   176        138
   177         25
   178         12
   186        171
   187         29
   188         14
   189         12
   198         26
   204         16
   205          7
   213         17
   214         10
   216         14
   218         28
   219          9
   246         12
   261        117
   262         27
   263         12
   288        233
   289         58
   290         24
   303         37