##TITLE=Library Entry 97783
##JCAMP-DX=Revision 4.10 
##DATA TYPE=MASS SPECTRUM
##SAMPLE DESCRIPTION=NIST Mass Spectrometry Data Center
##NAMES=HP
##CAS NAME=Dodecanoic acid, TMS derivative
##MOLFORM=C15H32O2Si
##CAS REGISTRY NO=55520-95-1
##MP= -300
##BP= -300
##MW= 272
##$RETENTION INDEX=1655
##$CONDENSED SPECTRUM=NO
##NPOINTS= 165
##XYDATA=(XY..XY) 1 
    15          1
    27         18
    28          6
    29         46
    30          1
    31          1
    39         22
    40          5
    41        137
    42         31
    43        143
    44         13
    45         61
    46          4
    47         34
    48          2
    49          1
    51          1
    52          1
    53         13
    54         11
    55        192
    56         32
    57         58
    58         22
    59         29
    60         11
    61         56
    62          4
    63          2
    65          3
    66          1
    67         31
    68          7
    69         59
    70         13
    71         15
    72         37
    73        821
    74         91
    75        725
    76         52
    77         33
    78          2
    79          9
    80          2
    81         38
    82          5
    83         37
    84         20
    85         15
    86         11
    87          9
    88          8
    89         20
    90          4
    91          6
    92          1
    93          9
    94          1
    95         45
    96          5
    97         32
    98         28
    99         21
   100          3
   101         16
   102          3
   103          4
   105         24
   106          2
   107          5
   108          1
   109         13
   110          3
   111         13
   112          9
   113          3
   114          1
   115         10
   116         78
   117        999
   118         98
   119         41
   120          2
   121          4
   122          1
   123          3
   124          1
   125          4
   126         10
   127          3
   129        443
   130         60
   131        179
   132        442
   133         71
   134         20
   135          4
   136          1
   137          1
   138          1
   139          6
   140          2
   141          3
   142          1
   143         32
   145        242
   146         31
   147         11
   148          1
   149          1
   151          1
   153          3
   154          2
   155          3
   156          1
   157         15
   158          2
   159         30
   160          5
   161          1
   163          2
   164          1
   167          1
   171         20
   172          3
   173         11
   174          4
   175          1
   181          1
   182          1
   183          2
   185         23
   186          4
   187         25
   188          5
   189          1
   199          4
   201         41
   202          7
   203          2
   213         40
   214          8
   215          8
   216          2
   227          5
   228          1
   229         31
   230          6
   231          2
   241          1
   243         11
   244          2
   245          1
   255          2
   257        904
   258        186
   259         51
   260          6
   261          1
   271          4
   272         33
   273          8
   274          2