##TITLE=Library Entry 43869
##JCAMP-DX=Revision 4.10 
##DATA TYPE=MASS SPECTRUM
##SAMPLE DESCRIPTION=BAY 0328
##NAMES=HP
##CAS NAME=.beta.-D-Fructofuranose, 2,3,4-tris-O-(trimethylsilyl)-, bis[bis(
trimethylsilyl) phosphate]
##MOLFORM=C27H70O12P2Si7
##CAS REGISTRY NO=55521-25-0
##MP= -300
##BP= -300
##MW= 844
##$RETENTION INDEX=0
##$CONDENSED SPECTRUM=NO
##NPOINTS= 327
##XYDATA=(XY..XY) 1 
    41         50
    42         17
    43         58
    44         33
    45        142
    46          8
    47         29
    51          4
    52          4
    53         13
    54          4
    55         21
    56          8
    57         17
    58          8
    59         63
    60          8
    61         17
    62          4
    63          8
    65         13
    66          8
    67         17
    68         42
    69         13
    70          8
    71         13
    72         29
    73        999
    74        125
    75        300
    76         21
    77         33
    78          4
    79          8
    81         17
    82          4
    83          8
    84          4
    85         13
    87          4
    89          4
    91          8
    93         58
    94          8
    95         25
    96          4
    97          8
    98         13
    99         17
   100          8
   101         29
   102          8
   103         38
   104          4
   105          8
   107          4
   108          4
   109         17
   110          4
   111          8
   112          4
   113         21
   114          4
   115         21
   116         13
   117         25
   118          4
   119         17
   120          4
   121         13
   123          4
   125         13
   126          4
   127         17
   128          8
   129        158
   130         25
   131         33
   132          8
   133        125
   134         21
   135         42
   136          8
   137         13
   139          8
   140         25
   141         21
   142         21
   143         38
   144          8
   145         13
   146          4
   147        308
   148         50
   149         50
   150          8
   151         17
   152          4
   153          8
   154          4
   155         17
   156         13
   157         25
   158          8
   159          8
   161          4
   163          4
   165          8
   167          8
   169         25
   170          8
   171          8
   173          4
   175          4
   177         17
   178          4
   179         13
   180          4
   181         17
   182         13
   183         33
   184          8
   185          8
   186          4
   187          4
   189         13
   190          4
   191         33
   192          8
   193         38
   194          8
   195         33
   196         17
   197         17
   198         13
   199          8
   200          4
   201          8
   202          8
   203          8
   204         21
   205         21
   206          8
   207         92
   208         17
   209         17
   210          8
   211        158
   212         21
   213         17
   214          4
   215        100
   216         25
   217        154
   218         33
   219         17
   220          4
   221         33
   222          8
   223          8
   224          4
   225         79
   226         21
   227         71
   228         13
   229         29
   230        292
   231         92
   232         33
   233          8
   239          4
   240          8
   241         29
   242          8
   243         46
   244         13
   245          8
   246          8
   247          4
   253         13
   254          8
   255         29
   256         13
   257         54
   258         13
   259          8
   267          8
   268          4
   269         29
   270         67
   271        113
   272         33
   273         17
   274          4
   275          4
   283         63
   284         33
   285         71
   286         25
   287         13
   288          8
   289          4
   295          8
   296          4
   297         13
   298         42
   299        833
   300        242
   301        142
   302         25
   303          8
   311          4
   312          4
   313         33
   314        150
   315        808
   316        221
   317        117
   318         25
   319          8
   327          8
   328        125
   329         38
   330         21
   331          8
   332          4
   341         13
   342          8
   343         42
   344         13
   345         21
   346          8
   347          4
   355         13
   356         29
   357         88
   358         25
   359         29
   360         21
   361         13
   362          4
   363          4
   369         25
   370         21
   371         17
   372          8
   373         58
   374         21
   375         13
   376          4
   382          4
   383          8
   384          4
   385         13
   386         17
   387        117
   388         38
   389         33
   390          8
   391          4
   399          4
   407          4
   409          4
   415          4
   422          8
   423         13
   424          4
   425          8
   427          4
   429          8
   430          4
   431          8
   432          4
   433          4
   437          4
   442          4
   443         17
   444         25
   445        150
   446         54
   447         33
   448         13
   449         13
   450          4
   451         17
   452          8
   453          8
   455          4
   457          8
   458          8
   459          8
   460          4
   461          4
   469          4
   471          4
   472         13
   473          4
   497          4
   499          8
   501          4
   511          4
   512          4
   513          8
   515          8
   516          4
   525          4
   541          8
   542          4
   587         17
   588         17
   589         71
   590         38
   591         21
   592          8
   593          4
   599          8
   600          4
   602          4
   739          4
   741          4
   829         50
   830         42
   831         29
   832         21
   833         13
   834          4