##TITLE=Library Entry 42681
##JCAMP-DX=Revision 4.10 
##DATA TYPE=MASS SPECTRUM
##SAMPLE DESCRIPTION=G. Peterson, Chalmers Univ. of Tech., Gothenburg, Swede
n
##NAMES=HP
##CAS NAME=Gulonic acid, .gamma.-lactone, 4TMS derivavative
##MOLFORM=C18H42O6Si4
##CAS REGISTRY NO=55528-75-1
##MP= -300
##BP= -300
##MW= 466
##$RETENTION INDEX=1953
##$CONDENSED SPECTRUM=NO
##NPOINTS= 89
##XYDATA=(XY..XY) 1 
    41         10
    44         20
    45         70
    55         10
    59         30
    72         20
    73        999
    74         90
    75         90
    81         50
    89         10
   101         20
   103        150
   104         20
   116         10
   117         50
   129         70
   130         10
   131         30
   133         70
   134         10
   135         10
   143         20
   147        250
   148         50
   149         40
   157         20
   189        110
   190         30
   191         40
   193         10
   203         20
   204        130
   205        130
   206         40
   207         20
   215         10
   217        250
   218         60
   219        130
   220         30
   221         20
   229         20
   230         20
   231         20
   243         60
   244         10
   245         20
   246         20
   271         20
   291         10
   292         10
   305         60
   306         10
   307         10
   317         10
   318         20
   319         20
   331         10
   332         30
   333         80
   334         50
   335         50
   336         20
   348         22
   349          7
   350          4
   360          3
   361         71
   362         22
   363         23
   364          6
   365          5
   376          5
   377          2
   378          2
   393          4
   394          2
   423          6
   424          3
   425          2
   451         21
   452          9
   453          4
   466         98
   467         38
   468         23
   469          6
   470          3