##TITLE=Library Entry 43114
##JCAMP-DX=Revision 4.10 
##DATA TYPE=MASS SPECTRUM
##SAMPLE DESCRIPTION=John Halket,Royal Holloway, University of London, UK
##NAMES=HP
##CAS NAME=Benzenepropanoic acid, .alpha.-(methoxyimino)-4-[(trimethylsilyl)
oxy]-, trimethylsilyl ester
##MOLFORM=C16H27NO4Si2
##CAS REGISTRY NO=55520-97-3
##MP= -300
##BP= -300
##MW= 353
##$RETENTION INDEX=0
##$CONDENSED SPECTRUM=NO
##NPOINTS= 131
##XYDATA=(XY..XY) 1 
    29         19
    31          8
    43         30
    44         17
    45         77
    46          6
    47         11
    55          5
    57          7
    58         21
    59         57
    60          7
    61         10
    68          5
    70          7
    71          4
    73        999
    74         93
    75        100
    77         17
    78          9
    82          2
    84         51
    85          7
    87          3
    88          2
    89         64
    90         15
    91         19
    92          4
   103          7
   104          8
   105          8
   107          9
   109          3
   114          4
   115          9
   116         55
   117          7
   119          4
   121          5
   122          2
   124          2
   129          3
   130          6
   131          7
   132          4
   133         10
   135         33
   136          6
   137          3
   145          4
   146          3
   147         14
   148          6
   149         35
   150         16
   151          6
   152          2
   158          3
   159          4
   160         19
   161         37
   163         28
   164         12
   165          9
   166          4
   171          2
   172          3
   174          8
   175          2
   176          7
   177         28
   178          5
   179         87
   180         14
   181          7
   187          2
   188         10
   190        567
   191        101
   192         27
   193          9
   196          2
   202          3
   203          5
   204         81
   205         35
   206         17
   216          2
   218          2
   219          2
   223          5
   225          1
   231          4
   232         46
   233          9
   234          7
   237          2
   247          2
   248          3
   251          2
   262          8
   263          5
   264          4
   265          8
   267          8
   268          2
   276          2
   277        240
   278        149
   279         76
   280         20
   290          2
   292          2
   295          5
   306          3
   307         15
   308          4
   309          3
   321          2
   322          5
   323          3
   324          2
   338        104
   339         38
   340         17
   353         55
   354         13
   355          8
   356          2