##TITLE=Library Entry 69471
##JCAMP-DX=Revision 4.10 
##DATA TYPE=MASS SPECTRUM
##SAMPLE DESCRIPTION=J. Daly, M. Garraffo, T. Spande, LBC, NIDDK, NIH, Bethe
sda, MD 20892
##NAMES=HP
##CAS NAME=Isotetrahydrohistrionicotoxin 287a
##MOLFORM=C19H29NO
##CAS REGISTRY NO=55522-87-7
##MP= -300
##BP= -300
##MW= 287
##$RETENTION INDEX=0
##$CONDENSED SPECTRUM=NO
##NPOINTS= 92
##XYDATA=(XY..XY) 1 
    51         75
    52         45
    53        459
    54        185
    55        354
    56        230
    57        195
    62         12
    65         94
    66        217
    67        344
    68        158
    69        108
    70        121
    71         25
    77        194
    78        110
    79        398
    80        222
    81        179
    82        189
    83         60
    91        389
    93        115
    94        326
    95        175
    96        999
    97        132
   105        158
   106        308
   107        186
   108        262
   109        661
   110        131
   111         51
   117        190
   118         57
   119         89
   120        309
   121         74
   122        285
   123         42
   124         95
   126         20
   131         71
   133         84
   134        299
   135        229
   139         11
   142         19
   147         47
   148        279
   149         52
   150         67
   151         14
   157         27
   160        156
   162        490
   163        208
   172         47
   174        135
   176        407
   177         60
   178         23
   188         35
   189         23
   192         94
   198         46
   199         13
   200         95
   202        283
   203         47
   205         16
   206         17
   215         34
   216         81
   220        162
   232         47
   244         49
   246         33
   254         28
   256         22
   257         16
   258         33
   259         13
   260          7
   270        113
   272        143
   286         46
   287        207
   288         30
   289          5