##TITLE=Library Entry 44337
##JCAMP-DX=Revision 4.10 
##DATA TYPE=MASS SPECTRUM
##SAMPLE DESCRIPTION=WASHINGTON UNIVERSITY MEDICAL SCHOOL W.R. SHERMAN
##NAMES=HP
##CAS NAME=D-Galactose, 2,3,4,5-tetrakis-O-(trimethylsilyl)-, 6-[bis(trimeth
ylsilyl) phosphate]
##MOLFORM=C24H61O9PSi6
##CAS REGISTRY NO=55520-83-7
##MP= -300
##BP= -300
##MW= 692
##$RETENTION INDEX=0
##$CONDENSED SPECTRUM=NO
##NPOINTS= 207
##XYDATA=(XY..XY) 1 
    52          3
    55          5
    59         19
    61          3
    67          3
    69         11
    72         15
    73        999
    74         74
    75         88
    76          5
    77          6
    79          8
    81         21
    85          3
    89          4
    93          8
    95          4
    99          5
   101         25
   102          3
   103         62
   104          6
   109          6
   111          4
   113         15
   115          8
   116         39
   117         23
   118          3
   119          6
   127         12
   128          3
   129         54
   130          5
   131         17
   132          3
   133         51
   134          8
   135          9
   141          5
   142         18
   143         19
   145          6
   147        211
   148         39
   149         24
   150          3
   151          6
   152          3
   153          6
   154          3
   155         26
   156          7
   157         15
   161          3
   168          3
   169         29
   170         21
   171          7
   175          6
   177          4
   183          7
   189         18
   190         13
   191        150
   192         28
   193         20
   194          3
   195          6
   197          4
   199          8
   201          3
   204        369
   205         81
   206         36
   207         27
   208          6
   209          6
   211         52
   212          8
   213          7
   215          7
   217        125
   218         30
   219         17
   221         13
   225         24
   226          4
   227         30
   228          6
   229         13
   230         26
   231         28
   232          7
   241          6
   242         19
   243         95
   244         38
   245         20
   246          6
   247         13
   248          3
   255          9
   257         18
   258          4
   259          4
   269          9
   270         21
   271         41
   272         11
   273          8
   281          4
   283         12
   284          9
   285         27
   286          7
   287          4
   291          4
   299        385
   300         92
   301         58
   302         11
   303          6
   305         19
   306          8
   307          3
   313         14
   314         19
   315        348
   316         88
   317         69
   318         16
   319         17
   320          3
   328         21
   329          6
   331         10
   332         43
   333         15
   334          6
   341         13
   343         36
   344         11
   345         35
   346          9
   347         14
   348          5
   355          7
   356         11
   357         45
   358         15
   359         12
   360          7
   361         12
   362          3
   369         85
   370         92
   371         34
   372         15
   373         23
   374          6
   375          4
   383          6
   386         31
   387        243
   388         81
   389         83
   390         25
   391         12
   395          4
   409          3
   415          5
   417          8
   423          4
   429          7
   431          3
   442        350
   443        389
   444        170
   445         71
   446         19
   447          6
   455          3
   457          3
   459          3
   461         23
   462          8
   463          6
   469         14
   470          4
   471         15
   472          4
   473          9
   474          3
   484          3
   486         10
   487          3
   497          8
   498          3
   587          6
   588          3
   589          9
   677         57
   678         34
   679         20
   680          8