##TITLE=Library Entry 43972
##JCAMP-DX=Revision 4.10 
##DATA TYPE=MASS SPECTRUM
##SAMPLE DESCRIPTION=BAY 0321
##NAMES=HP
##CAS NAME=D-Glucitol, 2,3,4,5,6-pentakis-O-(trimethylsilyl)-, bis(trimethyl
silyl) phosphate
##MOLFORM=C27H71O9PSi7
##CAS REGISTRY NO=55528-11-5
##MP= -300
##BP= -300
##MW= 766
##$RETENTION INDEX=0
##$CONDENSED SPECTRUM=NO
##NPOINTS= 181
##XYDATA=(XY..XY) 1 
    69          9
    72         19
    73        999
    74         90
    75         81
    77          8
    81          9
    89         13
   101         18
   103        174
   104         16
   105          8
   113         13
   115         11
   116         13
   117         57
   118          7
   119          8
   127          8
   129         92
   130         13
   131         23
   133         56
   134          9
   135          8
   143         20
   145          9
   147        247
   148         47
   149         38
   151          5
   155          7
   157         27
   163          9
   169          8
   183          9
   189         18
   190          8
   191         45
   192          9
   193          9
   203         13
   204         34
   205         74
   206         17
   207         26
   209          5
   211         31
   215          7
   217        283
   218        115
   219         45
   220         10
   221         16
   225         11
   227         11
   229         17
   230         18
   231         32
   232          8
   243         17
   245          9
   255         11
   257         12
   259         28
   260          7
   261         15
   269          5
   272         12
   283         13
   284          7
   285         16
   291          7
   297          8
   298         13
   299        384
   300        100
   301         59
   302         12
   305         10
   306         10
   307         30
   308          9
   313         15
   314         50
   315        783
   316        210
   317        114
   318         24
   319         88
   320         27
   321         13
   328         12
   331         23
   332         10
   341          5
   343          5
   344          6
   345         38
   346         13
   347         11
   349          3
   357         23
   358          7
   359          6
   369        117
   370         32
   371         20
   372          6
   373         17
   382         21
   383         13
   384          6
   386          6
   387        163
   388         60
   389         72
   390         21
   391         11
   419          6
   429         15
   430          8
   431          7
   436          5
   442          5
   443          5
   459         73
   460         27
   461         23
   462          6
   471         11
   472          7
   473          3
   474          2
   482          1
   483         24
   484         11
   485          5
   486          2
   487          1
   488          1
   489          1
   497          2
   517          2
   518          1
   519          1
   525          2
   526          2
   527          1
   529          1
   531          2
   532          1
   533          1
   545          2
   546          1
   549          1
   561         47
   562         22
   563         13
   564          4
   565          2
   571          2
   573          5
   574          2
   575          1
   586          2
   587          2
   588          2
   635          2
   636          1
   661          1
   663          9
   664          5
   665          3
   666          2
   677          1
   751         13
   752          8
   753          5
   754          5
   755          1