##TITLE=Library Entry 43366
##JCAMP-DX=Revision 4.10 
##DATA TYPE=MASS SPECTRUM
##SAMPLE DESCRIPTION=Exported from NIST MS Search
##NAMES=HP
##CAS NAME=Altronic acid, .gamma.-lactone, 4TMS derivavative
##MOLFORM=C18H42O6Si4
##CAS REGISTRY NO=55528-73-9
##MP= -300
##BP= -300
##MW= 466
##$RETENTION INDEX=1901
##$CONDENSED SPECTRUM=NO
##NPOINTS= 67
##XYDATA=(XY..XY) 1 
    31         10
    43         10
    44         20
    45         70
    59         30
    72         20
    73        999
    74         90
    75        110
    81         20
   101         10
   103        120
   104         10
   117         60
   129         70
   130         20
   131         20
   133         50
   143         20
   147        230
   148         30
   149         30
   189         60
   190         10
   191         30
   193         10
   203         10
   204         70
   205        110
   206         30
   207         10
   217        440
   218         90
   219         70
   220         20
   221         10
   229         10
   230         20
   231         20
   243         30
   244         30
   245         20
   271         10
   292         10
   305         30
   307         10
   333         30
   334         30
   335         30
   348         12
   349          4
   350          2
   361         28
   362          9
   363          7
   364          2
   393          2
   423          2
   424          1
   451          4
   452          2
   453          1
   466         37
   467         17
   468          9
   469          2
   470          1