##TITLE=Library Entry 24130
##JCAMP-DX=Revision 4.10 
##DATA TYPE=MASS SPECTRUM
##SAMPLE DESCRIPTION=CONTINENTAL OIL CO., PONCA CITY, OKLA, USA
##NAMES=HP
##CAS NAME=Cyclohexane, 1-(1-tetradecylpentadecyl)-
##MOLFORM=C35H70
##CAS REGISTRY NO=55521-27-2
##MP= -300
##BP= -300
##MW= 490
##$RETENTION INDEX=0
##$CONDENSED SPECTRUM=NO
##NPOINTS= 280
##XYDATA=(XY..XY) 1 
    13          2
    14          6
    15         15
    16          7
    24          1
    25          3
    26         17
    27        114
    28         55
    29        256
    30          6
    36          1
    37          4
    38          7
    39         74
    40         19
    41        504
    42        114
    43        952
    44         48
    45          1
    48          1
    49          1
    50          4
    51          6
    52          4
    53         27
    54         94
    55        799
    56        221
    57        999
    58         44
    59          1
    61          1
    62          1
    63          2
    64          1
    65          6
    66         11
    67        215
    68         81
    69        412
    70        138
    71        571
    72         31
    73          1
    74          1
    75          1
    76          1
    77          8
    78          5
    79         19
    80         12
    81        114
    82        744
    83        772
    84        110
    85        377
    86         25
    87          0
    88          0
    89          0
    90          0
    91         21
    92          3
    93          8
    94          5
    95         68
    96        103
    97        355
    98         54
    99         69
   100          5
   101          0
   102          0
   103          1
   104          3
   105         12
   106          2
   107          3
   108          3
   109         46
   110         23
   111        152
   112         31
   113         45
   114          4
   115          1
   116          0
   117          3
   118          2
   119          3
   120          0
   121          2
   122          2
   123         12
   124         14
   125         68
   126         19
   127         33
   128          4
   129          1
   130          0
   131          1
   132          0
   133          1
   134          0
   135          1
   136          1
   137          6
   138          8
   139         30
   140         12
   141         24
   142          3
   143          0
   144          0
   145          1
   146          0
   147          1
   148          0
   149          0
   150          0
   151          3
   152          6
   153         19
   154         10
   155         18
   156          2
   157          0
   158          0
   159          0
   160          0
   161          0
   162          0
   163          0
   164          0
   165          1
   166          4
   167         15
   168          9
   169         15
   170          2
   171          0
   173          0
   175          0
   176          0
   177          0
   178          0
   179          1
   180          4
   181         12
   182          7
   183         12
   184          1
   185          0
   187          0
   189          0
   190          0
   191          0
   192          0
   193          1
   194          5
   195         11
   196          8
   197         12
   198          2
   199          0
   200          0
   201          0
   202          0
   203          0
   204          0
   205          0
   206          0
   207          1
   208          5
   209         10
   210          6
   211         11
   212          1
   215          0
   217          0
   219          0
   220          0
   221          1
   222          4
   223          8
   224          6
   225          7
   226          1
   229          0
   231          0
   233          0
   235          1
   236          4
   237          7
   238          5
   239          6
   240          1
   245          0
   249          1
   250          4
   251          5
   252          3
   253          5
   254          1
   258          0
   260          0
   261          0
   264         11
   265         11
   266          4
   267          5
   268          1
   274          0
   278          9
   279         12
   280          4
   281          5
   282          1
   285          0
   286          0
   287          1
   288          0
   289          0
   290          1
   291          3
   292        157
   293        232
   294         49
   295          9
   296          1
   303          0
   304          0
   305          1
   306          9
   307         11
   308          4
   309          4
   310          1
   317          0
   320          3
   321          4
   322          3
   323          4
   324          1
   333          0
   334          2
   335          2
   336          1
   337          3
   338          1
   348          1
   349          1
   350          5
   351          5
   352          1
   362          0
   363          1
   364          1
   365          1
   376          0
   378          8
   379          4
   390          0
   392          1
   393          1
   404          2
   406        170
   407        158
   408         42
   409          6
   420          1
   421          1
   434          0
   435          0
   488          1
   489          1
   490          0