##TITLE=Library Entry 35343
##JCAMP-DX=Revision 4.10 
##DATA TYPE=MASS SPECTRUM
##SAMPLE DESCRIPTION=BAY 0376
##NAMES=HP
##CAS NAME=Ergosta-7,22-dien-3-ol, (3.beta.,22E)-, TMS derivative
##MOLFORM=C31H54OSi
##CAS REGISTRY NO=55527-93-0
##MP= -300
##BP= -300
##MW= 470
##$RETENTION INDEX=3203
##$CONDENSED SPECTRUM=NO
##NPOINTS= 157
##XYDATA=(XY..XY) 1 
    61         60
    65         30
    67        330
    68         50
    69        999
    70         70
    71         90
    73        650
    74         70
    75        950
    76         70
    77        120
    78         30
    79        260
    80         40
    81        670
    82        100
    83        260
    84         20
    89         30
    91        300
    92         70
    93        310
    94        100
    95        340
    96         40
    97         60
   101         30
   103         30
   104         20
   105        360
   106        130
   107        460
   108         80
   109        240
   110         30
   111         20
   115         40
   116         30
   117        120
   118         40
   119        250
   120         70
   121        190
   122         30
   123         80
   124         20
   125        160
   126         20
   128         30
   129        130
   130         40
   131        190
   132         60
   133        260
   134         80
   135        150
   136         20
   137         40
   141         30
   142         30
   143        110
   144         60
   145        260
   146         90
   147        340
   148         60
   149         80
   150         30
   151         30
   155         40
   156         20
   157        100
   158         40
   159        240
   160         60
   161        180
   162         30
   163         20
   164         60
   165         20
   169         60
   170         20
   171         70
   172         30
   173        120
   174         30
   175         60
   181         20
   182         30
   183         50
   184         20
   185         70
   186         20
   187         90
   188         20
   189         30
   195         20
   196         30
   197         60
   198         20
   199         90
   200         30
   201         80
   202         20
   203         20
   209         20
   211         50
   212         20
   213        190
   214         40
   215         60
   225         20
   227         80
   228        110
   229        300
   230         50
   239         50
   240         20
   241         60
   253        150
   254         40
   255        600
   256        130
   257         30
   267         30
   283         30
   303         40
   304         20
   309         20
   318        110
   319         40
   329         60
   330         30
   331         20
   337         80
   338         30
   343        410
   344        160
   345        160
   346         40
   357         20
   358         20
   363         30
   365         80
   366         20
   371         40
   372         80
   373         30
   380         60
   413         20
   427         30
   455        140
   456         50
   470        200
   471         70
   472         20