##TITLE=Library Entry 44113
##JCAMP-DX=Revision 4.10 
##DATA TYPE=MASS SPECTRUM
##SAMPLE DESCRIPTION=Exported from NIST MS Search
##NAMES=HP
##CAS NAME=Pentonic acid, 2-deoxy-3,4,5-tris-O-(trimethylsilyl)-, trimethyls
ilyl ester
##MOLFORM=C17H42O5Si4
##CAS REGISTRY NO=55521-17-0
##MP= -300
##BP= -300
##MW= 438
##$RETENTION INDEX=0
##$CONDENSED SPECTRUM=NO
##NPOINTS= 65
##XYDATA=(XY..XY) 1 
    43          5
    44          5
    45         53
    55          8
    59         29
    72         26
    73        999
    74         85
    75         85
    97         26
   101         56
   103         59
   116         62
   117         88
   118          8
   127          8
   129         88
   130         14
   131         26
   133         56
   143         14
   147        295
   148         50
   149         44
   189         85
   190         59
   191         74
   192          8
   204        115
   205        207
   206         59
   207         26
   215         26
   217        174
   218         38
   219         26
   221         14
   230         26
   231          5
   233        118
   234         29
   235          8
   245         26
   259         26
   305         23
   306        115
   307         41
   308         26
   321         38
   333         68
   334         23
   335        121
   336         38
   337         23
   347          8
   348        461
   349        147
   350         74
   351          8
   393         14
   395         26
   423        281
   424        103
   425         62
   426          8