##TITLE=Library Entry 97113
##JCAMP-DX=Revision 4.10 
##DATA TYPE=MASS SPECTRUM
##SAMPLE DESCRIPTION=NIST Mass Spectrometry Data Center
##NAMES=HP
##CAS NAME=Palmitic Acid, TMS derivative
##MOLFORM=C19H40O2Si
##CAS REGISTRY NO=55520-89-3
##MP= -300
##BP= -300
##MW= 328
##$RETENTION INDEX=2050
##$CONDENSED SPECTRUM=NO
##NPOINTS= 200
##XYDATA=(XY..XY) 1 
    15          1
    26          1
    27         19
    28          6
    29         64
    30          1
    31          2
    39         24
    40          6
    41        207
    42         47
    43        304
    44         20
    45         63
    46          4
    47         30
    48          2
    49          1
    51          1
    52          1
    53         15
    54         19
    55        297
    56         58
    57        151
    58         26
    59         32
    60         11
    61         55
    62          3
    63          2
    65          3
    66          1
    67         43
    68         12
    69        100
    70         21
    71         34
    72         35
    73        860
    74         91
    75        670
    76         49
    77         32
    78          2
    79         13
    80          2
    81         43
    82         10
    83         65
    84         26
    85         25
    86          9
    87          9
    88          7
    89         26
    90          4
    91          8
    92          1
    93         12
    94          2
    95         43
    96          8
    97         46
    98         36
    99         22
   100          3
   101         13
   102          2
   103          4
   105         21
   106          2
   107          7
   108          1
   109         14
   110          4
   111         23
   112         13
   113         20
   114          3
   115          9
   116         67
   117        999
   118        100
   119         43
   120          2
   121          7
   122          1
   123          4
   124          1
   125          6
   126          3
   127         11
   129        467
   130         61
   131        134
   132        499
   133         96
   134         25
   135          8
   136          1
   137          1
   138          1
   139          3
   140          2
   141          3
   142          2
   143         32
   145        315
   146         40
   147         14
   148          1
   149          3
   151          1
   152          1
   153          2
   154          4
   155          3
   156          1
   157          8
   158          2
   159         23
   160          4
   161          1
   163          1
   167          2
   168          1
   169          1
   171         22
   172          3
   173          9
   174          6
   175          1
   177          1
   181          2
   182          3
   183          1
   185         30
   186          5
   187         26
   188          7
   189          2
   190          1
   191          1
   194          1
   195          3
   196          1
   199         19
   200          3
   201         56
   202          9
   203          5
   204          1
   209          1
   210          1
   213          8
   214          2
   215         10
   216          4
   217          1
   219          1
   227          9
   228          2
   229          9
   230          2
   231          3
   239          1
   241          5
   242          1
   243         11
   244          2
   245          1
   255          4
   256          1
   257          7
   258          1
   269         33
   270          7
   271          6
   272          1
   283          5
   284          1
   285         31
   286          7
   287          2
   299          8
   300          2
   301          1
   310          1
   311          2
   313        689
   314        168
   315         45
   316          7
   317          1
   327          3
   328         61
   329         15
   330          4
   331          1