##TITLE=Library Entry 43263
##JCAMP-DX=Revision 4.10 
##DATA TYPE=MASS SPECTRUM
##SAMPLE DESCRIPTION=M.G.HORNING,INST.FOR LIPID RES,BAYLOR COL.OF MED.,HOUST
ON,TEX
##NAMES=HP
##CAS NAME=D-Glucose, 2,3,4,5-tetrakis-O-(trimethylsilyl)-, 6-[bis(trimethyl
silyl) phosphate]
##MOLFORM=C24H61O9PSi6
##CAS REGISTRY NO=55520-80-4
##MP= -300
##BP= -300
##MW= 692
##$RETENTION INDEX=0
##$CONDENSED SPECTRUM=NO
##NPOINTS= 125
##XYDATA=(XY..XY) 1 
    41          9
    43         17
    44         12
    45         49
    47          9
    55          9
    59         24
    61          7
    69          7
    72         14
    73        999
    74         88
    75         93
    77          9
    81         19
    85          7
    99          7
   101         17
   103         36
   113         24
   115          9
   116         14
   117         17
   119          9
   127          9
   129        200
   130         26
   131         29
   132          7
   133         63
   134          9
   135         14
   142          9
   143         19
   145         12
   147        264
   148         41
   149         31
   155         14
   157          9
   169         14
   170          7
   171          7
   175          7
   183          7
   189         19
   190          7
   191         78
   192         14
   193         14
   195          9
   196          7
   203          7
   204        489
   205        107
   206         49
   207         29
   208          7
   211         61
   212         12
   213          7
   217         75
   218         17
   219          9
   221          9
   225         19
   226          7
   227         34
   228          7
   229          9
   230          9
   231         14
   242         19
   243         36
   244          9
   245          9
   247         17
   253          7
   269         19
   270         29
   271         68
   272         19
   273          9
   283          9
   284          9
   285         19
   286          7
   291          7
   298         14
   299        254
   300         63
   301         39
   302          7
   305         29
   306          9
   313          9
   314         19
   315        137
   316         39
   317         44
   318         14
   319          9
   343          7
   345         29
   346          9
   357        132
   358         39
   359         22
   360          9
   361          9
   369         17
   370         93
   371         31
   372         17
   373         19
   383         14
   387        485
   388        176
   389        117
   390         31
   391         12
   587         12
   677         18
   678         10
   679          7