##TITLE=Library Entry 83474
##JCAMP-DX=Revision 4.10 
##DATA TYPE=MASS SPECTRUM
##SAMPLE DESCRIPTION=Exported from NIST MS Search
##NAMES=HP
##CAS NAME=3,7-Cyclodecadien-1-one, 10-(1-methylethenyl)-, (E,E)-
##MOLFORM=C13H18O
##CAS REGISTRY NO=55521-11-4
##MP= -300
##BP= -300
##MW= 190
##$RETENTION INDEX=0
##$CONDENSED SPECTRUM=NO
##NPOINTS= 143
##XYDATA=(XY..XY) 1 
    13          3
    14          4
    15         15
    17          2
    23          1
    25          2
    27        163
    29        145
    30          5
    31          1
    33          1
    35          1
    36          1
    37          3
    38          6
    39        346
    40        115
    41        506
    42         58
    43         69
    45          9
    46          1
    47          1
    48          1
    49          1
    50         12
    51         77
    52         62
    53        430
    54         47
    55        178
    56          3
    57          8
    59         12
    60          3
    61          2
    62          4
    63         30
    64         12
    65        135
    66         83
    67        775
    68        319
    69         78
    70          3
    71          5
    72          1
    74          4
    75          9
    76          3
    77        246
    78         75
    79        256
    80         78
    81         93
    82        192
    83         40
    84          6
    85          3
    86          1
    88          4
    89         12
    90          8
    91        440
    92         74
    93        206
    94         47
    95         86
    96         66
    97         19
    98          3
    99          3
   100          3
   101          5
   102          6
   103         30
   104         12
   105        215
   106         49
   107        999
   108        211
   109         85
   110         18
   111         11
   112          3
   114          1
   115         20
   116         13
   117         52
   118          8
   119         90
   121        235
   122        163
   123         47
   124          6
   125          1
   126          2
   127          1
   128         15
   129         12
   130          3
   131         21
   132         26
   133        102
   134         28
   135        701
   136        475
   137         79
   138          8
   139          1
   140          1
   141          6
   142          4
   143         13
   144          4
   145         23
   146         10
   147        104
   148         29
   149         83
   150         87
   151         10
   152          1
   153          2
   154          1
   155          1
   156          3
   157         10
   158          6
   159         11
   160          8
   161         43
   162         12
   163         10
   164          5
   174          5
   175        153
   176         54
   177          6
   188          1
   189         24
   190         26
   191          3