##TITLE=Library Entry 14834
##JCAMP-DX=Revision 4.10 
##DATA TYPE=MASS SPECTRUM
##SAMPLE DESCRIPTION=R. TSCHESCHE ORG. CHEM. INST., BONN UNIVERSITY, W. GERM
ANY
##NAMES=HP
##CAS NAME=Pregnane-3,11,12,14,20-pentol, 3,12,20-triacetate 11-(hydroxyacet
ate), (3.beta.,11.alpha.,12.beta.,14.beta.)-
##MOLFORM=C29H44O10
##CAS REGISTRY NO=55529-73-2
##MP= -300
##BP= -300
##MW= 552
##$RETENTION INDEX=0
##$CONDENSED SPECTRUM=NO
##NPOINTS= 316
##XYDATA=(XY..XY) 1 
    41        121
    42         37
    43        999
    44        118
    45         79
    53         28
    54         14
    55        218
    56         28
    57        134
    58          9
    59         14
    60         65
    61         47
    65         19
    66         14
    67        149
    68         33
    69        135
    70         42
    71         51
    73         28
    77         47
    78         18
    79        145
    80         28
    81        200
    82         37
    83         88
    84         37
    85         60
    86         14
    87         37
    91        130
    92         42
    93        200
    94         74
    95        190
    96         60
    97        220
    98         42
   100          9
   101         33
   103         19
   104         19
   105        180
   106         94
   107        264
   108        102
   109        185
   110         79
   111         79
   112         37
   113         33
   114         14
   115         19
   116         14
   117         47
   118         37
   119         14
   120        126
   121        195
   122        102
   123        166
   124        181
   125        181
   126         33
   127         19
   128         19
   129         42
   130         23
   131         93
   132         42
   133        125
   134         56
   135        153
   136         84
   137        180
   138         65
   139         33
   140          9
   141         28
   142         28
   143         79
   144         65
   145        145
   146        134
   147        218
   148        130
   149        158
   150         47
   151         42
   152         14
   153         42
   154         14
   155         42
   156         28
   157         70
   158         28
   159        111
   160         64
   161         89
   162         33
   163         51
   164         19
   175         60
   176         37
   177         37
   178         28
   179         33
   180         14
   181         19
   182         28
   183         93
   184         37
   185         61
   186         33
   187         60
   188         42
   189         64
   190         37
   191         42
   192         23
   193         23
   194         14
   195         37
   196         28
   197         42
   198         19
   199         51
   200         28
   201         51
   202         28
   203         37
   204         19
   205         32
   206         14
   207         23
   208         32
   209         32
   210         19
   211         28
   212         19
   213         47
   214         33
   215         28
   216         19
   217         23
   218         14
   219         14
   220          9
   221         14
   222         14
   223         28
   224         23
   225         33
   226         37
   227         28
   228         23
   229         37
   230         19
   231         14
   232          9
   233         14
   234         14
   235         28
   236         19
   237         42
   238         23
   239         23
   240          9
   241         33
   242         19
   243         19
   244         14
   245         33
   246         28
   247         19
   248         19
   249         28
   250         33
   251         51
   252         37
   253         60
   254         19
   255         23
   256         19
   257         14
   259         28
   260         37
   261         23
   262         14
   263         56
   264         23
   265         23
   266         14
   267         28
   268         28
   269         33
   270         23
   271         19
   272         23
   273         14
   274         19
   275         19
   276         14
   277         37
   278         93
   279         93
   280         33
   281         65
   282         23
   283         19
   284         19
   285         23
   286         19
   287         19
   288         23
   289         14
   290         14
   291         14
   294          9
   295         47
   296        153
   297         98
   298         37
   299         19
   300         14
   301         19
   302         23
   303         19
   304         23
   305         23
   306         28
   307         14
   310         32
   311         28
   312         56
   313        126
   314         84
   315         28
   316         19
   323         65
   324         23
   325         14
   326         28
   327         38
   328         60
   329         47
   330         42
   331         23
   332         14
   338        290
   339        168
   340         75
   341         75
   342         23
   343         14
   344          9
   345         32
   346         23
   347         14
   348          9
   354         38
   355         37
   356        790
   357        290
   358        107
   359         32
   362          9
   363          9
   364         23
   365         19
   368         14
   369         14
   370          9
   372         23
   373         42
   374         37
   375         51
   376         14
   386         23
   387          5
   388          9
   389          9
   390         14
   398         51
   399         19
   400         19
   401         51
   402         19
   414         23
   415         14
   416        436
   417        200
   418         60
   419         23
   431         28
   432         42
   433         98
   434         23
   446          9
   458         14
   459          9
   460          9
   461          9
   474         47
   475         19
   476         47
   477         19
   492         60
   493         14
   522        116
   523         37
   524         14
   552          9