##TITLE=Library Entry 43976
##JCAMP-DX=Revision 4.10 
##DATA TYPE=MASS SPECTRUM
##SAMPLE DESCRIPTION=BAY 0318
##NAMES=HP
##CAS NAME=D-threo-2-Pentulose, 1,3,4-tris-O-(trimethylsilyl)-, 5-[bis(trime
thylsilyl) phosphate]
##MOLFORM=C20H51O8PSi5
##CAS REGISTRY NO=55520-85-9
##MP= -300
##BP= -300
##MW= 590
##$RETENTION INDEX=0
##$CONDENSED SPECTRUM=NO
##NPOINTS= 210
##XYDATA=(XY..XY) 1 
    41          8
    43         12
    44         12
    45         45
    46          4
    47          8
    53          4
    54          4
    55         12
    57          4
    58          8
    59         28
    60          4
    61          8
    66          4
    67          4
    69          8
    71          4
    72         12
    73        999
    74         69
    75        122
    76          8
    77          8
    81          4
    83          4
    85          4
    87          4
    88          4
    89          8
    93          4
    95          4
    97          8
    99          8
   101         45
   102          4
   103         89
   104          8
   105          8
   111          4
   113         12
   115         16
   116         16
   117         16
   119          8
   121          4
   127          8
   129        130
   130         16
   131         20
   132          4
   133         61
   134         12
   135         16
   136          4
   137          4
   141          4
   142          4
   143         20
   144          4
   145          8
   147        171
   148         37
   149         28
   150          4
   151          8
   153          4
   155          8
   156          4
   157         20
   158          4
   159          4
   163          4
   168          4
   169         24
   170          8
   171         12
   173          4
   175          4
   177          4
   179          4
   181          4
   189          8
   191         28
   192          4
   193         12
   195         12
   197          4
   203          8
   204         16
   205         12
   207         37
   208          8
   209          8
   211         65
   212         16
   213         12
   215         24
   216          8
   217        447
   218        146
   219         41
   220         12
   221         12
   225         28
   226          8
   227         49
   228          8
   229         12
   230         20
   231         20
   232         12
   233          8
   234          4
   241          4
   242          8
   243        236
   244         37
   245         28
   246          8
   253          8
   255          4
   256          4
   257         12
   258         20
   259        163
   260         37
   261         16
   262          4
   269          8
   283         16
   284          4
   285         28
   286          8
   287          4
   291          8
   298          8
   299        520
   300        163
   301         69
   302         16
   303          8
   305          8
   306          8
   313         12
   314         33
   315        812
   316        163
   317        138
   318         24
   319          8
   320          4
   321          1
   328         24
   329         12
   330          4
   331          4
   333         16
   334          4
   341         33
   342          8
   343          8
   344          4
   345          8
   348         49
   349         28
   350         16
   351          4
   357        740
   358        195
   359        138
   360         24
   361          8
   369         12
   370          8
   371         12
   373         16
   374          8
   375          4
   387         45
   388         12
   389         33
   390          8
   391          4
   395         45
   396         12
   397          8
   398          4
   410          4
   417          8
   418          4
   429          4
   431          4
   445         12
   446          8
   447          4
   457          4
   458          8
   459         65
   460         28
   461         20
   462          8
   485         49
   486         16
   487         20
   488          4
   500          4
   575         16
   576          8
   577          4