##TITLE=Library Entry 41391
##JCAMP-DX=Revision 4.10 
##DATA TYPE=MASS SPECTRUM
##SAMPLE DESCRIPTION=NIST Mass Spectrometry Data Center
##NAMES=HP
##CAS NAME=3-Methyladipic acid, 2TMS derivative
##MOLFORM=C13H28O4Si2
##CAS REGISTRY NO=55520-93-9
##MP= -300
##BP= -300
##MW= 304
##$RETENTION INDEX=1544
##$CONDENSED SPECTRUM=NO
##NPOINTS= 168
##XYDATA=(XY..XY) 1 
    15          2
    26          1
    27          7
    28          5
    29         16
    30          1
    31          3
    39         13
    40          3
    41         56
    42         17
    43         52
    44         24
    45        147
    46         11
    47         68
    48          3
    49          2
    51          2
    52          1
    53         14
    54          7
    55        224
    56         26
    57         13
    58         31
    59         49
    60         15
    61         65
    62          4
    63          3
    65          2
    66          2
    67         10
    69        311
    70         26
    71          8
    72         46
    73        999
    74        105
    75        730
    76         53
    77         34
    78          2
    79          9
    80          2
    81         42
    82         16
    83         69
    84          5
    85         16
    86         13
    87          7
    88          8
    89         11
    90          2
    91          3
    93          1
    95          8
    96         10
    97        162
    98         12
    99         27
   100          4
   101         18
   102          3
   103          6
   104          1
   105          2
   107          2
   109          5
   110          1
   111          5
   112          4
   113         25
   114          4
   115         11
   116         32
   117        202
   118         21
   119         12
   120          1
   123          2
   125        529
   126         43
   127          7
   129        159
   130         26
   131         28
   132         14
   133         53
   134          8
   135          6
   137         19
   139          3
   141          2
   142         20
   143         58
   144         11
   145         26
   147        352
   148         57
   149         69
   150          9
   151          4
   152          1
   153          1
   155        214
   156         36
   157         44
   158          9
   159         26
   160         19
   161          3
   162          2
   163          1
   168          2
   169          6
   170          4
   171         41
   172         19
   173        230
   174         33
   175         11
   176          1
   186        142
   187         25
   188          7
   189          3
   190          2
   191          1
   197          1
   199         46
   200          7
   201          3
   203          3
   204         74
   205         15
   206          6
   207          1
   213          1
   214          7
   215         10
   217         48
   218         13
   219          6
   220          1
   229          3
   230          1
   231         24
   232          9
   233          3
   234          1
   243          3
   244          1
   245         15
   246          3
   247          2
   261          5
   262          1
   263          1
   271          1
   289        183
   290         45
   291         19
   292          3
   293          1
   304          1