##TITLE=Library Entry 42300
##JCAMP-DX=Revision 4.10 
##DATA TYPE=MASS SPECTRUM
##SAMPLE DESCRIPTION=Doug Stevens Waters Corp.
##NAMES=HP
##CAS NAME=2-Monolinolenin, 2TMS derivative
##MOLFORM=C27H52O4Si2
##CAS REGISTRY NO=55521-23-8
##MP= -300
##BP= -300
##MW= 496
##$RETENTION INDEX=2786
##$CONDENSED SPECTRUM=NO
##NPOINTS= 332
##XYDATA=(XY..XY) 1 
    50          9
    51         12
    52         27
    53         13
    54         30
    55        188
    56          9
    57         18
    58         19
    59         77
    60         17
    61         64
    62         12
    63         17
    64         13
    65         15
    66         29
    67        239
    68         43
    69        119
    70         24
    71          4
    72         23
    73        999
    74        121
    75        281
    76         22
    77        134
    78         46
    79        374
    80        105
    81        170
    82         30
    83         43
    84         21
    85         16
    86          4
    87          8
    88         17
    89         21
    90          4
    91        157
    92         35
    93        147
    94         41
    95        240
    96         33
    97         10
    98         13
    99         23
   100          4
   101        115
   102         10
   103        388
   104         49
   105         91
   106         26
   107         68
   108        148
   109         62
   110          9
   111         10
   112          9
   113         17
   114          8
   115         19
   116         43
   117        134
   118         12
   119         78
   120         35
   121         77
   122         26
   123         10
   124          4
   125         11
   128         12
   129        540
   130         87
   131         78
   132         33
   133         82
   134         30
   135         58
   136         20
   137         10
   138          8
   139          4
   141          8
   142          8
   144          7
   145         34
   146         13
   147        407
   148         42
   149         69
   150         16
   151          8
   152          7
   153         16
   155          4
   156          4
   157          4
   158          8
   159         29
   160         12
   161         22
   162         30
   163         23
   164         17
   165         17
   166         12
   167         10
   169          8
   170          4
   171          7
   172          8
   173         27
   174         16
   175         24
   176         15
   177          8
   178         17
   179          4
   180          4
   181          4
   182          4
   183          8
   184          8
   185          8
   186          4
   187         16
   188          4
   189         35
   190          8
   191         15
   192          4
   193         13
   194          4
   195          8
   196          8
   197          7
   198          4
   199          8
   201         43
   202         16
   203        181
   204         57
   205        120
   206         31
   207          9
   208          9
   209          9
   210          9
   211          3
   212          4
   213          4
   215         17
   216          4
   217         53
   218         60
   219         66
   220          9
   221         33
   222          3
   223         13
   225          4
   226          4
   227          4
   228          4
   229          9
   231          9
   232         12
   233          4
   234          9
   235          8
   236          4
   237         17
   238         15
   239          9
   240          4
   242          9
   243         18
   245          4
   246          9
   247          8
   248          4
   249          4
   251          8
   253          9
   254          7
   255          9
   256          9
   257         22
   258          8
   259         19
   260         41
   261         56
   262         10
   263          8
   264          4
   265         16
   266          9
   267          9
   269          9
   271          8
   273          4
   274          4
   276          8
   277         32
   278          8
   280          4
   281          9
   282          5
   283          4
   285          9
   286         16
   287         17
   289          9
   290          4
   292          9
   293          4
   295         13
   297          4
   298          9
   299          4
   300          9
   301         15
   302          9
   303         84
   304         22
   305          4
   306          9
   307          9
   309          9
   310          9
   311          9
   312          9
   313          9
   314          9
   316          4
   317          9
   318          4
   322          9
   323          8
   324          4
   325          4
   327          9
   328          8
   331          4
   334          8
   335         24
   336          8
   337         27
   338         19
   339          8
   340          4
   341         12
   343          7
   344          4
   345          8
   346          3
   347          4
   349         17
   350         21
   351          8
   352         15
   354          8
   356          4
   357          3
   358          4
   363          8
   364          4
   365          8
   367          4
   372          8
   373          8
   375          8
   376          4
   377          8
   378          8
   380          8
   381          8
   383          4
   386          8
   387          4
   388          8
   389          8
   391          4
   392          8
   393        354
   394         85
   395         29
   396         12
   397         23
   398          3
   399          8
   401          8
   404          8
   405          8
   406         79
   407         15
   408          8
   410         17
   411          4
   415          8
   420          4
   423          8
   425          4
   428          4
   429          4
   430          8
   431          4
   437          4
   440          8
   452          8
   454          4
   457          8
   458          8
   459          8
   481         51
   482         37
   483         10
   484          8
   485         10
   494          4
   495          4
   496         12
   497          8
   520          4
   580          8
   624          4