##TITLE=Library Entry 43287
##JCAMP-DX=Revision 4.10 
##DATA TYPE=MASS SPECTRUM
##SAMPLE DESCRIPTION=O A MAMER, MCGILL UNIVERSITY, MONTREL
##NAMES=HP
##CAS NAME=Paracetamol, 2TMS derivative
##MOLFORM=C14H25NO2Si2
##CAS REGISTRY NO=55530-61-5
##MP= -300
##BP= -300
##MW= 295
##$RETENTION INDEX=0
##$CONDENSED SPECTRUM=NO
##NPOINTS= 134
##XYDATA=(XY..XY) 1 
    17          7
    26         10
    27          3
    31          7
    39         10
    40          5
    41          1
    42          7
    43         78
    46         14
    47         28
    50         10
    52          6
    53          6
    55          9
    57         13
    58         15
    59         35
    60          7
    61         16
    63         13
    64         15
    65         11
    66          4
    67          6
    69          7
    70          7
    71          7
    72         17
    73        999
    74         92
    75        156
    76         30
    77         19
    78          9
    79         10
    80          5
    81         11
    83         13
    84         10
    85         10
    86          8
    89         13
    90         14
    91         51
    92          8
    93         10
    95         28
    96          8
    97          5
   100          6
   103          6
   104          7
   105         22
   106         12
   107          9
   109          8
   111          5
   114         50
   115         30
   116        149
   117         27
   118         11
   119          7
   120         10
   121         15
   122          5
   123          5
   131          7
   132         42
   133         36
   134         11
   135         51
   136         11
   137          9
   140          4
   146          5
   147         18
   148         10
   149         44
   150         31
   151         21
   152          7
   153          7
   160          5
   161          5
   162          8
   163         26
   164         17
   165         40
   166         11
   167          6
   176          6
   177          5
   178          8
   179         13
   180         36
   181         30
   182         10
   190         18
   191          7
   192         36
   193          9
   194          5
   204         27
   205         15
   206        530
   207        107
   208         35
   209          7
   220          5
   221          1
   222         13
   236          6
   237         38
   238         18
   239         15
   240          5
   252          6
   253          6
   254         16
   255          5
   265         11
   267          6
   278          6
   280        453
   281        126
   282         47
   283         11
   294         29
   295        428
   296        115
   297         43
   298          9