##TITLE=Library Entry 41854
##JCAMP-DX=Revision 4.10 
##DATA TYPE=MASS SPECTRUM
##SAMPLE DESCRIPTION=ORVAL A. MAMER, ROYAL VICTORIA HOSPITAL, MONTREAL, CANA
DA
##NAMES=HP
##CAS NAME=Glycine, N-(2-methyl-1-oxopropyl)-N-(trimethylsilyl)-, trimethyls
ilyl ester
##MOLFORM=C12H27NO3Si2
##CAS REGISTRY NO=55530-55-7
##MP= -300
##BP= -300
##MW= 289
##$RETENTION INDEX=1408
##$CONDENSED SPECTRUM=NO
##NPOINTS= 90
##XYDATA=(XY..XY) 1 
    15         13
    26          5
    27         43
    28         41
    29         17
    30         17
    31         10
    39         17
    40          6
    41         98
    42         28
    43        384
    44         44
    45        202
    46         14
    47         40
    55         22
    56         20
    57         18
    58         28
    59         75
    60         10
    61         24
    68         40
    69         10
    70         14
    71        178
    72         50
    73        999
    74         93
    75        213
    76         15
    77         10
    82         18
    83         20
    84          8
    86         43
    87          9
    88         10
    98          6
   100         72
   101         70
   102        603
   103         69
   104         29
   110          8
   116         24
   117         16
   128          6
   129         11
   130         24
   131         22
   132          9
   133         30
   142         19
   143          6
   144         67
   145         16
   147        165
   148         27
   149         16
   156         27
   158         38
   159          6
   170          6
   171         19
   172        399
   173         74
   174         40
   176        148
   177         26
   178         13
   184         17
   199         69
   200         21
   201          6
   202         19
   218         76
   219         17
   220          9
   230          5
   246        140
   247         30
   248         14
   274        191
   275         44
   276         19
   289         91
   290         25
   291          9