##TITLE=Library Entry 42549
##JCAMP-DX=Revision 4.10 
##DATA TYPE=MASS SPECTRUM
##SAMPLE DESCRIPTION=S. MARKEY UNIV. OF COLO. MED. CTR., DENVER, COLORADO, U
SA
##NAMES=HP
##CAS NAME=Aconitic acid, (E)-, 3TMS derivative
##MOLFORM=C15H30O6Si3
##CAS REGISTRY NO=55530-72-8
##MP= -300
##BP= -300
##MW= 390
##$RETENTION INDEX=1730
##$CONDENSED SPECTRUM=NO
##NPOINTS= 101
##XYDATA=(XY..XY) 1 
    39         22
    43         30
    44         25
    45        133
    46          7
    47         22
    53         10
    55          5
    57          9
    58         14
    59         20
    60          2
    61         14
    66          8
    67         74
    68          6
    69          4
    70          2
    71          5
    72         24
    73        999
    74         81
    75        159
    76         24
    77          7
    81          5
    82          3
    83          9
    93          2
    94         20
    95         15
    96          7
    97         27
    98          3
    99          5
   103          1
   111          3
   113          2
   115          3
   116          2
   117         11
   118         18
   119         23
   131         12
   132          1
   133         50
   134          7
   135          5
   141          8
   143          3
   146          1
   147        347
   148         55
   149         62
   150          7
   152         47
   153          3
   155          4
   156          2
   157          5
   159          1
   169          5
   171          2
   183          4
   184         11
   185          3
   207          3
   211         47
   212          7
   213          5
   215         32
   216         16
   217         14
   221          4
   228          9
   229        132
   230         32
   231         13
   232          1
   243          2
   245          2
   257          8
   258          1
   259          2
   272         10
   273          5
   274          1
   285         55
   286         10
   287         14
   288          1
   300         10
   301          3
   303          1
   346         32
   347         11
   348          5
   375        112
   376         33
   377         18
   378          3