##TITLE=Library Entry 46076
##JCAMP-DX=Revision 4.10 
##DATA TYPE=MASS SPECTRUM
##SAMPLE DESCRIPTION=NIST Mass Spectrometry Data Center, 2010
##NAMES=HP
##CAS NAME=Monoethyl phthalate, TMS derivative
##MOLFORM=C13H18O4Si
##CAS REGISTRY NO=55530-57-9
##MP= -300
##BP= -300
##MW= 266
##$RETENTION INDEX=1658
##$CONDENSED SPECTRUM=NO
##NPOINTS= 140
##XYDATA=(XY..XY) 1 
    15          2
    26          2
    27         13
    28          6
    29         33
    30          1
    31          2
    38          1
    39          9
    41          1
    42          2
    43         24
    44         10
    45         61
    46          4
    47         22
    48          1
    49          2
    50         32
    51         12
    52          2
    53          7
    54          1
    55          4
    56          1
    57          4
    58          5
    59         23
    60          6
    61         27
    62          5
    63          6
    64          4
    65         73
    66         10
    67          4
    68          1
    69          1
    70          2
    71          3
    72         14
    73        265
    74         47
    75        999
    76        176
    77         81
    78          6
    79          7
    80          1
    81          3
    82          2
    83          3
    85          8
    86          1
    87          2
    88          2
    89         53
    90         14
    91         35
    92         10
    93         76
    94          6
    95          5
    96          2
    97          1
   101          3
   103        240
   104         68
   105         55
   106          6
   107          6
   108          1
   109          1
   115          1
   116          1
   117          5
   118         12
   119        123
   120         20
   121         58
   122          5
   123          2
   125          1
   129          1
   131          5
   132          5
   133         35
   134         15
   135         38
   136          6
   137          3
   145          1
   146          1
   147          5
   148         10
   149        332
   150         33
   151          6
   152          1
   159          1
   161         15
   163        212
   164         32
   165         16
   166          2
   175          3
   176         16
   177        198
   178         47
   179         46
   180          7
   181          2
   192         13
   193         81
   194         17
   195          5
   196          1
   205          1
   206          2
   207          6
   208          1
   219         36
   220         84
   221        329
   222         61
   223        782
   224        126
   225         41
   226          4
   237          2
   238          1
   249          1
   251        951
   252        174
   253         53
   254          6
   255          1
   266         67
   267         13
   268          4