##TITLE=Library Entry 42297
##JCAMP-DX=Revision 4.10 
##DATA TYPE=MASS SPECTRUM
##SAMPLE DESCRIPTION=MO-22
##NAMES=HP
##CAS NAME=Pentanedioic acid, 2-[(trimethylsilyl)oxy]-, bis(trimethylsilyl)
 ester
##MOLFORM=C14H32O5Si3
##CAS REGISTRY NO=55530-62-6
##MP= -300
##BP= -300
##MW= 364
##$RETENTION INDEX=1586
##$CONDENSED SPECTRUM=NO
##NPOINTS= 59
##XYDATA=(XY..XY) 1 
    15         12
    27         12
    28         31
    29         24
    41         31
    43         51
    44         38
    45        172
    46         14
    47         35
    55         52
    56         13
    57         20
    58         19
    59         57
    61         26
    69         18
    72         62
    73        999
    74         94
    75        268
    76         20
    77         12
    85        120
    88         10
    95         12
   101         27
   115         27
   116         53
   117         24
   129        692
   130         88
   131         63
   133         87
   134         14
   147        404
   148         67
   149        107
   150         16
   157        114
   158         17
   159         27
   163         12
   187         21
   189          6
   203        133
   204         48
   205         18
   218         14
   221         10
   231         43
   232         10
   247        350
   248         78
   249         34
   321         11
   349         95
   350         30
   351         15