##TITLE=Library Entry 43747
##JCAMP-DX=Revision 4.10 
##DATA TYPE=MASS SPECTRUM
##SAMPLE DESCRIPTION=John Halket,Royal Holloway, University of London, UK
##NAMES=HP
##CAS NAME=Benzenepropanoic acid, 4-[(trimethylsilyl)oxy]-.alpha.-[[(trimeth
ylsilyl)oxy]imino]-, trimethylsilyl ester
##MOLFORM=C18H33NO4Si3
##CAS REGISTRY NO=55530-68-2
##MP= -300
##BP= -300
##MW= 411
##$RETENTION INDEX=1960
##$CONDENSED SPECTRUM=NO
##NPOINTS= 180
##XYDATA=(XY..XY) 1 
    29          3
    30          1
    31          2
    39          2
    43         18
    44         13
    45         76
    46          4
    47         11
    53          2
    54          1
    55          3
    56          2
    57          4
    58          9
    59         27
    60          3
    61          5
    62          1
    63          3
    66          1
    70          3
    71          3
    73        999
    74         87
    75         97
    76          7
    77         10
    78          4
    82          1
    84         23
    85          4
    86          3
    87          2
    88          1
    89         13
    90          5
    91          9
    92          2
    98          1
    99          1
   100          5
   101          1
   102          2
   103          7
   104          5
   105          7
   106          1
   107          3
   109          1
   114          1
   115          5
   116         23
   117          7
   118          1
   119          3
   121          5
   122          1
   123          1
   127          1
   128          2
   129          2
   130          4
   131         16
   132          4
   133         17
   134          3
   135         20
   136          3
   137          2
   143          1
   144          1
   145          2
   146          3
   147         62
   148         13
   149         22
   150          8
   151          3
   153          1
   158          7
   159          3
   160         10
   161          5
   162          4
   163         23
   164         10
   165          4
   166          1
   170          1
   172          2
   173          1
   174          6
   175          4
   176          3
   177         24
   179        135
   180         22
   181          8
   182          1
   188          8
   189         12
   190        116
   191         25
   192          6
   193          3
   195          2
   202          2
   204         61
   205         23
   206          5
   209          2
   210          1
   216          1
   217          1
   218          4
   219          3
   220          2
   221          2
   222          1
   223          2
   224          1
   231          2
   232          7
   233          3
   234          9
   235          3
   236          2
   237          2
   238          1
   239          1
   240          1
   246          2
   247          1
   248          3
   249          1
   251          3
   253          5
   254          2
   255          1
   262         11
   263          4
   264         10
   265          1
   266          1
   267          6
   268          2
   269          1
   277        488
   278        132
   279         54
   280          9
   281          3
   291          1
   293          1
   295          2
   296          1
   297          1
   298          1
   306          2
   307          1
   308          1
   309          1
   321          1
   323          3
   324          1
   338          1
   352          1
   368          1
   378          2
   379          1
   396         85
   397         29
   398         16
   399          3
   400          1
   411         25
   412         10
   413          5
   414          1