##TITLE=Library Entry 41298
##JCAMP-DX=Revision 4.10 
##DATA TYPE=MASS SPECTRUM
##SAMPLE DESCRIPTION=MO-18
##NAMES=HP
##CAS NAME=Pimelic acid, 2TMS derivative
##MOLFORM=C13H28O4Si2
##CAS REGISTRY NO=55530-58-0
##MP= -300
##BP= -300
##MW= 304
##$RETENTION INDEX=1610
##$CONDENSED SPECTRUM=NO
##NPOINTS= 85
##XYDATA=(XY..XY) 1 
    15         25
    18         22
    27         29
    28         49
    29         19
    39         18
    41         98
    42         28
    43         78
    44         44
    45        174
    46         14
    47         85
    53         13
    55        342
    56         27
    57         18
    58         29
    59         49
    60         15
    61         70
    67         24
    68         18
    69        258
    70         21
    72         56
    73        999
    74        106
    75        745
    76         58
    77         42
    79         62
    81         91
    83         72
    85         13
    89         13
    95         18
    96         19
    97        130
    98         12
    99         20
   101         18
   105         13
   111         28
   116         63
   117        137
   118         18
   124         30
   125        315
   126         27
   129        115
   130         21
   131         23
   132         25
   133         40
   137         13
   143         15
   145         17
   147        296
   148         49
   149         86
   150         13
   155        293
   156         45
   157         40
   158         18
   159         15
   169         13
   171         46
   172         33
   173        171
   174         26
   186         60
   187         14
   199         31
   204         44
   205         11
   214         22
   215         15
   217         76
   218         19
   245         12
   289        187
   290         46
   291         21