##TITLE=Library Entry 41729
##JCAMP-DX=Revision 4.10 
##DATA TYPE=MASS SPECTRUM
##SAMPLE DESCRIPTION=O A MAMER, MCGILL UNIVERSITY, MONTRE
##NAMES=HP
##CAS NAME=Phenylpyruvic acid oxime, 2TMS derivative
##MOLFORM=C15H25NO3Si2
##CAS REGISTRY NO=55530-64-8
##MP= -300
##BP= -300
##MW= 323
##$RETENTION INDEX=1662
##$CONDENSED SPECTRUM=NO
##NPOINTS= 55
##XYDATA=(XY..XY) 1 
     1          7
    14         10
    27          5
    28          6
    29          8
    31          6
    39         11
    41          5
    43         29
    44         18
    45         87
    46          6
    47         21
    51          8
    57          6
    58         13
    59         54
    60          6
    61          8
    63          7
    65         27
    72         11
    73        999
    74         91
    75         99
    76          8
    77          9
    84         15
    89         37
    90         17
    91        110
    92          9
   103          6
   116         23
   117         24
   131          9
   133         17
   135          5
   146          8
   147         84
   148         16
   149          9
   163          7
   174          8
   189         61
   190         15
   191          6
   206         13
   279         16
   281          5
   308         46
   309         13
   310          5
   323         16
   324          5