##TITLE=Library Entry 44371
##JCAMP-DX=Revision 4.10 
##DATA TYPE=MASS SPECTRUM
##SAMPLE DESCRIPTION=S. MARKEY UNIV. OF COLO. MED. CTR., DENVER, COLORADO, U
SA
##NAMES=HP
##CAS NAME=1H-Purine-2,6,8(3H)-trione, 4,9-dihydro-1,3,4,9-tetrakis(trimethy
lsilyl)-
##MOLFORM=C17H36N4O3Si4
##CAS REGISTRY NO=55530-45-5
##MP= -300
##BP= -300
##MW= 456
##$RETENTION INDEX=2134
##$CONDENSED SPECTRUM=NO
##NPOINTS= 28
##XYDATA=(XY..XY) 1 
    41         55
    43         73
    44         61
    45        167
    58         98
    59         61
    73        999
    74        109
    75        318
    77        277
    84         41
    93         65
   100        140
   131         34
   133         73
   147        287
   369        154
   370         41
   382        111
   383         69
   384        125
   441        307
   442        182
   443        115
   444         53
   456        322
   457        151
   458        110