##TITLE=Library Entry 43249
##JCAMP-DX=Revision 4.10 
##DATA TYPE=MASS SPECTRUM
##SAMPLE DESCRIPTION=O A MAMER, MCGILL UNIVERSITY, MONTRE
##NAMES=HP
##CAS NAME=D-Glucuronic acid, 2,3,4,5-tetrakis-O-(trimethylsilyl)-, trimethy
lsilyl ester
##MOLFORM=C21H50O7Si5
##CAS REGISTRY NO=55530-80-8
##MP= -300
##BP= -300
##MW= 554
##$RETENTION INDEX=2012
##$CONDENSED SPECTRUM=NO
##NPOINTS= 97
##XYDATA=(XY..XY) 1 
    28         26
    43          9
    45         61
    47          8
    55          9
    72         18
    73        999
    74         90
    75         75
    76          6
   101          9
   103         20
   116          9
   117         14
   129         25
   131         21
   133         39
   134          6
   143         34
   147        242
   148         41
   149         27
   169         14
   189         28
   190          8
   191         99
   192         19
   193         10
   203          6
   204        342
   205         65
   206         32
   207          7
   217        329
   218         84
   219         34
   220          7
   221         14
   222          4
   223          3
   229          2
   230          3
   231          2
   232         10
   233         34
   234          8
   235          4
   243          5
   245         14
   246          3
   247          2
   257         10
   258          3
   259          3
   265          4
   277          2
   278          2
   279          2
   285          4
   291         15
   292         78
   293         23
   294         15
   295          1
   303          2
   305        106
   306         29
   307         15
   308          4
   318          3
   319          5
   320          2
   331          8
   332          3
   333         13
   334          4
   335         10
   336          3
   346          2
   347          3
   359          9
   360          3
   361          2
   375          6
   376          2
   377          3
   379          2
   393          3
   405          3
   407          2
   421          4
   429          2
   449         23
   450         10
   451          5
   452          2
   539          3