##TITLE=Library Entry 42535
##JCAMP-DX=Revision 4.10 
##DATA TYPE=MASS SPECTRUM
##SAMPLE DESCRIPTION=ORVAL A. MAMER, ROYAL VICTORIA HOSPITAL, MONTREAL, CANA
DA
##NAMES=HP
##CAS NAME=2,2-Dimethylsuccinic acid, 2TMS derivative
##MOLFORM=C12H26O4Si2
##CAS REGISTRY NO=55530-54-6
##MP= -300
##BP= -300
##MW= 290
##$RETENTION INDEX=1320
##$CONDENSED SPECTRUM=NO
##NPOINTS= 87
##XYDATA=(XY..XY) 1 
    15         15
    17          9
    18         38
    26          5
    27         14
    28         40
    29         26
    31          6
    39         20
    40          7
    41         70
    42         14
    43         56
    44         43
    45        175
    46         12
    47         57
    52          5
    53          8
    55         79
    56         28
    57         13
    58         21
    59         41
    60          9
    61         30
    66          7
    67          4
    69        267
    70         19
    71          7
    72         54
    73        999
    74         94
    75        294
    76         20
    77         14
    82          9
    83         83
    84          7
    85          6
    89          4
    99         11
   101          6
   103          5
   113         17
   115          7
   116          9
   117         43
   118          4
   128          5
   129         10
   130         22
   131         22
   133         37
   134          5
   143         50
   144          8
   147        913
   148        148
   149         85
   150          9
   157         24
   158          4
   159         11
   172         15
   173          7
   175         13
   176          2
   185          7
   190         39
   191          8
   192          4
   200          9
   201          8
   204         24
   205          7
   206          2
   231        186
   232         40
   233         17
   246         19
   247          4
   275        123
   276         28
   277         12
   290          2