##TITLE=Library Entry 41856
##JCAMP-DX=Revision 4.10 
##DATA TYPE=MASS SPECTRUM
##SAMPLE DESCRIPTION=ORVAL A. MAMER, ROYAL VICTORIA HOSPITAL, MONTREAL, CANA
DA
##NAMES=HP
##CAS NAME=Glycine, N-(1-oxopentyl)-N-(trimethylsilyl)-, trimethylsilyl este
r
##MOLFORM=C13H29NO3Si2
##CAS REGISTRY NO=55530-59-1
##MP= -300
##BP= -300
##MW= 303
##$RETENTION INDEX=1559
##$CONDENSED SPECTRUM=NO
##NPOINTS= 106
##XYDATA=(XY..XY) 1 
    15         17
    26          9
    27         44
    28         55
    29        129
    30         67
    31         11
    39         22
    41        130
    42         27
    43         64
    44         46
    45        201
    46         14
    47         42
    53          8
    54         25
    55         90
    56         26
    57        199
    58         34
    59         81
    60         11
    61         31
    67          8
    68         46
    69         17
    70          9
    71         13
    72         45
    73        999
    74         97
    75        254
    76         18
    77         11
    82         13
    83         10
    84         10
    85        117
    86         44
    87         15
    88         12
    95          9
    96          9
    98          7
    99         29
   100        100
   101         36
   102        730
   103         81
   104         37
   114          8
   115          9
   116         97
   117         24
   118          7
   124          8
   129         22
   130         36
   131         27
   132         17
   133         38
   137          9
   142         16
   143         60
   144         30
   145         28
   147        166
   148         30
   149         16
   156         52
   157         12
   158         84
   159         16
   170         15
   171        139
   172         36
   173         13
   174         10
   176        178
   177         31
   178         15
   184         25
   186        284
   187         47
   188         16
   189         24
   198         14
   214          7
   216         31
   217          8
   218         26
   219          8
   246         10
   260         58
   261        169
   262         39
   263         16
   274         72
   275         18
   276          8
   288        160
   289         40
   290         17
   303         21
   304          8