##TITLE=Library Entry 42696
##JCAMP-DX=Revision 4.10 
##DATA TYPE=MASS SPECTRUM
##SAMPLE DESCRIPTION=S. MARKEY UNIV. OF COLO. MED. CTR., DENVER, COLORADO, U
SA
##NAMES=HP
##CAS NAME=Aconitic acid, (Z)-, 3TMS derivative
##MOLFORM=C15H30O6Si3
##CAS REGISTRY NO=55530-71-7
##MP= -300
##BP= -300
##MW= 390
##$RETENTION INDEX=1739
##$CONDENSED SPECTRUM=NO
##NPOINTS= 67
##XYDATA=(XY..XY) 1 
    39         21
    43         26
    44         27
    45        121
    47         18
    53          4
    58         13
    59         22
    61         15
    66          4
    67         66
    68          4
    72         26
    73        999
    74         92
    75        161
    76         13
    83          5
    95         11
    96          5
    97         33
    99          3
   111          3
   117         10
   119          5
   131         18
   133         62
   134          4
   135          3
   141         14
   147        463
   148         80
   149         84
   150         10
   151          9
   157          3
   169          5
   183          8
   184         16
   185          4
   207          4
   211         76
   212         10
   213          7
   215         55
   216         15
   217         10
   221          4
   228         11
   229        232
   230         52
   231         28
   257         13
   258          4
   272         18
   273         11
   285        101
   286         25
   287         32
   300         24
   346         71
   347         20
   348         10
   375        223
   376         68
   377         36
   378          8