##TITLE=Library Entry 35325
##JCAMP-DX=Revision 4.10 
##DATA TYPE=MASS SPECTRUM
##SAMPLE DESCRIPTION=BAY 0374
##NAMES=HP
##CAS NAME=3.beta.-Lanosta-7,9(11),24-trien-3-ol, TMS derivative
##MOLFORM=C33H56OSi
##CAS REGISTRY NO=55538-96-0
##MP= -300
##BP= -300
##MW= 496
##$RETENTION INDEX=0
##$CONDENSED SPECTRUM=NO
##NPOINTS= 139
##XYDATA=(XY..XY) 1 
    53         40
    55        420
    56         30
    57         90
    59         20
    61         20
    67        130
    68         20
    69        999
    70         60
    71         30
    73        800
    74         70
    75        420
    76         30
    77         50
    79         80
    81        240
    82         30
    83        160
    91        100
    93        130
    95        270
    96         30
    97         50
   103         20
   105        170
   106         30
   107        180
   108         20
   109        230
   110         20
   111         30
   115         30
   117         90
   118         20
   119        160
   120         30
   121        120
   122         20
   123         80
   128         30
   129        260
   130         50
   131        140
   132         60
   133        100
   134         30
   135        100
   137         30
   141         40
   142         50
   143        150
   144         50
   145        220
   146         50
   147        100
   148         20
   149         90
   155         70
   156         50
   157        230
   158         70
   159        130
   160         30
   161         90
   163         60
   167         20
   169         80
   170         50
   171        160
   172         60
   173        100
   174         20
   175         40
   181         30
   183         90
   184         30
   185        100
   186         30
   187         70
   189         20
   191         30
   195         30
   197         80
   199         70
   201         70
   203         20
   205         20
   207         20
   209         20
   211         70
   212         20
   213        100
   214         20
   215         30
   223         20
   225         80
   226         20
   227         90
   228         30
   229         20
   237         20
   239         70
   240        190
   241         90
   242         20
   253        380
   254        110
   255         40
   267         20
   269         20
   281         20
   284         20
   293         20
   295         70
   296         20
   309         20
   321         20
   323         20
   325         20
   337         20
   338         20
   339         20
   343         20
   363         20
   367         40
   383         90
   384         30
   385         20
   391        160
   392         50
   406        100
   407         30
   481         60
   482         20
   496        320
   497        140
   498         40