##TITLE=Library Entry 43204
##JCAMP-DX=Revision 4.10 
##DATA TYPE=MASS SPECTRUM
##SAMPLE DESCRIPTION=BAY 0337
##NAMES=HP
##CAS NAME=D-Glucose, 2-deoxy-3,4,5-tris-O-(trimethylsilyl)-2-[(trimethylsil
yl)amino]-, 6-[bis(trimethylsilyl) phosphate]
##MOLFORM=C24H62NO8PSi6
##CAS REGISTRY NO=55530-82-0
##MP= -300
##BP= -300
##MW= 691
##$RETENTION INDEX=0
##$CONDENSED SPECTRUM=NO
##NPOINTS= 333
##XYDATA=(XY..XY) 1 
    41         19
    42          5
    43         19
    44         13
    45         58
    46          5
    47         11
    53          5
    54          3
    55          8
    56          5
    57          5
    58          8
    59         26
    60          5
    61          8
    63          3
    65          3
    66          3
    67          5
    68          5
    69          8
    70          5
    71          5
    72         16
    73        999
    74         95
    75        138
    76         11
    77         11
    78          3
    79          3
    80         16
    81          8
    82          3
    83          3
    84          5
    85          5
    86          5
    87          5
    88          3
    89          5
    91          3
    93          8
    94          3
    95          5
    96          3
    97          3
    98          5
    99          8
   100         32
   101         19
   102         13
   103         37
   104          5
   105          5
   108          8
   109          3
   111          3
   112          5
   113         21
   114          8
   115         19
   116         19
   117         16
   118          8
   119          8
   121          3
   125          3
   126          5
   127         19
   128         29
   129        201
   130         40
   131        243
   132         34
   133         63
   134         11
   135         13
   136          3
   137          3
   139          3
   140          5
   141          5
   142         21
   143         16
   144         19
   145         11
   146         11
   147        148
   148         26
   149         21
   150          5
   151          5
   152          8
   153          5
   154          8
   155          5
   156          8
   157          8
   158          5
   159          5
   160          3
   161          3
   162          5
   163          3
   167          3
   168         21
   169         19
   170         11
   171          5
   172         13
   173          5
   174          5
   175          3
   177          3
   179          3
   180          5
   181          5
   182         11
   183          5
   184          3
   187          5
   188         11
   189         11
   190          5
   191         21
   192          5
   193         11
   194          3
   195         11
   196          8
   197         13
   198         21
   199          5
   200          5
   201          5
   202         11
   203        529
   204        138
   205         58
   206         13
   207         24
   208          5
   209          5
   210          3
   211         63
   212         11
   213          8
   214          5
   215          5
   216         40
   217         29
   218         24
   219          5
   220          3
   221          5
   225         16
   226          5
   227         21
   228          8
   229          8
   230         13
   231         13
   232         16
   233          5
   234          3
   240         13
   241         13
   242         11
   243         24
   244         11
   245          8
   246          3
   247          3
   253          5
   254          5
   255          3
   256          5
   257          3
   258          5
   259          8
   260          3
   267          3
   268          3
   269         19
   270         26
   271         13
   272         16
   273          5
   274          3
   283         11
   284          8
   285         21
   286          8
   287          5
   288         13
   289          5
   290          5
   291          3
   297          5
   298         13
   299        243
   300         63
   301         37
   302          8
   303          3
   304         19
   305         11
   306          5
   313          8
   314         24
   315        138
   316         37
   317         24
   318          8
   319          3
   328          3
   331          3
   341          3
   343          3
   344         16
   345          5
   346          5
   357         13
   358          8
   359          5
   360         13
   361          5
   362          8
   363          3
   369         16
   370         16
   371          8
   372          3
   373         11
   374          3
   375          3
   377         21
   378          8
   379          5
   383          8
   384         11
   385         16
   386         42
   387        370
   388        132
   389         90
   390         21
   391          8
   392          3
   411          1
   412          1
   413          1
   415          1
   417          5
   418          2
   419          1
   420          1
   422          1
   423          1
   424          2
   425          1
   429          1
   431          1
   432          1
   433          1
   434          2
   435          1
   436          1
   437          1
   439          1
   440          1
   443          1
   447          1
   448          1
   449          3
   450         22
   451         10
   452          5
   453          1
   454          1
   455          1
   457          1
   458          1
   459          1
   461          2
   462          1
   463          1
   471          2
   472          1
   473          3
   474          1
   475          1
   483          3
   484          1
   485          1
   496          2
   497          1
   498          1
   511          2
   512          2
   513          1
   514          4
   515          2
   516          1
   517          1
   529          1
   530          1
   531          1
   586          3
   587          2
   588          2
   589          1
   590          1
   601          2
   602          3
   603          2
   604          5
   605          3
   606          2
   607          1
   619          1
   620          1
   676          4
   677          3
   678          2
   679          1
   691          8
   692          4
   693          3
   694          1
   695          1