##TITLE=Library Entry 23282
##JCAMP-DX=Revision 4.10 
##DATA TYPE=MASS SPECTRUM
##SAMPLE DESCRIPTION=D.HENNEBERG, MAX-PLANCK INSTITUTE, MULHEIM, WEST GERMAN
Y
##NAMES=HP
##CAS NAME=4-Decene, 2,2-dimethyl-, (E)-
##MOLFORM=C12H24
##CAS REGISTRY NO=55534-69-5
##MP= -300
##BP= -300
##MW= 168
##$RETENTION INDEX=0
##$CONDENSED SPECTRUM=NO
##NPOINTS= 60
##XYDATA=(XY..XY) 1 
    26          2
    27         42
    28          4
    29        115
    30          3
    31          0
    36          0
    38          1
    39         37
    40          5
    41        186
    42         16
    43         29
    44          0
    45          0
    50          0
    51          2
    52          2
    53         15
    54         20
    55         87
    56         58
    57        999
    58         41
    59          0
    60          0
    63          1
    65          3
    66          2
    67         14
    68          8
    69         79
    70         47
    71          9
    72          0
    75          2
    77          3
    78          0
    79          4
    80          0
    81         10
    82         11
    83         47
    84         20
    85          1
    91          1
    93          0
    95          4
    96          0
    97         24
    98          2
   109          0
   110         21
   111          8
   112         54
   113          4
   153          2
   154          0
   168         14
   169          1