##TITLE=Library Entry 40999
##JCAMP-DX=Revision 4.10 
##DATA TYPE=MASS SPECTRUM
##SAMPLE DESCRIPTION=ORVAL A. MAMER, ROYAL VICTORIA HOSPITAL, MONTREAL, CANA
DA
##NAMES=HP
##CAS NAME=N-2-Methylbutyrylglycine, 2TMS derivative
##MOLFORM=C13H29NO3Si2
##CAS REGISTRY NO=55530-60-4
##MP= -300
##BP= -300
##MW= 303
##$RETENTION INDEX=1491
##$CONDENSED SPECTRUM=NO
##NPOINTS= 114
##XYDATA=(XY..XY) 1 
    14          5
    15         20
    26          8
    27         38
    28         45
    29        163
    30         26
    31         13
    39         23
    40          7
    41        157
    42         28
    43         63
    44         44
    45        224
    46         16
    47         46
    53          7
    54          8
    55         48
    56         29
    57        500
    58         49
    59         78
    60         11
    61         25
    66          5
    67          6
    68         31
    69         35
    70         10
    71          8
    72         41
    73        999
    74         92
    75        237
    76         17
    77         11
    82         31
    83          9
    84         10
    85        124
    86         50
    87          9
    88          9
    96          6
    97          6
    98         10
    99          6
   100         59
   101         50
   102        484
   103         55
   104         24
   105          5
   111          6
   113          9
   114          6
   115          5
   116         17
   117         16
   124          6
   129         10
   130         51
   131         23
   132          9
   133         25
   137          6
   140          6
   142         11
   143         10
   147        114
   148         21
   149         12
   156         25
   157         19
   158         40
   159         11
   170         35
   171          9
   172         46
   173          8
   174         15
   176        108
   177         19
   178          9
   184         11
   185         31
   186        176
   187         32
   188         12
   198         36
   199          6
   203         11
   212          5
   213         18
   214         15
   216         17
   218         44
   219         10
   220          5
   246         33
   247          8
   260         29
   261          9
   275         45
   276         11
   277          5
   288        132
   289         33
   290         14
   303         29
   304         12
   305          4