##TITLE=Library Entry 42534
##JCAMP-DX=Revision 4.10 
##DATA TYPE=MASS SPECTRUM
##SAMPLE DESCRIPTION=ORVAL A. MAMER, ROYAL VICTORIA HOSPITAL, MONTREAL, CANA
DA
##NAMES=HP
##CAS NAME=2-Methylglutaric acid, 2TMS derivative
##MOLFORM=C12H26O4Si2
##CAS REGISTRY NO=55530-53-5
##MP= -300
##BP= -300
##MW= 290
##$RETENTION INDEX=1423
##$CONDENSED SPECTRUM=NO
##NPOINTS= 88
##XYDATA=(XY..XY) 1 
    15         18
    17         14
    18         60
    26          9
    27         30
    28         54
    29         26
    31          7
    39         17
    41         60
    42         17
    43        119
    44         46
    45         81
    46         13
    47         71
    53         11
    55        389
    56         87
    57         19
    58         31
    59         43
    60         12
    61         47
    69         96
    70          9
    72         71
    73        999
    74        100
    75        428
    76         32
    77         22
    82          9
    83        180
    84         13
    85         10
    86         24
    87          7
    88         10
    89          9
    99         12
   101         18
   103          7
   111         22
   113         15
   115         13
   116         47
   117         45
   129         81
   130         75
   131         38
   133         42
   134          7
   141          8
   143         49
   144         51
   145         19
   146         48
   147        648
   148        107
   149        135
   150         18
   151          9
   157        119
   158         16
   159         20
   162         16
   163          6
   172        188
   173         45
   174         12
   189         29
   190          7
   200         33
   201         20
   204        194
   205         41
   206         18
   218         23
   231         54
   232         12
   233          6
   247         52
   248         11
   249          6
   275        242
   276         56
   277         24