##TITLE=Library Entry 42170
##JCAMP-DX=Revision 4.10 
##DATA TYPE=MASS SPECTRUM
##SAMPLE DESCRIPTION=MO-137
##NAMES=HP
##CAS NAME=Arachidic acid, TMS derivative
##MOLFORM=C23H48O2Si
##CAS REGISTRY NO=55530-70-6
##MP= -300
##BP= -300
##MW= 384
##$RETENTION INDEX=2449
##$CONDENSED SPECTRUM=NO
##NPOINTS= 64
##XYDATA=(XY..XY) 1 
    18         66
    27         52
    28         49
    29        142
    39         33
    41        272
    42         66
    43        483
    44         27
    45         63
    47         31
    54         25
    55        325
    56         73
    57        241
    58         28
    59         33
    61         47
    67         59
    69        156
    70         37
    71         77
    72         35
    73        999
    74        100
    75        672
    76         53
    77         38
    81         56
    83         93
    84         37
    85         39
    89         29
    95         50
    97         67
    98         48
   109         23
   111         33
   116         52
   117        765
   118         79
   119         36
   129        307
   130         45
   131         97
   132        555
   133        117
   134         32
   143         25
   145        382
   146         54
   147         29
   159         31
   185         28
   187         33
   201         74
   227         11
   325         26
   341         30
   369        393
   370        120
   371         35
   384         99
   385         33