##TITLE=Library Entry 97230
##JCAMP-DX=Revision 4.10 
##DATA TYPE=MASS SPECTRUM
##SAMPLE DESCRIPTION=Exported from NIST MS Search
##NAMES=HP
##CAS NAME=1,3,5,7-Cyclooctatetraene, 1-(4-bromobutyl)-
##MOLFORM=C12H15Br
##CAS REGISTRY NO=55538-75-5
##MP= -300
##BP= -300
##MW= 238
##$RETENTION INDEX=0
##$CONDENSED SPECTRUM=NO
##NPOINTS= 42
##XYDATA=(XY..XY) 1 
    38         13
    39        135
    40         29
    41        370
    42         40
    43         40
    44         10
    45         21
    50        108
    51        324
    52        127
    53        108
    54        108
    56         13
    57         10
    74         27
    75         45
    76         70
    77        300
    78        351
    79        129
    80         10
    81         24
    89         24
    90         10
    91        691
    92         83
    93         48
   115        370
   116         73
   117        999
   118         91
   119          8
   128         16
   129         86
   130         97
   131        221
   132         27
   159        200
   160         21
   238         32
   240         32