##TITLE=Library Entry 43871
##JCAMP-DX=Revision 4.10 
##DATA TYPE=MASS SPECTRUM
##SAMPLE DESCRIPTION=BAY 0348
##NAMES=HP
##CAS NAME=d-Arabino-hexonic acid, 2-deoxy-3,4,5-tris-O-(trimethylsilyl)-, t
rimethylsilyl ester, bis(trimethylsilyl) phosphate
##MOLFORM=C24H61O9PSi6
##CAS REGISTRY NO=55538-92-6
##MP= -300
##BP= -300
##MW= 692
##$RETENTION INDEX=0
##$CONDENSED SPECTRUM=NO
##NPOINTS= 285
##XYDATA=(XY..XY) 1 
    41         22
    42          9
    43         22
    44         66
    45         92
    46          9
    47         26
    50          9
    51          4
    52          9
    53          9
    54          9
    55         31
    56          4
    57          9
    58         13
    59         44
    60          9
    61         18
    63          4
    65          9
    66          4
    67          9
    68          4
    69         13
    70          9
    71          9
    72         35
    73        999
    74        140
    75        149
    76         18
    77         31
    78         22
    79          9
    81         26
    82          9
    83          9
    84          4
    85         13
    87          9
    88          4
    89          9
    90          4
    91          9
    93          9
    95          9
    97          9
    98          4
    99         18
   100          4
   101        101
   102         18
   103         26
   104          4
   105          4
   106          4
   107          4
   108          4
   109         18
   110          4
   111          9
   113         26
   114         13
   115         22
   116         88
   117         79
   118         13
   119         18
   121          9
   127          9
   128          9
   129         92
   130         26
   131         35
   132          9
   133        105
   134         18
   135         31
   136          4
   137          9
   139          4
   141          9
   142          9
   143         26
   144          9
   145         18
   146          9
   147        386
   148         53
   149         70
   150          9
   151         13
   153          4
   154          4
   155         26
   156         22
   157         53
   158          9
   159         13
   161          9
   163          9
   165          4
   169          4
   170          4
   171          9
   173          9
   175          9
   179          4
   181         13
   183         18
   184          9
   187          4
   189         53
   190         13
   191         70
   192         13
   193         26
   194          9
   195         18
   196          4
   197          9
   198          9
   199         18
   201          4
   202         22
   203         18
   204         39
   205         35
   206          9
   207         50
   208         25
   209         22
   210          4
   211         61
   212         18
   213          9
   215          9
   217        289
   218         88
   219         31
   220         13
   221         18
   222          4
   225         26
   226          9
   227         26
   228          9
   229         13
   230          9
   231         26
   233         31
   234         13
   235          4
   241          4
   243         44
   244         18
   245         44
   246         18
   247         22
   248          9
   249          4
   253          9
   254          4
   255          9
   256          4
   257          4
   259          4
   267          9
   269         18
   270         26
   271         35
   272         13
   273         22
   274          9
   275          9
   283         26
   284         18
   285         26
   286          9
   287         13
   288         22
   289          9
   290          4
   291          4
   299        876
   300        175
   301        132
   302         26
   303          9
   305         18
   306          9
   307          9
   313         26
   314         88
   315        439
   316        132
   317         57
   318         22
   319         22
   320          4
   321          4
   328         31
   329          9
   330          9
   331          4
   334         13
   335         70
   336         31
   337         18
   338          4
   339          4
   341         13
   342          9
   343          9
   345         26
   346          4
   347         26
   348         22
   349          9
   357        421
   358         79
   359         57
   360         35
   361         26
   362         13
   363         35
   364          9
   365          9
   369         18
   370        228
   371         92
   372         53
   373         22
   374         13
   375          9
   387        246
   388         70
   389         92
   390         26
   391         13
   392          4
   415          4
   416          2
   417          1
   422         17
   423          7
   424          4
   425          4
   427          1
   429          2
   430          1
   431          4
   432          1
   434          1
   435          5
   436          4
   437          2
   451          4
   452          1
   459         53
   460         25
   461         11
   462          4
   463          3
   497          4
   498          1
   512          2
   513          8
   514          4
   515          3
   516          2
   517          1
   587         18
   588          6
   589          7
   590          3
   591          1
   677         44
   678         19
   679         14
   680          6
   681          3
   682          2
   683          1