##TITLE=Library Entry 77486
##JCAMP-DX=Revision 4.10 
##DATA TYPE=MASS SPECTRUM
##SAMPLE DESCRIPTION=A.A.Kutin, Moscow, Russia
##NAMES=HP
##CAS NAME=3-Methyl-2,6-diphenylpiperidin-4-one
##MOLFORM=C18H19NO
##CAS REGISTRY NO=5554-57-4
##MP= -300
##BP= -300
##MW= 265
##$RETENTION INDEX=0
##$CONDENSED SPECTRUM=NO
##NPOINTS= 89
##XYDATA=(XY..XY) 1 
    33          0
    36          0
    38         20
    39         97
    40         56
    41         47
    42         36
    43         44
    44         26
    50         51
    51        114
    52         35
    53         16
    54         18
    55         72
    56         37
    57         23
    62          6
    63         37
    64         21
    65         55
    66          3
    68          1
    69          5
    70          6
    71          1
    74          3
    75         12
    76         57
    77        224
    78        203
    79         67
    80          1
    83          3
    84          3
    89         68
    90         57
    91        164
    92         12
    93          1
    97          1
    98         10
   102         56
   103        347
   104        999
   105        223
   106        462
   107         40
   114          9
   115         86
   116         91
   117        250
   118        205
   119         28
   127          1
   128          6
   129          4
   130         17
   131         71
   132        318
   133        217
   134         16
   143          0
   144          1
   145         11
   146         28
   152          3
   159          2
   160         14
   165         13
   166          5
   167         15
   174          4
   178          0
   193         66
   194        299
   195         64
   196          2
   206          0
   208         46
   209          3
   222          0
   244          4
   245          0
   262          2
   264         62
   265        293
   266         50
   267          1