##TITLE=Library Entry 7111
##JCAMP-DX=Revision 4.10 
##DATA TYPE=MASS SPECTRUM
##SAMPLE DESCRIPTION=Div. of Experiment Therapeutics WRAIR, WRAMC, Washingto
n DC 20307
##NAMES=HP
##CAS NAME=Methyl 12-acetyl-7-desoxycholate
##MOLFORM=C27H44O5
##CAS REGISTRY NO=55547-48-3
##MP= -300
##BP= -300
##MW= 448
##$RETENTION INDEX=0
##$CONDENSED SPECTRUM=NO
##NPOINTS= 162
##XYDATA=(XY..XY) 1 
    41        221
    43        999
    44         35
    45         29
    49          6
    51          4
    53         54
    55        487
    57        138
    59        100
    61         56
    65         20
    67        163
    68         18
    69         77
    70          8
    71         21
    73        100
    74        125
    75          4
    77         47
    79        126
    81        207
    83        124
    84         32
    85         18
    87         28
    88          7
    91        114
    93        180
    94         54
    95        129
    96         19
    97         23
    98          3
    99         12
   101          5
   103          8
   105        156
   106         46
   107        110
   108         28
   109         51
   110          9
   111         13
   113          4
   115         43
   117         41
   118         22
   119         60
   120         31
   121         60
   122         24
   123         26
   124          9
   125         10
   126          4
   127          4
   128          6
   129         11
   131         56
   132         23
   133         58
   134         23
   135         36
   136          2
   137         13
   141         14
   142          5
   143         24
   145         75
   146         12
   147         73
   148         12
   149         14
   151          3
   153          1
   154         76
   155         17
   157         32
   158         11
   159         33
   160          6
   161         32
   162          5
   163         12
   165          7
   167          1
   169          6
   171         17
   172          5
   173         28
   174          9
   175         14
   176          1
   177          9
   179          1
   181          4
   183          6
   185         18
   186          4
   187         18
   188          5
   189          6
   195          3
   197          7
   199         16
   200          7
   201         15
   202          5
   203          4
   207          3
   208          6
   209          5
   211          5
   213         42
   214         19
   215         22
   216          6
   217          6
   221          2
   225          3
   227         12
   228         23
   229          9
   231         10
   232          5
   233          3
   235          1
   239          2
   241          4
   245          1
   246          8
   247          2
   249          9
   253          5
   255        157
   256         31
   257          5
   261          2
   262          7
   271          1
   272          7
   273        115
   274         26
   275          5
   283          5
   297          1
   315          5
   316          6
   323          3
   328          2
   339          5
   355         24
   356          6
   357         14
   370         56
   371         24
   372          5
   373          6
   388         25
   389          7