##TITLE=Library Entry 45255
##JCAMP-DX=Revision 4.10 
##DATA TYPE=MASS SPECTRUM
##SAMPLE DESCRIPTION=Chemical Concepts
##NAMES=HP
##CAS NAME=Levulinic acid, TMS derivative
##MOLFORM=C8H16O3Si
##CAS REGISTRY NO=55557-12-5
##MP= -300
##BP= -300
##MW= 188
##$RETENTION INDEX=1125
##$CONDENSED SPECTRUM=NO
##NPOINTS= 120
##XYDATA=(XY..XY) 1 
    25          0
    26          8
    27         42
    28         13
    29         17
    30          1
    31          6
    37          0
    38          1
    39          7
    40          1
    41          6
    42         21
    43        291
    44         25
    45        139
    46         10
    47         81
    48          4
    49          3
    50          1
    51         12
    52          1
    53         19
    54          3
    55         60
    56         58
    57         15
    58         27
    59         28
    60         13
    61         62
    62          4
    63          2
    64          0
    65          2
    66          0
    67          0
    68          0
    69          2
    70          6
    71         18
    72         15
    73        443
    74         47
    75        999
    76         66
    77         46
    78          1
    79          5
    80          0
    81         33
    82          2
    83          1
    84          0
    85          6
    86         22
    87          5
    88          2
    89          3
    90          0
    91          7
    92          0
    93          2
    94          0
    97          0
    98         20
    99         47
   100          3
   101          5
   102          1
   103          3
   104          0
   105          0
   109          0
   111         21
   112          3
   113         10
   114          1
   115          5
   116          9
   117          7
   118          1
   119          0
   120          0
   121          1
   122          2
   123          0
   127          9
   128          2
   129         54
   130         26
   131         54
   132          6
   133          3
   134          0
   139          0
   141          0
   142          0
   143          2
   144         13
   145        285
   146         82
   147         18
   148          3
   149          0
   155         31
   156          4
   157          1
   160          0
   170          1
   171          0
   172          1
   173        284
   174         34
   175         11
   176          0
   188          5
   189          1
   190          0