##TITLE=Library Entry 43158
##JCAMP-DX=Revision 4.10 
##DATA TYPE=MASS SPECTRUM
##SAMPLE DESCRIPTION=MO-139
##NAMES=HP
##CAS NAME=Furoylglycine, 2TMS derivative
##MOLFORM=C13H23NO4Si2
##CAS REGISTRY NO=55556-83-7
##MP= -300
##BP= -300
##MW= 313
##$RETENTION INDEX=1664
##$CONDENSED SPECTRUM=NO
##NPOINTS= 70
##XYDATA=(XY..XY) 1 
    15         13
    27         11
    28         51
    29         19
    38         16
    39        109
    42         11
    43         59
    44         39
    45        195
    46         14
    47         42
    51         15
    52         11
    53         12
    55         10
    57         12
    58         25
    59         63
    61         26
    67         16
    72         30
    73        999
    74         92
    75        200
    76         14
    77         13
    79         23
    81        100
    86         17
    94         31
    95        489
    96         33
    97         10
   100         12
   106         13
   107         35
   111         10
   124         22
   125         32
   133         29
   141         12
   142         15
   143         35
   147        220
   148         36
   149         22
   152         12
   153         14
   154         19
   166         10
   167         20
   168         54
   169         63
   170         12
   180         18
   182         13
   196        609
   197        122
   198         36
   223         19
   226         65
   227         11
   270         78
   271         18
   285         12
   296        105
   298         89
   299         21
   313         24