##TITLE=Library Entry 58042
##JCAMP-DX=Revision 4.10 
##DATA TYPE=MASS SPECTRUM
##SAMPLE DESCRIPTION=F. TURECEK,HEYROVSKY INST PHYS CHEM & ELECTROCHEM,PRAGU
E,CZECH
##NAMES=HP
##CAS NAME=Tetradecanoic acid, 2-methyl-, methyl ester
##MOLFORM=C16H32O2
##CAS REGISTRY NO=55554-09-1
##MP= -300
##BP= -300
##MW= 256
##$RETENTION INDEX=0
##$CONDENSED SPECTRUM=NO
##NPOINTS= 78
##XYDATA=(XY..XY) 1 
    27         39
    29        104
    39         36
    40         13
    41        227
    42         54
    43        254
    44         15
    45         15
    51          6
    53         15
    54         15
    55        239
    56         72
    57        299
    58         12
    59         92
    60          4
    67         33
    68         13
    69        164
    70         30
    71         94
    72          6
    73         33
    74         21
    77          9
    79         12
    81         27
    82          9
    83         87
    84         18
    85         51
    87         84
    88        999
    89         84
    90          9
    91          9
    95         21
    97         57
    98         45
    99         22
   101        731
   102         54
   109         12
   110         31
   111         31
   112         15
   113         18
   115         61
   119          6
   121          6
   123          7
   125          9
   127         30
   130         12
   135          7
   139          6
   141         15
   143        163
   144         21
   157        155
   158         18
   165          6
   171         36
   172          6
   185         33
   197         24
   198          6
   199        131
   200         18
   213        315
   214         45
   215         18
   217          6
   241          6
   256         60
   257         12