##TITLE=Library Entry 57944
##JCAMP-DX=Revision 4.10 
##DATA TYPE=MASS SPECTRUM
##SAMPLE DESCRIPTION=Exported from NIST MS Search
##NAMES=HP
##CAS NAME=Dodecanoic acid, 2-methyl-, methyl ester
##MOLFORM=C14H28O2
##CAS REGISTRY NO=55554-08-0
##MP= -300
##BP= -300
##MW= 228
##$RETENTION INDEX=0
##$CONDENSED SPECTRUM=NO
##NPOINTS= 60
##XYDATA=(XY..XY) 1 
    15         17
    27         30
    28          4
    29         52
    31          2
    39         30
    40          4
    41        109
    42         30
    43        115
    44          2
    45          8
    53         11
    54          6
    55        102
    56         35
    57        100
    58          8
    59         53
    60          1
    67         11
    68          5
    69         52
    70         11
    71         31
    72          2
    73         15
    74          2
    85         21
    87         35
    88        999
    89         45
    90          6
    97         12
    98         21
    99         11
   101        257
   102         24
   111          8
   112          9
   113          6
   115         27
   116          2
   129         23
   130          2
   143         61
   144          9
   157         46
   158          6
   169         11
   171         49
   172          6
   185         39
   186          6
   197         38
   198          4
   199         12
   213          2
   228         93
   229         11