##TITLE=Library Entry 41467
##JCAMP-DX=Revision 4.10 
##DATA TYPE=MASS SPECTRUM
##SAMPLE DESCRIPTION=ORVAL A. MAMER, ROYAL VICTORIA HOSPITAL, MONTREAL, CANA
DA
##NAMES=HP
##CAS NAME=Propanoic acid, 2-methyl-3-oxo-3-[[2-oxo-2-[(trimethylsilyl)oxy]e
thyl](trimethylsilyl)amino]-
##MOLFORM=C12H25NO5Si2
##CAS REGISTRY NO=55557-20-5
##MP= -300
##BP= -300
##MW= 319
##$RETENTION INDEX=0
##$CONDENSED SPECTRUM=NO
##NPOINTS= 103
##XYDATA=(XY..XY) 1 
    13         11
    15         35
    16          7
    26         13
    27         40
    28         85
    29         40
    30         89
    31         10
    39          7
    41         19
    42         15
    43         69
    44         58
    45        199
    46         14
    47         64
    54          7
    55         67
    56        107
    57         58
    58         39
    59         67
    60         14
    61         45
    66          6
    67          9
    68         46
    69         17
    70          8
    72         43
    73        999
    74         97
    75        360
    76         27
    77         21
    80         15
    83         35
    84         15
    85         11
    86         66
    87         19
    88         17
    89          9
    93          7
    94         19
    95         14
    96          7
    99          6
   100         28
   101         33
   102        100
   103         18
   104         27
   105          6
   112         15
   113         15
   115         10
   116         16
   117         27
   126          6
   129         45
   130         63
   131         35
   132         14
   133         24
   142         50
   143         12
   144         10
   146         11
   147        135
   148         24
   149         31
   156         16
   157         51
   158        311
   159         54
   160         17
   170         29
   171          7
   173         62
   174         11
   176         18
   184         14
   185         42
   186         60
   187         11
   188         13
   191         12
   202         13
   206         20
   214         16
   218          8
   232          9
   260         74
   261         17
   262          8
   275         54
   276         25
   277          9
   304        125
   305         29
   306         14