##TITLE=Library Entry 6027
##JCAMP-DX=Revision 4.10 
##DATA TYPE=MASS SPECTRUM
##SAMPLE DESCRIPTION=FI-46-8
##NAMES=HP
##CAS NAME=Pregn-4-ene-3,20-dione, 17,21-dihydroxy-, bis(O-methyloxime)
##MOLFORM=C23H36N2O4
##CAS REGISTRY NO=55557-09-0
##MP= -300
##BP= -300
##MW= 404
##$RETENTION INDEX=0
##$CONDENSED SPECTRUM=NO
##NPOINTS= 298
##XYDATA=(XY..XY) 1 
    40        126
    41        991
    42        321
    43        999
    44        666
    45        237
    46         29
    47          4
    48         11
    49          9
    50         73
    51        136
    52         65
    53        271
    54        146
    55        845
    56        320
    57        406
    58        214
    59         91
    60        188
    61         53
    62         11
    63         32
    64         48
    65         94
    66         48
    67        341
    68         40
    69        175
    70        117
    71         43
    72         94
    73        113
    74         32
    75         37
    76         42
    77        292
    78        162
    79        289
    80        117
    81        336
    82         89
    83        237
    84        126
    85        126
    86        170
    87         84
    88         37
    89         58
    90         35
    91        666
    92        183
    93        406
    94        224
    95        341
    96        195
    97        273
    98        130
    99        100
   100        136
   101         71
   102        211
   103        130
   104        175
   105        536
   106        221
   107        292
   108        260
   109        185
   110        130
   111        130
   112        107
   113         61
   114         60
   115        204
   116        146
   117        243
   118        162
   119        328
   120        294
   121        282
   122        229
   123        229
   124        113
   125        577
   126        139
   127         92
   128        162
   129        234
   130        149
   131        334
   132        182
   133        217
   134        139
   135        130
   136        130
   137        390
   138        169
   139         97
   140         65
   141        130
   142         81
   143        227
   144        139
   145        188
   146        172
   147        130
   148        105
   149        349
   150         97
   151        302
   152        175
   153        321
   154         82
   155        139
   156         92
   157        195
   158        126
   159        121
   160         99
   161         65
   162         45
   163         43
   164         37
   165         81
   166         53
   167         65
   168         76
   169         97
   170        107
   171        110
   172        154
   173         81
   174         65
   175         26
   176         39
   177         42
   178         65
   179         48
   180         42
   181         74
   182         50
   183         97
   184         89
   185        105
   186         78
   187         60
   188         43
   189         29
   190         32
   191         32
   192         24
   193         39
   194         32
   195         61
   196         48
   197         86
   198         65
   199         69
   200         45
   201         34
   202         37
   203         22
   204         29
   205         27
   206         26
   207        108
   208         48
   209         61
   210         48
   211         60
   212         65
   213         48
   214         43
   215         27
   216         21
   217         13
   218         16
   219         19
   220         16
   221         32
   222         29
   223         65
   224         68
   225         61
   226         94
   227         66
   228         56
   229         26
   230         13
   231         11
   232         11
   233         26
   234         14
   235         19
   236         50
   237         32
   238         78
   239         53
   240         95
   241         65
   242         76
   243         19
   244         24
   245          8
   246         11
   247         16
   248         13
   249         19
   250         32
   251         24
   252         32
   253         19
   254         24
   255         16
   256         27
   257         13
   258         32
   259         22
   260         21
   261         13
   262         13
   263         21
   264        341
   265         27
   266         32
   267         26
   268         24
   269          9
   270         24
   271         11
   272         32
   273         32
   274         65
   275         13
   276         13
   277         13
   278         21
   279         11
   280          6
   281         16
   282         32
   283         24
   284         35
   285         19
   286         13
   287          3
   288          3
   289          3
   290          8
   291         13
   292         11
   293         21
   294         11
   295         16
   296         19
   297          6
   298          8
   299          1
   300          9
   305          9
   306         16
   307          9
   308          6
   309          8
   310          1
   311         16
   312          1
   313         13
   314          9
   315         48
   316          9
   318         19
   319         24
   320         11
   321          3
   322         29
   323          1
   337         26
   338          9
   341         35
   342         35
   343         21
   345         22
   346          1
   354         19
   355        108
   356         29
   357          1
   371          1
   373        504
   374        130
   375         16
   386         48
   387         11
   404         27
   405          1