##TITLE=Library Entry 43492
##JCAMP-DX=Revision 4.10 
##DATA TYPE=MASS SPECTRUM
##SAMPLE DESCRIPTION=O A MAMER, MCGILL UNIVERSITY, MONTRE
##NAMES=HP
##CAS NAME=D-Glucuronic acid- .gamma.-lactone, 3TMS derivative
##MOLFORM=C15H32O6Si3
##CAS REGISTRY NO=55556-97-3
##MP= -300
##BP= -300
##MW= 392
##$RETENTION INDEX=1924
##$CONDENSED SPECTRUM=NO
##NPOINTS= 88
##XYDATA=(XY..XY) 1 
    17         12
    27          9
    28         74
    29         11
    32         11
    39          9
    40          7
    41         16
    43         30
    44         31
    45        125
    46         10
    47         21
    55         20
    57         10
    58         10
    59         48
    61         15
    68         19
    69          8
    71          9
    72         21
    73        999
    74         91
    75        162
    76         12
    77          9
    83          8
    85         10
    89          9
    99         13
   101         24
   102         17
   103         52
   111          9
   113         21
   115         10
   116         14
   117         32
   119         10
   123          7
   127         11
   129         60
   130         14
   131         34
   133         68
   134         11
   135         10
   142          9
   143         18
   145         25
   147        169
   148         28
   149         39
   156         11
   157         15
   169         18
   171          7
   177          6
   189         25
   191         14
   197         15
   203         11
   204         16
   205         11
   207          6
   213         16
   215         12
   217        102
   218         23
   219         13
   221         13
   230        893
   231        216
   232         88
   233         18
   234         13
   243         29
   245         34
   246          9
   259         28
   260          8
   287         27
   288          7
   291          6
   320         10
   349          9
   377         16