##TITLE=Library Entry 6605
##JCAMP-DX=Revision 4.10 
##DATA TYPE=MASS SPECTRUM
##SAMPLE DESCRIPTION=W.T.RAINEY OAK RIDGE NATIONAL LABORATORY,OAK RIDGE,TN.U
SA
##NAMES=HP
##CAS NAME=1H-1,4-Diazepine, hexahydro-1,4-dinitroso-
##MOLFORM=C5H10N4O2
##CAS REGISTRY NO=55557-00-1
##MP= -300
##BP= -300
##MW= 158
##$RETENTION INDEX=0
##$CONDENSED SPECTRUM=NO
##NPOINTS= 31
##XYDATA=(XY..XY) 1 
    30        186
    38         15
    39        115
    40         61
    41        362
    42        745
    43        999
    44         65
    49          9
    51          5
    52         12
    53          6
    54         61
    55         49
    56        406
    57         38
    58         10
    68         67
    69        115
    70        267
    71         50
    81         15
    83         11
    97         20
    98        423
    99         27
   100          3
   128        305
   129         20
   158         20
   159          2