##TITLE=Library Entry 89489
##JCAMP-DX=Revision 4.10 
##DATA TYPE=MASS SPECTRUM
##SAMPLE DESCRIPTION=W.T.RAINEY OAK RIDGE NATIONAL LABORATORY,OAK RIDGE,TN.U
SA
##NAMES=HP
##CAS NAME=Pyridine, 1,2,3,6-tetrahydro-1-nitroso-
##MOLFORM=C5H8N2O
##CAS REGISTRY NO=55556-92-8
##MP= -300
##BP= -300
##MW= 112
##$RETENTION INDEX=0
##$CONDENSED SPECTRUM=NO
##NPOINTS= 20
##XYDATA=(XY..XY) 1 
    30         21
    39         39
    41         26
    42         45
    53         57
    54         61
    55         79
    56         23
    65         19
    67         95
    68         15
    79         51
    80         69
    81         61
    82        246
    83         17
    95          8
   112        999
   113         61
   114          4