##TITLE=Library Entry 43616
##JCAMP-DX=Revision 4.10 
##DATA TYPE=MASS SPECTRUM
##SAMPLE DESCRIPTION=BAY 0160
##NAMES=HP
##CAS NAME=D-Glucopyranosiduronic acid, 3-(5-ethylhexahydro-1,3-dimethyl-2,4
,6-trioxo-5-pyrimidinyl)-1-methylbutyl 2,3,4-tris-O-(trimethylsilyl)-, methy
l ester
##MOLFORM=C29H56N2O10Si3
##CAS REGISTRY NO=55556-79-1
##MP= -300
##BP= -300
##MW= 676
##$RETENTION INDEX=0
##$CONDENSED SPECTRUM=NO
##NPOINTS= 411
##XYDATA=(XY..XY) 1 
    40         11
    41         84
    42         30
    43        130
    44         43
    45         76
    46          5
    47         16
    48          5
    49          3
    50          8
    51         11
    52         11
    53         11
    54          5
    55         49
    56         11
    57         22
    58         27
    59         59
    60          5
    61         11
    62          3
    63          5
    64          8
    65          8
    66          5
    67         16
    68         11
    69        154
    70         19
    71         30
    72         19
    73        999
    74         86
    75        173
    76         14
    77         22
    78          5
    79         19
    80          5
    81         16
    82          8
    83         22
    84         11
    85         32
    86          5
    87         11
    88          5
    89         95
    90         11
    91         16
    92          5
    93         24
    94          5
    95         22
    96         11
    97         22
    98          8
    99         16
   100          8
   101         27
   102          5
   103         65
   104         11
   105         27
   106          5
   107         11
   108          5
   109         11
   110          8
   111         19
   112         11
   113         16
   114          5
   115         22
   116         32
   117         73
   118         11
   119         16
   120          5
   121         11
   122          5
   123         11
   124          5
   125          8
   126         11
   127         27
   128         11
   129         70
   130         19
   131         43
   132         22
   133         46
   134         14
   135         16
   136          5
   137          8
   138          5
   139          8
   140          5
   141         11
   142         11
   143         65
   144         16
   145         24
   146         43
   147        146
   148         27
   149         27
   150          8
   151          8
   152          5
   153          5
   154          5
   155         14
   156         11
   157         27
   158          8
   159        143
   160         24
   161         32
   162         11
   163         16
   164          5
   165          5
   166          5
   167          8
   168          8
   169         54
   170         11
   171         27
   172         11
   173         27
   174         16
   175         27
   176          8
   177         11
   178          5
   179         11
   180          5
   181          5
   182          5
   183         16
   184         16
   185        286
   186         38
   187         51
   188         11
   189         30
   190         11
   191         38
   192         14
   193         11
   194          5
   195         11
   196          5
   197          8
   198          5
   199         22
   200          8
   201         14
   202         14
   203         16
   204        173
   205         54
   206         24
   207         54
   208         16
   209         16
   210         11
   211          8
   212          5
   213         11
   214          5
   215         27
   216         11
   217        316
   218         84
   219         46
   220         11
   221         22
   222         11
   223         22
   224          8
   225         11
   226          5
   227         27
   228          8
   229         16
   230          8
   231         16
   232         11
   233         57
   234         49
   235         24
   236         11
   237          5
   238          3
   239         11
   240          5
   241          5
   242          5
   243         11
   244          5
   245         16
   246         11
   247         43
   248         11
   249         11
   250          5
   251          5
   252          8
   253        540
   254         81
   255         22
   256          5
   257         27
   258          8
   259         65
   260         16
   261         14
   262          5
   263          5
   264          5
   265          5
   266          5
   267         11
   268          8
   269          8
   270          5
   271          5
   272          5
   273         11
   274         27
   275         46
   276         16
   277         14
   278          5
   279          5
   280          5
   281         27
   282         11
   283          8
   284          5
   285         11
   286          5
   287         11
   288         11
   289         16
   290         16
   291         11
   292          5
   293          5
   294          5
   295          8
   296          5
   297         11
   298          5
   299         11
   300          5
   301          8
   302          5
   303         11
   304          5
   305         11
   306          5
   307          5
   308          3
   309          3
   310          3
   311          5
   312          3
   313          5
   314          5
   315          5
   316         14
   317        286
   318         76
   319         43
   320         11
   321          5
   322          3
   323          3
   324          3
   325          5
   326          5
   327         27
   328          8
   329          5
   330          5
   331          5
   332          5
   333         11
   334          5
   335          5
   336          3
   337          3
   338          3
   339          3
   340          5
   341          8
   342          5
   343          3
   344          3
   345          3
   346          3
   347          5
   348         27
   349         16
   350          8
   351          3
   352          3
   353          3
   354          5
   355         14
   356          5
   357          5
   358          3
   359          3
   360          3
   361          5
   362          5
   363          3
   364          3
   365          3
   366          3
   367          3
   368          3
   369          5
   370          5
   371          5
   372          3
   373          3
   374          3
   375          5
   376          3
   377          5
   378          3
   379          3
   380          3
   381          3
   382          3
   383          3
   384          3
   385          3
   386          3
   387          5
   388          3
   389          3
   390          3
   391          5
   392          3
   393          3
   394          3
   395          3
   397          3
   398          3
   399          3
   400          3
   401          3
   402          3
   403          3
   404          3
   405          3
   406         32
   407         22
   408         11
   409          5
   410          3
   411          3
   412          5
   413          3
   414          3
   415          3
   416          3
   419          3
   420          3
   421          3
   422          3
   423          3
   424          3
   427          3
   428          3
   429          8
   430          5
   431          3
   432          3
   433          3
   434          3
   437          3
   442          3
   443          3
   450          3
   451          3
   475          3
   477          3
   485          3
   486          3
   492          3
   494          3
   495          3
   503          5
   504          3
   505          3
   508          3
   553          3
   572          3
   661          5
   662          3
   676          1