##TITLE=Library Entry 43252
##JCAMP-DX=Revision 4.10 
##DATA TYPE=MASS SPECTRUM
##SAMPLE DESCRIPTION=S. MARKEY UNIV. OF COLO. MED. CTR., DENVER, COLORADO, U
SA
##NAMES=HP
##CAS NAME=D-Xylopyranose, 4TMS derivative
##MOLFORM=C17H42O5Si4
##CAS REGISTRY NO=55555-45-8
##MP= -300
##BP= -300
##MW= 438
##$RETENTION INDEX=0
##$CONDENSED SPECTRUM=NO
##NPOINTS= 95
##XYDATA=(XY..XY) 1 
    41         15
    43         15
    44         18
    45         98
    46          6
    47          9
    53          2
    54          1
    55          8
    57          3
    58          6
    59         47
    60          3
    61          7
    69         34
    71          3
    72         20
    73        999
    74         89
    75         91
    76          5
    85          3
    89          6
    97          3
    99          4
   101         37
   102          2
   103         61
   104          6
   105          4
   113          2
   115          9
   116         25
   117         32
   118          2
   119          7
   127          3
   129         57
   130          6
   131         27
   132          5
   133         60
   134          9
   135          6
   141          1
   142          3
   143         21
   144          2
   145          7
   147        247
   148         38
   149         29
   150          3
   157          6
   161          5
   169         11
   175         17
   177          5
   189         52
   190         13
   191        220
   192         40
   193         19
   194          1
   203         18
   204        724
   205        166
   206         67
   207         14
   215         11
   216          1
   217        376
   218         83
   219         40
   220          6
   221         13
   230          6
   231         13
   232          3
   243          8
   245          1
   259         17
   260          4
   265          9
   279          4
   291         13
   292          4
   305         26
   306         10
   307         10
   308          1
   333         13
   334          2
   335          1
   393          1