##TITLE=Library Entry 43610
##JCAMP-DX=Revision 4.10 
##DATA TYPE=MASS SPECTRUM
##SAMPLE DESCRIPTION=BL-52
##NAMES=HP
##CAS NAME=.beta.-D-Glucopyranosiduronic acid, 3-(5-ethylhexahydro-2,4,6-tri
oxo-5-pyrimidinyl)-1,1-dimethylpropyl 2,3,4-tris-O-(trimethylsilyl)-, methyl
 ester
##MOLFORM=C27H52N2O10Si3
##CAS REGISTRY NO=55556-80-4
##MP= -300
##BP= -300
##MW= 648
##$RETENTION INDEX=0
##$CONDENSED SPECTRUM=NO
##NPOINTS= 340
##XYDATA=(XY..XY) 1 
    40         18
    42         36
    43         92
    44         56
    45        131
    46         16
    47         72
    48          8
    49          8
    50         16
    51         18
    52         20
    53         24
    54         16
    55         64
    56         26
    57         24
    58         30
    59         82
    60         16
    61         26
    62          6
    63         16
    64          8
    65         16
    66         16
    67         30
    68         24
    69        102
    70         24
    71         32
    72         24
    73        999
    74         90
    75        374
    76         32
    77         40
    78         16
    79         30
    80         14
    81         36
    82         24
    83         32
    84         16
    85         26
    86         10
    87         14
    88         12
    89         86
    90         16
    91         28
    92         12
    93         50
    94         14
    95         32
    96         14
    97         18
    98         14
    99         26
   100         16
   101         32
   102         14
   103         74
   104         14
   105         30
   106         12
   107         18
   108         16
   109         20
   110         12
   111         24
   112         16
   113         24
   114         12
   115         24
   116         34
   117         58
   118         16
   119         20
   120         12
   121         16
   122         12
   123         16
   124         12
   125         10
   126         14
   127         26
   128         18
   129         72
   130         36
   131         50
   132         28
   133         72
   134         16
   135         24
   136         12
   137         14
   138         10
   139         14
   140         12
   141         16
   142         16
   143         80
   144         28
   145         28
   146         44
   147        225
   148         40
   149         40
   150         12
   151         12
   152         10
   153         12
   154          8
   155         18
   156         16
   157         30
   158         16
   159        100
   160         20
   161         24
   162         12
   163         22
   164         10
   165         16
   166         10
   167         14
   168         10
   169         52
   170         18
   171         20
   172         14
   173         24
   174         14
   175         26
   176         12
   177         16
   178         12
   179         14
   180         14
   181         14
   182         12
   183         18
   184         22
   185        195
   186         32
   187         36
   188         16
   189         30
   190         12
   191         40
   192         16
   193         16
   194          8
   195         16
   196          6
   197         12
   198         10
   199         18
   200         10
   201         16
   202         10
   203         16
   204        116
   205         46
   206         16
   207         20
   208         12
   209         14
   210         16
   211         12
   212         60
   213         16
   214          8
   215         28
   216         12
   217        233
   218         56
   219         38
   220         12
   221         16
   222         12
   223         14
   224         16
   225         16
   226         12
   227         20
   228         10
   229         16
   230         10
   231         16
   232         10
   233         18
   234         24
   235         14
   236         10
   237         10
   238          8
   239         10
   240          8
   241         10
   242          8
   243         14
   244         10
   245         16
   246         12
   247         26
   248         10
   249          8
   250          4
   251          8
   252          8
   253        402
   254         60
   255         12
   256          4
   257         20
   258         10
   259         40
   260         14
   261         14
   262          6
   263         12
   264          4
   265          4
   266          2
   267         10
   268         10
   269         10
   270          4
   271         10
   272         10
   273         12
   274         20
   275         34
   276         14
   277         14
   278          2
   279          4
   280          6
   281         12
   282          8
   283          6
   284          4
   285          8
   286         10
   287         12
   288          8
   289         12
   290          6
   291         10
   292          4
   293          4
   294          2
   295          2
   296          2
   297         16
   298          8
   299          8
   300          6
   301         10
   302          4
   303         16
   304          8
   305         14
   306         10
   307          8
   308          4
   309          4
   311          2
   312          4
   313          4
   314          4
   315          4
   316          8
   317        167
   318         48
   319         34
   320         12
   321          6
   322          4
   323          4
   324          4
   325          4
   326          4
   327         16
   328          8
   329          6
   330          6
   331         12
   332          6
   333         16
   334         10
   335          6
   337          4
   340          2
   341          4
   342          4
   343          4
   344          4
   345          4
   346          4
   347          8
   348         10
   349         12
   350          4
   351          4
   352          4
   354          4
   355          4
   358          4
   359          4
   361         12
   362          8
   363          6
   364          4
   365          4
   375          4
   376          4
   377          8
   379          2
   385          2
   386          2
   389          2
   391         10
   392          6
   393          4
   394          2
   406         20
   407         20
   408         10
   409          6
   410          4
   411          2
   420          2
   421          2
   422          2
   423          4
   424          2
   495          6