##TITLE=Library Entry 42203
##JCAMP-DX=Revision 4.10 
##DATA TYPE=MASS SPECTRUM
##SAMPLE DESCRIPTION=MO-52
##NAMES=HP
##CAS NAME=Butanoic acid, 2-methyl-3-[(trimethylsilyl)oxy]-, trimethylsilyl
 ester
##MOLFORM=C11H26O3Si2
##CAS REGISTRY NO=55557-17-0
##MP= -300
##BP= -300
##MW= 262
##$RETENTION INDEX=1205
##$CONDENSED SPECTRUM=NO
##NPOINTS= 50
##XYDATA=(XY..XY) 1 
    15         11
    27         16
    28         22
    29         20
    39         10
    41         22
    43         57
    44         35
    45        160
    46         12
    47         57
    55         50
    56         72
    57         19
    58         25
    59         61
    60         11
    61         30
    66         60
    72         36
    73        999
    74         92
    75        247
    76         18
    77         11
    83         10
    88        108
    89         12
   101         16
   115         26
   117        822
   118         92
   119         38
   129         21
   130         12
   131         39
   133         55
   144         37
   147        624
   148         99
   149         56
   157         25
   191         84
   192         16
   203         13
   218        115
   219         25
   220         11
   247         67
   248         15