##TITLE=Library Entry 100949
##JCAMP-DX=Revision 4.10 
##DATA TYPE=MASS SPECTRUM
##SAMPLE DESCRIPTION=Exported from NIST MS Search
##NAMES=HP
##CAS NAME=Kaurane-3,16,18-triol, 3,18-diacetate, (3.alpha.,4.beta.)-
##MOLFORM=C24H38O5
##CAS REGISTRY NO=55557-07-8
##MP= -300
##BP= -300
##MW= 406
##$RETENTION INDEX=0
##$CONDENSED SPECTRUM=NO
##NPOINTS= 139
##XYDATA=(XY..XY) 1 
    82         30
    83         40
    84         60
    85         50
    86         30
    87         60
    91        230
    92        120
    93        470
    94        410
    95        330
    96         60
    97         90
    98         30
   104         40
   105        380
   106        280
   107        530
   108        150
   109        270
   110         50
   111         60
   117         60
   118         40
   119        999
   120        370
   121        730
   122        150
   123        160
   124         70
   125         50
   130         40
   131         70
   132        290
   133        370
   134        710
   135        400
   136        120
   137        300
   139         80
   145         50
   146        130
   147        400
   148        250
   149        250
   150         60
   151        100
   157        100
   158        120
   159        260
   160        230
   161        280
   162         90
   163         70
   169         60
   171        120
   172         60
   173        170
   174         40
   175        110
   176         40
   177         50
   178         60
   179         20
   183         60
   185        150
   186         50
   187        160
   188         50
   189         50
   197         60
   198         40
   199         70
   200        110
   201         90
   202         90
   203         50
   204         20
   205         30
   209         40
   211         40
   212         10
   213        280
   214         60
   215        140
   216         40
   217         30
   218         30
   225        380
   226        130
   227        220
   228        570
   229        250
   230         20
   239         30
   240         50
   241         30
   242         20
   243        120
   244        150
   245         40
   246         20
   252         20
   253        260
   254         70
   255        460
   256        150
   257         40
   258         20
   267         30
   268        690
   269        230
   270         50
   271        110
   272         70
   273        320
   274         60
   275         20
   285        110
   286        870
   287        210
   288        270
   289        110
   290         20
   304         70
   313         70
   328        260
   329         90
   332         50
   333         40
   345         20
   346        220
   347         50
   348        160
   349         50
   388        370
   389         80
   406        100
   407         30