##TITLE=Library Entry 44359
##JCAMP-DX=Revision 4.10 
##DATA TYPE=MASS SPECTRUM
##SAMPLE DESCRIPTION=CHARLES C.SWEELY,MICHIGAN STATE UNIV,EAST LANSING,MICH.
USA
##NAMES=HP
##CAS NAME=Pregnan-11-one, 3,17,20-tris[(trimethylsilyl)oxy]-, (3.alpha.,5.b
eta.,20S)-
##MOLFORM=C30H58O4Si3
##CAS REGISTRY NO=55557-06-7
##MP= -300
##BP= -300
##MW= 566
##$RETENTION INDEX=0
##$CONDENSED SPECTRUM=NO
##NPOINTS= 138
##XYDATA=(XY..XY) 1 
    42          3
    43         12
    45         32
    47         10
    50          4
    53          8
    55         71
    61         16
    67         50
    69         10
    72          9
    73        999
    74         83
    75        225
    76          9
    79         43
    80          6
    81         55
    82          3
    83         14
    85         10
    91         56
    93         71
    94         13
    95         67
    97          5
   101         19
   103         13
   105         73
   106         10
   107         78
   108         13
   109         16
   113          3
   115         11
   116          9
   117        177
   118         12
   119         42
   120         10
   121         37
   123         12
   127          8
   129         36
   130          6
   131         39
   132          6
   133         72
   134          8
   135          9
   136          4
   141         15
   143         51
   144         12
   145         39
   146         11
   147        264
   148         39
   149         55
   150          4
   151          7
   155         29
   156         17
   157         39
   158          6
   159         13
   160          7
   161         78
   162         10
   167         12
   168         12
   169         80
   170         13
   171         10
   173         18
   174          6
   175         30
   177          3
   182          9
   183         16
   185         12
   187         48
   188          7
   189          9
   191         34
   192          7
   193         10
   194          4
   195         27
   196         15
   198          6
   199         10
   201          7
   209         16
   211         45
   213         16
   218         15
   221          7
   223          4
   225          7
   226          4
   227         98
   228         11
   229         12
   230          9
   231         27
   233          3
   235          4
   239          6
   241         39
   243         13
   245         82
   246         22
   247         12
   248          5
   249          4
   251         24
   269        236
   270         52
   297         14
   298          4
   304          7
   332          3
   359        480
   360        139
   361         39
   362          5
   386          5
   440          3
   449        893
   450        315
   451        102
   452         21
   461          9
   476          7
   544          3
   551         19
   566         22