##TITLE=Library Entry 41853
##JCAMP-DX=Revision 4.10 
##DATA TYPE=MASS SPECTRUM
##SAMPLE DESCRIPTION=ORVAL A. MAMER, ROYAL VICTORIA HOSPITAL, MONTREAL, CANA
DA
##NAMES=HP
##CAS NAME=Glycine, N-(1-oxopropyl)-N-(trimethylsilyl)-, trimethylsilyl este
r
##MOLFORM=C11H25NO3Si2
##CAS REGISTRY NO=55557-16-9
##MP= -300
##BP= -300
##MW= 275
##$RETENTION INDEX=1422
##$CONDENSED SPECTRUM=NO
##NPOINTS= 96
##XYDATA=(XY..XY) 1 
    14          4
    15         14
    26          8
    27         30
    28         51
    29        140
    30         21
    31         15
    39          8
    41         33
    42         19
    43         73
    44         48
    45        242
    46         17
    47         46
    54         29
    55         18
    56         20
    57        172
    58         37
    59         95
    60         13
    61         29
    68         36
    69         78
    70         19
    71          9
    72         43
    73        999
    74         93
    75        221
    76         16
    77          9
    84          8
    85          7
    86         47
    87         12
    88         10
    96         13
   100         79
   101         67
   102        729
   103         83
   104         35
   105          5
   113          6
   114          6
   115          7
   116         13
   117         13
   119          6
   123         12
   126          8
   128          7
   129          8
   130         75
   131         33
   132         14
   133         42
   134          8
   142         16
   143          9
   144          9
   147        262
   148         43
   149         25
   156          9
   157         29
   158        522
   159         84
   160         27
   161          5
   170         10
   172          5
   174          8
   176        142
   177         26
   178         12
   185         77
   186         18
   188         12
   207          4
   216          9
   218         20
   219          5
   232         99
   233         21
   234          9
   246          8
   260        181
   261         41
   262         18
   275         55
   276         15
   277          6