##TITLE=Library Entry 63825
##JCAMP-DX=Revision 4.10 
##DATA TYPE=MASS SPECTRUM
##SAMPLE DESCRIPTION=Chemical Concepts
##NAMES=HP
##CAS NAME=2-Propanamine, N,N-dibenzyl
##MOLFORM=C17H21N
##CAS REGISTRY NO=55578-14-8
##MP= -300
##BP= -300
##MW= 239
##$RETENTION INDEX=0
##$CONDENSED SPECTRUM=NO
##NPOINTS= 164
##XYDATA=(XY..XY) 1 
    26          0
    27         13
    28          6
    29          4
    30          2
    31          2
    37          0
    38          1
    39         23
    40          2
    41         29
    42          7
    43         22
    44          2
    45          1
    47          1
    50          3
    51         15
    52          3
    53          2
    54          2
    55          6
    56         32
    57          7
    58          1
    59          1
    62          1
    63         10
    64          4
    65         82
    66          4
    67          1
    68          1
    69          4
    70          6
    71          3
    72          0
    73          0
    74          1
    75          1
    76          1
    77         15
    78          5
    79          6
    80          0
    81          0
    82          1
    83          1
    84          0
    85          1
    86          3
    87          0
    88          0
    89         15
    90         12
    91        999
    92         94
    93          3
    94          0
    95          1
    96          0
    97          1
    98          0
    99          0
   100          0
   101          0
   102          0
   103          3
   104          9
   105         17
   106          9
   107          1
   109          0
   110          0
   111          0
   112          1
   113          0
   114          0
   115          2
   116          1
   117          4
   118          3
   119          7
   120          6
   121          0
   122          0
   123          0
   124          0
   125          0
   126          0
   127          0
   128          1
   129          0
   130          1
   131          1
   132         27
   133          4
   134          4
   135          0
   139          0
   140          0
   141          1
   142          0
   143          0
   144          0
   145          0
   146          5
   147          1
   148          6
   149          1
   150          0
   151          0
   152          1
   153          0
   154          0
   155          0
   156          0
   158          0
   159          0
   160          1
   162         43
   163          5
   164          1
   165          3
   166          2
   167          1
   168          0
   169          0
   170          0
   172          0
   173          0
   174          0
   175          0
   176          0
   177          0
   178          0
   179          1
   180          0
   181         51
   183          8
   184          0
   188          0
   191          0
   192          0
   193          0
   194          1
   195          0
   196          2
   197          0
   208          0
   210          4
   222          1
   223          1
   224        630
   225        115
   226          8
   227          0
   228          0
   230          0
   236          0
   238          5
   239         93
   240         16
   241          1