##TITLE=Library Entry 37291
##JCAMP-DX=Revision 4.10 
##DATA TYPE=MASS SPECTRUM
##SAMPLE DESCRIPTION=Exported from NIST MS Search
##NAMES=HP
##CAS NAME=L-Valine, N-[2-(chloroimino)-3-methyl-1-oxobutyl]-
##MOLFORM=C10H17ClN2O3
##CAS REGISTRY NO=55570-83-7
##MP= -300
##BP= -300
##MW= 248
##$RETENTION INDEX=0
##$CONDENSED SPECTRUM=NO
##NPOINTS= 119
##XYDATA=(XY..XY) 1 
    50         88
    51        128
    52        149
    53        333
    54        925
    55        602
    56        413
    57         48
    58        176
    60         58
    62         61
    63         34
    64         48
    65         37
    66         40
    67         88
    68        453
    69        274
    70        999
    71        261
    72        634
    73        250
    74        261
    75         37
    76         18
    77         74
    78         18
    79         37
    80         13
    81         61
    82         69
    83        282
    84         85
    85        122
    86         37
    87         90
    88         16
    89         16
    90         26
    91         42
    92         21
    93         42
    94         21
    95         77
    96         50
    97         90
    98        381
    99         74
   100         58
   101        629
   102         77
   103         48
   104        106
   105         48
   106        282
   107         53
   108        101
   109         77
   110         48
   111         66
   112         34
   113         37
   114         21
   115         58
   116        730
   117         56
   118         32
   119         50
   120         18
   121         34
   122         32
   123         37
   124         32
   125         82
   126         45
   127         58
   128         34
   129         50
   130         18
   131         18
   132         21
   133         16
   134         32
   135         16
   136         16
   137         32
   138         13
   139         34
   140         64
   141         34
   142         48
   143         32
   144         85
   145         34
   147         18
   149         96
   150         32
   151         37
   152         21
   153         40
   154         16
   155         16
   161         42
   162         24
   163         16
   166         18
   167         64
   168         40
   169         34
   170         18
   171         18
   180         13
   203         90
   204         16
   205         40
   206         13
   207         18
   213         74
   214         32