##TITLE=Library Entry 57728
##JCAMP-DX=Revision 4.10 
##DATA TYPE=MASS SPECTRUM
##SAMPLE DESCRIPTION=R. RYHAGE KAROLINSKA INSTITUTET, STOCKHOLM
##NAMES=HP
##CAS NAME=Tetracosanoic acid, 2,9-dimethyl-, methyl ester
##MOLFORM=C27H54O2
##CAS REGISTRY NO=55571-07-8
##MP= -300
##BP= -300
##MW= 410
##$RETENTION INDEX=0
##$CONDENSED SPECTRUM=NO
##NPOINTS= 167
##XYDATA=(XY..XY) 1 
    15          6
    16         10
    17         53
    18        250
    26          4
    27         27
    28         46
    29         80
    30         33
    31          8
    32          4
    38          3
    39         32
    40         10
    41        300
    42         79
    43        640
    44        240
    45         25
    46          2
    50          4
    51          4
    52          4
    53         27
    54         37
    55        580
    56        210
    57        740
    58         53
    59         35
    60         11
    61          6
    64         23
    65          8
    66          5
    67         75
    68         46
    69        130
    70        110
    71        300
    72         26
    73         45
    74        140
    75         36
    76          5
    77          9
    78          3
    79         15
    80          7
    81         60
    82         36
    83        230
    84         46
    85        130
    86         10
    87         77
    88        999
    89         46
    90          5
    91          8
    92          2
    93         11
    94          5
    95         41
    96         19
    97        120
    98         22
    99         20
   100          5
   101        280
   102         22
   103          3
   107          7
   108          3
   109         18
   110          9
   111         48
   112         14
   113         11
   114          4
   115         23
   116          3
   119          2
   121          6
   122          2
   123          9
   124          4
   125         16
   126          7
   127          8
   128          3
   129         12
   130         12
   131          2
   135          5
   137          6
   138          3
   139         15
   140          4
   141          6
   143         46
   144         17
   145          3
   151          4
   152          2
   153          6
   154          3
   155          5
   157         50
   158          9
   163          4
   165          3
   166          2
   167         20
   168          6
   169          4
   171         17
   172          9
   173          5
   177          2
   179          2
   180          2
   181          5
   182          2
   183          3
   185          2
   191          2
   195          2
   197          3
   199         15
   200          3
   209          2
   211          2
   213          5
   227          6
   228          2
   237          2
   238          3
   239          3
   241          2
   255          3
   256          2
   269          8
   270          3
   278          4
   279          2
   297         50
   298         12
   299          3
   300          2
   301          5
   312          4
   339          2
   351          7
   352          2
   353         26
   354          7
   367         17
   368          5
   377          2
   379          6
   380          2
   396          3
   409          2
   410        190
   411         59
   412         10