##TITLE=Library Entry 44596
##JCAMP-DX=Revision 4.10 
##DATA TYPE=MASS SPECTRUM
##SAMPLE DESCRIPTION=Chemical Concepts
##NAMES=HP
##CAS NAME=2-Chloro-5,6,11,12-naphthacenetetrone
##MOLFORM=C18H7ClO4
##CAS REGISTRY NO=55588-54-0
##MP= -300
##BP= -300
##MW= 322
##$RETENTION INDEX=0
##$CONDENSED SPECTRUM=NO
##NPOINTS= 47
##XYDATA=(XY..XY) 1 
    38        119
    39        209
    49        135
    50        884
    51        196
    53        122
    61        116
    62        114
    63        124
    73        295
    74        999
    75        868
    76        672
    77        269
    86        102
    87        338
    88        167
    98        231
    99        281
   100        150
   101        214
   104        127
   105        230
   106         96
   110        276
   111        110
   112        101
   149        168
   161        103
   162        108
   174        583
   175        700
   176        217
   210        521
   211        102
   212        162
   238        602
   239        114
   240        179
   266        540
   267        119
   268        159
   294        113
   322        844
   323        199
   324        291
   325        106