##TITLE=Library Entry 96885
##JCAMP-DX=Revision 4.10 
##DATA TYPE=MASS SPECTRUM
##SAMPLE DESCRIPTION=NIST Mass Spectrometry Data Center, 1994
##NAMES=HP
##CAS NAME=2-Phenylvaleronitrile
##MOLFORM=C11H13N
##CAS REGISTRY NO=5558-78-1
##MP= -300
##BP= -300
##MW= 159
##$RETENTION INDEX=0
##$CONDENSED SPECTRUM=NO
##NPOINTS= 76
##XYDATA=(XY..XY) 1 
     4          3
    12          1
    13          1
    14          2
    15         22
    16          1
    17          0
    18          0
    26         20
    27        180
    28         23
    29         36
    30          1
    32          0
    37         10
    38         23
    39        136
    40         15
    41        163
    42          0
    43        230
    44          6
    50         56
    51        114
    52         26
    53         10
    54          4
    55          2
    57          2
    61          7
    62         28
    63         83
    64         29
    65         30
    66          5
    73          2
    74         12
    75         19
    76         22
    77         79
    78         35
    79          5
    85          1
    86          3
    87         10
    88          1
    89        171
    90        146
    91         48
    92          3
    98          1
    99          1
   100          2
   101          6
   102         17
   103         51
   104         18
   105          4
   106          7
   114          9
   116        189
   117        999
   118         94
   119          3
   126          1
   127          4
   128          8
   129          5
   130         11
   131          3
   140          1
   143          1
   144          1
   159        170
   160         21
   161          1