##TITLE=Library Entry 20964
##JCAMP-DX=Revision 4.10 
##DATA TYPE=MASS SPECTRUM
##SAMPLE DESCRIPTION=M.G.HORNING,INST.FOR LIPID RES,BAYLOR COLL.OF MED,HOUST
ON,TEX
##NAMES=HP
##CAS NAME=2-Pentenedioic acid, 2-[(trimethylsilyl)oxy]-, dimethyl ester
##MOLFORM=C10H18O5Si
##CAS REGISTRY NO=55590-96-0
##MP= -300
##BP= -300
##MW= 246
##$RETENTION INDEX=0
##$CONDENSED SPECTRUM=NO
##NPOINTS= 56
##XYDATA=(XY..XY) 1 
    42         10
    43         80
    44         40
    45        145
    46         10
    47         20
    53         10
    54         10
    55        999
    56         35
    57         15
    58         30
    59        225
    60         20
    61         30
    71         10
    72         20
    73        450
    74         40
    75        175
    76         10
    77         10
    82         20
    83         15
    85         20
    86         10
    89        580
    90         50
    91         30
    99         10
   103         10
   105         10
   113         20
   114         15
   121         20
   129         15
   143         15
   157         60
   158         10
   159         50
   171         15
   172         15
   173         10
   175        250
   176         25
   177         10
   187         65
   188         10
   199         35
   203         20
   214         20
   215         50
   231        440
   232         65
   233         25
   246         15