##TITLE=Library Entry 42007
##JCAMP-DX=Revision 4.10 
##DATA TYPE=MASS SPECTRUM
##SAMPLE DESCRIPTION=M.G.HORNING,INST.FOR LIPID RES,BAYLOR COLL.OF MED,HOUST
ON,TEX
##NAMES=HP
##CAS NAME=.beta.-Alanine, N-[3,3-dimethyl-1-oxo-2,4-bis[(trimethylsilyl)oxy
]butyl]-, methyl ester, (R)-
##MOLFORM=C16H35NO5Si2
##CAS REGISTRY NO=55591-03-2
##MP= -300
##BP= -300
##MW= 377
##$RETENTION INDEX=0
##$CONDENSED SPECTRUM=NO
##NPOINTS= 74
##XYDATA=(XY..XY) 1 
    41         13
    43          6
    45         69
    46          6
    47         13
    55         55
    56          8
    58         15
    59         69
    60          6
    61         15
    69         13
    70         13
    72         22
    73        999
    74         57
    75        164
    76         10
    77          6
    82          6
    83         19
    85          8
    86          8
    87         20
    88         22
    89         29
    91          6
    98         26
   100          8
   101          8
   102         43
   103        349
   104         40
   105         17
   113          8
   115         24
   116          6
   117        136
   118         31
   119         12
   124          6
   128          8
   129         29
   130         33
   131         13
   133         26
   143         34
   144         27
   145         24
   146          8
   147         57
   148         10
   156          6
   157        115
   158         24
   159         73
   160         17
   161          6
   163          8
   201         47
   202         10
   203         13
   217         15
   233        269
   234         41
   235         13
   247        129
   248         27
   249         12
   258          6
   272         10
   346         12
   362         33
   363         10