##TITLE=Library Entry 43030
##JCAMP-DX=Revision 4.10 
##DATA TYPE=MASS SPECTRUM
##SAMPLE DESCRIPTION=W.T.RAINEY OAK RIDGE NATIONAL LABORATORY,OAK RIDGE,TN.U
SA
##NAMES=HP
##CAS NAME=2-Methoxyphenylacetic acid, TMS derivative
##MOLFORM=C12H18O3Si
##CAS REGISTRY NO=55590-71-1
##MP= -300
##BP= -300
##MW= 238
##$RETENTION INDEX=1476
##$CONDENSED SPECTRUM=NO
##NPOINTS= 24
##XYDATA=(XY..XY) 1 
    73        999
    75        149
    89        124
    90         37
    91         55
   121         37
   148         14
   149         19
   163         70
   164         41
   165         24
   179        583
   180        166
   181         41
   194         54
   195         54
   208         10
   209          3
   223        191
   224         33
   225          8
   238        241
   239         41
   240         12