##TITLE=Library Entry 26656
##JCAMP-DX=Revision 4.10 
##DATA TYPE=MASS SPECTRUM
##SAMPLE DESCRIPTION=W. UTILIZATION R & D DIV., U.S. DEPT. OF AGRIC., ALBANY
, CAL.
##NAMES=HP
##CAS NAME=Octanethioic acid, S-hexyl ester
##MOLFORM=C14H28OS
##CAS REGISTRY NO=55590-85-7
##MP= -300
##BP= -300
##MW= 244
##$RETENTION INDEX=0
##$CONDENSED SPECTRUM=NO
##NPOINTS= 41
##XYDATA=(XY..XY) 1 
    29         34
    39         11
    40          1
    41        176
    42         23
    43        153
    44          5
    47          9
    53          6
    55        204
    56         30
    57        999
    58         32
    59         10
    61         10
    67         41
    68          6
    69         22
    70         11
    71         12
    81          8
    82          8
    83         27
    84         30
    85         17
    97          8
    98         24
    99          4
   100          8
   109        100
   116          8
   117          9
   127        952
   128         80
   142          4
   145          3
   159        153
   160         12
   161         18
   184          4
   244          4