##TITLE=Library Entry 58572
##JCAMP-DX=Revision 4.10 
##DATA TYPE=MASS SPECTRUM
##SAMPLE DESCRIPTION=M.G.HORNING,INST.FOR LIPID RES,BAYLOR COLL.OF MED,HOUST
ON,TEX
##NAMES=HP
##CAS NAME=Dimethyl 3-hydroxypentanedioate, TMS derivative
##MOLFORM=C10H20O5Si
##CAS REGISTRY NO=55590-89-1
##MP= -300
##BP= -300
##MW= 248
##$RETENTION INDEX=0
##$CONDENSED SPECTRUM=NO
##NPOINTS= 71
##XYDATA=(XY..XY) 1 
    41        120
    42         80
    43        280
    44        100
    45        340
    46         40
    47        140
    53         20
    55         50
    56         20
    57         60
    58         80
    59        580
    60         70
    61        140
    68         50
    69         60
    70         20
    71        120
    72         70
    73        820
    74        100
    75        400
    76         40
    77         40
    80         40
    85        100
    87         20
    88         20
    89        999
    90        100
    91        120
    95        240
    96         20
    99        300
   100         40
   101        200
   102         30
   103         40
   105        120
   107         10
   115         50
   116         30
   117        100
   121        180
   122         20
   127        920
   128         90
   129         40
   131         80
   133        180
   134         20
   143         40
   145         20
   146         40
   147         20
   149        160
   150         30
   159        220
   160         40
   161         60
   173        110
   174         20
   175        170
   176         30
   188         20
   191         90
   201         40
   233        300
   234         60
   235         30