##TITLE=Library Entry 43104
##JCAMP-DX=Revision 4.10 
##DATA TYPE=MASS SPECTRUM
##SAMPLE DESCRIPTION=M.G.HORNING,INST.FOR LIPID RES,BAYLOR COLL.OF MED,HOUST
ON,TEX
##NAMES=HP
##CAS NAME=Pentanedioic acid, 2-[(trimethylsilyl)oxy]-, dimethyl ester
##MOLFORM=C10H20O5Si
##CAS REGISTRY NO=55590-88-0
##MP= -300
##BP= -300
##MW= 248
##$RETENTION INDEX=0
##$CONDENSED SPECTRUM=NO
##NPOINTS= 87
##XYDATA=(XY..XY) 1 
    41         55
    42         36
    43        146
    44         82
    45        302
    46         27
    47         64
    51         18
    52         18
    53         18
    55        100
    56         36
    57         91
    58         64
    59        348
    60         45
    61         73
    68         18
    69         18
    70         18
    71        330
    72         73
    73        999
    74        110
    75        275
    76         36
    77         27
    79         27
    83         18
    84         18
    85        697
    86         55
    87         36
    88         27
    89        688
    90         73
    91         64
    93         18
    95         18
    96         18
    99         73
   100         18
   101         55
   103         27
   105         91
   113         18
   115         64
   116         18
   117         36
   121         36
   127         18
   129        688
   130        110
   131        110
   132         18
   133         18
   145        192
   146         73
   147         27
   157        155
   158         27
   159         91
   160         18
   161         36
   169         18
   173        688
   174        110
   175         55
   188         27
   189        917
   190        137
   191         55
   192         18
   193         18
   201         55
   202         18
   205         64
   206         18
   207        110
   208         36
   209         27
   217        146
   218         36
   219         18
   233        165
   234         36
   235         18