##TITLE=Library Entry 61301
##JCAMP-DX=Revision 4.10 
##DATA TYPE=MASS SPECTRUM
##SAMPLE DESCRIPTION=MASS SPECTROMETRY CENTER, UNIV. OF UTAH ALDRICH 85829-3
##NAMES=HP
##CAS NAME=DL-Lysine, N2,N6-bis[(phenylmethoxy)carbonyl]-
##MOLFORM=C22H26N2O6
##CAS REGISTRY NO=55592-85-3
##MP= -300
##BP= -300
##MW= 414
##$RETENTION INDEX=0
##$CONDENSED SPECTRUM=NO
##NPOINTS= 64
##XYDATA=(XY..XY) 1 
    15         30
    16         17
    26         16
    27        127
    28        309
    29        110
    30         84
    31         31
    32          9
    36          2
    37         13
    38        178
    39         20
    40        100
    41         48
    42        242
    43        311
    44         23
    50         86
    51        188
    52         52
    53         61
    54         23
    55        103
    56        172
    57         14
    62         19
    63         52
    64          5
    65        128
    67          8
    69         16
    70         36
    73         19
    74         34
    75          3
    77        338
    78         79
    79        584
    80         61
    82         52
    83         46
    84         59
    87          8
    89         59
    90         80
    91        999
    92        103
    98         18
   100          2
   101         13
   105         38
   106          6
   107        498
   108        930
   109         80
   110         13
   114          3
   127         54
   128         42
   173         35
   174         16
   217         37
   218         17