##TITLE=Library Entry 13097
##JCAMP-DX=Revision 4.10 
##DATA TYPE=MASS SPECTRUM
##SAMPLE DESCRIPTION=W. M. HARMS - E. J. EISENBRAUN
##NAMES=HP
##CAS NAME=Ethanone, 1-(2,3-dihydro-1,1-dimethyl-1H-inden-4-yl)-
##MOLFORM=C13H16O
##CAS REGISTRY NO=55591-10-1
##MP= -300
##BP= -300
##MW= 188
##$RETENTION INDEX=0
##$CONDENSED SPECTRUM=NO
##NPOINTS= 122
##XYDATA=(XY..XY) 1 
    12          1
    13          1
    14          9
    15         88
    16          2
    17          3
    18         12
    19          1
    26          4
    27         38
    28         13
    29         18
    30          1
    31          1
    32          2
    37          1
    38          5
    39         50
    40          5
    41         22
    42          7
    43        999
    44         22
    45          3
    50         15
    51         46
    52         10
    53         15
    55          4
    56          1
    57          5
    58          4
    61          2
    62         10
    63         37
    64         27
    65         21
    66          3
    67          4
    69          2
    70          2
    71          4
    74          8
    75         13
    76         11
    77         39
    78         24
    79         25
    86          4
    87          8
    88          3
    89         14
    90          4
    91         46
    92          5
    93          2
    94          1
    97          1
    98          3
    99          3
   100          2
   101          9
   102         22
   103         21
   104          6
   105         19
   106          2
   110          1
   111          1
   113          5
   114          9
   115        132
   116         25
   117         18
   118          3
   119          3
   121          1
   125          2
   126          9
   127         47
   128         92
   129         88
   130         54
   131         82
   132         12
   133          3
   134          3
   139          6
   140          2
   141         12
   142          5
   143         14
   144          6
   145         55
   146          8
   147          3
   151          1
   152          4
   153          4
   154          2
   155          7
   156          2
   157          8
   158          3
   159          8
   160          7
   161          5
   165          1
   169          2
   170          1
   171          4
   172          5
   173        537
   174         71
   175          6
   176          2
   185          1
   186          2
   187         17
   188        332
   189         49
   190          3