##TITLE=Library Entry 9724
##JCAMP-DX=Revision 4.10 
##DATA TYPE=MASS SPECTRUM
##SAMPLE DESCRIPTION=W. UTILIZATION R & D DIV., U.S. DEPT. OF AGRIC., ALBANY
, CAL.
##NAMES=HP
##CAS NAME=Ethanethioic acid, S-(1-ethylbutyl) ester
##MOLFORM=C8H16OS
##CAS REGISTRY NO=55590-84-6
##MP= -300
##BP= -300
##MW= 160
##$RETENTION INDEX=0
##$CONDENSED SPECTRUM=NO
##NPOINTS= 53
##XYDATA=(XY..XY) 1 
    27         40
    29         49
    35          4
    39         46
    40          5
    41        201
    42         73
    43        999
    44         26
    45         28
    46          7
    47         42
    53         22
    54         14
    55        218
    56        165
    57         70
    58         13
    59         32
    60         22
    61         47
    67         13
    69        102
    70          9
    71         10
    72         43
    73         16
    74         20
    75         77
    76         31
    77         97
    78          5
    79          8
    83         36
    84        426
    85        115
    86         47
    87          9
    88         89
    89         72
    90          8
    91          5
    99          6
   103         13
   116         12
   117         65
   118         13
   127         15
   131         12
   142          1
   160         80
   161          7
   162          3