##TITLE=Library Entry 8571
##JCAMP-DX=Revision 4.10 
##DATA TYPE=MASS SPECTRUM
##SAMPLE DESCRIPTION=CENTRE D'ETUDES NUCLEAIRES DE GRENOBLE, FRANCE.
##NAMES=HP
##CAS NAME=Bicyclo[2.2.1]heptan-2-one, 5-(acetyloxy)-4,6,6-trimethyl-, exo-
##MOLFORM=C12H18O3
##CAS REGISTRY NO=55590-78-8
##MP= -300
##BP= -300
##MW= 210
##$RETENTION INDEX=0
##$CONDENSED SPECTRUM=NO
##NPOINTS= 64
##XYDATA=(XY..XY) 1 
    39         98
    40         39
    41        298
    43        999
    44         39
    53         88
    54         39
    55        127
    56         59
    57         39
    65         39
    67         78
    68         54
    69        643
    70         59
    71         98
    72        122
    77         59
    79         73
    80         49
    81         68
    82         49
    83        127
    85         64
    91         68
    93         78
    94         34
    95         59
    96        571
    97        250
    98         49
    99        127
   105         29
   106         29
   107        196
   108        191
   109        147
   110         29
   111         88
   112         29
   113         49
   114         29
   121         78
   122         93
   123         49
   124         49
   125         88
   126        127
   127         24
   135        137
   136         29
   137         24
   138        103
   139         78
   140         29
   149         39
   150        108
   151         34
   153        122
   154         29
   167         49
   168        303
   169         49
   210        250