##TITLE=Library Entry 6084
##JCAMP-DX=Revision 4.10 
##DATA TYPE=MASS SPECTRUM
##SAMPLE DESCRIPTION=Leung Pu, NIH, Bethesda, Maryland, U.S.
##NAMES=HP
##CAS NAME=2-Methylbutyl p-decyloxybenzylidene p-aminocinnamate
##MOLFORM=C31H43NO3
##CAS REGISTRY NO=55593-53-8
##MP= -300
##BP= -300
##MW= 477
##$RETENTION INDEX=0
##$CONDENSED SPECTRUM=NO
##NPOINTS= 173
##XYDATA=(XY..XY) 1 
    41        585
    42        109
    43        999
    44         36
    45         13
    46          1
    47         10
    48          5
    49          5
    50         11
    51          3
    52          6
    53         17
    54          8
    55        227
    56         31
    57        253
    58         13
    59          2
    60          5
    61          2
    62          2
    63         10
    64          5
    65         30
    66          4
    67          5
    68          1
    69         28
    70         41
    71         47
    72          3
    74          0
    75          4
    76         24
    77         78
    78         27
    79         34
    80          4
    81         16
    82         23
    83         85
    84          8
    85        144
    86          9
    87          3
    88          2
    89         23
    90         42
    91         54
    92         24
    93         43
    94         19
    95         20
    96          5
    97         33
    98         13
    99          9
   100          2
   101         41
   102         81
   103         21
   104          7
   105         15
   106         12
   107          8
   108          1
   109          1
   110          1
   111          6
   112          3
   113          1
   115          4
   116          1
   117          5
   118          6
   119          8
   120          7
   121         18
   122         19
   123         27
   124          2
   125          1
   127          1
   128         17
   129         14
   130         11
   131          7
   132          1
   135          1
   138          1
   139          3
   140          1
   146          4
   147          5
   151          0
   152          1
   156         33
   157          4
   163          5
   164          0
   165          6
   166          4
   167          6
   168          1
   170          0
   172          1
   174          5
   176         19
   177          2
   178          1
   186          0
   190          1
   191         13
   192         14
   193          3
   194          6
   195          1
   196          0
   197          1
   198          1
   199          0
   203          1
   204          5
   205          3
   206          1
   207          1
   210          5
   211          0
   219          1
   220         27
   221         10
   222         41
   223         49
   224          9
   225          1
   233          1
   234          1
   236          1
   237          0
   238          1
   244          3
   248          9
   249         11
   250         12
   251          2
   262          4
   263          1
   264          3
   265          1
   266         46
   267         63
   268         11
   280          3
   281          3
   322          0
   336          2
   337         12
   338          4
   350          8
   351          2
   362          2
   363          3
   390         11
   391          3
   406          0
   407          5
   421          2
   449          0
   474          1
   477         57
   478         20
   479          4