##TITLE=Library Entry 42710
##JCAMP-DX=Revision 4.10 
##DATA TYPE=MASS SPECTRUM
##SAMPLE DESCRIPTION=O A MAMER, MCGILL UNIVERSITY, MONTRE
##NAMES=HP
##CAS NAME=Pentanedioic acid, 3-methyl-3-[(trimethylsilyl)oxy]-, bis(trimeth
ylsilyl) ester
##MOLFORM=C15H34O5Si3
##CAS REGISTRY NO=55590-95-9
##MP= -300
##BP= -300
##MW= 378
##$RETENTION INDEX=1615
##$CONDENSED SPECTRUM=NO
##NPOINTS= 114
##XYDATA=(XY..XY) 1 
    27         13
    29          8
    31          4
    41         16
    42          7
    43         64
    44         27
    45         90
    46          7
    47         24
    51          5
    52          5
    53          7
    54          4
    55         54
    56          5
    57          6
    58         10
    59         27
    60          6
    61         16
    66          5
    67          7
    69          7
    70          4
    71          5
    72         40
    73        999
    74         95
    75        211
    76         17
    77         13
    78          3
    79          4
    81          4
    82         15
    83         23
    84          4
    85         25
    88          4
    99         10
   101          7
   102          6
   103          8
   105          6
   109         56
   110          5
   113          7
   114          6
   115        140
   116         29
   117         41
   118          6
   119          7
   129         15
   130          5
   131         25
   132          4
   133         48
   134          8
   135          7
   143         10
   147        338
   148         57
   149         57
   150         11
   151          5
   155         14
   157         17
   159         10
   163         12
   171          6
   173          4
   175          4
   183         27
   184          4
   189         30
   190          7
   191         13
   192          4
   193          4
   198         11
   199         92
   200         20
   201          7
   203         40
   204         34
   205         17
   206          8
   217          6
   219         13
   221          9
   222          4
   229          7
   231        122
   232         25
   233         15
   247        248
   248         54
   249         24
   250          4
   273        111
   274         25
   275         12
   277          4
   292         15
   293          5
   294          3
   319          9
   321          6
   363        106
   364         32
   365         17
   366          4