##TITLE=Library Entry 42770
##JCAMP-DX=Revision 4.10 
##DATA TYPE=MASS SPECTRUM
##SAMPLE DESCRIPTION=NIST Mass Spectrometry Data Center
##NAMES=HP
##CAS NAME=2-Pentenedioic acid, 2-[(trimethylsilyl)oxy]-, bis(trimethylsilyl
) ester
##MOLFORM=C14H30O5Si3
##CAS REGISTRY NO=55590-97-1
##MP= -300
##BP= -300
##MW= 362
##$RETENTION INDEX=1622
##$CONDENSED SPECTRUM=NO
##NPOINTS= 193
##XYDATA=(XY..XY) 1 
    14          1
    15          3
    16          1
    26          1
    27          5
    28          7
    29          4
    31          2
    39          3
    41          1
    42          2
    43         21
    44         21
    45        116
    46          8
    47         14
    48          1
    52          1
    53          7
    54         11
    55        179
    56          7
    57          6
    58         10
    59         22
    60          3
    61         10
    62          1
    63          1
    65          1
    66          2
    67          7
    68          1
    69          2
    70          4
    71          5
    72         24
    73        999
    74         88
    75        124
    76          8
    77          5
    79          1
    81          3
    82          5
    83          8
    84          5
    85          7
    86          1
    87          3
    88          2
    89          3
    93          1
    95          1
    96          1
    97          2
    98          2
    99          9
   100          9
   101          6
   102          3
   103          6
   104          1
   105          4
   109          1
   111          4
   112          1
   113        129
   114         14
   115         11
   116          6
   117         17
   118          2
   119         10
   120          1
   121          1
   125          1
   126          1
   127          7
   128         96
   129         40
   130          7
   131         40
   132          7
   133        102
   134         14
   135         11
   136          1
   137          1
   141         36
   142          4
   143          7
   144          1
   145          4
   147        639
   148         98
   149         84
   150         10
   151          4
   152          1
   154          1
   155          3
   156         17
   157         50
   158          7
   159         14
   160          2
   161          4
   162          1
   163          1
   169          1
   171          3
   172          1
   173          6
   174          3
   175          1
   176          1
   177          1
   183          1
   184          1
   185          3
   186          1
   187          8
   188          2
   189          2
   190          1
   191          2
   192          1
   193          1
   199          1
   201         11
   202          3
   203         12
   204          3
   205          4
   206          1
   207          5
   208          1
   209          1
   213          1
   214          1
   215         14
   216          4
   217          6
   218          1
   219          1
   221         20
   222          4
   223          3
   229          5
   230         15
   231          8
   232          2
   233          1
   241          2
   242          1
   243          1
   244          8
   245         18
   246          4
   247          2
   257         15
   258          3
   259          9
   260          2
   261          1
   272         30
   273          7
   274          3
   275          3
   276          1
   291         45
   292         13
   293          7
   294          1
   303         10
   304          3
   305          2
   317          1
   318         63
   319         33
   320         13
   321          4
   322          1
   331          1
   347        186
   348         55
   349         28
   350          5
   351          2
   362          9
   363          3
   364          1