##TITLE=Library Entry 58453
##JCAMP-DX=Revision 4.10 
##DATA TYPE=MASS SPECTRUM
##SAMPLE DESCRIPTION=M.G.HORNING,INST.FOR LIPID RES,BAYLOR COLL.OF MED,HOUST
ON,TEX
##NAMES=HP
##CAS NAME=Methyl 3-hydroxybutyrate, TMS derivative
##MOLFORM=C8H18O3Si
##CAS REGISTRY NO=55590-74-4
##MP= -300
##BP= -300
##MW= 190
##$RETENTION INDEX=0
##$CONDENSED SPECTRUM=NO
##NPOINTS= 47
##XYDATA=(XY..XY) 1 
    41         40
    42         20
    43         90
    44         35
    45        135
    46         10
    47         60
    51         10
    55         10
    57         30
    58         45
    59        145
    60         15
    61         45
    66         20
    69         20
    71         10
    72         30
    73        545
    74         50
    75        190
    76         15
    77         15
    85         20
    88         10
    89        999
    90         65
    91         45
   101         35
   103         20
   105         25
   115         35
   116         10
   117        250
   118         25
   119         10
   130         40
   131         50
   132         10
   133        390
   134         40
   135         15
   159         10
   175        485
   176         60
   177         20
   190         10