##TITLE=Library Entry 1789
##JCAMP-DX=Revision 4.10 
##DATA TYPE=MASS SPECTRUM
##SAMPLE DESCRIPTION=ASES Database, Dalian Institute, P.R. China
##NAMES=HP
##CAS NAME=7-Azanorbornene
##MOLFORM=C6H9N
##CAS REGISTRY NO=55590-24-4
##MP= -300
##BP= -300
##MW= 95
##$RETENTION INDEX=0
##$CONDENSED SPECTRUM=NO
##NPOINTS= 14
##XYDATA=(XY..XY) 1 
    38        100
    39        999
    40         59
    42        128
    52         50
    53         89
    65        180
    66        431
    67         40
    68        190
    69         59
    80        320
    81         79
    95         30