##TITLE=Library Entry 43991
##JCAMP-DX=Revision 4.10 
##DATA TYPE=MASS SPECTRUM
##SAMPLE DESCRIPTION=BAY 0204
##NAMES=HP
##CAS NAME=.beta.-D-Glucopyranosiduronic acid, 4-(acetylamino)phenyl 2,3,4-t
ris-O-(trimethylsilyl)-, methyl ester
##MOLFORM=C24H43NO8Si3
##CAS REGISTRY NO=55591-02-1
##MP= -300
##BP= -300
##MW= 557
##$RETENTION INDEX=0
##$CONDENSED SPECTRUM=NO
##NPOINTS= 358
##XYDATA=(XY..XY) 1 
    41         25
    42         15
    43        119
    44         35
    45         92
    46          8
    47         17
    48          4
    49          2
    50          8
    51         12
    52         17
    53         15
    54          6
    55         35
    56          6
    57         10
    58         12
    59         63
    60          8
    61         13
    62          2
    63          6
    64          6
    65         12
    66          6
    67         12
    68          6
    69         12
    70          6
    71         23
    72         15
    73        999
    74        100
    75        173
    76         13
    77         15
    78          8
    79         23
    80         13
    81         17
    82          6
    83         19
    84          6
    85         13
    86          2
    87          6
    88          2
    89         88
    90         10
    91         15
    92          8
    93         21
    94          6
    95         17
    96          4
    97          6
    98          4
    99         13
   100          4
   101         21
   102          4
   103         58
   104         10
   105         27
   106         12
   107         12
   108         48
   109         77
   110          8
   111         13
   112          2
   113         12
   114          4
   115         12
   116         21
   117         33
   118          8
   119         12
   120          8
   121          8
   122          6
   123         10
   124          2
   125          2
   126          2
   127         21
   128          6
   129         62
   130         12
   131         31
   132         10
   133         65
   134         17
   135         13
   136          4
   137          4
   138          2
   139          4
   140          2
   141         10
   142          6
   143         62
   144         12
   145         15
   146         12
   148         27
   149         27
   150         12
   151         52
   152         10
   153          4
   154          2
   155          8
   156          6
   157         21
   158          6
   159         85
   160         12
   161         19
   162          6
   163         13
   164          6
   165          6
   166         19
   167          6
   168          4
   169         52
   170         10
   171         35
   172          6
   173         13
   174          6
   175         15
   176          6
   177          6
   178          2
   179          6
   180          6
   181         37
   182         10
   183         13
   184          2
   185         23
   186          6
   187         23
   188         13
   189         19
   190          6
   191         17
   192          8
   193          6
   194          6
   195          4
   196          2
   197          6
   198          2
   199         19
   200          4
   201         10
   202          4
   203         10
   204         44
   205         15
   206          8
   207         12
   208         13
   209          6
   210          4
   211          4
   212          2
   213         15
   214          4
   215         25
   216          6
   217        165
   218         35
   219         17
   220          6
   221          8
   222         10
   223        219
   224         60
   225         17
   226          4
   227         21
   228          6
   229         10
   230          4
   231         13
   232         12
   233          8
   234          6
   235          4
   236          4
   237          4
   238          2
   239          2
   240          2
   241          4
   242          2
   243          6
   244          2
   245         15
   246          6
   247         13
   248          6
   249          2
   250          4
   251          2
   252         10
   253         10
   254          4
   255          8
   256          2
   257         37
   258         10
   259         19
   260          6
   261          8
   262          4
   263          4
   264          2
   265          6
   266          4
   267          2
   268          2
   269          2
   270          2
   271          2
   272          2
   273          6
   274          4
   275         63
   276         15
   277         13
   278          4
   279          2
   280          2
   281          4
   282          2
   283          2
   284          2
   285         12
   286          4
   287         12
   288          6
   289         10
   290         10
   291          6
   292          2
   293          2
   294          2
   295          2
   296          2
   297          2
   298          2
   299          2
   300          2
   301          6
   302          2
   303          4
   304          2
   305          4
   306          2
   307          2
   308          2
   313          2
   314          2
   315          2
   316          6
   317        384
   318        108
   319         54
   320         12
   321          4
   322          2
   323          2
   324          2
   325          2
   326          4
   327          2
   330          2
   331          4
   332          2
   333          2
   334          4
   335          2
   336          2
   337          2
   338          8
   339          2
   340          2
   341          2
   343          2
   345          2
   346          2
   347          8
   348         10
   349          4
   350          2
   351          2
   352          4
   353          2
   354          4
   355          2
   356          2
   359          2
   360          6
   361          4
   362          4
   363          2
   364          2
   365          2
   366          2
   367          2
   368          6
   369          6
   370          4
   371          2
   375          2
   377          2
   378          6
   379          2
   380          2
   388          2
   390          4
   391          2
   392          2
   393          2
   405          2
   406         88
   407         38
   408         17
   409          6
   410          2
   412          2
   420          2
   424          2
   428          2
   429          2
   434          2
   436          2
   437          2
   452          2
   453          2
   454          2
   458          4
   459          2
   460          2
   484          2
   498          2
   541          2
   542         21
   543         10
   544          4
   545          2
   557          2