##TITLE=Library Entry 58452
##JCAMP-DX=Revision 4.10 
##DATA TYPE=MASS SPECTRUM
##SAMPLE DESCRIPTION=NIST Mass Spectrometry Data Center
##NAMES=HP
##CAS NAME=Dimethyl malate, TMS derivative
##MOLFORM=C9H18O5Si
##CAS REGISTRY NO=55590-73-3
##MP= -300
##BP= -300
##MW= 234
##$RETENTION INDEX=1248
##$CONDENSED SPECTRUM=NO
##NPOINTS= 122
##XYDATA=(XY..XY) 1 
    14          2
    15         42
    16          1
    26          3
    27         17
    28         12
    29         29
    30          5
    31         18
    32          1
    33          2
    39          5
    40          1
    41          9
    42         27
    43        116
    44         47
    45        220
    46         16
    47         51
    48          2
    49          2
    50          2
    53         12
    54          6
    55         60
    56          6
    57         23
    58         47
    59        462
    60         37
    61         60
    62          3
    63          2
    64          5
    68          1
    69          7
    70          6
    71         61
    72         37
    73        940
    74         93
    75        253
    76         20
    77         14
    78          1
    80          3
    81          1
    82          1
    83          1
    85         30
    86          4
    87          8
    89        999
    90         86
    91         58
    92          3
    93          1
    94          8
    98          1
    99         11
   100          4
   101         95
   102         12
   103         16
   104          6
   105        149
   106         14
   107          7
   111          1
   113        410
   114         24
   115          8
   116         14
   117         61
   118          7
   119         15
   121        233
   122         21
   123         10
   127          2
   128          1
   129         13
   131        113
   132         15
   133        362
   134         38
   135         16
   136          1
   143         37
   144          5
   145         15
   146         11
   147         47
   149        173
   150         19
   151          7
   157          1
   159        233
   160         31
   161         54
   162          7
   163          2
   171          2
   173          2
   175        578
   176         76
   177         30
   178          2
   187         34
   188          5
   189          3
   191         85
   192         11
   193          4
   202          1
   203          1
   204          1
   219        249
   220         36
   221         14
   222          1