##TITLE=Library Entry 900
##JCAMP-DX=Revision 4.10 
##DATA TYPE=MASS SPECTRUM
##SAMPLE DESCRIPTION=Japan AIST/NIMC Database- Spectrum MS-NW-2679
##NAMES=HP
##CAS NAME=N-(N-Glycylglycyl)glycine
##MOLFORM=C6H11N3O4
##CAS REGISTRY NO=556-33-2
##MP= -300
##BP= -300
##MW= 189
##$RETENTION INDEX=0
##$CONDENSED SPECTRUM=NO
##NPOINTS= 105
##XYDATA=(XY..XY) 1 
    12          3
    13          3
    14         11
    15         13
    16         23
    17         38
    18        180
    19          1
    25          1
    26         13
    27         60
    28        245
    29        101
    30        999
    31         23
    32          3
    38          6
    39          8
    40         20
    41         36
    42        102
    43         82
    44         60
    45         13
    46          2
    51          4
    52          6
    53          9
    54         40
    55         33
    56         43
    57         12
    58         17
    59         26
    60          3
    65          1
    66          2
    67          5
    68         12
    69          9
    70          5
    71        147
    72         10
    73          2
    74          4
    75         11
    76          6
    77          2
    78          1
    80          3
    81          6
    82          6
    83          6
    84          4
    85         15
    86         23
    87         11
    88          4
    89          4
    93          2
    94          1
    95          2
    96         10
    97          6
    98         10
    99          5
   100          2
   101          1
   104          3
   105          1
   108          1
   109          9
   110         10
   111          5
   112          6
   113         11
   114        215
   115         20
   116          3
   117         45
   118          3
   119          2
   123          1
   124          5
   125         21
   126          4
   127          2
   128          1
   132          5
   133          4
   135          3
   136          1
   137          1
   138          2
   139          1
   141          1
   146          3
   149          1
   151          1
   153         28
   154          9
   156          2
   159          6
   160          1
   171          3