##TITLE=Library Entry 83987
##JCAMP-DX=Revision 4.10 
##DATA TYPE=MASS SPECTRUM
##SAMPLE DESCRIPTION=Japan AIST/NIMC Database- Spectrum MS-NW-1170
##NAMES=HP
##CAS NAME=2-Amino-3-(4-hydroxyphenyl)-propanoic acid
##MOLFORM=C9H11NO3
##CAS REGISTRY NO=556-03-6
##MP= -300
##BP= -300
##MW= 181
##$RETENTION INDEX=0
##$CONDENSED SPECTRUM=NO
##NPOINTS= 112
##XYDATA=(XY..XY) 1 
    14          5
    15          3
    16          4
    17          2
    18          3
    26          6
    27         28
    28         56
    29         14
    30         12
    31          3
    32          1
    36          1
    37          3
    38          8
    39         40
    40          6
    41         23
    42         14
    43         27
    44         49
    45          6
    46         11
    49          2
    50         16
    51         36
    52         22
    53         24
    54          8
    55         20
    56          7
    57         13
    58          4
    59          3
    60          5
    61          2
    62          7
    63         14
    64          5
    65         20
    66          5
    67         10
    68         18
    69         12
    70          7
    71          7
    73          6
    74         44
    75         11
    76          5
    77        100
    78         41
    79         28
    80          9
    81         10
    82          5
    83          9
    84          7
    85          5
    86          1
    87          2
    88          1
    89          9
    90          9
    91         56
    92          7
    93          5
    94          9
    95          6
    96          4
    97          7
    98          7
    99          2
   100          1
   101          2
   102          1
   103          2
   104          7
   105         11
   106         31
   107        999
   108        138
   109         12
   110          3
   111          4
   112          2
   113          2
   114          1
   115          3
   116          4
   117          6
   118          7
   119         12
   120         15
   121          4
   131          2
   132         11
   133         32
   134         16
   135         43
   136         37
   137          5
   138          2
   161          1
   162          1
   163          4
   164          3
   165          1
   179          7
   180          1
   181         33
   182          4