##TITLE=Library Entry 28138
##JCAMP-DX=Revision 4.10 
##DATA TYPE=MASS SPECTRUM
##SAMPLE DESCRIPTION=Japan AIST/NIMC Database- Spectrum MS-NW-6820
##NAMES=HP
##CAS NAME=1,4-Cyclohexanediol
##MOLFORM=C6H12O2
##CAS REGISTRY NO=556-48-9
##MP= -300
##BP= -300
##MW= 116
##$RETENTION INDEX=0
##$CONDENSED SPECTRUM=NO
##NPOINTS= 74
##XYDATA=(XY..XY) 1 
    14          4
    15         32
    16          1
    17          8
    18         31
    19         18
    25          1
    26         22
    27        148
    28         42
    29        138
    30         25
    31        226
    32          4
    33          1
    36          1
    37          6
    38         13
    39        157
    40         33
    41        353
    42        278
    43        271
    44        270
    45         64
    46          3
    47         79
    48          2
    49          3
    50         13
    51         19
    52          9
    53         47
    54        744
    55        297
    56         76
    57        376
    58        999
    59        283
    60         18
    61          2
    62          6
    63          4
    65         11
    66          4
    67         40
    68         22
    69        220
    70        188
    71         17
    72          4
    73          8
    74          2
    75          1
    77         32
    78         11
    79         88
    80        168
    81         34
    82          5
    83        191
    84         10
    85          2
    86          1
    87          3
    94          2
    95          2
    96          3
    97         81
    98        327
    99         22
   100          2
   115          3
   116          6