##TITLE=Library Entry 81177
##JCAMP-DX=Revision 4.10 
##DATA TYPE=MASS SPECTRUM
##SAMPLE DESCRIPTION=NIST Mass Spectrometry Data Center, 2009
##NAMES=HP
##CAS NAME=m-Xylene, 5-chloro-
##MOLFORM=C8H9Cl
##CAS REGISTRY NO=556-97-8
##MP= -300
##BP= -300
##MW= 140
##$RETENTION INDEX=1073
##$CONDENSED SPECTRUM=NO
##NPOINTS= 78
##XYDATA=(XY..XY) 1 
    15          3
    26          4
    27         22
    28          1
    29          1
    35          1
    36          1
    37          8
    38         20
    39         69
    40          6
    41          5
    43          2
    44          1
    47          1
    48          1
    49         10
    50         49
    51        148
    52         25
    53         20
    54          1
    55          1
    60          3
    61         16
    62         35
    63         80
    64         13
    65         23
    66          3
    68          3
    69         16
    70          8
    71          1
    72          2
    73         21
    74         24
    75         34
    76         16
    77        187
    78         52
    79         97
    80          7
    84          3
    85          7
    86         10
    87         12
    88          3
    89         45
    90          9
    91          4
    96          1
    97          5
    98          5
    99         18
   100          3
   101         16
   102         33
   103        151
   104         42
   105        999
   106         91
   107          4
   112          5
   113          2
   114          2
   115          1
   123          2
   125        160
   126         13
   127         51
   128          4
   139         75
   140        546
   141         71
   142        176
   143         16
   144          1