##TITLE=Library Entry 15309
##JCAMP-DX=Revision 4.10 
##DATA TYPE=MASS SPECTRUM
##SAMPLE DESCRIPTION=Exported from NIST MS Search
##NAMES=HP
##CAS NAME=Glycidol
##MOLFORM=C3H6O2
##CAS REGISTRY NO=556-52-5
##MP= -300
##BP= -300
##MW= 74
##$RETENTION INDEX=755
##$CONDENSED SPECTRUM=NO
##NPOINTS= 44
##XYDATA=(XY..XY) 1 
    12          7
    13         20
    14         79
    15        280
    16         24
    17        108
    18        436
    19         42
    20          1
    24          3
    25         14
    26         77
    27        215
    28        169
    29        424
    30         44
    31        587
    32         11
    33          2
    36          3
    37          8
    38         10
    39         19
    40          6
    41         21
    42         99
    43        893
    44        999
    45         93
    46          4
    47          3
    49          2
    51          1
    52          1
    53          4
    54          1
    55         33
    56         27
    57         17
    58          6
    59         10
    60          1
    73         10
    74          3