##TITLE=Library Entry 44560
##JCAMP-DX=Revision 4.10 
##DATA TYPE=MASS SPECTRUM
##SAMPLE DESCRIPTION=Japan AIST/NIMC Database- Spectrum MS-NW- 796
##NAMES=HP
##CAS NAME=Methyl isovalerate
##MOLFORM=C6H12O2
##CAS REGISTRY NO=556-24-1
##MP= -300
##BP= -300
##MW= 116
##$RETENTION INDEX=773
##$CONDENSED SPECTRUM=NO
##NPOINTS= 52
##XYDATA=(XY..XY) 1 
    14          2
    15         60
    18          3
    26          6
    27         76
    28         17
    29        116
    30          3
    31         20
    32          1
    33          3
    37          4
    38         10
    39        113
    40         17
    41        246
    42         47
    43        299
    44         18
    45          9
    50          4
    51          5
    52          1
    53          9
    54          2
    55         33
    56         46
    57        264
    58         11
    59        250
    60          9
    61          2
    68          1
    69         55
    70          3
    71          2
    72          1
    73         28
    74        999
    75         37
    76          4
    83          9
    84          4
    85        299
    86         16
    87          2
    88          2
   101        144
   102          8
   115          4
   116         14
   117          2