##TITLE=Library Entry 44296
##JCAMP-DX=Revision 4.10 
##DATA TYPE=MASS SPECTRUM
##SAMPLE DESCRIPTION=Chemical Concepts
##NAMES=HP
##CAS NAME=Cyclononasiloxane, octadecamethyl-
##MOLFORM=C18H54O9Si9
##CAS REGISTRY NO=556-71-8
##MP= -300
##BP= -300
##MW= 666
##$RETENTION INDEX=1893
##$CONDENSED SPECTRUM=NO
##NPOINTS= 186
##XYDATA=(XY..XY) 1 
    26          0
    27          1
    28         45
    29         11
    33          0
    39          1
    40          3
    41          3
    42          4
    44          3
    45         14
    47          1
    51          0
    55          2
    56          2
    57          3
    59         17
    60          0
    61          0
    66          0
    69          1
    70          0
    71         11
    72          0
    73        999
    74         95
    75         39
    76          1
    77          1
    78          0
    79          0
    81          1
    83          2
    85         10
    87         11
    89          0
    95          0
    96          4
    97          1
   103          6
   105          0
   109          0
   111          0
   117         28
   119          5
   129          3
   131         24
   132          9
   133         33
   134          3
   135          0
   145         25
   146          0
   147        560
   148         82
   149         44
   150          0
   161          0
   163          0
   177          0
   189          1
   191         27
   192          3
   193          9
   194          0
   205         36
   206          9
   207        177
   208         36
   209         26
   210          0
   211          0
   219          1
   221        495
   222        116
   223         60
   224          5
   225          0
   235          0
   249         10
   251         12
   252          0
   253          0
   263          0
   265         32
   266          7
   267         78
   268         22
   269          9
   270          0
   279         20
   280          6
   281        276
   282         75
   283         42
   284          7
   285          1
   295         97
   296         27
   297         20
   298          0
   311          2
   323          5
   325         70
   326         22
   327         37
   328         11
   329          8
   339         26
   340          9
   341        265
   342         95
   343         64
   344         12
   345          1
   353          0
   355        512
   356        183
   357        122
   358         30
   359          8
   369          0
   370          0
   383          4
   384          0
   385         12
   386          2
   387          3
   397          1
   398          0
   399         21
   400          6
   401        150
   402         56
   403         40
   404         11
   405          2
   413         25
   414         12
   415         39
   416         14
   417          8
   418          0
   429        961
   430        398
   431        345
   433         24
   434          7
   443          0
   445          9
   446          0
   447          0
   457          1
   458          0
   459         85
   460         33
   461         22
   462          8
   463          0
   473         10
   474          4
   475         91
   476         47
   477         34
   478          9
   479          0
   489         48
   490         23
   491         14
   492          2
   515          0
   531          1
   533          1
   547          4
   548          0
   563         19
   564          7
   565         10
   566          0
   635          0
   636          0
   651         34
   652         22
   653         19
   654          7
   655          3