##TITLE=Library Entry 83992
##JCAMP-DX=Revision 4.10 
##DATA TYPE=MASS SPECTRUM
##SAMPLE DESCRIPTION=RADIAN CORP
##NAMES=HP
##CAS NAME=d-Tyrosine
##MOLFORM=C9H11NO3
##CAS REGISTRY NO=556-02-5
##MP= -300
##BP= -300
##MW= 181
##$RETENTION INDEX=0
##$CONDENSED SPECTRUM=NO
##NPOINTS= 63
##XYDATA=(XY..XY) 1 
    18          1
    27          3
    29          4
    30          4
    38          2
    39         16
    40          2
    41          3
    42          7
    43          9
    44         28
    45          3
    46          6
    50          7
    51         20
    52         14
    53         19
    54          2
    55          8
    56          1
    57          7
    59          7
    62          2
    63          9
    64          2
    65         13
    66          4
    68         19
    74         42
    75         10
    76          2
    77         80
    78         22
    79         27
    80          7
    81          4
    89          6
    90          5
    91         43
    92          5
    93          2
    94          6
    95          2
   104          2
   105          6
   106         11
   107        999
   108        131
   109         11
   116          2
   117          3
   118          4
   119         10
   120          9
   123          1
   130          3
   133          2
   134          9
   135         21
   136         28
   137          2
   181         41
   182          3