##TITLE=Library Entry 41232
##JCAMP-DX=Revision 4.10 
##DATA TYPE=MASS SPECTRUM
##SAMPLE DESCRIPTION=Japan AIST/NIMC Database- Spectrum MS-IW-3839
##NAMES=HP
##CAS NAME=Methane, isothiocyanato-
##MOLFORM=C2H3NS
##CAS REGISTRY NO=556-61-6
##MP= -300
##BP= -300
##MW= 73
##$RETENTION INDEX=733
##$CONDENSED SPECTRUM=NO
##NPOINTS= 33
##XYDATA=(XY..XY) 1 
    12          1
    13          1
    14          2
    15         15
    26          2
    27          8
    28         32
    29          5
    32         28
    33          3
    34          2
    35         40
    36          5
    38         15
    39         14
    40         22
    41          9
    44         92
    45        177
    46         41
    47         13
    48          2
    57          1
    58         35
    59          8
    60          2
    70         85
    71         48
    72        514
    73        999
    74         56
    75         47
    76          3