##TITLE=Library Entry 29189
##JCAMP-DX=Revision 4.10 
##DATA TYPE=MASS SPECTRUM
##SAMPLE DESCRIPTION=Finnigan MAT: Toxicological Library (LIBR-TX)
##NAMES=HP
##CAS NAME=Iprindole
##MOLFORM=C19H28N2
##CAS REGISTRY NO=5560-72-5
##MP= -300
##BP= -300
##MW= 284
##$RETENTION INDEX=2335
##$CONDENSED SPECTRUM=NO
##NPOINTS= 43
##XYDATA=(XY..XY) 1 
    41         40
    42         47
    44         38
    58        999
    59         37
    69         21
    70         28
    71         20
    72         30
    84         30
    85         52
    86         52
   107         41
   115         30
   117         19
   128         20
   129         20
   130         41
   131         19
   142         40
   143         40
   144         90
   145        128
   156         49
   157         77
   159         82
   168         39
   170        366
   171         88
   172         39
   182         29
   184         78
   185         78
   196         20
   198         68
   199         20
   212        108
   213        310
   214         50
   226         19
   238         20
   284        352
   286         20