##TITLE=Library Entry 39655
##JCAMP-DX=Revision 4.10 
##DATA TYPE=MASS SPECTRUM
##SAMPLE DESCRIPTION=ORMSBG,9(11)1124(1974); GAY
##NAMES=HP
##CAS NAME=Propanenitrile, 3-(ethylmethylamino)-
##MOLFORM=C6H12N2
##CAS REGISTRY NO=55619-09-5
##MP= -300
##BP= -300
##MW= 112
##$RETENTION INDEX=0
##$CONDENSED SPECTRUM=NO
##NPOINTS= 42
##XYDATA=(XY..XY) 1 
    15        148
    18         65
    26         90
    27        282
    28        354
    29        270
    30        133
    39         35
    40         78
    41        151
    42        998
    43        235
    44        682
    45         58
    51         33
    52         86
    53         52
    54        745
    55         63
    56        229
    57        312
    58         75
    59         15
    66         10
    67         25
    68        120
    69         13
    70        107
    71         95
    72        999
    73        150
    81         36
    82         15
    83         82
    84         17
    95         25
    96         13
    97        535
    98         40
   111         75
   112        224
   113         18