##TITLE=Library Entry 13706
##JCAMP-DX=Revision 4.10 
##DATA TYPE=MASS SPECTRUM
##SAMPLE DESCRIPTION=Div. of Experiment Therapeutics WRAIR, WRAMC, Washingto
n DC 20307
##NAMES=HP
##CAS NAME=4-[4-Chlorophenyl]-5-phenyl-2-pentanone
##MOLFORM=C17H17ClO
##CAS REGISTRY NO=55614-49-8
##MP= -300
##BP= -300
##MW= 272
##$RETENTION INDEX=0
##$CONDENSED SPECTRUM=NO
##NPOINTS= 119
##XYDATA=(XY..XY) 1 
    41          8
    43        999
    44         11
    45          3
    47          1
    48          0
    49          9
    50          6
    51         23
    52          4
    53          2
    55          1
    57          1
    58          2
    60          0
    61          0
    62          2
    63         12
    64          2
    65         23
    66          1
    68          0
    69          1
    70          0
    71          1
    73          1
    74          1
    75          6
    76          6
    77         19
    78          4
    79          0
    81          0
    82          1
    83          0
    84          4
    85          0
    86          4
    87          1
    88          3
    89         18
    90          4
    91         73
    92          6
    93          0
    94          0
    95          0
    97          1
    98          0
    99          2
   100          0
   101          7
   102          8
   103         17
   104          2
   105          0
   106          0
   107          0
   111          1
   112          1
   113          1
   114          1
   115         10
   116          3
   117          1
   123          0
   124          0
   125          7
   126          1
   127          2
   128          1
   129          0
   131          3
   136          1
   137          3
   138         19
   139          5
   140          8
   141          1
   145          1
   146          0
   149          1
   150          1
   151          2
   152          3
   153          1
   163          0
   164          0
   165          5
   166          0
   167          1
   176          3
   177          3
   178         19
   179         23
   180          5
   181         10
   182          0
   183          3
   184          0
   189          1
   190          0
   191          0
   192          0
   193          0
   199          0
   212          2
   213          2
   214        249
   215         39
   216         71
   217          7
   218          0
   255          0
   257          0
   272          0
   273          1
   274          0
   275          0