##TITLE=Library Entry 20102
##JCAMP-DX=Revision 4.10 
##DATA TYPE=MASS SPECTRUM
##SAMPLE DESCRIPTION=NIST Mass Spectrometry Data Center
##NAMES=HP
##CAS NAME=cis-11-Eicosenoic acid
##MOLFORM=C20H38O2
##CAS REGISTRY NO=5561-99-9
##MP= -300
##BP= -300
##MW= 310
##$RETENTION INDEX=2360
##$CONDENSED SPECTRUM=NO
##NPOINTS= 237
##XYDATA=(XY..XY) 1 
    15          1
    26          2
    27         56
    28         14
    29        137
    30          4
    31          5
    36          1
    38          1
    39         82
    40         19
    41        577
    42        104
    43        439
    44         16
    45         60
    46          2
    47          1
    50          1
    51          5
    52          5
    53         73
    54        216
    55        999
    56        279
    57        322
    58         19
    59         32
    60        138
    61         12
    62          2
    63          1
    65         25
    66         19
    67        297
    68        164
    69        598
    70        234
    71        131
    72          8
    73        115
    74         12
    75          4
    76          1
    77         25
    78          9
    79         81
    80         39
    81        222
    82        191
    83        510
    84        256
    85         89
    86          9
    87         41
    88          4
    89          1
    91         29
    93         39
    94         38
    95        173
    96        228
    97        463
    98        218
    99         45
   100         33
   101         54
   102          8
   103          2
   104          2
   105         15
   106          6
   107         31
   108         27
   109         98
   110        133
   111        220
   112         84
   113         34
   114         65
   115         35
   116         11
   117          5
   118          2
   119         26
   120         10
   121         34
   122         19
   123         87
   124         79
   125        103
   126         46
   127         54
   128         26
   129         35
   130          6
   131          4
   132          2
   133         25
   134         21
   135         30
   136         14
   137         56
   138         56
   139         50
   140         24
   141         13
   142          5
   143         11
   144          3
   145          2
   146          1
   147         19
   148         19
   149         20
   150         12
   151         42
   152         38
   153         29
   154         15
   155          9
   156          3
   157          6
   158          2
   159          2
   160          1
   161         14
   162          7
   163         11
   164          7
   165         29
   166         20
   167         15
   168          8
   169          7
   170          2
   171          5
   172          3
   173          1
   174          1
   175         11
   176          4
   177          6
   178          4
   179         21
   180         16
   181         11
   182          7
   183          3
   184          1
   185          6
   186          2
   187          1
   189          6
   190          2
   191          4
   192          4
   193         15
   194         16
   195          8
   196          4
   197          5
   198          2
   199          2
   200          2
   201          1
   203          4
   204          1
   205          2
   206          2
   207         14
   208         23
   209          8
   210          3
   211          4
   212          1
   213          2
   214          3
   215          1
   217          2
   218          1
   219          1
   220          3
   221         16
   222         14
   223          4
   224          2
   225          2
   226          1
   227          3
   228          2
   229          1
   231          1
   232          1
   233          1
   234          1
   235         17
   236         11
   237          4
   238          1
   239          1
   240          1
   241          2
   242          1
   245          1
   246          1
   247          1
   248         16
   249         20
   250         22
   251          5
   252          1
   253          1
   255          1
   263         14
   264         14
   265          3
   266          1
   267          2
   268          1
   269          1
   274          6
   275          2
   276          1
   277          2
   278          2
   279          1
   280          1
   281          1
   282          2
   284          1
   292         96
   293         25
   294          4
   308          1
   310         13
   311          3