##TITLE=Library Entry 42695
##JCAMP-DX=Revision 4.10 
##DATA TYPE=MASS SPECTRUM
##SAMPLE DESCRIPTION=M.G.HORNING,INST.FOR LIPID RES,BAYLOR COL.OF MED.,HOUST
ON,TEX
##NAMES=HP
##CAS NAME=Propanoic acid, 3-[[bis[(trimethylsilyl)oxy]phosphinyl]oxy]-2-[(t
rimethylsilyl)oxy]-, trimethylsilyl ester, (S)-
##MOLFORM=C15H39O7PSi4
##CAS REGISTRY NO=55622-45-2
##MP= -300
##BP= -300
##MW= 474
##$RETENTION INDEX=0
##$CONDENSED SPECTRUM=NO
##NPOINTS= 100
##XYDATA=(XY..XY) 1 
    41         13
    43         40
    44         33
    45        133
    46         10
    47         16
    55         35
    57          8
    58         11
    59         90
    60          8
    61         16
    71          6
    72         40
    73        999
    74         96
    75        146
    76         10
    77         11
    85          8
    87          6
    89          8
    93         15
    99          6
   101        163
   102         16
   103         15
   115         11
   116         70
   117         25
   119         11
   121          6
   129         13
   131         26
   132          6
   133        123
   134         18
   135         31
   137          8
   143         46
   144          6
   145          6
   147        332
   148         56
   149         36
   151          6
   181          8
   189         13
   191         15
   193         21
   195         20
   197         10
   205          6
   207         53
   208         10
   209         10
   211        170
   212         25
   213         16
   217        113
   218         20
   219         13
   225         31
   226          8
   227        283
   228         46
   229         23
   231          6
   233          6
   243         11
   253          8
   269          8
   283         11
   284          6
   285         31
   286          8
   299        266
   300         70
   301         43
   302          8
   313          8
   314         10
   315        150
   316         43
   317         25
   328          8
   341         18
   357        233
   358         66
   359         36
   360          6
   369          8
   387        113
   388         36
   389         26
   390          6
   431         13
   459         86
   460         30
   461         16