##TITLE=Library Entry 41541
##JCAMP-DX=Revision 4.10 
##DATA TYPE=MASS SPECTRUM
##SAMPLE DESCRIPTION=W.T.RAINEY OAK RIDGE NATIONAL LABORATORY,OAK RIDGE,TN.U
SA
##NAMES=HP
##CAS NAME=6H-Purin-6-one, 1,7-dihydro-1,7-bis(trimethylsilyl)-
##MOLFORM=C11H20N4OSi2
##CAS REGISTRY NO=55622-58-7
##MP= -300
##BP= -300
##MW= 280
##$RETENTION INDEX=0
##$CONDENSED SPECTRUM=NO
##NPOINTS= 21
##XYDATA=(XY..XY) 1 
    73        999
    75        941
    77        217
    79        246
   147        164
   148         26
   149         17
   158        176
   159         29
   160          8
   206         64
   207         46
   217         23
   218         35
   241         38
   265        682
   266        146
   267         61
   280        341
   281         85
   282         35