##TITLE=Library Entry 42107
##JCAMP-DX=Revision 4.10 
##DATA TYPE=MASS SPECTRUM
##SAMPLE DESCRIPTION=D.HENNEBERG, MAX-PLANCK INSTITUTE, MULHEIM, WEST GERMAN
Y
##NAMES=HP
##CAS NAME=Ethanone, 1-cyclohexyl-2-(trimethylsilyl)-
##MOLFORM=C11H22OSi
##CAS REGISTRY NO=55629-29-3
##MP= -300
##BP= -300
##MW= 198
##$RETENTION INDEX=0
##$CONDENSED SPECTRUM=NO
##NPOINTS= 157
##XYDATA=(XY..XY) 1 
    26          8
    27         35
    28          9
    29         33
    30          1
    31         10
    32          0
    33          0
    37          0
    38          0
    39         33
    40          5
    41         97
    42          7
    43         57
    44         34
    45        100
    46          6
    47         28
    48          1
    49          1
    50          2
    51          5
    52          3
    53         19
    54         12
    55         71
    56          4
    57         11
    58          9
    59         43
    60          6
    61         26
    62          2
    63          2
    64          0
    65          6
    66          3
    67         25
    68          3
    69          4
    70          6
    71          7
    72         34
    73        999
    74         86
    75        351
    76         25
    77         22
    78          3
    79         21
    80          4
    81          5
    82          2
    83         24
    84          2
    85         10
    86          1
    87          2
    88          0
    89          2
    90          0
    91         11
    92          1
    93         12
    94          1
    95          1
    96          0
    97          2
    98          1
    99         27
   100          2
   101         11
   102          1
   103          3
   104          0
   105          2
   106          0
   107          7
   108          4
   109          3
   110          0
   111          3
   112          0
   113          2
   114         19
   115        842
   116         91
   117         35
   118          2
   119          0
   120          0
   121          0
   122          0
   123          0
   125          4
   126          1
   127          5
   128          1
   129          3
   130         14
   131          3
   132          0
   133          0
   135          2
   136          0
   137          0
   138          0
   139          2
   140          0
   141          4
   142          0
   143         82
   144         11
   145          4
   147          2
   148          0
   149          0
   151          0
   152          0
   153          2
   154          0
   155          5
   156          6
   157          7
   158          1
   159          0
   163          0
   165          1
   166          0
   167          1
   168          0
   169          8
   170          2
   171          0
   174          0
   175          0
   177          3
   178          0
   179          0
   180          0
   181          0
   182          0
   183         72
   184         10
   185          3
   186          0
   190          0
   191          2
   192          1
   193          0
   194          0
   196          0
   197          1
   198         62
   199         11
   200          3