##TITLE=Library Entry 60881
##JCAMP-DX=Revision 4.10 
##DATA TYPE=MASS SPECTRUM
##SAMPLE DESCRIPTION=J.VOTH UNIV. OF CALIFORNIA, DAVIS, CALIFORNIA, 95616, U
SA
##NAMES=HP
##CAS NAME=3,5-Dodecadiyne, 2-methyl-
##MOLFORM=C13H20
##CAS REGISTRY NO=55638-52-3
##MP= -300
##BP= -300
##MW= 176
##$RETENTION INDEX=0
##$CONDENSED SPECTRUM=NO
##NPOINTS= 116
##XYDATA=(XY..XY) 1 
    12          1
    13          2
    14         11
    15         90
    16          3
    17          2
    18          8
    25          1
    26         31
    27        544
    28         66
    29        451
    30         10
    37          9
    38         26
    39        376
    40         44
    41        632
    42         46
    43        284
    44         10
    49          2
    50        104
    51        298
    52         77
    53        194
    54         35
    55        320
    56         28
    57         13
    58          2
    61         24
    62         99
    63        319
    64        108
    65        282
    66         66
    67        278
    68         31
    69        105
    70          8
    71          5
    73          7
    74         69
    75        104
    76         56
    77        496
    78        185
    79        367
    80         76
    81         92
    82         23
    83          7
    84          3
    85          9
    86         29
    87         48
    88         23
    89        123
    90         81
    91        999
    92        142
    93        257
    94         35
    95        112
    96         28
    97          5
    98         13
    99          7
   100          2
   101         13
   102         35
   103        168
   104        108
   105        875
   106        347
   107         98
   108         35
   109          8
   110          2
   111          2
   113          4
   114          5
   115         89
   116         43
   117        125
   118         44
   119        403
   120         79
   121         21
   122          3
   123          3
   127          7
   128         17
   129         17
   130         10
   131         53
   132         27
   133        231
   134         40
   135          9
   141          2
   143          2
   144          3
   145         20
   146         10
   147        253
   148         49
   149          5
   159          4
   160          3
   161        125
   162         16
   175          2
   176         25
   177          3