##TITLE=Library Entry 768
##JCAMP-DX=Revision 4.10 
##DATA TYPE=MASS SPECTRUM
##SAMPLE DESCRIPTION=J.VOTH UNIV. OF CALIFORNIA, DAVIS, CALIFORNIA, 95616, U
SA
##NAMES=HP
##CAS NAME=1,2-Cyclopropanedicarboxylic acid, 3-methylene-, diethyl ester
##MOLFORM=C10H14O4
##CAS REGISTRY NO=55638-55-6
##MP= -300
##BP= -300
##MW= 198
##$RETENTION INDEX=0
##$CONDENSED SPECTRUM=NO
##NPOINTS= 124
##XYDATA=(XY..XY) 1 
    12          2
    13          7
    14         33
    15        124
    16          5
    17          2
    18          9
    19          6
    24          0
    25          4
    26        105
    27        485
    28         81
    29        999
    30         31
    31         27
    32          0
    36          0
    37          7
    38         17
    39        108
    40         21
    41        197
    42         66
    43        211
    44         10
    45         60
    46          2
    47          2
    49          5
    50        164
    51        334
    52        390
    53        145
    54         30
    55         82
    56         17
    57         23
    58          5
    59          5
    60          4
    61          3
    62          1
    63          2
    64          0
    65          3
    66          9
    67         41
    68        106
    69        163
    70         22
    71         29
    72          3
    73        129
    74         22
    75          7
    76          1
    77          5
    78          2
    79         88
    80         33
    81         25
    82         13
    83         20
    84          6
    85         16
    86          6
    87         19
    88         12
    89          2
    93          2
    94          2
    95         15
    96        215
    97        514
    98        172
    99        102
   100         10
   101         30
   102         20
   103          3
   107          4
   108          8
   109          4
   110          1
   111         11
   112          3
   113         20
   114        107
   115         42
   116          7
   117          1
   122          2
   123         29
   124         42
   125        239
   126         66
   127         22
   128          2
   129         21
   130          1
   139          5
   140          3
   141          2
   142        520
   143         74
   144         11
   145          1
   152          4
   153        178
   154         36
   155         14
   156          1
   166          0
   167          0
   168          3
   169          4
   170        141
   171         13
   172          1
   194          0
   198          2
   199          0
   200          0