##TITLE=Library Entry 11065
##JCAMP-DX=Revision 4.10 
##DATA TYPE=MASS SPECTRUM
##SAMPLE DESCRIPTION=Exported from NIST MS Search
##NAMES=HP
##CAS NAME=5-Octen-2-one, 6-methyl-8-(2,6,6-trimethyl-1-cyclohexen-1-yl)-
##MOLFORM=C18H30O
##CAS REGISTRY NO=55638-41-0
##MP= -300
##BP= -300
##MW= 262
##$RETENTION INDEX=0
##$CONDENSED SPECTRUM=NO
##NPOINTS= 85
##XYDATA=(XY..XY) 1 
    41        575
    42         48
    43        999
    44        164
    45         80
    53        144
    55        392
    56         48
    57         52
    61         40
    65         40
    67        240
    68        120
    69        424
    70         20
    71        232
    77        132
    79        168
    80        100
    81        595
    82        208
    83        160
    84         44
    91        192
    92         48
    93        284
    94        100
    95        639
    96        112
    97         84
    98         40
   105        172
   106         44
   107        320
   108        124
   109        819
   110        108
   111         96
   119        144
   120         48
   121        352
   122        164
   123        503
   124        216
   125        168
   126         32
   133        112
   134         44
   135        164
   136        252
   137        280
   138        140
   139         68
   146         80
   147         48
   148        128
   149         92
   158         84
   160         76
   161         28
   162         68
   163         36
   164         40
   173         48
   175         52
   176         40
   177        320
   178         72
   179         32
   189        128
   190         40
   191        340
   192        140
   193         32
   204         96
   205         44
   219         28
   229        256
   230         40
   245         36
   246         32
   247        200
   248         44
   262        484
   263        120