##TITLE=Library Entry 67966
##JCAMP-DX=Revision 4.10 
##DATA TYPE=MASS SPECTRUM
##SAMPLE DESCRIPTION=J.VOTH UNIV. OF CALIFORNIA, DAVIS, CALIFORNIA, 95616, U
SA
##NAMES=HP
##CAS NAME=3,5-Dodecadiene, 2-methyl-
##MOLFORM=C13H24
##CAS REGISTRY NO=55638-51-2
##MP= -300
##BP= -300
##MW= 180
##$RETENTION INDEX=0
##$CONDENSED SPECTRUM=NO
##NPOINTS= 83
##XYDATA=(XY..XY) 1 
    14          3
    15         67
    16          2
    26         24
    27        537
    28         72
    29        520
    30         11
    37          5
    38         16
    39        367
    40         58
    41        826
    42         60
    43        462
    44         16
    50         40
    51        118
    52         66
    53        273
    54        233
    55        564
    56         74
    57         58
    58          3
    61          2
    63         39
    64         12
    65        126
    66         81
    67        875
    68        208
    69        343
    70         34
    71         10
    74          4
    75          9
    76          5
    77        164
    78         45
    79        211
    80         50
    81        669
    82        725
    83        101
    84          7
    85          2
    89          5
    90          3
    91        127
    92         22
    93        116
    94         64
    95        999
    96        478
    97         44
    98          2
   103          5
   105         15
   106          3
   107         33
   108         14
   109        418
   110        103
   111         18
   112          2
   115          2
   121          4
   122          3
   123         47
   124         82
   125          8
   126          1
   136          2
   137         43
   138          6
   151          6
   152          2
   165        338
   166          6
   180        317
   181         45
   182          3