##TITLE=Library Entry 31777
##JCAMP-DX=Revision 4.10 
##DATA TYPE=MASS SPECTRUM
##SAMPLE DESCRIPTION=Div. of Experiment Therapeutics WRAIR, WRAMC, Washingto
n DC 20307
##NAMES=HP
##CAS NAME=Valine, 3-[sulfothio]-
##MOLFORM=C5H11NO5S2
##CAS REGISTRY NO=55631-63-5
##MP= -300
##BP= -300
##MW= 229
##$RETENTION INDEX=0
##$CONDENSED SPECTRUM=NO
##NPOINTS= 71
##XYDATA=(XY..XY) 1 
    41        439
    42        163
    43        424
    44        239
    45        323
    46         41
    47         77
    48        447
    50         52
    51         30
    52         14
    53        101
    54        118
    55        191
    56        319
    57        158
    58         57
    59        194
    60        103
    61         14
    64        999
    65         15
    66        101
    67         32
    68        127
    69        157
    70        409
    71        298
    72        104
    73         66
    74        156
    75        635
    76         32
    77         31
    82        136
    83         57
    84         42
    85         32
    86         34
    87        112
    88         57
    96        136
    97         28
    98         83
    99        100
   100        117
   103         56
   104         48
   107         32
   108         29
   110         71
   112         14
   114        146
   115         45
   124         41
   125         75
   126         29
   127         42
   128        116
   135         68
   142         52
   151         28
   157         15
   160        325
   161         13
   162         41
   192         64
   194        118
   195         15
   212         39
   213         17