##TITLE=Library Entry 72412
##JCAMP-DX=Revision 4.10 
##DATA TYPE=MASS SPECTRUM
##SAMPLE DESCRIPTION=R. TSCHESCHE ORG. CHEM. INSTITUT, UNIVERSITY, BONN, W G
ERMANY
##NAMES=HP
##CAS NAME=Pregnan-3-one, 12-(acetyloxy)-20-(benzoyloxy)-14,17-dihydroxy-, c
yclic 3-(1,2-ethanediyl acetal)
##MOLFORM=C32H44O8
##CAS REGISTRY NO=55637-45-1
##MP= -300
##BP= -300
##MW= 556
##$RETENTION INDEX=0
##$CONDENSED SPECTRUM=NO
##NPOINTS= 174
##XYDATA=(XY..XY) 1 
    40         15
    41        125
    42         30
    43        340
    44         40
    45         45
    50         40
    51         70
    52         15
    53         30
    54         15
    55        200
    56         45
    57        145
    58         15
    59         25
    60         30
    67         85
    68         30
    69        130
    70         40
    71         90
    73         55
    77        250
    78         40
    79         70
    80         25
    81        130
    82         45
    83         90
    84         90
    85         75
    86        115
    87         85
    91         60
    92         25
    93         75
    94         40
    95        125
    96         45
    97         85
    98         30
    99        999
   100        110
   101         40
   105        845
   106         90
   107         90
   108         40
   109         90
   110         45
   111         70
   112         90
   113         55
   115         30
   117         25
   118         25
   119         60
   120         30
   121         75
   122        280
   123        115
   124         45
   125        230
   126         45
   127         30
   129         40
   131         45
   132         25
   133         55
   134         30
   135         55
   136         40
   137         45
   138         30
   139         30
   141         45
   143         30
   144         25
   145         55
   146         25
   147         45
   148         45
   150         30
   151         25
   153         30
   154         25
   155         60
   156         25
   157         40
   158         15
   159         45
   160         25
   161         40
   162         25
   163         40
   165         25
   166         30
   167         45
   168         25
   169         40
   170         55
   171         55
   172         30
   173         40
   175         40
   177         40
   182         30
   184         30
   185         30
   187         30
   189         25
   193         30
   206         60
   207         40
   209         25
   211         25
   224         40
   230         30
   242         25
   247         30
   256         25
   257         25
   260         25
   261         30
   263         30
   271         25
   272         25
   273         75
   274         25
   279         25
   284         60
   285         45
   286        250
   287         60
   288         70
   291        270
   292         45
   294         30
   304        145
   305         45
   312         25
   313         30
   323         30
   328         55
   329         70
   330         45
   338        185
   341         45
   346         45
   351        145
   352         40
   356        240
   357         75
   358         25
   373         30
   374         85
   375         25
   389         15
   398         85
   399         25
   416         85
   417         30
   434         55
   460         25
   478        490
   479        170
   480         40
   496         40
   512         15
   520         25
   538         55
   539         25
   556         15