##TITLE=Library Entry 63865
##JCAMP-DX=Revision 4.10 
##DATA TYPE=MASS SPECTRUM
##SAMPLE DESCRIPTION=L. Cohen, LC, NIDDK, NIH, Bethesda, MD 20892
##NAMES=HP
##CAS NAME=Phenylserine, 3,4-dibenzyloxy-
##MOLFORM=C23H23NO5
##CAS REGISTRY NO=55637-52-0
##MP= -300
##BP= -300
##MW= 393
##$RETENTION INDEX=0
##$CONDENSED SPECTRUM=NO
##NPOINTS= 92
##XYDATA=(XY..XY) 1 
    41          8
    42          2
    43          6
    44         23
    45         28
    46         25
    50          4
    51         16
    52          7
    53          2
    55          4
    57          3
    60          1
    62          2
    63         13
    64          5
    65         78
    66          4
    69          1
    75          6
    77          6
    78          2
    79         13
    80          7
    81          1
    89         24
    90         13
    91        999
    92         74
    93          3
   105          5
   107          3
   108          6
   115          4
   119          2
   121          1
   127          1
   128          2
   129          1
   136          1
   138          2
   139          4
   141          5
   143          1
   149          8
   150          2
   151          1
   152          4
   153          6
   154          1
   165          3
   166          3
   167          5
   168          2
   169          1
   171          2
   178          2
   179          3
   180          7
   181        149
   182         23
   183          2
   184          1
   185          1
   196          1
   197          2
   198          5
   199          3
   209          2
   210          1
   212          4
   225         22
   226         15
   227        470
   228         70
   229         14
   230          1
   240          7
   241          2
   242          1
   290          2
   317          2
   318        274
   319        110
   320         21
   321          3
   330          1
   331         23
   332          7
   333          2
   349          3
   350          1