##TITLE=Library Entry 98557
##JCAMP-DX=Revision 4.10 
##DATA TYPE=MASS SPECTRUM
##SAMPLE DESCRIPTION=Exported from NIST MS Search
##NAMES=HP
##CAS NAME=D-Streptamine, 4-O-[3-(acetylamino)-6-(aminomethyl)-3,4-dihydro-2
H-pyran-2-yl]-2-deoxy-6-O-[3-deoxy-4-C-methyl-3-(methylamino)-.beta.-L-arabi
nopyranosyl]-, (2S-cis)-
##MOLFORM=C21H39N5O8
##CAS REGISTRY NO=55649-82-6
##MP= -300
##BP= -300
##MW= 489
##$RETENTION INDEX=0
##$CONDENSED SPECTRUM=NO
##NPOINTS= 178
##XYDATA=(XY..XY) 1 
    80        336
    81        213
    82        384
    83        244
    84        526
    85        231
    86        631
    87        223
    88        144
    89         36
    90         39
    91        131
    92        147
    93        128
    94        200
    95        178
    96        126
    97        128
    98        223
    99        113
   100        594
   101        171
   102        252
   103         47
   104         73
   105         68
   106        105
   107         68
   108        150
   109        384
   110        597
   111        168
   112        723
   113        152
   114        171
   115         60
   116         39
   117         50
   118        999
   119        121
   120         63
   121         63
   122         76
   123         94
   124        115
   125        136
   126        176
   127        189
   128        150
   129         94
   130        257
   131         65
   132         31
   133         57
   134         57
   135         55
   136         39
   137         47
   138         44
   139         73
   140         73
   141         73
   142        268
   143         68
   144         97
   145        799
   146        194
   147         44
   148         36
   149         73
   150        131
   151        226
   152        197
   153         68
   154         78
   155         92
   156         39
   157         65
   158         65
   159         52
   160        618
   161         92
   162        126
   163        305
   164         60
   165         36
   166         60
   167         60
   168         78
   169        402
   170         71
   171         57
   172         39
   173        165
   174         50
   175         26
   176         39
   177         18
   178         84
   179         28
   180         21
   181         31
   182         15
   183         26
   184         26
   185         23
   186         31
   187        131
   188         34
   189         34
   190         18
   191        447
   192         65
   193         31
   194         18
   195         31
   196         21
   197         28
   198         28
   199         18
   200          7
   201         50
   202         31
   203         23
   204         63
   205         68
   215         31
   219         15
   220         13
   228         15
   232          7
   239          7
   245         68
   246        105
   247         13
   253         21
   258         21
   264          9
   266          9
   270         10
   274         11
   275          9
   278         12
   280         13
   281          9
   282         17
   286          9
   287          9
   289         14
   296         12
   298         17
   300         10
   304         21
   305          5
   306          4
   313         20
   314          9
   315          4
   316          4
   322         27
   323          5
   324          5
   330         15
   331          9
   332         33
   333          6
   334          6
   340          7
   341          8
   350         17
   351          3
   355          3
   359         13
   372          7
   404         13
   472         12
   489          4
   490          1