##TITLE=Library Entry 20093
##JCAMP-DX=Revision 4.10 
##DATA TYPE=MASS SPECTRUM
##SAMPLE DESCRIPTION=R.L.FOLTZ BATTELLE MEMORIAL INST., COLUMBUS LAB., OHIO,
 USA
##NAMES=HP
##CAS NAME=Oxacyclododecane-2,8-dione, 9,12-dimethyl-
##MOLFORM=C13H22O3
##CAS REGISTRY NO=55649-87-1
##MP= -300
##BP= -300
##MW= 226
##$RETENTION INDEX=0
##$CONDENSED SPECTRUM=NO
##NPOINTS= 88
##XYDATA=(XY..XY) 1 
    26         11
    27        176
    28         81
    29        206
    31         10
    34          3
    38          2
    39        112
    40         32
    41        514
    42        379
    43        393
    45         53
    48         26
    49         18
    51          4
    53         43
    54         38
    55        999
    56        295
    57        114
    58          9
    59         16
    60         30
    67         43
    68        102
    69        537
    70        140
    71         52
    72         35
    73        104
    77          6
    79         20
    80         27
    81         67
    82         43
    83        328
    84        176
    85         48
    86         14
    87          3
    93         19
    95         35
    96         31
    97        254
    98        150
    99         43
   107         35
   108         17
   109         23
   110          4
   111        151
   112         15
   113         10
   114        105
   115         24
   121         12
   124         37
   125        222
   126        393
   127         44
   128          5
   129        302
   130         17
   137          4
   139         24
   140          3
   141          2
   143        349
   144         23
   147          9
   148          3
   149         13
   153          7
   154         47
   155         12
   163         14
   165          5
   167          7
   172         17
   185          3
   193          6
   208         22
   209         35
   211          8
   226        151
   227         80
   228          4