##TITLE=Library Entry 82713
##JCAMP-DX=Revision 4.10 
##DATA TYPE=MASS SPECTRUM
##SAMPLE DESCRIPTION=Asinex Ltd, Moscow, Russia
##NAMES=HP
##CAS NAME=Acetic acid, 2-(2,2-dicyanoethenylamino)-, ethyl ester
##MOLFORM=C8H9N3O2
##CAS REGISTRY NO=55647-79-5
##MP= -300
##BP= -300
##MW= 179
##$RETENTION INDEX=0
##$CONDENSED SPECTRUM=NO
##NPOINTS= 102
##XYDATA=(XY..XY) 1 
    33          2
    34          4
    36          2
    37          2
    38         11
    40        116
    41         51
    42         43
    43         37
    44         18
    45         16
    46          1
    47          0
    48          3
    51         41
    52        115
    53         23
    54          5
    55         19
    56          5
    57         15
    58          4
    59          8
    60          8
    61          0
    63          2
    64         10
    65          7
    66         21
    67          9
    68          5
    69         14
    70          4
    71          9
    73          4
    74          1
    76          8
    77         57
    78         68
    79        263
    80         52
    81         11
    82          3
    83          8
    84          3
    85          4
    86          2
    91          6
    92          4
    93         20
    94          4
    95          7
    97         10
    98          2
    99          1
   104         11
   105        168
   106        999
   107        122
   108          8
   109          4
   110          1
   111          3
   112          1
   113          0
   115          0
   117          0
   118          0
   119          3
   120         58
   121          6
   122          3
   123          5
   124          1
   125          2
   126          0
   127          1
   129          1
   131          1
   132          0
   133          5
   134         48
   135          8
   136          3
   137          2
   138          0
   139          1
   142          1
   147          1
   148          1
   149          3
   151         73
   152          6
   153          0
   159          0
   165         10
   171          1
   176          1
   177          0
   179        259
   180         25
   181          4