##TITLE=Library Entry 52339
##JCAMP-DX=Revision 4.10 
##DATA TYPE=MASS SPECTRUM
##SAMPLE DESCRIPTION=NIST Mass Spectrometry Data Center
##NAMES=HP
##CAS NAME=Glycine, N-(2-methyl-1-oxo-2-butenyl)-, methyl ester, (E)-
##MOLFORM=C8H13NO3
##CAS REGISTRY NO=55649-53-1
##MP= -300
##BP= -300
##MW= 171
##$RETENTION INDEX=1433
##$CONDENSED SPECTRUM=NO
##NPOINTS= 85
##XYDATA=(XY..XY) 1 
    14          1
    15         17
    18          1
    26          5
    27         65
    28         42
    29        101
    30         33
    31          7
    32          1
    33          3
    37          2
    38          6
    39        108
    40         13
    41         20
    42         19
    43         14
    44         19
    45         15
    49          1
    50         16
    51         29
    52         18
    53        116
    54        152
    55        833
    56        110
    57          5
    58          3
    59         32
    60          2
    62          1
    63          1
    64          1
    65          2
    66          3
    67         10
    68          5
    69          7
    70          2
    72          1
    73          1
    74          2
    78          1
    80          4
    81          9
    82        233
    83        999
    84         65
    85          4
    86          1
    88         30
    89          2
    90          5
    92          1
    94          3
    95          2
    96         10
    97          2
    98          6
    99          1
   109          1
   110         17
   111         22
   112        184
   113         13
   114          3
   116         10
   117          1
   124          2
   126          1
   128          1
   139         70
   140         26
   141          2
   142          1
   143          1
   153          8
   154          1
   156         33
   157          3
   171        185
   172         18
   173          2