##TITLE=Library Entry 17052
##JCAMP-DX=Revision 4.10 
##DATA TYPE=MASS SPECTRUM
##SAMPLE DESCRIPTION=Exported from NIST MS Search
##NAMES=HP
##CAS NAME=Butanoic acid, heptafluoro-, 1-(butoxycarbonyl)propyl ester
##MOLFORM=C12H15F7O4
##CAS REGISTRY NO=55649-48-4
##MP= -300
##BP= -300
##MW= 356
##$RETENTION INDEX=0
##$CONDENSED SPECTRUM=NO
##NPOINTS= 66
##XYDATA=(XY..XY) 1 
    14        140
    15         30
    16        167
    17         47
    18        134
    19          8
    20         52
    26         40
    27        136
    29        415
    30         16
    31         32
    33         11
    34         22
    36          5
    37          9
    38         15
    39         78
    40        398
    41        341
    42         48
    43        156
    44        175
    45        999
    46         22
    47         18
    49         11
    50         80
    51        136
    52        178
    53         33
    54          8
    55         55
    56        215
    57        831
    58         44
    59         47
    60          2
    61         22
    62          9
    67         36
    69        454
    70          8
    71         15
    72         11
    73         22
    74         34
    75         13
    76          7
    77          7
    78         39
    79        466
    80         16
    81         22
    82          4
    83         25
   100        275
   101        612
   102         40
   103         39
   119        306
   150        286
   151         11
   159         87
   160         11
   356          4