##TITLE=Library Entry 17164
##JCAMP-DX=Revision 4.10 
##DATA TYPE=MASS SPECTRUM
##SAMPLE DESCRIPTION=Exported from NIST MS Search
##NAMES=HP
##CAS NAME=Butanoic acid, heptafluoro-, 4-butoxy-4-oxobutyl ester
##MOLFORM=C12H15F7O4
##CAS REGISTRY NO=55649-46-2
##MP= -300
##BP= -300
##MW= 356
##$RETENTION INDEX=0
##$CONDENSED SPECTRUM=NO
##NPOINTS= 73
##XYDATA=(XY..XY) 1 
    15         55
    17         81
    18        160
    19         19
    20         95
    26         61
    27        205
    29        426
    31        643
    33         19
    34         32
    35         11
    36         11
    37         16
    38         25
    39        125
    40        486
    41        460
    42        149
    43        437
    44        304
    45        999
    46         25
    47         25
    49         23
    50        142
    51        237
    52        302
    53         46
    54         11
    55        103
    56        486
    57        500
    58         57
    59        492
    60        131
    61         50
    62         19
    67         68
    69        909
    70         28
    71         60
    72         19
    73         46
    74         53
    75         26
    76         12
    77          9
    78         62
    79        478
    80         32
    81         40
    82         11
    83          8
    85         47
    86         25
    87        402
    88         25
    89        125
   100        475
   101         32
   102          5
   103         25
   104         22
   105         26
   119        541
   120         16
   150        509
   151         22
   159          2
   356          5
   357          1
   358          1