##TITLE=Library Entry 42148
##JCAMP-DX=Revision 4.10 
##DATA TYPE=MASS SPECTRUM
##SAMPLE DESCRIPTION=NIST Mass Spectrometry Data Center
##NAMES=HP
##CAS NAME=Asparagine, 3TMS derivative
##MOLFORM=C13H32N2O3Si3
##CAS REGISTRY NO=55649-62-2
##MP= -300
##BP= -300
##MW= 348
##$RETENTION INDEX=1541
##$CONDENSED SPECTRUM=NO
##NPOINTS= 188
##XYDATA=(XY..XY) 1 
    15          1
    27          1
    28          2
    29          3
    30          1
    31          2
    41          3
    42         11
    43         24
    44         25
    45        102
    46          9
    47         19
    48          1
    52          1
    53          1
    54          2
    55          9
    56          5
    57          9
    58         18
    59         50
    60         11
    61         18
    62          1
    63          1
    66          4
    67          1
    68          2
    69          3
    70         14
    71          6
    72         45
    73        999
    74        135
    75        231
    76         18
    77         10
    80          1
    82          2
    83          2
    84          8
    85          5
    86         13
    87          6
    88          3
    89          4
    90         10
    91          3
    92          1
    95          1
    96          1
    97          1
    98         13
    99          7
   100        166
   101         23
   102         19
   103         15
   104          2
   105          3
   110          1
   111          1
   112          2
   113          5
   114         49
   115         66
   116        925
   117        123
   118         53
   119         10
   120          1
   121          1
   125         14
   126          4
   127          4
   128         35
   129         14
   130         48
   131        143
   132        448
   133        108
   134         28
   135          7
   136          1
   139          1
   140          5
   141        151
   142         34
   143         19
   144         30
   145          5
   146         17
   147        271
   148         51
   149         43
   150          6
   151          2
   153          2
   154          2
   155          1
   156          2
   157          3
   158          9
   159         78
   160         13
   161          5
   162          1
   163          4
   164          1
   169         12
   170          4
   171          2
   172         29
   173          7
   174         16
   175          3
   176          4
   177          2
   184          1
   185          1
   186          2
   188        290
   189         57
   190         42
   191          7
   192          3
   198          1
   199          7
   200          4
   201          4
   202         87
   203         22
   204         32
   205          7
   206          6
   207          1
   213          5
   214          7
   215         35
   216         26
   217         12
   218        116
   219         23
   220         12
   221          3
   222          1
   227          1
   228          1
   229          6
   231        513
   232        119
   233         50
   234          8
   235          1
   241          1
   242          7
   243         19
   244          8
   245          8
   246          2
   247          1
   258         53
   259         16
   260          6
   261          1
   262          4
   263          1
   264          1
   292          2
   293          1
   303          1
   304          1
   305          2
   306          1
   315          1
   316         13
   317          4
   318          2
   331          1
   333         37
   334         11
   335          6
   336          1
   348         32
   349         11
   350          5
   351          1