##TITLE=Library Entry 76841
##JCAMP-DX=Revision 4.10 
##DATA TYPE=MASS SPECTRUM
##SAMPLE DESCRIPTION=R.L.FOLTZ BATTELLE MEMORIAL INST., COLUMBUS LAB., OHIO,
 USA
##NAMES=HP
##CAS NAME=Sulfonium, [(chloroacetyl)amino]dimethyl-, hydroxide, inner salt
##MOLFORM=C4H8ClNOS
##CAS REGISTRY NO=55649-94-0
##MP= -300
##BP= -300
##MW= 153
##$RETENTION INDEX=0
##$CONDENSED SPECTRUM=NO
##NPOINTS= 41
##XYDATA=(XY..XY) 1 
    43          2
    44         16
    45         31
    46         59
    47         97
    48          3
    49         41
    50         32
    51         56
    55          4
    56          8
    57          3
    60          1
    61         86
    62        429
    63         18
    64         26
    69          2
    76         10
    77         21
    79          5
    88          8
    89        102
    90         30
    91          6
    94          5
    97         10
   101         21
   104        999
   105         47
   106         50
   118         13
   120          6
   124          5
   126          2
   131          5
   147          1
   153         10
   154          9
   155          4
   156          5