##TITLE=Library Entry 29866
##JCAMP-DX=Revision 4.10 
##DATA TYPE=MASS SPECTRUM
##SAMPLE DESCRIPTION=Exported from NIST MS Search
##NAMES=HP
##CAS NAME=Butanoic acid, heptafluoro-, 3-butoxy-1-methyl-3-oxopropyl ester
##MOLFORM=C12H15F7O4
##CAS REGISTRY NO=55649-47-3
##MP= -300
##BP= -300
##MW= 356
##$RETENTION INDEX=0
##$CONDENSED SPECTRUM=NO
##NPOINTS= 70
##XYDATA=(XY..XY) 1 
    15         32
    16         14
    17         51
    18        105
    19          8
    20         68
    26         41
    27        139
    29        290
    31        544
    36          8
    37         11
    38         16
    39         76
    40        384
    41        268
    42         44
    43        117
    44        212
    45        628
    46         11
    47         19
    48          2
    49         19
    50        117
    51        167
    52        219
    53         33
    54          2
    55         48
    56        177
    57        287
    58         44
    59        999
    61          9
    62         11
    69        455
    70         15
    71         16
    72          8
    73         22
    74         37
    75         16
    76         16
    77         11
    78         39
    79        346
    80         23
    81         27
    82          9
    83          9
    85         67
    86          9
    87         19
    88          2
    89         26
   100        349
   101         27
   102         11
   103          2
   104          2
   105          5
   119        388
   120          8
   150        370
   151         16
   199         32
   356          4
   357          1
   358          1