##TITLE=Library Entry 87695
##JCAMP-DX=Revision 4.10 
##DATA TYPE=MASS SPECTRUM
##SAMPLE DESCRIPTION=Exported from NIST MS Search
##NAMES=HP
##CAS NAME=D-Homoestr-4-en-3-one, 17-hydroxy-, (8.alpha.,17.beta.)-
##MOLFORM=C19H28O2
##CAS REGISTRY NO=55659-69-3
##MP= -300
##BP= -300
##MW= 288
##$RETENTION INDEX=0
##$CONDENSED SPECTRUM=NO
##NPOINTS= 96
##XYDATA=(XY..XY) 1 
    90        220
    91         55
    92        129
    93         50
    94        113
    95         22
    96         51
   105        179
   106         70
   107        151
   108         70
   109         69
   110        999
   117         72
   118         55
   119        115
   120         94
   121         79
   122        177
   123        141
   124         69
   129         63
   131        103
   132         55
   133        129
   134         69
   135        120
   136         37
   143         36
   144         36
   145        137
   146         65
   147        105
   148        103
   149         98
   150         25
   157         36
   158         34
   159        100
   160        167
   161        313
   162        148
   163         69
   165         20
   166         43
   167         17
   171         37
   172         32
   173        108
   174         63
   175         63
   176         29
   177         48
   178        141
   179        165
   180         34
   185         37
   186         17
   187         51
   188         17
   189         17
   197         60
   199         48
   201         34
   202         12
   203         22
   204         17
   211         17
   212         19
   213         63
   214         34
   215        182
   216         43
   217         37
   218         37
   227         27
   228         58
   229         34
   230         25
   231         34
   232         31
   245         34
   246         82
   252         20
   253         36
   254         25
   255         37
   256         19
   260         25
   270        193
   271         44
   272         36
   273         19
   274         19
   288        886
   289        181