##TITLE=Library Entry 12936
##JCAMP-DX=Revision 4.10 
##DATA TYPE=MASS SPECTRUM
##SAMPLE DESCRIPTION=CENTRE D'ETUDES NUCLEAIRES DE GRENOBLE, FRANCE.
##NAMES=HP
##CAS NAME=Bicyclo[2.2.1]heptan-2-one, 5-(acetyloxy)-4,7,7-trimethyl-, endo-
##MOLFORM=C12H18O3
##CAS REGISTRY NO=55658-18-9
##MP= -300
##BP= -300
##MW= 210
##$RETENTION INDEX=0
##$CONDENSED SPECTRUM=NO
##NPOINTS= 104
##XYDATA=(XY..XY) 1 
    18         48
    26          8
    27         69
    28         90
    29         72
    30          1
    31          3
    32          6
    37          1
    38          2
    39         90
    40         21
    41        152
    42         51
    43        999
    44         12
    45          6
    50          6
    51         14
    52         10
    53         40
    54         10
    55        103
    56         17
    57         18
    58          1
    59          5
    60          3
    61          1
    62          1
    63          3
    64          1
    65         25
    66          8
    67         72
    68         32
    69        103
    70         50
    71         28
    72         10
    77         39
    78         12
    79         69
    80         26
    81         45
    82         23
    83         76
    84         21
    85         17
    86         32
    89          3
    91         55
    92          6
    93         76
    94         24
    95         30
    96         10
    97         29
    98         12
    99         21
   100         10
   101          3
   105         24
   106         17
   107        352
   108        497
   109        207
   110         21
   111        138
   112         45
   113         76
   114          7
   117          5
   119          6
   120          1
   121         34
   122         76
   123         34
   124        290
   125         69
   126         17
   127          1
   135         55
   136          6
   137          2
   138          2
   139         34
   140          6
   149          3
   150        169
   151         21
   152          3
   153        110
   154          8
   166          6
   167         48
   168        566
   169         61
   170         12
   182          2
   192          1
   210         55
   211         10
   212          2