##TITLE=Library Entry 87694
##JCAMP-DX=Revision 4.10 
##DATA TYPE=MASS SPECTRUM
##SAMPLE DESCRIPTION=Exported from NIST MS Search
##NAMES=HP
##CAS NAME=D-Homoestr-4-en-3-one, 17-hydroxy-, (9.beta.,17.beta.)-
##MOLFORM=C19H28O2
##CAS REGISTRY NO=55659-70-6
##MP= -300
##BP= -300
##MW= 288
##$RETENTION INDEX=0
##$CONDENSED SPECTRUM=NO
##NPOINTS= 88
##XYDATA=(XY..XY) 1 
    90        223
    91         47
    92        106
    93         30
    94         40
   105         74
   106         44
   107        151
   108         76
   109         29
   110        999
   115         24
   116         24
   117         64
   118         42
   119         96
   120         77
   121         80
   122         60
   123         99
   124         24
   129         29
   131         69
   132         47
   133         99
   134         71
   135        117
   143         38
   144         37
   145        110
   146         70
   147         99
   148         84
   149         27
   157         27
   158         35
   159         76
   160        125
   161        221
   162         95
   163         27
   171         27
   173         80
   174         33
   175         40
   178         96
   179        121
   185         30
   186         13
   187         47
   188         29
   189         34
   197         41
   199         24
   201         22
   202         19
   203         35
   204         40
   211         19
   212         15
   213         40
   214         20
   215         81
   216         30
   217         49
   218         30
   227         24
   228         73
   229         27
   230         23
   231         30
   232         29
   246        189
   247         27
   252         20
   253         30
   254         31
   255         31
   256         41
   257         22
   260         58
   270        151
   271        113
   272         51
   273         85
   274         27
   288        671
   289        131