##TITLE=Library Entry 13002
##JCAMP-DX=Revision 4.10 
##DATA TYPE=MASS SPECTRUM
##SAMPLE DESCRIPTION=AU18-237-E
##NAMES=HP
##CAS NAME=.alpha.-D-Glucopyranoside, 2,3-bis(acetyloxy)-3-(1-phenyl-1H-pyra
zolo[3,4-b]quinoxalin-3-yl)propyl, 2,3,4,6-tetraacetate, [S-(R*,S*)]-
##MOLFORM=C36H38N4O14
##CAS REGISTRY NO=55658-20-3
##MP= -300
##BP= -300
##MW= 750
##$RETENTION INDEX=0
##$CONDENSED SPECTRUM=NO
##NPOINTS= 114
##XYDATA=(XY..XY) 1 
    41         53
    42         38
    43        999
    44         69
    45         61
    55         50
    56         11
    57         46
    58         11
    60         53
    61         11
    69         38
    73         30
    78         61
    79         15
    81         61
    82         11
    83         30
    85         26
    97         34
    98         23
    99         23
   102         26
   103         34
   109        238
   110         50
   115         69
   116         11
   127         88
   128         19
   141         30
   145         57
   146         11
   158         34
   169        530
   170         46
   187         15
   211         26
   220         46
   229         26
   245         88
   246         61
   247         57
   257         26
   259         53
   271         34
   272         23
   273        115
   274         61
   275        230
   276         76
   284         19
   285         84
   286         34
   287         30
   288         46
   289          7
   290         23
   300         30
   301        323
   302        165
   303         46
   315         11
   316         34
   317        161
   318          7
   319         26
   325          7
   331        307
   332         50
   343         84
   344         46
   345         30
   346         26
   347         23
   358         15
   359         26
   360         30
   361         23
   377         15
   389         23
   403         19
   404         30
   405          7
   415          0
   418          1
   419          3
   420          5
   449          5
   450          1
   486          6
   487          1
   546          3
   547          0
   606          6
   607          0
   620          9
   621          1
   632          5
   650         37
   651         14
   652          3
   679          1
   690          3
   691          1
   692          1
   699          0
   707         13
   708          5
   709         20
   710          5
   750         43
   751         18
   752          5