##TITLE=Library Entry 66401
##JCAMP-DX=Revision 4.10 
##DATA TYPE=MASS SPECTRUM
##SAMPLE DESCRIPTION=Mark Whitten, Florida Museum of Natural History, U. of
 Florida
##NAMES=HP
##CAS NAME=Camphenone, 6-
##MOLFORM=C10H14O
##CAS REGISTRY NO=55659-42-2
##MP= -300
##BP= -300
##MW= 150
##$RETENTION INDEX=1149
##$CONDENSED SPECTRUM=NO
##NPOINTS= 65
##XYDATA=(XY..XY) 1 
    41        224
    42         48
    43         25
    44          3
    45          3
    46          1
    50         48
    51        125
    52         58
    53        110
    54         16
    55         29
    56          3
    57         11
    58          5
    59          9
    60          2
    61          3
    62         13
    63         42
    65        117
    66         27
    67         34
    68          6
    69          4
    70          1
    71          1
    74          6
    75          5
    77        228
    78         47
    79        170
    80         28
    81         10
    82          3
    86          1
    87          2
    89          9
    91        436
    92         77
    93        999
    94         87
    95          9
   102          3
   103         13
   105         79
   107        362
   108        703
   109         63
   110          3
   115          7
   116          2
   117         10
   118          1
   119          2
   121          4
   122         11
   123          1
   131          2
   132          7
   133          1
   135          5
   136          1
   150         58
   151          7