##TITLE=Library Entry 29424
##JCAMP-DX=Revision 4.10 
##DATA TYPE=MASS SPECTRUM
##SAMPLE DESCRIPTION=Exported from NIST MS Search
##NAMES=HP
##CAS NAME=Pregnan-18-ol, 20-amino-20-methyl-
##MOLFORM=C22H39NO
##CAS REGISTRY NO=55659-10-4
##MP= -300
##BP= -300
##MW= 333
##$RETENTION INDEX=0
##$CONDENSED SPECTRUM=NO
##NPOINTS= 59
##XYDATA=(XY..XY) 1 
    53         40
    54         10
    55        120
    56         10
    57         50
    58        999
    59         70
    64         10
    66        100
    67         20
    68         40
    69        100
    70         20
    76         40
    77         20
    78         80
    79         40
    80        100
    81         20
    82         30
    83         30
    90         80
    91         20
    92         50
    93         20
    94         70
    95         20
   105         50
   106         20
   107         50
   108         20
   109         50
   116         30
   118         40
   119         20
   120         40
   121         30
   122         20
   130         20
   132         50
   133         20
   134         40
   135         20
   145         20
   147         50
   148         20
   149         30
   161         20
   175         20
   176         20
   217         30
   243         80
   244         20
   271         50
   286        150
   287         50
   303         50
   317         50
   333         20