##TITLE=Library Entry 55040
##JCAMP-DX=Revision 4.10 
##DATA TYPE=MASS SPECTRUM
##SAMPLE DESCRIPTION=ORMSBG,9(11)1073(1974); ECKHARDT
##NAMES=HP
##CAS NAME=1,3-Propanediamine, N,N,N'-trimethyl-N'-phenyl-
##MOLFORM=C12H20N2
##CAS REGISTRY NO=55667-48-6
##MP= -300
##BP= -300
##MW= 192
##$RETENTION INDEX=0
##$CONDENSED SPECTRUM=NO
##NPOINTS= 21
##XYDATA=(XY..XY) 1 
    58        943
    70        253
    72         69
    77        245
    78         50
    84        176
    85        999
    86         69
    91        126
   104        123
   105        111
   106         92
   107         65
   120        719
   121        111
   132        199
   134         62
   146        341
   147        349
   192        490
   193         69