##TITLE=Library Entry 22424
##JCAMP-DX=Revision 4.10 
##DATA TYPE=MASS SPECTRUM
##SAMPLE DESCRIPTION=D.HENNEBERG, MAX-PLANCK INSTITUTE, MULHEIM, WEST GERMAN
Y
##NAMES=HP
##CAS NAME=Pentadecane, 8-methylene-
##MOLFORM=C16H32
##CAS REGISTRY NO=55668-09-2
##MP= -300
##BP= -300
##MW= 224
##$RETENTION INDEX=0
##$CONDENSED SPECTRUM=NO
##NPOINTS= 153
##XYDATA=(XY..XY) 1 
    24          0
    25          2
    26         16
    27        124
    28         40
    29        220
    30          4
    31          1
    32          3
    33          0
    35          0
    37          2
    38          5
    39         96
    40         21
    41        429
    42         88
    43        393
    44          6
    45          1
    48          0
    49          0
    50          3
    51         11
    52          5
    53         46
    54         53
    55        440
    56        999
    57        535
    58         22
    59          3
    60          0
    61          1
    62          1
    63          4
    64          0
    65         12
    66         11
    67         95
    68         77
    69        407
    70        171
    71        122
    72          6
    73          3
    74          6
    75          2
    76          1
    77         15
    78          5
    79         24
    80          6
    81         51
    82         57
    83        162
    84        174
    85         88
    86          5
    87          7
    88          3
    89          1
    90          0
    91         29
    92         10
    93         10
    94          3
    95         26
    96         27
    97        112
    98         53
    99         16
   100          2
   101          3
   102          3
   103          1
   104          2
   105          4
   106          2
   107          3
   108          2
   109          8
   110          8
   111         44
   112         79
   113         11
   114          0
   115          4
   116          2
   117          6
   118          2
   119          4
   120          1
   121          1
   122          0
   123          4
   124         15
   125         95
   126         26
   127          4
   128          1
   129          1
   130          1
   131          4
   132          2
   133          0
   134          1
   135          0
   136          1
   137          1
   138          3
   139          2
   140         64
   141         18
   142          3
   143          0
   146          0
   147          0
   148          0
   149          0
   151          1
   152          0
   153          1
   154          2
   155          1
   156          1
   162          0
   164          0
   165          0
   166          0
   167          0
   168          3
   169          2
   170          0
   174          0
   179          0
   181          2
   182          0
   195          2
   196          3
   197          0
   201          0
   203          0
   205          0
   207          1
   208          0
   209          0
   213          0
   219          1
   222          0
   223          0
   224         22
   225          4