##TITLE=Library Entry 29314
##JCAMP-DX=Revision 4.10 
##DATA TYPE=MASS SPECTRUM
##SAMPLE DESCRIPTION=ORMSBG,9(11)1073(1974); ECKHARDT
##NAMES=HP
##CAS NAME=1,3-Propanediamine, N'-(4-methoxyphenyl)-N,N,2-trimethyl-
##MOLFORM=C13H22N2O
##CAS REGISTRY NO=55667-49-7
##MP= -300
##BP= -300
##MW= 222
##$RETENTION INDEX=0
##$CONDENSED SPECTRUM=NO
##NPOINTS= 8
##XYDATA=(XY..XY) 1 
    58        999
    84        109
    99         60
   136        123
   162        139
   177         49
   222        341
   223         56