##TITLE=Library Entry 32667
##JCAMP-DX=Revision 4.10 
##DATA TYPE=MASS SPECTRUM
##SAMPLE DESCRIPTION=D.HENNEBERG, MAX-PLANCK INSTITUTE, MULHEIM, WEST GERMAN
Y
##NAMES=HP
##CAS NAME=Cyclopentane, (1-methylethenyl)-
##MOLFORM=C8H14
##CAS REGISTRY NO=55661-02-4
##MP= -300
##BP= -300
##MW= 110
##$RETENTION INDEX=0
##$CONDENSED SPECTRUM=NO
##NPOINTS= 50
##XYDATA=(XY..XY) 1 
    25          1
    26          5
    27        111
    28         57
    29         46
    37          5
    38         12
    39        209
    40         50
    41        327
    42         39
    43         17
    44          9
    45          1
    50         10
    51         27
    52         16
    53        113
    54         69
    55        105
    56         25
    57          1
    62          2
    63         10
    64          2
    65         41
    66        130
    67        999
    68        406
    69        283
    70         14
    74          0
    75          0
    77         32
    78          5
    79         59
    80         17
    81        255
    82         80
    83          4
    91         16
    92          2
    93         22
    94          3
    95        289
    96         23
   108          3
   109         10
   110        197
   111         17