##TITLE=Library Entry 78344
##JCAMP-DX=Revision 4.10 
##DATA TYPE=MASS SPECTRUM
##SAMPLE DESCRIPTION=S.Sobol ET AL.JAOAC,55,866(1971)
##NAMES=HP
##CAS NAME=1-Propanone, 3-(4-hydroxy-4-methyl-1-piperidinyl)-1-phenyl-
##MOLFORM=C15H21NO2
##CAS REGISTRY NO=55661-22-8
##MP= -300
##BP= -300
##MW= 247
##$RETENTION INDEX=0
##$CONDENSED SPECTRUM=NO
##NPOINTS= 75
##XYDATA=(XY..XY) 1 
    39         74
    40         30
    41         56
    42        401
    43        123
    44         52
    50         97
    51        238
    52         26
    53         33
    54         22
    55        115
    56        260
    57        160
    58         33
    60         22
    62         15
    63         22
    65         26
    66         26
    67         48
    68         33
    69         71
    70         41
    71         30
    72         22
    73         22
    74         37
    75         30
    76         41
    77        862
    78         82
    79         19
    80         19
    81         19
    82        156
    83         26
    84         30
    85         15
    86         19
    87         19
    91         19
    92         19
    93         48
    94         22
    95         22
    96         59
    97         59
    98         59
    99         26
   100         22
   102         22
   103         33
   104         86
   105        999
   106         74
   109         33
   110        145
   111         30
   112         52
   114         33
   115         48
   120         15
   124         15
   126         15
   127        130
   128        260
   129         30
   131        216
   132        286
   133         48
   209         15
   246          1
   247         13
   248          3