##TITLE=Library Entry 70984
##JCAMP-DX=Revision 4.10 
##DATA TYPE=MASS SPECTRUM
##SAMPLE DESCRIPTION=J.VOTH UNIV. OF CALIFORNIA, DAVIS, CALIFORNIA, 95616, U
SA
##NAMES=HP
##CAS NAME=1-Aziridinepropanol, 2-methyl-3-(1-methylethyl)-, trans-
##MOLFORM=C9H19NO
##CAS REGISTRY NO=55669-83-5
##MP= -300
##BP= -300
##MW= 157
##$RETENTION INDEX=0
##$CONDENSED SPECTRUM=NO
##NPOINTS= 103
##XYDATA=(XY..XY) 1 
    12          3
    13          6
    14         28
    15        198
    16          7
    17         16
    18         84
    19         19
    25          4
    26         69
    27        490
    28        613
    29        410
    30        180
    31        551
    32          9
    33          2
    36          2
    37          9
    38         23
    39        299
    40         50
    41        662
    42        459
    43        239
    44        202
    45         17
    46          3
    50          7
    51         15
    52         30
    53         88
    54        154
    55        905
    56        836
    57        298
    58        130
    59        147
    60          5
    61          1
    62          2
    63          5
    64          3
    65         12
    66          9
    67         54
    68        162
    69        124
    70        255
    71        135
    72         30
    73          3
    74          4
    77          4
    78          2
    79          7
    80         20
    81         37
    82         97
    83         62
    84        440
    85         49
    86         30
    87          2
    89          3
    91          2
    93          2
    94         14
    95          6
    96         58
    97         17
    98        999
    99         84
   100         33
   101          4
   102          9
   108          4
   109          2
   110         11
   111          5
   112        441
   113         95
   114        706
   115         51
   116          4
   122          2
   124          8
   125          2
   126         97
   127         13
   128         57
   129          5
   132          4
   138          2
   139          5
   140         24
   141         35
   142        440
   143         41
   144          2
   156         20
   157         27
   158          4