##TITLE=Library Entry 89358
##JCAMP-DX=Revision 4.10 
##DATA TYPE=MASS SPECTRUM
##SAMPLE DESCRIPTION=J.VOTH UNIV. OF CALIFORNIA, DAVIS, CALIFORNIA, 95616, U
SA
##NAMES=HP
##CAS NAME=1-Aziridineacetic acid, 2-methyl-3-(1-methylethyl)-, ethyl ester,
 trans-
##MOLFORM=C10H19NO2
##CAS REGISTRY NO=55669-84-6
##MP= -300
##BP= -300
##MW= 185
##$RETENTION INDEX=0
##$CONDENSED SPECTRUM=NO
##NPOINTS= 108
##XYDATA=(XY..XY) 1 
    12         11
    13         10
    14         53
    15        205
    16         15
    17         67
    18        250
    19          5
    24          2
    25          7
    26         73
    27        514
    28        451
    29        541
    30        245
    31         56
    32         10
    36          5
    37          9
    38         31
    39        253
    40         85
    41        633
    42        414
    43        190
    44        198
    45         42
    49          7
    50          8
    51         16
    52         25
    53         78
    54        102
    55        554
    56        785
    57        104
    58        187
    59         55
    60         18
    61          7
    62          3
    63          8
    64          4
    65         11
    66          8
    67         49
    68        137
    69        185
    70        134
    71         25
    72         68
    73         28
    74          4
    75         16
    76          3
    77          8
    78          3
    79          5
    80         13
    81         26
    82         85
    83         70
    84        295
    85         26
    86        101
    87         11
    88         13
    89          6
    92          8
    94         13
    95          4
    96        108
    97         16
    98        414
    99         38
   100        365
   101         28
   102          5
   110         12
   111         21
   112        999
   113         87
   114         26
   115          3
   116         12
   124          3
   126          3
   128          6
   129          7
   130         44
   131          4
   142        110
   143         11
   144         42
   145          4
   156        102
   157         20
   158         15
   159          2
   170        378
   171         40
   172          6
   173         17
   174          2
   184          8
   185         99
   186         12
   187          2