##TITLE=Library Entry 100235
##JCAMP-DX=Revision 4.10 
##DATA TYPE=MASS SPECTRUM
##SAMPLE DESCRIPTION=GULF R. ' D. CO., PITTSBURGH, PA, USA
##NAMES=HP
##CAS NAME=Benzene, 1,4-dimethyl-2-(2-methylpropyl)-
##MOLFORM=C12H18
##CAS REGISTRY NO=55669-88-0
##MP= -300
##BP= -300
##MW= 162
##$RETENTION INDEX=1224
##$CONDENSED SPECTRUM=NO
##NPOINTS= 101
##XYDATA=(XY..XY) 1 
    13          0
    14          0
    15         14
    16          0
    26          2
    27         46
    28          2
    29          9
    37          0
    38          3
    39         44
    40          4
    41         48
    42          2
    43         17
    44          0
    50          7
    51         26
    52          8
    53         18
    54          1
    55          9
    56          0
    57          1
    58          2
    59          0
    61          0
    62          2
    63         15
    64         10
    65         28
    66          4
    67          2
    68          0
    69          0
    70          1
    71          3
    72          0
    73          0
    74          4
    75          6
    76          5
    77         61
    78         24
    79         21
    80          1
    81          0
    85          0
    86          1
    87          2
    88          1
    89          9
    90          3
    91         92
    92         10
    93          6
    94          0
    98          0
    99          0
   101          2
   102          9
   103         35
   104         37
   105         75
   106         23
   107          4
   108          0
   113          1
   114          2
   115         44
   116         17
   117         37
   118         23
   119        999
   120        199
   121         14
   122          0
   126          0
   127          5
   128         15
   129         11
   130          5
   131          2
   132          2
   133          2
   134          0
   139          0
   141          2
   142          0
   143          1
   144          0
   145          4
   146          1
   147          8
   148          1
   159          0
   160          0
   161          3
   162        192
   163         25
   164          1