##TITLE=Library Entry 29349
##JCAMP-DX=Revision 4.10 
##DATA TYPE=MASS SPECTRUM
##SAMPLE DESCRIPTION=ORMSBG,9(11)1073(1974); ECKHARDT
##NAMES=HP
##CAS NAME=1,3-Propanediamine, N,N,2-trimethyl-N'-(4-nitrophenyl)-
##MOLFORM=C12H19N3O2
##CAS REGISTRY NO=55667-52-2
##MP= -300
##BP= -300
##MW= 237
##$RETENTION INDEX=0
##$CONDENSED SPECTRUM=NO
##NPOINTS= 30
##XYDATA=(XY..XY) 1 
    41         18
    42         33
    43         17
    44         32
    45         21
    46         21
    55         12
    56         10
    57         18
    58        999
    59         43
    65          9
    70         13
    71         17
    76         18
    77         12
    78          9
    84         23
    85          9
    86         21
    99          8
   104         16
   105         38
   130         10
   133          8
   151         17
   177         41
   192         11
   237        110
   238         18