##TITLE=Library Entry 26584
##JCAMP-DX=Revision 4.10 
##DATA TYPE=MASS SPECTRUM
##SAMPLE DESCRIPTION=Chemical Concepts
##NAMES=HP
##CAS NAME=l-Alanine, N-[N-[(1,1-dimethylethoxy)carbonyl]-l-phenylalanyl]-
##MOLFORM=C17H24N2O5
##CAS REGISTRY NO=55677-48-0
##MP= -300
##BP= -300
##MW= 336
##$RETENTION INDEX=0
##$CONDENSED SPECTRUM=NO
##NPOINTS= 139
##XYDATA=(XY..XY) 1 
    26          3
    27         29
    28         59
    29         82
    30          6
    31         10
    36          0
    37          1
    38          4
    39         51
    40         10
    41        168
    42         30
    43         30
    44        236
    45         23
    46          2
    50          5
    51         14
    52          4
    53          6
    54          3
    55         29
    56         54
    57        999
    58         46
    59         36
    60          2
    61          1
    62          2
    63          7
    64          1
    65         37
    66          2
    68          0
    69          0
    70         22
    71         14
    72          4
    73          5
    74         12
    75          1
    76          1
    77         27
    78         10
    79          3
    81          0
    82          0
    83          3
    84          0
    85          2
    86          0
    87          7
    88         23
    89          9
    90         16
    91        277
    92         81
    93         12
    94          0
    97          1
    98          9
    99         92
   100         11
   101          2
   102          3
   103         42
   104         23
   105          9
   106          0
   115          0
   116          2
   117          7
   118         28
   119         25
   120        632
   121         59
   122          1
   126          2
   127         39
   128         30
   129          3
   130          4
   131         55
   132         21
   133          2
   143          0
   144          1
   145        161
   146         53
   147         11
   148         21
   149          1
   158          0
   160          2
   163         13
   164        318
   165         36
   166          3
   172          0
   173          0
   174         15
   175        158
   176         26
   177          2
   189         11
   190          1
   191          2
   192          5
   193          0
   201          7
   202          0
   209          3
   210          0
   217         22
   218         65
   219         52
   220        120
   221         17
   222          1
   235          1
   236         12
   237         11
   238          0
   245         10
   246          0
   248          1
   262          3
   263         53
   264          8
   265          0
   275          0
   280        124
   281         44
   282          5
   327          0
   336          6
   337          9
   338          1