##TITLE=Library Entry 85888
##JCAMP-DX=Revision 4.10 
##DATA TYPE=MASS SPECTRUM
##SAMPLE DESCRIPTION=G.S. KING, CHEM. PATHOL. DEP., QUEEN CHARLOTTE'S HOSP.,
 LONDON
##NAMES=HP
##CAS NAME=2-Cyclopenten-1-one, 3,4,5-trimethyl-
##MOLFORM=C8H12O
##CAS REGISTRY NO=55683-21-1
##MP= -300
##BP= -300
##MW= 124
##$RETENTION INDEX=1033
##$CONDENSED SPECTRUM=NO
##NPOINTS= 29
##XYDATA=(XY..XY) 1 
    40         24
    41         52
    42         12
    43         24
    44         24
    53         32
    54         24
    55         24
    56         44
    57         12
    67         52
    79        124
    80         12
    81        364
    82         52
    83         32
    84         32
    85         24
    86         12
    91         24
    93         12
    95         24
    96         12
    97         12
   109        999
   110         84
   111         12
   124        244
   125         24