##TITLE=Library Entry 49104
##JCAMP-DX=Revision 4.10 
##DATA TYPE=MASS SPECTRUM
##SAMPLE DESCRIPTION=William W. Christie, Mylnefield Lipid Analysis, Invergo
wrie, Dundee, Scotland, UK
##NAMES=HP
##CAS NAME=11,14,17-Eicosatrienoic acid, methyl ester
##MOLFORM=C21H36O2
##CAS REGISTRY NO=55682-88-7
##MP= -300
##BP= -300
##MW= 320
##$RETENTION INDEX=2279
##$CONDENSED SPECTRUM=NO
##NPOINTS= 104
##XYDATA=(XY..XY) 1 
    51         10
    52         10
    53         70
    54        100
    55        449
    56         20
    57         60
    59         90
    65         50
    66         80
    67        619
    68        139
    69        209
    71         20
    73         20
    74         80
    75         10
    77        129
    78        119
    79        999
    80        409
    81        429
    82        119
    83         90
    85         20
    87        109
    88         10
    89         10
    91        189
    92         50
    93        469
    94        269
    95        659
    96        109
    97         70
    99         10
   101         20
   105         70
   106         10
   107        209
   108        489
   109        199
   110         30
   111         20
   113         10
   115         10
   117         20
   119         30
   120         20
   121        219
   122        139
   123         70
   124         10
   125         20
   129         20
   131         20
   133         10
   134         10
   135        189
   136        109
   137         50
   138         10
   139         10
   141         10
   143         30
   145         20
   147         10
   149        109
   150         50
   151         20
   152         10
   157         10
   159         10
   161         10
   163         40
   164         30
   165         10
   171         20
   173         10
   177         20
   178         10
   191         10
   192         10
   195         10
   201         20
   206         10
   219         10
   238         10
   245         10
   251         10
   252         10
   259         10
   263         10
   264         40
   265         10
   266         10
   271         10
   277         10
   289         50
   290         10
   291         30
   292         10
   320         80
   321         20