##TITLE=Library Entry 3658
##JCAMP-DX=Revision 4.10 
##DATA TYPE=MASS SPECTRUM
##SAMPLE DESCRIPTION=J.VOTH UNIV. OF CALIFORNIA, DAVIS, CALIFORNIA, 95616, U
SA
##NAMES=HP
##CAS NAME=Cyclohexane, (2-iodocyclopropyl)-
##MOLFORM=C9H15I
##CAS REGISTRY NO=55682-67-2
##MP= -300
##BP= -300
##MW= 250
##$RETENTION INDEX=0
##$CONDENSED SPECTRUM=NO
##NPOINTS= 110
##XYDATA=(XY..XY) 1 
    12          1
    13          2
    14          7
    15         61
    16          1
    17          3
    18          9
    25          2
    26         48
    27        464
    28        105
    29        226
    30          5
    36          1
    37         15
    38         48
    39        557
    40        101
    41        999
    42         55
    43         74
    44          3
    45          4
    46          2
    49          3
    50         79
    51        152
    52         97
    53        296
    54        226
    55        732
    56         52
    57         30
    58          5
    59          3
    60          3
    61          9
    62         20
    63         48
    64         13
    65        115
    66        100
    67        855
    68        153
    69        441
    70         29
    71          7
    73          6
    74          7
    75          7
    76          3
    77         95
    78         30
    79        152
    80         59
    81        954
    82         83
    83         71
    84          5
    85          4
    86          2
    87          1
    89          3
    90          2
    91         56
    92          9
    93         47
    94         22
    95         86
    96        163
    97         19
    98          2
   103          2
   105          5
   106          1
   107         14
   108          5
   109         34
   110          7
   111         11
   112          1
   115          1
   119          1
   121          6
   122         10
   123        612
   124         64
   125          3
   127        155
   128         64
   129          6
   135          1
   137          1
   138          1
   139          2
   140          6
   141         10
   149          1
   152          1
   153          4
   154         12
   155         11
   165          1
   167         28
   168          4
   180          7
   181          6
   236          2
   250         55
   251          5