##TITLE=Library Entry 4100
##JCAMP-DX=Revision 4.10 
##DATA TYPE=MASS SPECTRUM
##SAMPLE DESCRIPTION=J.VOTH UNIV. OF CALIFORNIA, DAVIS, CALIFORNIA, 95616, U
SA
##NAMES=HP
##CAS NAME=3-Octen-5-yne, 2,2,7,7-tetramethyl-
##MOLFORM=C12H20
##CAS REGISTRY NO=55682-74-1
##MP= -300
##BP= -300
##MW= 164
##$RETENTION INDEX=1428
##$CONDENSED SPECTRUM=NO
##NPOINTS= 112
##XYDATA=(XY..XY) 1 
    12          3
    13          5
    14         24
    15        269
    16          5
    17          3
    18         12
    26         29
    27        516
    28         73
    29        478
    30         11
    31          2
    37         12
    38         38
    39        567
    40         70
    41        999
    42         70
    43        516
    44         20
    45          8
    49          4
    50        144
    51        386
    52        129
    53        372
    54         97
    55        382
    56         32
    57        428
    58         47
    59          8
    60          2
    61         17
    62         61
    63        194
    64         61
    65        262
    66         78
    67        173
    68         16
    69        175
    70         52
    71         30
    72          3
    73          6
    74         47
    76         28
    77        505
    78        125
    79        370
    80         46
    81         61
    82         37
    84          2
    85          4
    86          9
    87         15
    88          5
    89         38
    90         21
    91        674
    92        115
    93        392
    94        278
    95        106
    96         12
    97          3
    98          8
    99         10
   101          8
   102         20
   103         76
   104         41
   105        414
   106        103
   107        781
   108        108
   109         31
   110          4
   113          3
   114          4
   115         63
   116         27
   117         68
   118         29
   119        317
   120         77
   121        694
   122         76
   123          9
   124          5
   127          2
   128          7
   129          6
   130          3
   131         10
   132          6
   133         98
   134        252
   135         61
   136         13
   147         10
   148          8
   149        972
   150        119
   151          7
   163          2
   164        839
   165        112
   166          7