##TITLE=Library Entry 68187
##JCAMP-DX=Revision 4.10 
##DATA TYPE=MASS SPECTRUM
##SAMPLE DESCRIPTION=J.VOTH UNIV. OF CALIFORNIA, DAVIS, CALIFORNIA, 95616, U
SA
##NAMES=HP
##CAS NAME=3,5-Octadiene, 2,7-dimethyl-, (E,Z)-
##MOLFORM=C10H18
##CAS REGISTRY NO=55682-64-9
##MP= -300
##BP= -300
##MW= 138
##$RETENTION INDEX=0
##$CONDENSED SPECTRUM=NO
##NPOINTS= 88
##XYDATA=(XY..XY) 1 
    12          1
    13          2
    14         10
    15        108
    16          2
    26         18
    27        308
    28         42
    29        176
    30          4
    37          5
    38         19
    39        296
    40         41
    41        485
    42         32
    43        253
    44          9
    45          2
    46          1
    49          1
    50         58
    51        131
    52         61
    53        211
    54         42
    55        285
    56         26
    57         73
    58          5
    59          1
    60          1
    61          4
    62         15
    63         44
    64         10
    65         88
    66         38
    67        349
    68         43
    69        257
    70         34
    71          2
    73          1
    74          8
    75          8
    76          4
    77        154
    78         42
    79        160
    80         35
    81        527
    82        514
    83         41
    84          2
    86          1
    87          2
    89          5
    90          3
    91         99
    92         17
    93         74
    94         33
    95        999
    96         88
    97          9
    98          1
   102          1
   103          5
   104          1
   105         14
   106          3
   107         34
   108         17
   109         78
   110          7
   111          2
   115          1
   119          1
   121          6
   122          3
   123        197
   124         20
   125          1
   137          2
   138        273
   139         30
   140          1