##TITLE=Library Entry 19418
##JCAMP-DX=Revision 4.10 
##DATA TYPE=MASS SPECTRUM
##SAMPLE DESCRIPTION=CONTINENTAL OIL CO., PONCA CITY, OKLA, USA
##NAMES=HP
##CAS NAME=1,1,3-Tricyclohexylpropane
##MOLFORM=C21H38
##CAS REGISTRY NO=55682-89-8
##MP= -300
##BP= -300
##MW= 290
##$RETENTION INDEX=0
##$CONDENSED SPECTRUM=NO
##NPOINTS= 97
##XYDATA=(XY..XY) 1 
    14          4
    15         10
    26          6
    27        109
    28         83
    29        181
    30          5
    37          7
    38          4
    39        120
    40         30
    41        789
    42         48
    43         97
    44          1
    50          3
    51          9
    52          8
    53         77
    54        112
    55        999
    56         54
    57         38
    65         18
    66         18
    67        252
    68         60
    69        275
    70         18
    71          7
    77         23
    78         10
    79         51
    80         23
    81        183
    82        199
    83        517
    84         34
    85          4
    89          2
    91         24
    92          8
    93         15
    94         12
    95         87
    96        200
    97        373
    98         28
    99          2
   103          3
   104          2
   105         11
   106          3
   107          7
   108         20
   109         87
   110         58
   111        248
   112         21
   113          2
   115          3
   117          2
   119          3
   121          5
   122          8
   123         46
   124         16
   125        109
   126         11
   131          2
   133          6
   135         18
   136          6
   137         26
   138          3
   139          5
   147          5
   149          3
   150          2
   151         16
   152          2
   153          2
   163          3
   164          3
   165          7
   177          3
   178         20
   179         41
   180          6
   191          4
   192          3
   193          7
   206        375
   207         33
   208          6
   290          4
   291          0