##TITLE=Library Entry 44806
##JCAMP-DX=Revision 4.10 
##DATA TYPE=MASS SPECTRUM
##SAMPLE DESCRIPTION=Chemical Concepts
##NAMES=HP
##CAS NAME=Octacosanoic acid, methyl ester
##MOLFORM=C29H58O2
##CAS REGISTRY NO=55682-92-3
##MP= -300
##BP= -300
##MW= 438
##$RETENTION INDEX=3126
##$CONDENSED SPECTRUM=NO
##NPOINTS= 273
##XYDATA=(XY..XY) 1 
    27         25
    28          3
    29         94
    30          2
    31          5
    33          1
    38          1
    39         17
    40         34
    41        209
    42         44
    43        541
    44         17
    45          9
    50          1
    51          1
    52          0
    53          9
    54         22
    55        331
    56         81
    57        490
    58         24
    59         39
    60          4
    61          4
    65          2
    66          2
    67         57
    68         27
    69        245
    70         51
    71        206
    72         11
    73         21
    74        999
    75        483
    76         19
    77          5
    78          2
    79         11
    80          6
    81         65
    82         30
    83        165
    84         42
    85        107
    86          8
    87        730
    88         63
    89          5
    90          0
    91          4
    92          1
    93         12
    94          5
    95         50
    96         25
    97        134
    98         53
    99         32
   100          3
   101         81
   102          8
   103          1
   105          2
   106          1
   107         13
   108          3
   109         32
   110         10
   111         62
   112         14
   113         16
   114          3
   115         32
   116         16
   117          2
   119          2
   120          1
   121         18
   122          3
   123         18
   124          8
   125         38
   126          6
   127          8
   128          2
   129         80
   130         37
   131          3
   133          1
   134          1
   135         19
   136          3
   137          9
   138          6
   139         20
   140          5
   141          7
   142          1
   143        274
   144         30
   145          2
   147          1
   149         14
   150          1
   151          5
   152          3
   153         13
   154          3
   155          4
   156          2
   157         36
   158          8
   159          1
   161          1
   162          0
   163          7
   164          1
   165          3
   166          2
   167         10
   168          2
   169          3
   171         25
   172         11
   173          0
   175          0
   177          6
   178          1
   179          1
   180          1
   181          7
   182          3
   183          2
   185         53
   186         15
   187          1
   191          4
   192          1
   193          1
   194          1
   195          5
   196          2
   197          1
   199         81
   200         14
   201          1
   203          0
   205          3
   206          1
   207          1
   208          1
   209          4
   210          1
   211          1
   213         20
   214         10
   215          1
   219          2
   220          0
   221          1
   222          1
   223          4
   224          1
   225          0
   227         23
   228          7
   229          1
   233          1
   235          0
   236          0
   237          3
   238          1
   239          0
   241         28
   242          8
   243          1
   247          2
   249          0
   251          2
   252          1
   253          1
   255         31
   256          6
   257          0
   261          1
   263          0
   264          0
   265          2
   266          1
   267          0
   269         14
   270          4
   271          1
   275          1
   277          0
   278          1
   279          1
   280          1
   281          1
   283         26
   284          7
   285          1
   291          0
   292          1
   293          2
   294          1
   295          0
   296          1
   297         24
   298          7
   299          1
   303          0
   306          0
   307          1
   308          0
   311         16
   312          4
   313          0
   320          0
   321          1
   322          1
   325         10
   326          5
   327          0
   335          1
   336          0
   339         45
   340         12
   341          2
   345          0
   349          0
   350          0
   353         24
   354          7
   355          1
   362          1
   363          0
   364          3
   365          1
   367          8
   368          3
   377          0
   378          0
   381         13
   382          4
   383          1
   387          1
   388          0
   389          1
   390          0
   395         73
   396         21
   397          2
   404          3
   405          3
   406          2
   407         21
   408          7
   409         12
   410          4
   411          0
   421          0
   422          0
   423          0
   424          0
   437          3
   438        560
   439        172
   440         29
   441          3