##TITLE=Library Entry 18978
##JCAMP-DX=Revision 4.10 
##DATA TYPE=MASS SPECTRUM
##SAMPLE DESCRIPTION=J.VOTH UNIV. OF CALIFORNIA, DAVIS, CALIFORNIA, 95616, U
SA
##NAMES=HP
##CAS NAME=Cyclopropane, 1-butyl-2-iodo-
##MOLFORM=C7H13I
##CAS REGISTRY NO=55682-97-8
##MP= -300
##BP= -300
##MW= 224
##$RETENTION INDEX=0
##$CONDENSED SPECTRUM=NO
##NPOINTS= 86
##XYDATA=(XY..XY) 1 
    12          1
    13          2
    14          6
    15         30
    16          0
    17          0
    18          2
    25          1
    26         30
    27        282
    28         56
    29        148
    30          3
    36          0
    37          8
    38         24
    39        239
    40         38
    41        402
    42         62
    43        163
    44          5
    45          1
    46          0
    47          0
    48          0
    49          1
    50         28
    51         41
    52         23
    53        110
    54        125
    55        999
    56         50
    57         25
    58          1
    61          3
    62          5
    63          9
    64          2
    65         14
    66          8
    67         53
    68         12
    69         44
    70         14
    71          2
    73          0
    74          1
    75          0
    77          4
    78          1
    79          3
    80          1
    81          5
    82          1
    83          1
    85          3
    91          1
    93          0
    95          3
    96          3
    97        257
    98         20
    99          2
   111          0
   127         64
   128         26
   129          1
   139          1
   140          3
   141          6
   152          0
   153          3
   154         77
   155          5
   165          0
   167         13
   168          3
   169          0
   181          4
   183          0
   210          1
   212          0
   224         35
   225          2