##TITLE=Library Entry 32494
##JCAMP-DX=Revision 4.10 
##DATA TYPE=MASS SPECTRUM
##SAMPLE DESCRIPTION=J.VOTH UNIV. OF CALIFORNIA, DAVIS, CALIFORNIA, 95616, U
SA
##NAMES=HP
##CAS NAME=4,6-Decadiene
##MOLFORM=C10H18
##CAS REGISTRY NO=55682-65-0
##MP= -300
##BP= -300
##MW= 138
##$RETENTION INDEX=1145
##$CONDENSED SPECTRUM=NO
##NPOINTS= 86
##XYDATA=(XY..XY) 1 
     2          4
    12          0
    13          0
    14          2
    15         26
    16          0
    18          0
    25          0
    26         15
    27        218
    28         23
    29        125
    30          2
    37          2
    38          9
    39        102
    40         23
    41        265
    42         17
    43         53
    44          1
    45          0
    49          0
    50         11
    51         33
    52         21
    53         66
    54        215
    55        231
    56         14
    57          4
    58          0
    61          2
    62          7
    63         23
    64          5
    65         68
    66         30
    67        999
    68        151
    69         61
    70          5
    71          1
    73          0
    74          3
    75          3
    76          1
    77         90
    78         26
    79        126
    80         52
    81        210
    82        166
    83         17
    84          2
    85          0
    86          0
    87          0
    89          1
    90          0
    91         36
    92          5
    93         72
    94          9
    95        249
    96         86
    97          7
    98          0
   102          0
   103          1
   104          0
   105          2
   106          0
   107          4
   108          1
   109        202
   110         21
   111          7
   112          0
   115          0
   123          4
   124          0
   137          0
   138        212
   139         23
   140          1