##TITLE=Library Entry 44564
##JCAMP-DX=Revision 4.10 
##DATA TYPE=MASS SPECTRUM
##SAMPLE DESCRIPTION=SERL
##NAMES=HP
##CAS NAME=Heptacosanoic acid, methyl ester
##MOLFORM=C28H56O2
##CAS REGISTRY NO=55682-91-2
##MP= -300
##BP= -300
##MW= 424
##$RETENTION INDEX=3027
##$CONDENSED SPECTRUM=NO
##NPOINTS= 101
##XYDATA=(XY..XY) 1 
    37         30
    39         40
    40         50
    41        400
    42        100
    43        870
    44         30
    45         40
    50         30
    53         30
    54         20
    55        360
    56         90
    57        560
    58         30
    59         60
    60         20
    63         30
    67         60
    68         40
    69        270
    70         60
    71        160
    73        120
    74        999
    75        380
    76         30
    79         30
    81         50
    82         30
    83        160
    84         40
    85        110
    86         30
    87        760
    88         40
    89         30
    91         20
    94         20
    95         50
    96         20
    97        130
    98         20
    99         30
   101         80
   102         30
   104         20
   107         30
   109         30
   111         60
   112         30
   115         40
   117         20
   120         30
   123         20
   125         50
   129         70
   130         50
   133         20
   135         60
   138         40
   140         20
   143        240
   147         80
   148         20
   151         20
   153         20
   156         20
   161         30
   166         20
   171         20
   179         40
   185         40
   187         20
   192         30
   197         30
   199         70
   200         20
   205         30
   207         30
   210         30
   213         30
   215         30
   221         60
   222         30
   223         30
   233         20
   241         40
   249         30
   255         20
   269         20
   281         40
   282         20
   283         30
   295         20
   325         30
   355         40
   356         20
   381         40
   424         70
   425         20