##TITLE=Library Entry 7010
##JCAMP-DX=Revision 4.10 
##DATA TYPE=MASS SPECTRUM
##SAMPLE DESCRIPTION=J.VOTH UNIV. OF CALIFORNIA, DAVIS, CALIFORNIA, 95616, U
SA
##NAMES=HP
##CAS NAME=1,3-Dioxolane, 2-ethenyl-2,4-dimethyl-, trans-
##MOLFORM=C7H12O2
##CAS REGISTRY NO=55683-34-6
##MP= -300
##BP= -300
##MW= 128
##$RETENTION INDEX=0
##$CONDENSED SPECTRUM=NO
##NPOINTS= 60
##XYDATA=(XY..XY) 1 
    12          2
    13          7
    14         39
    15        191
    16          5
    17          2
    18          7
    19          2
    25          5
    26         68
    27        342
    28         91
    29        123
    30         10
    31         35
    37          1
    38         13
    39        165
    40         14
    41        180
    42         62
    43        999
    44         25
    45         20
    49          2
    50         13
    51         20
    52         13
    53         70
    54        102
    55        690
    56         26
    57         24
    58          9
    59         11
    61         13
    67          1
    68          1
    69         15
    70          8
    71         29
    72          1
    73         12
    75          2
    79          1
    83         48
    84         11
    85          1
    87          2
    95          1
    97          3
    98          1
   100          0
   101        263
   102         15
   103          1
   113        262
   114         17
   115          1
   127          1