##TITLE=Library Entry 58966
##JCAMP-DX=Revision 4.10 
##DATA TYPE=MASS SPECTRUM
##SAMPLE DESCRIPTION=J.VOTH UNIV. OF CALIFORNIA, DAVIS, CALIFORNIA, 95616, U
SA
##NAMES=HP
##CAS NAME=1,3-Decadiyne
##MOLFORM=C10H14
##CAS REGISTRY NO=55682-66-1
##MP= -300
##BP= -300
##MW= 134
##$RETENTION INDEX=0
##$CONDENSED SPECTRUM=NO
##NPOINTS= 90
##XYDATA=(XY..XY) 1 
    12          4
    13          4
    14         10
    15         80
    16          3
    17          4
    18         12
    25          5
    26         64
    27        761
    28         88
    29        597
    30         13
    31          3
    36          3
    37         44
    38         67
    39        448
    40         56
    41        860
    42        129
    43        710
    44         25
    45          2
    48          2
    49         13
    50        165
    51        310
    52         89
    53         84
    54         26
    55        208
    56         67
    57         13
    58          2
    60          6
    61         58
    62        174
    63        542
    64        208
    65        195
    66         46
    67        128
    68         41
    69        177
    70         13
    71          9
    72          2
    73         10
    74         59
    75         47
    76         50
    77        314
    78        522
    79        354
    80         39
    81         18
    82         50
    83          5
    84          2
    85          5
    86          9
    87          8
    88          4
    89         34
    90         33
    91        999
    92        163
    93         58
    94          8
    95         70
    96          6
    98          3
   102         16
   103        129
   104         44
   105        702
   106        115
   107          0
   108          2
   114          2
   115         12
   116          6
   117         26
   118          5
   119        134
   120         14
   131          2
   133         15
   134          2