##TITLE=Library Entry 80322
##JCAMP-DX=Revision 4.10 
##DATA TYPE=MASS SPECTRUM
##SAMPLE DESCRIPTION=J.VOTH UNIV. OF CALIFORNIA, DAVIS, CALIFORNIA, 95616, U
SA
##NAMES=HP
##CAS NAME=3,5-Decadiyne, 2,2-dimethyl-
##MOLFORM=C12H18
##CAS REGISTRY NO=55682-73-0
##MP= -300
##BP= -300
##MW= 162
##$RETENTION INDEX=1217
##$CONDENSED SPECTRUM=NO
##NPOINTS= 112
##XYDATA=(XY..XY) 1 
    12          2
    13          4
    14         20
    15        170
    16          4
    17          2
    18          7
    25          1
    26         36
    27        508
    28         51
    29        195
    30          4
    37          3
    38         31
    39        392
    40         40
    41        668
    42         33
    43        102
    44          4
    49          4
    50        137
    51        340
    52         88
    53        209
    54         17
    55        232
    56         20
    57         27
    58          4
    60          2
    61         35
    62        120
    63        356
    64        105
    65        281
    66         47
    67        189
    68         13
    69        259
    70          5
    73         11
    74         97
    75        141
    76         80
    77        482
    78        149
    79        259
    80         32
    81         39
    82          3
    83          5
    84          5
    85         15
    86         43
    87         74
    88         29
    89        120
    90         34
    91        721
    92        112
    93        181
    94         62
    95         12
    96          3
    97          6
    98         25
    99         14
   100          4
   101         22
   102         51
   103        203
   104        175
   105        999
   106        131
   107         88
   108         12
   109          3
   110          5
   111          3
   113          7
   114          9
   115        135
   116         72
   117        236
   118        104
   119        534
   120        239
   121         39
   122          3
   127          9
   128         23
   129         23
   130         18
   131         65
   132         43
   133        325
   134         53
   135          6
   141          2
   143          2
   144          2
   145         14
   146          6
   147        417
   148         51
   149          2
   161          7
   162        526
   163         69
   164          4