##TITLE=Library Entry 66028
##JCAMP-DX=Revision 4.10 
##DATA TYPE=MASS SPECTRUM
##SAMPLE DESCRIPTION=DAVID L. STALLING
##NAMES=HP
##CAS NAME=Silane, trimethyl[(2,2',5,5'-tetrachloro[1,1'-biphenyl]-4-yl)oxy]
-
##MOLFORM=C15H14Cl4OSi
##CAS REGISTRY NO=55683-18-6
##MP= -300
##BP= -300
##MW= 378
##$RETENTION INDEX=0
##$CONDENSED SPECTRUM=NO
##NPOINTS= 24
##XYDATA=(XY..XY) 1 
    43        212
    63         91
    65        144
    73        498
    74         59
    75         59
    78         52
    79         52
    93        999
    94         73
    95        350
   147         69
   182         67
   183         50
   207        140
   209         70
   328         47
   363        257
   365        345
   367        174
   369         50
   378        147
   380        185
   382         86