##TITLE=Library Entry 2065
##JCAMP-DX=Revision 4.10 
##DATA TYPE=MASS SPECTRUM
##SAMPLE DESCRIPTION=J.VOTH UNIV. OF CALIFORNIA, DAVIS, CALIFORNIA, 95616, U
SA
##NAMES=HP
##CAS NAME=1-Heptene, 3-chloro-
##MOLFORM=C7H13Cl
##CAS REGISTRY NO=55682-98-9
##MP= -300
##BP= -300
##MW= 132
##$RETENTION INDEX=0
##$CONDENSED SPECTRUM=NO
##NPOINTS= 85
##XYDATA=(XY..XY) 1 
    12          4
    13          6
    14         21
    15        104
    16          4
    17          2
    18          7
    25          4
    26         88
    27        686
    28        154
    29        723
    30         16
    31          2
    32          3
    35         13
    36         51
    37         28
    38         77
    39        652
    40         87
    41        999
    42        181
    43        199
    44          8
    45          4
    46          2
    47          3
    48          2
    49         57
    50         41
    51         87
    52         35
    53        127
    54        538
    55        703
    56        231
    57        471
    58         21
    60          1
    61         11
    62         20
    63         30
    64          7
    65         43
    66         18
    67        196
    68         48
    69         56
    70         81
    71          5
    72          1
    73          7
    74          3
    75         95
    76        141
    77         51
    78         49
    79         21
    80          5
    81        164
    82         11
    83         23
    84          2
    85          1
    87          1
    88          8
    89         23
    90        437
    91         63
    92        140
    93         18
    94          1
    95         12
    96         69
    97        141
    98         11
   102          2
   103         19
   104         23
   105          7
   106          7
   132          5
   133          0
   134          1