##TITLE=Library Entry 68141
##JCAMP-DX=Revision 4.10 
##DATA TYPE=MASS SPECTRUM
##SAMPLE DESCRIPTION=J.VOTH UNIV. OF CALIFORNIA, DAVIS, CALIFORNIA, 95616, U
SA
##NAMES=HP
##CAS NAME=2-Pentyne, 1-chloro-4,4-dimethyl-
##MOLFORM=C7H11Cl
##CAS REGISTRY NO=55683-00-6
##MP= -300
##BP= -300
##MW= 130
##$RETENTION INDEX=0
##$CONDENSED SPECTRUM=NO
##NPOINTS= 86
##XYDATA=(XY..XY) 1 
    12          7
    13         13
    14         46
    15        302
    16          8
    18          4
    25          4
    26         45
    27        284
    28         34
    29         96
    30          3
    31          9
    35         18
    36         16
    37         52
    38         93
    39        450
    40         47
    41        265
    42         14
    43         25
    44          3
    45         12
    46          2
    47          3
    48          3
    49         28
    50         90
    51        197
    52         71
    53        248
    54         30
    55        200
    56         16
    57         13
    59          3
    60          4
    61         28
    62         48
    63        112
    64         27
    65         99
    66         23
    67        179
    68         18
    69          3
    72          2
    73         34
    74         20
    75        107
    76         16
    77        451
    78         59
    79        424
    80        150
    81         89
    82          5
    85          3
    86          3
    87         18
    88          6
    89         13
    90          5
    91         27
    92          8
    93         37
    94         23
    95        999
    96         77
    97          5
    99          6
   100          7
   101          3
   102          6
   103          1
   104          1
   113          2
   114          8
   115        262
   116         20
   117         84
   118          6
   130         12
   131          1
   132          4