##TITLE=Library Entry 77246
##JCAMP-DX=Revision 4.10 
##DATA TYPE=MASS SPECTRUM
##SAMPLE DESCRIPTION=H. NEUDECK, LEHRKANZEL ORG. CHEM., VIENNA, AUSTR
##NAMES=HP
##CAS NAME=trans-2H-Pyran, Tetrahydro-2,6-diphenyl-
##MOLFORM=C17H18O
##CAS REGISTRY NO=55696-68-9
##MP= -300
##BP= -300
##MW= 238
##$RETENTION INDEX=0
##$CONDENSED SPECTRUM=NO
##NPOINTS= 59
##XYDATA=(XY..XY) 1 
    39        104
    40         15
    41         30
    50         37
    51        179
    52         52
    53         37
    54         15
    55         24
    62         15
    63         52
    64         24
    65        127
    66         52
    74         15
    75         30
    76         37
    77        433
    78        328
    79         75
    80         30
    89         52
    90         30
    91        418
    92         52
   101         15
   102         52
   103        291
   104        999
   105        597
   106         48
   107         52
   115        150
   116         60
   117        254
   118         67
   119         24
   120        246
   121         48
   127         15
   128         52
   129         60
   130         30
   131         60
   132        328
   133         67
   134         15
   146         37
   147         75
   159          8
   160        142
   161         24
   165         15
   167         24
   211          8
   220         24
   238        433
   239         97
   240         15