##TITLE=Library Entry 2202
##JCAMP-DX=Revision 4.10 
##DATA TYPE=MASS SPECTRUM
##SAMPLE DESCRIPTION=Exported from NIST MS Search
##NAMES=HP
##CAS NAME=1-Propene, 2-chloro-
##MOLFORM=C3H5Cl
##CAS REGISTRY NO=557-98-2
##MP= -300
##BP= -300
##MW= 76
##$RETENTION INDEX=470
##$CONDENSED SPECTRUM=NO
##NPOINTS= 46
##XYDATA=(XY..XY) 1 
    12          5
    13          5
    14         10
    15         18
    16          1
    24          3
    25         11
    26         34
    27         27
    28         14
    29          2
    30          1
    31          4
    32          3
    35         20
    36         55
    37         99
    38        125
    39        522
    40         81
    41        999
    42         35
    43          3
    44         10
    45          2
    46          1
    47          9
    48          4
    49         32
    50          2
    51         10
    59          2
    60         14
    61         59
    62          8
    63         20
    64          2
    71          1
    72          3
    73         10
    74          2
    75         20
    76        478
    77         22
    78        153
    79          5