##TITLE=Library Entry 38704
##JCAMP-DX=Revision 4.10 
##DATA TYPE=MASS SPECTRUM
##SAMPLE DESCRIPTION=Japan AIST/NIMC Database- Spectrum MS-NW-5011
##NAMES=HP
##CAS NAME=Maleamic acid
##MOLFORM=C4H5NO3
##CAS REGISTRY NO=557-24-4
##MP= -300
##BP= -300
##MW= 115
##$RETENTION INDEX=0
##$CONDENSED SPECTRUM=NO
##NPOINTS= 73
##XYDATA=(XY..XY) 1 
    12         13
    13         18
    14         17
    15         28
    16        109
    17        267
    18        199
    19          2
    24         21
    25        100
    26        770
    27        467
    28        253
    29         78
    30         66
    31          2
    32          1
    34          1
    35          1
    36         12
    37         16
    38         19
    39         14
    40         29
    41         47
    42         44
    43         97
    44        828
    45        400
    46         70
    47          3
    49          2
    50         16
    51         72
    52        163
    53        228
    54        463
    55        426
    56         32
    57          2
    58          1
    60          1
    62          1
    63          1
    66          1
    67          6
    68         19
    69        119
    70         86
    71        999
    72        120
    73          7
    74          4
    76          1
    77          4
    78          7
    79          5
    80         73
    81         20
    82         28
    83          2
    84          1
    87          9
    95          1
    96          3
    97        382
    98        128
    99        575
   100         29
   101          5
   115         86
   116          6
   117          1