##TITLE=Library Entry 38629
##JCAMP-DX=Revision 4.10 
##DATA TYPE=MASS SPECTRUM
##SAMPLE DESCRIPTION=RADIAN CORP
##NAMES=HP
##CAS NAME=Butanoic acid, 2,3-dihydroxypropyl ester
##MOLFORM=C7H14O4
##CAS REGISTRY NO=557-25-5
##MP= -300
##BP= -300
##MW= 162
##$RETENTION INDEX=0
##$CONDENSED SPECTRUM=NO
##NPOINTS= 63
##XYDATA=(XY..XY) 1 
    15          2
    26          2
    27         37
    29         19
    30          4
    31         15
    39         27
    40          5
    41         90
    42         47
    43        270
    44         24
    45         13
    55         21
    56          6
    57         22
    58          3
    59          4
    60          7
    61          5
    68          2
    69          9
    70         28
    71        999
    72         49
    73         17
    74         15
    75          6
    77          3
    79          2
    87         34
    88         28
    89         40
    90          2
    91         17
    92          2
    98          3
   100          2
   101          9
   102         12
   103          5
   104          2
   105         12
   106          1
   114         15
   115          5
   116         18
   117         15
   118          3
   119          4
   126          3
   127          1
   129          9
   130          6
   131        206
   132         15
   133          5
   134          2
   135          2
   144         23
   145         39
   146          4
   147          4