##TITLE=Library Entry 17266
##JCAMP-DX=Revision 4.10 
##DATA TYPE=MASS SPECTRUM
##SAMPLE DESCRIPTION=Japan AIST/NIMC Database- Spectrum MS-NW-1331
##NAMES=HP
##CAS NAME=Methyl propyl ether
##MOLFORM=C4H10O
##CAS REGISTRY NO=557-17-5
##MP= -300
##BP= -300
##MW= 74
##$RETENTION INDEX=498
##$CONDENSED SPECTRUM=NO
##NPOINTS= 32
##XYDATA=(XY..XY) 1 
    14          3
    15         59
    16          1
    18          1
    26         10
    27         73
    28         18
    29         76
    30          3
    31         20
    32          5
    33         12
    37          2
    38          6
    39         35
    40          7
    41         87
    42         31
    43         52
    44          4
    45        999
    46         22
    47          2
    55          1
    56          3
    57          7
    58          2
    59          7
    71          2
    73         17
    74        151
    75          7