##TITLE=Library Entry 3534
##JCAMP-DX=Revision 4.10 
##DATA TYPE=MASS SPECTRUM
##SAMPLE DESCRIPTION=MASS SPECTRA OF ORGANIC COMPOUNDS, V. 6, B. H. KENNETT
 ET AL, DIV. OF FOOD RESEARCH, CSIRO, AUSTRALIA
##NAMES=HP
##CAS NAME=2,6-Nonadienal, (E,Z)-
##MOLFORM=C9H14O
##CAS REGISTRY NO=557-48-2
##MP= -300
##BP= -300
##MW= 138
##$RETENTION INDEX=1155
##$CONDENSED SPECTRUM=NO
##NPOINTS= 51
##XYDATA=(XY..XY) 1 
    26         15
    27        187
    29        115
    37          6
    38         16
    39        242
    40         46
    41        999
    42         69
    43         27
    50         12
    51         28
    52         13
    53         76
    54         25
    55         67
    56          8
    57          7
    62          3
    63          7
    64          2
    65         21
    66         16
    67         92
    68         60
    69        408
    70        436
    71         21
    75          2
    77         19
    78          7
    79         29
    80         12
    81         41
    82         10
    83          7
    84          4
    91         11
    92          4
    93          4
    94         26
    95         13
    96          4
    97          3
   105          3
   107          3
   109         17
   110          4
   120          3
   123          3
   138          2