##TITLE=Library Entry 7898
##JCAMP-DX=Revision 4.10 
##DATA TYPE=MASS SPECTRUM
##SAMPLE DESCRIPTION=Japan AIST/NIMC Database- Spectrum MS-NW-2569
##NAMES=HP
##CAS NAME=Tetracosanoic acid
##MOLFORM=C24H48O2
##CAS REGISTRY NO=557-59-5
##MP= -300
##BP= -300
##MW= 368
##$RETENTION INDEX=2760
##$CONDENSED SPECTRUM=NO
##NPOINTS= 253
##XYDATA=(XY..XY) 1 
    15          2
    16          1
    17          7
    18         26
    26          4
    27         73
    28         24
    29        230
    30          6
    31          6
    38          1
    39         51
    40         10
    41        506
    42        109
    43        999
    44         32
    45         30
    46          1
    47          1
    50          1
    51          2
    52          2
    53         24
    54         48
    55        582
    56        187
    57        998
    58         43
    59         25
    60        613
    61        338
    62         10
    63          2
    65          5
    66          6
    67         76
    68         73
    69        416
    70        140
    71        556
    72         30
    73        797
    74         76
    75          6
    76          1
    77          4
    78          3
    79         14
    80         11
    81         68
    82         93
    83        330
    84        120
    85        349
    86         24
    87        182
    88         18
    89          2
    91          3
    92          2
    93         12
    94         10
    95         54
    96         75
    97        294
    98        174
    99        117
   100         10
   101         83
   102         33
   103          3
   105          2
   106          1
   107         11
   108          7
   109         32
   110         36
   111        158
   112         57
   113         79
   114          9
   115        136
   116        118
   117          9
   118          2
   119          2
   120          1
   121         20
   122          6
   123         19
   124         24
   125         96
   126         32
   127         56
   128          7
   129        507
   130         54
   131          5
   133          1
   134          1
   135         19
   136          6
   137         10
   138         17
   139         56
   140         24
   141         42
   142          6
   143         51
   144         10
   145          1
   147          1
   149         13
   150          4
   151          5
   152         11
   153         34
   154         19
   155         31
   156          5
   157         34
   158         17
   159          2
   161          1
   163          9
   164          3
   165          3
   166          9
   167         24
   168         15
   169         25
   170          4
   171         85
   172         29
   173          3
   174          2
   175          2
   176          9
   177          6
   178          2
   179          2
   180          8
   181         17
   182         12
   183         19
   184          4
   185        135
   186         20
   187          2
   191          3
   192          1
   193          1
   194          7
   195         12
   196         12
   197         14
   198          3
   199         22
   200          9
   201          1
   205          2
   206          1
   207          1
   208          6
   209          9
   210         11
   211         12
   212          3
   213         40
   214         12
   215          2
   219          1
   220          1
   221          1
   222          5
   223          7
   224         10
   225          9
   226          2
   227         40
   228          9
   229          1
   233          1
   234          1
   235          1
   236          4
   237          6
   238          8
   239          7
   240          2
   241         29
   242          7
   243          1
   246         17
   247          3
   248         10
   249          3
   250          4
   251          5
   252          7
   253          5
   254          1
   255         12
   256          7
   257          1
   263          1
   264          4
   265          4
   266          5
   267          3
   269         56
   270         13
   271          2
   278          1
   279          2
   280          7
   281          2
   283         26
   284          7
   285          1
   293          1
   294          3
   295          1
   297          8
   298          2
   306          9
   307          3
   308         12
   309          9
   310          2
   311          9
   312          4
   322          2
   325         63
   326         14
   327          2
   332          5
   333          1
   339          8
   340          5
   341          1
   348          1
   349          1
   350          5
   351          2
   365          1
   366          1
   367          1
   368        398
   369        104
   370         14
   371          1