##TITLE=Library Entry 69215
##JCAMP-DX=Revision 4.10 
##DATA TYPE=MASS SPECTRUM
##SAMPLE DESCRIPTION=Japan AIST/NIMC Database- Spectrum MS-NW-2627
##NAMES=HP
##CAS NAME=2(1H)-Pyrimidinone
##MOLFORM=C4H4N2O
##CAS REGISTRY NO=557-01-7
##MP= -300
##BP= -300
##MW= 96
##$RETENTION INDEX=0
##$CONDENSED SPECTRUM=NO
##NPOINTS= 41
##XYDATA=(XY..XY) 1 
    12          7
    13          8
    14          9
    16          6
    24          3
    25         10
    26        187
    27         37
    28        246
    29         38
    39         57
    40        185
    41        216
    42        214
    43         20
    44         52
    45          1
    48          7
    50          6
    51         39
    52        109
    53         56
    54          9
    55          2
    57          1
    64          1
    65          2
    66          6
    67         61
    68        740
    69         96
    70          5
    76          1
    77          4
    78          1
    79          7
    94          2
    95        222
    96        999
    97         53
    98          4