##TITLE=Library Entry 110
##JCAMP-DX=Revision 4.10 
##DATA TYPE=MASS SPECTRUM
##SAMPLE DESCRIPTION=Japan AIST/NIMC Database- Spectrum MS-NW-4429
##NAMES=HP
##CAS NAME=Ethane, 1,1-dibromo-
##MOLFORM=C2H4Br2
##CAS REGISTRY NO=557-91-5
##MP= -300
##BP= -300
##MW= 186
##$RETENTION INDEX=709
##$CONDENSED SPECTRUM=NO
##NPOINTS= 39
##XYDATA=(XY..XY) 1 
    12          1
    13          1
    14          3
    15          3
    24          2
    25         15
    26        112
    27        999
    28         38
    29          1
    79         40
    80         15
    81         40
    82         15
    83          1
    91          5
    92          4
    93          6
    94          4
    95          1
   104          8
   105         24
   106         17
   107        744
   108         26
   109        698
   110         15
   170          1
   171          9
   172          2
   173         19
   174          2
   175          9
   186         62
   187          2
   188        118
   189          4
   190         58
   191          1