##TITLE=Library Entry 28180
##JCAMP-DX=Revision 4.10 
##DATA TYPE=MASS SPECTRUM
##SAMPLE DESCRIPTION=Japan AIST/NIMC Database- Spectrum MS-IW-1537
##NAMES=HP
##CAS NAME=Allyl ethyl ether
##MOLFORM=C5H10O
##CAS REGISTRY NO=557-31-3
##MP= -300
##BP= -300
##MW= 86
##$RETENTION INDEX=569
##$CONDENSED SPECTRUM=NO
##NPOINTS= 52
##XYDATA=(XY..XY) 1 
    13          1
    14          6
    15         31
    16          1
    18          2
    25          3
    26         41
    27        221
    28        158
    29        502
    30        167
    31        290
    32          3
    35          2
    36          1
    37          9
    38         27
    39        268
    40         84
    41        841
    42         73
    43        106
    44         17
    45         91
    46         11
    47          7
    49          1
    50          6
    51          8
    52          9
    53          4
    54          4
    55         58
    56         13
    57        909
    58        999
    59         86
    60          7
    61          2
    63          1
    67          2
    69          3
    70          2
    71         16
    72          4
    81          1
    82          1
    83          2
    85         13
    86        111
    87          9
    88          2