##TITLE=Library Entry 24438
##JCAMP-DX=Revision 4.10 
##DATA TYPE=MASS SPECTRUM
##SAMPLE DESCRIPTION=Japan AIST/NIMC Database- Spectrum MS-NW-7939
##NAMES=HP
##CAS NAME=Octacosanol
##MOLFORM=C28H58O
##CAS REGISTRY NO=557-61-9
##MP= -300
##BP= -300
##MW= 410
##$RETENTION INDEX=3118
##$CONDENSED SPECTRUM=NO
##NPOINTS= 191
##XYDATA=(XY..XY) 1 
    17          2
    18          7
    26          2
    27         28
    28         11
    29        133
    30          5
    31         31
    32          2
    36          1
    39         20
    40          6
    41        356
    42         90
    43        821
    44         29
    45          8
    49          1
    51          1
    52          1
    53         12
    54         75
    55        715
    56        322
    57        999
    58         47
    59          3
    61          1
    63          1
    65          3
    66         14
    67        126
    68        301
    69        654
    70        302
    71        519
    72         30
    73         11
    74          1
    76          1
    77          3
    78          2
    79          8
    80          9
    81        110
    82        448
    83        785
    84        218
    85        329
    86         23
    87          2
    90          1
    91          2
    92          2
    93          4
    94          6
    95         70
    96        219
    97        758
    98        154
    99        105
   100          9
   101          1
   104          1
   105          2
   106          3
   107          2
   108          3
   109         34
   110         93
   111        430
   112        112
   113         71
   114          5
   120          1
   121          1
   122          5
   123         25
   124         65
   125        244
   126         82
   127         48
   128          5
   133          1
   135          1
   136          3
   137         18
   138         54
   139        142
   140         61
   141         36
   142          4
   145          1
   146          1
   151          6
   152         36
   153        101
   154         48
   155         29
   156          3
   160          1
   165          4
   166         30
   167         74
   168         42
   169         20
   170          3
   179          3
   180         24
   181         58
   182         34
   183         17
   184          3
   193          2
   194         21
   195         49
   196         30
   197         14
   198          3
   207          1
   208         24
   209         40
   210         26
   211         13
   212          3
   221          2
   222         20
   223         32
   224         23
   225         10
   226          2
   235          1
   236         18
   237         30
   238         21
   239          9
   240          2
   249          1
   250         18
   251         26
   252         17
   253          7
   254          2
   264         16
   265         20
   266         16
   267          6
   268          1
   277          1
   278         14
   279         19
   280         15
   281          6
   292         12
   293         16
   294         14
   295          5
   296          1
   306         11
   307         13
   308         17
   309          7
   310          1
   320          9
   321         12
   322         13
   323          8
   324          2
   334          7
   335         10
   336         10
   337          3
   338          1
   348          5
   349          8
   350          9
   351          3
   362          3
   363          7
   364         52
   365         15
   366          3
   386          1
   390          9
   391          4
   392        177
   393         59
   394         10
   395          1
   409          2
   410          2