##TITLE=Library Entry 21347
##JCAMP-DX=Revision 4.10 
##DATA TYPE=MASS SPECTRUM
##SAMPLE DESCRIPTION=J.VOTH UNIV. OF CALIF, DAVIS, CALIFORNIA, 95616, USA
##NAMES=HP
##CAS NAME=1,4-Benzodioxin, 2,3,4a,5,6,7-hexahydro-
##MOLFORM=C8H12O2
##CAS REGISTRY NO=55702-71-1
##MP= -300
##BP= -300
##MW= 140
##$RETENTION INDEX=0
##$CONDENSED SPECTRUM=NO
##NPOINTS= 90
##XYDATA=(XY..XY) 1 
    12          3
    13          8
    14         43
    15        137
    16          7
    19          7
    25          5
    26        106
    27        476
    28        282
    29        192
    30         18
    31         22
    32          3
    33          2
    34          2
    37         13
    38         39
    39        313
    40         75
    41        288
    42        143
    43         98
    44          9
    45         63
    46          4
    47          4
    48          3
    49          4
    50         37
    51         70
    52         68
    53         84
    54         36
    55        999
    56        231
    57         37
    58          3
    59          1
    61          5
    62          6
    63         31
    64          4
    65         36
    66         16
    67         99
    68        195
    69         33
    70          7
    71          7
    73         23
    74          3
    75          3
    76          2
    77         41
    78         32
    79        114
    80         25
    81         26
    82         12
    83         26
    84        351
    85         25
    86         46
    87          3
    88          1
    91          3
    92          1
    93          2
    94          5
    95         26
    96         11
    97         17
    98          2
    99        131
   100          8
   101          1
   109          7
   110         21
   111          7
   112        580
   113         40
   114          4
   125          5
   126          1
   138          2
   139         36
   140        272
   141         25
   142          2