##TITLE=Library Entry 50005
##JCAMP-DX=Revision 4.10 
##DATA TYPE=MASS SPECTRUM
##SAMPLE DESCRIPTION=J.VOTH UNIV. OF CALIFORNIA, DAVIS, CALIFORNIA, 95616, U
SA
##NAMES=HP
##CAS NAME=1,3-Benzodioxole, 2-ethenylhexahydro-
##MOLFORM=C9H14O2
##CAS REGISTRY NO=55702-63-1
##MP= -300
##BP= -300
##MW= 154
##$RETENTION INDEX=0
##$CONDENSED SPECTRUM=NO
##NPOINTS= 87
##XYDATA=(XY..XY) 1 
    12          3
    13          5
    14         23
    15         86
    16          3
    17          2
    18          9
    19          4
    25          8
    26        126
    27        706
    28        334
    29        532
    30         14
    31        102
    32          1
    37         16
    38         51
    39        525
    40         90
    41        771
    42        249
    43        175
    44         39
    45         11
    50         10
    51         21
    52         11
    53         92
    54        172
    55        964
    56        889
    57        737
    58         71
    59          6
    61          2
    62          5
    63          9
    64          2
    65         26
    66         29
    67        187
    68        113
    69        502
    70        166
    71         30
    72         10
    73          3
    74          4
    75          2
    77         22
    78         10
    79        103
    80         65
    81        999
    82        101
    83        203
    84         36
    85         26
    86          3
    91          5
    92          9
    93         11
    94         12
    95         46
    96          9
    97        198
    98        152
    99        248
   100         17
   105          2
   107         27
   108         11
   109          7
   110         14
   111         10
   112          5
   113          2
   121          2
   123          2
   125         22
   126          7
   127        165
   128         13
   135          2
   153         40
   154          8