##TITLE=Library Entry 8569
##JCAMP-DX=Revision 4.10 
##DATA TYPE=MASS SPECTRUM
##SAMPLE DESCRIPTION=R. I. REED UNIVERSITY OF GLASGOW
##NAMES=HP
##CAS NAME=Lanostan-11-one, 3-(acetyloxy)-, (13.alpha.,14.beta.,17.alpha.)-
##MOLFORM=C32H54O3
##CAS REGISTRY NO=55700-22-6
##MP= -300
##BP= -300
##MW= 486
##$RETENTION INDEX=0
##$CONDENSED SPECTRUM=NO
##NPOINTS= 177
##XYDATA=(XY..XY) 1 
    39         66
    40         21
    41        627
    42         68
    43        999
    44         86
    45         36
    50         14
    51         12
    53         54
    54         26
    55        523
    56         68
    57        427
    58         24
    59         16
    60         13
    65         22
    66         14
    67        240
    68         72
    69        723
    70         59
    71        167
    72         19
    77         40
    78         12
    79        139
    80         38
    81        381
    82        254
    83        206
    84         30
    85         34
    91         92
    92         20
    93        231
    94        245
    95        682
    96        107
    97         99
    98         14
   105        107
   106         38
   107        220
   108         91
   109        328
   110        119
   111         56
   112         11
   113         12
   117         16
   118         10
   119        118
   120         50
   121        224
   122         87
   123        152
   124         26
   125         31
   129         14
   131         28
   132         12
   133        101
   134         48
   135        204
   136        132
   137        147
   138         27
   139         20
   143         10
   145         41
   146         17
   147         58
   148         27
   149         71
   150         40
   151         18
   152         11
   157         10
   159         42
   160         22
   161         79
   162         36
   163         57
   164         13
   165         21
   171         12
   173         27
   174         16
   175        124
   176         41
   177         52
   178         11
   185         14
   186         10
   187         23
   188         10
   189         26
   190         14
   191         20
   192         11
   193         47
   194         11
   199         11
   201         16
   202         16
   203         38
   204         11
   205         11
   206         12
   207         69
   208         29
   215         21
   216         10
   217         17
   218         18
   219         63
   220         18
   221         30
   222         19
   229         11
   230         11
   231         19
   233         11
   235         11
   241         24
   242         10
   243         13
   245         13
   249         37
   250         17
   259         20
   263         34
   264         11
   271         25
   272         13
   273         15
   275         12
   276         10
   277         46
   278         11
   286         34
   287         11
   289         11
   290        115
   291         31
   293         70
   294         13
   295         14
   303        216
   304         51
   305         13
   313         14
   317         12
   318         11
   319         22
   332        131
   333         29
   355         15
   373         17
   374         11
   383         23
   384         11
   411         26
   412         14
   424         12
   426        104
   427         40
   428         10
   468         11
   471         14
   484         36
   485         21
   486        183
   487         62
   488         11