##TITLE=Library Entry 52178
##JCAMP-DX=Revision 4.10 
##DATA TYPE=MASS SPECTRUM
##SAMPLE DESCRIPTION=A. J. HORNG
##NAMES=HP
##CAS NAME=2-Hexene, 4,4,5-trimethyl-
##MOLFORM=C9H18
##CAS REGISTRY NO=55702-61-9
##MP= -300
##BP= -300
##MW= 126
##$RETENTION INDEX=0
##$CONDENSED SPECTRUM=NO
##NPOINTS= 65
##XYDATA=(XY..XY) 1 
    14          5
    15         58
    16          1
    18          1
    26         10
    27        183
    28         19
    29         89
    30          2
    31          1
    37          4
    38         11
    39        176
    40         28
    41        375
    42         35
    43        150
    44          5
    45          1
    46          1
    49          0
    50          7
    51         19
    52          8
    53         52
    54         12
    55        510
    56         27
    57         13
    58          0
    61          0
    62          2
    63          5
    64          1
    65         13
    66          5
    67         66
    68         10
    69        108
    70         26
    71          4
    72          2
    74          0
    75          0
    77         10
    78          3
    79         10
    80          3
    81         15
    82        119
    83        999
    84         80
    85          6
    91          2
    93          1
    95          5
    96          1
    97          1
   109          0
   110          0
   111         14
   112          1
   125          0
   126         17
   127          1