##TITLE=Library Entry 64004
##JCAMP-DX=Revision 4.10 
##DATA TYPE=MASS SPECTRUM
##SAMPLE DESCRIPTION=Japan AIST/NIMC Database- Spectrum MS-NW-7426
##NAMES=HP
##CAS NAME=Benzene, 4-ethenyl-2-methoxy-1-(phenylmethoxy)-
##MOLFORM=C16H16O2
##CAS REGISTRY NO=55708-65-1
##MP= -300
##BP= -300
##MW= 240
##$RETENTION INDEX=0
##$CONDENSED SPECTRUM=NO
##NPOINTS= 85
##XYDATA=(XY..XY) 1 
    15          1
    18          1
    26          2
    27          6
    28          1
    29          1
    31          1
    37          1
    38          5
    39         41
    40          3
    41         12
    43          1
    50         12
    51         37
    52         31
    53          7
    54          1
    55          8
    61          1
    62          6
    63         23
    64          9
    65         95
    66          6
    67          1
    74          2
    75          3
    76          5
    77         53
    78         48
    79          7
    81          1
    87          1
    89         22
    90          9
    91        999
    92         77
    93         15
    94          1
    95          2
   101          1
   102          4
   103         41
   104          5
   105          5
   106          5
   107          4
   108          1
   115          2
   117          3
   118          5
   119          4
   120          1
   121         36
   122          3
   124          1
   131          2
   132          1
   133          1
   135          2
   136          3
   141          1
   147          5
   148          5
   149        138
   150         16
   151          2
   152          2
   165          2
   166          1
   167          1
   178          1
   179          2
   181          1
   191          4
   207          1
   208          1
   212          1
   223          1
   239          1
   240        204
   241         37
   242          9
   243          1