##TITLE=Library Entry 89192
##JCAMP-DX=Revision 4.10 
##DATA TYPE=MASS SPECTRUM
##SAMPLE DESCRIPTION=J.VOTH UNIV. OF CALIFORNIA, DAVIS, CALIFORNIA, 95616, U
SA
##NAMES=HP
##CAS NAME=Aziridine, 1-ethyl-2-methyl-3-(1-methylethyl)-, trans-
##MOLFORM=C8H17N
##CAS REGISTRY NO=55702-73-3
##MP= -300
##BP= -300
##MW= 127
##$RETENTION INDEX=0
##$CONDENSED SPECTRUM=NO
##NPOINTS= 80
##XYDATA=(XY..XY) 1 
     2         10
    12          1
    13          4
    14         25
    15        223
    16          6
    17          7
    18         58
    19          0
    25          3
    26         83
    27        629
    28        922
    29        519
    30         88
    31          2
    32          0
    37          9
    38         27
    39        326
    40         54
    41        523
    42        496
    43        144
    44        222
    45          6
    46          2
    47          0
    48          0
    49          1
    50          9
    51         19
    52         19
    53         58
    54         92
    55        721
    56        880
    57        105
    58         25
    59          0
    61          0
    62          1
    63          2
    64          1
    65          7
    66          5
    67         39
    68         64
    69         59
    70        120
    71         58
    72         30
    73          1
    77          3
    78          2
    79          6
    80         10
    81         41
    82         52
    83         36
    84        184
    85         18
    86          5
    93          0
    94          3
    95          1
    96         20
    97         12
    98        458
    99         49
   100          4
   108          0
   110          4
   112        999
   113        107
   114          2
   126         28
   127        236
   128         22
   129          0