##TITLE=Library Entry 58884
##JCAMP-DX=Revision 4.10 
##DATA TYPE=MASS SPECTRUM
##SAMPLE DESCRIPTION=J. PLIMMER- U. KLINGEBIEL
##NAMES=HP
##CAS NAME=2-Butanol, 2-[[4-(1,1-dimethylethyl)-2,6-dinitrophenyl]amino]-
##MOLFORM=C14H21N3O5
##CAS REGISTRY NO=55702-40-4
##MP= -300
##BP= -300
##MW= 311
##$RETENTION INDEX=0
##$CONDENSED SPECTRUM=NO
##NPOINTS= 128
##XYDATA=(XY..XY) 1 
    63         57
    64         31
    65        124
    66         52
    67         36
    68         15
    69         15
    70         52
    71         15
    72         15
    73         31
    74         21
    75         57
    76         31
    77        124
    78         62
    79         67
    80         21
    89         67
    90        999
    91         72
    92         41
    93         21
    94         15
   102         26
   103         67
   104         41
   105         57
   106         41
   107         31
   108         21
   115         52
   116         46
   117         82
   118         57
   119         41
   120         31
   121         28
   128         21
   129         21
   130         62
   131         77
   132        124
   133        103
   134         36
   135         15
   142         21
   143         31
   144         36
   145         41
   146         52
   147         62
   148         41
   149         26
   150         15
   151         15
   155        242
   156         41
   157         41
   158         41
   159         46
   160         46
   161         36
   162         31
   163         31
   170         15
   171         21
   172         31
   173         41
   174         98
   175         52
   176         36
   178         77
   179         67
   180         21
   185         21
   186         31
   187         31
   188         46
   189         36
   190         93
   191         46
   192         26
   193         10
   194         15
   195         21
   196         15
   197         36
   202         46
   203         21
   204         82
   205         31
   206         15
   207         21
   208         26
   209         21
   212        206
   213         31
   214         36
   216         15
   217         21
   218         15
   219         52
   220        299
   221         52
   222         21
   224         62
   225        247
   226         46
   232         88
   233         21
   234         21
   236        120
   237         21
   240         31
   246         21
   247         21
   248         62
   249         10
   263         10
   264         26
   265         10
   280        952
   281        180
   282         36
   296         15
   311         52
   312         15