##TITLE=Library Entry 46941
##JCAMP-DX=Revision 4.10 
##DATA TYPE=MASS SPECTRUM
##SAMPLE DESCRIPTION=J.VOTH UNIV. OF CALIFORNIA, DAVIS, CALIFORNIA, 95616, U
SA
##NAMES=HP
##CAS NAME=Azetidine, 2-methyl-1-phenyl-
##MOLFORM=C10H13N
##CAS REGISTRY NO=55702-57-3
##MP= -300
##BP= -300
##MW= 147
##$RETENTION INDEX=0
##$CONDENSED SPECTRUM=NO
##NPOINTS= 91
##XYDATA=(XY..XY) 1 
    12          1
    13          2
    14          9
    15         57
    16          1
    17          1
    18          4
    25          2
    26         45
    27        198
    28         94
    29         38
    30          8
    37         18
    38         49
    39        176
    40         24
    41         70
    42         35
    43          4
    44          3
    49          5
    50        169
    51        481
    52        110
    53         31
    54         17
    55         19
    56         18
    59          8
    60          1
    61         12
    62         26
    63         72
    64         50
    65         74
    66         21
    67          4
    68          2
    70          3
    72          1
    73          7
    74         41
    75         37
    76         57
    77        999
    78        113
    79         27
    80          3
    83          1
    86          1
    87          2
    88          3
    89          9
    90         13
    91         77
    92         20
    93         14
    94          2
    97          2
    99          1
   100          1
   101          1
   102          6
   103         46
   104        999
   105        559
   106        287
   107         21
   115          5
   116          4
   117         39
   118        128
   119        420
   120         49
   121         36
   122          3
   128          1
   129          1
   130         23
   131         11
   132        465
   133         47
   134          2
   143          1
   144          6
   145          2
   146         44
   147        601
   148         68
   149          3