##TITLE=Library Entry 8486
##JCAMP-DX=Revision 4.10 
##DATA TYPE=MASS SPECTRUM
##SAMPLE DESCRIPTION=R. I. REED UNIVERSITY OF GLASGOW
##NAMES=HP
##CAS NAME=Lanost-24-ene-7,11-dione, 3-(acetyloxy)-
##MOLFORM=C32H50O4
##CAS REGISTRY NO=55700-81-7
##MP= -300
##BP= -300
##MW= 498
##$RETENTION INDEX=0
##$CONDENSED SPECTRUM=NO
##NPOINTS= 190
##XYDATA=(XY..XY) 1 
    39         64
    40         38
    41        596
    42         60
    43        999
    44         58
    45         17
    50         11
    51         11
    53         56
    54         24
    55        594
    56         58
    57        510
    58         23
    59         12
    60         10
    65         23
    66         10
    67        236
    68         61
    69        648
    70         49
    71        200
    72         21
    77         45
    78         13
    79        132
    80         68
    81        309
    82         98
    83        212
    84         13
    85         30
    91        112
    92         32
    93        249
    94         85
    95        447
    96        103
    97        107
    98         14
   105        120
   106         37
   107        308
   108        152
   109        301
   110         68
   111         50
   112         12
   117         21
   119        121
   120         67
   121        345
   122        160
   123        181
   124         38
   125         30
   129         11
   131         28
   132         12
   133         78
   134         30
   135        195
   136        131
   137         26
   138         32
   143         11
   145         39
   146         10
   147         69
   148         21
   149         84
   150         34
   151         35
   153         13
   157         11
   158         10
   159         31
   160         14
   161         42
   162         23
   163         97
   164         38
   165         30
   166         14
   167         10
   171         10
   173         26
   174         10
   175         41
   176         11
   177         29
   178         18
   179         20
   181         41
   182         11
   183         13
   185         10
   187         21
   188         11
   189         28
   190         10
   191        157
   192         17
   193         29
   194         11
   199         11
   201         13
   203         18
   204         10
   205         18
   206         46
   207         80
   208         16
   209         10
   215         10
   217         10
   218         10
   219         19
   220        104
   221         71
   222         25
   227          9
   229          9
   231         21
   232         10
   233         13
   243         12
   244         20
   245         12
   248         11
   249         18
   250         14
   251         64
   252         14
   257         13
   259         15
   261         13
   262         10
   263         13
   267         10
   271         10
   275         13
   276         16
   277        245
   278         68
   279         27
   289         24
   290         21
   291         22
   292         13
   301         14
   302         11
   303         45
   304         48
   305         26
   306         87
   307         18
   317         11
   318         28
   319         21
   320         13
   331         13
   332         34
   333         10
   341         10
   345         11
   346         19
   347         19
   348         12
   359         32
   360         21
   387         26
   388         12
   413         27
   414         12
   415         30
   416         13
   425         20
   440         73
   441         21
   472         20
   483         34
   484         15
   485         32
   486         14
   498        394
   499        142
   500         31