##TITLE=Library Entry 80611
##JCAMP-DX=Revision 4.10 
##DATA TYPE=MASS SPECTRUM
##SAMPLE DESCRIPTION=NIST Mass Spectrometry Data Center, 2010
##NAMES=HP
##CAS NAME=Propanoic acid, pentafluoro-, 1-phenylethyl ester
##MOLFORM=C11H9F5O2
##CAS REGISTRY NO=55702-47-1
##MP= -300
##BP= -300
##MW= 268
##$RETENTION INDEX=1041
##$CONDENSED SPECTRUM=NO
##NPOINTS= 73
##XYDATA=(XY..XY) 1 
    15          1
    26          1
    27         16
    28          2
    29          2
    31          4
    37          1
    38          4
    39         23
    40          2
    41          2
    43         34
    44          2
    47          1
    50         33
    51         89
    52         20
    54          1
    61          1
    62          6
    63         22
    64          5
    65         15
    66          2
    69         60
    73          2
    74         13
    75         10
    76         14
    77        219
    78        109
    79         96
    80          6
    81          1
    86          1
    87          2
    89         12
    90          5
    91         21
    92          2
    93          2
    98          1
   100         11
   102         16
   103        157
   104        743
   105        999
   106         87
   107          4
   109         14
   110          1
   119        197
   120          6
   121         30
   122          3
   123          1
   127         40
   128          4
   147         15
   149          6
   150          1
   155          1
   177          9
   178          1
   225         72
   226          7
   249          1
   253         79
   254          9
   255          1
   268        583
   269         69
   270          6