##TITLE=Library Entry 1743
##JCAMP-DX=Revision 4.10 
##DATA TYPE=MASS SPECTRUM
##SAMPLE DESCRIPTION=J.VOTH UNIV. OF CALIFORNIA, DAVIS, CALIFORNIA, 95616, U
SA
##NAMES=HP
##CAS NAME=2-Pentanol, 5-(2-propynyloxy)-
##MOLFORM=C8H14O2
##CAS REGISTRY NO=55702-67-5
##MP= -300
##BP= -300
##MW= 142
##$RETENTION INDEX=0
##$CONDENSED SPECTRUM=NO
##NPOINTS= 79
##XYDATA=(XY..XY) 1 
    12          5
    13          9
    14         34
    15        167
    16          9
    17         14
    18         47
    19         55
    24          3
    25         15
    26         77
    27        414
    28        116
    29        436
    30         22
    31        178
    32          8
    36          3
    37         38
    38         95
    39        999
    40        123
    41        585
    42        574
    43        711
    44         73
    45        773
    46         27
    47          3
    49          2
    50          8
    51         12
    52         25
    53        107
    54        126
    55        225
    56         79
    57        153
    58        218
    59         20
    60          1
    61          1
    63          3
    65          9
    66          9
    67         67
    68         34
    69        242
    70        298
    71        369
    72         18
    73          4
    74          4
    75          2
    77          7
    78          3
    79         62
    80         10
    81         83
    82        228
    83         85
    84          8
    85        269
    86         31
    87          9
    91          2
    93          2
    94          1
    95         19
    96         11
    97         12
    98         20
    99          4
   101          7
   103         14
   104          1
   109          7
   112          8
   123          2