##TITLE=Library Entry 8426
##JCAMP-DX=Revision 4.10 
##DATA TYPE=MASS SPECTRUM
##SAMPLE DESCRIPTION=J. PLIMMER- U. KLINGEBIEL
##NAMES=HP
##CAS NAME=1,3,5-Triazine-2,4-diamine, N,N'-bis(1-methylethyl)-6-(methylsulf
inyl)-
##MOLFORM=C10H19N5OS
##CAS REGISTRY NO=55702-48-2
##MP= -300
##BP= -300
##MW= 257
##$RETENTION INDEX=0
##$CONDENSED SPECTRUM=NO
##NPOINTS= 68
##XYDATA=(XY..XY) 1 
    41        357
    42        231
    43        999
    44        189
    45         74
    46         21
    47         74
    48         32
    53         32
    54         21
    55        105
    56         53
    57        126
    58        473
    59         21
    63         42
    64         42
    67         42
    68        828
    69        221
    70         42
    71         63
    73         53
    74         42
    81         32
    82         21
    83         74
    84         42
    85        231
    86         21
    91         21
    93         53
    94         42
    95         42
    96         21
    97         32
    99         21
   109         21
   110        242
   111         63
   112         42
   127         21
   128         21
   135         21
   136         21
   137         21
   138         21
   152        168
   153         84
   154         21
   157         32
   168         21
   169         42
   184        126
   185         21
   194        105
   195         21
   196         21
   199         42
   210         21
   212         21
   215         21
   226         74
   227         21
   239         21
   240        116
   241         21
   257         42