##TITLE=Library Entry 89529
##JCAMP-DX=Revision 4.10 
##DATA TYPE=MASS SPECTRUM
##SAMPLE DESCRIPTION=J.VOTH UNIV. OF CALIFORNIA, DAVIS, CALIFORNIA, 95616, U
SA
##NAMES=HP
##CAS NAME=Aziridine, 2-(1,1-dimethylethyl)-3-methyl-1-(phenylmethyl)-
##MOLFORM=C14H21N
##CAS REGISTRY NO=55712-34-0
##MP= -300
##BP= -300
##MW= 203
##$RETENTION INDEX=0
##$CONDENSED SPECTRUM=NO
##NPOINTS= 123
##XYDATA=(XY..XY) 1 
    12          1
    13          1
    14          3
    15         39
    16          1
    17          5
    18         23
    26         14
    27        133
    28        123
    29        154
    30         18
    37          4
    38         12
    39        148
    40         16
    41        303
    42        119
    43         39
    44        478
    45         13
    49          1
    50         45
    51        102
    52         32
    53         47
    54         37
    55        172
    56         77
    57         48
    58          7
    59          1
    61          3
    62         15
    63         56
    64         21
    65        178
    66         14
    67         15
    68         19
    69        292
    70         70
    71          4
    72          1
    73          4
    74          8
    75          7
    76          8
    77         47
    78         15
    79         10
    80          6
    81          5
    82         53
    83         16
    84          5
    85          1
    86          3
    87          2
    88          2
    89         40
    90         27
    91        789
    92         67
    93          3
    94          3
    95          1
    96         21
    97          9
    98          6
   100          2
   102          1
   103          6
   104         18
   105         18
   106         10
   107          1
   110          1
   112        999
   113         80
   114          3
   116          3
   117         12
   118          7
   119          3
   120          3
   125          6
   126          3
   127          3
   128          2
   129          2
   130          5
   131          3
   132         13
   133          4
   134          7
   135          1
   143          1
   144          3
   145          5
   146         21
   148         47
   149          5
   156          1
   158          1
   159          1
   160         33
   161          7
   162          9
   163          2
   172          1
   174          7
   175          2
   176          2
   177          3
   184          1
   186          0
   188         70
   189         10
   202          8
   203         71
   204         11
   205          0