##TITLE=Library Entry 40516
##JCAMP-DX=Revision 4.10 
##DATA TYPE=MASS SPECTRUM
##SAMPLE DESCRIPTION=R.D. GRIGSBY & E.J. NORMAN, TEXAS A&M UNIVERSITY, TEXAS
, USA
##NAMES=HP
##CAS NAME=Glycine, N-(N-acetylglycyl)-, butyl ester
##MOLFORM=C10H18N2O4
##CAS REGISTRY NO=55712-35-1
##MP= -300
##BP= -300
##MW= 230
##$RETENTION INDEX=0
##$CONDENSED SPECTRUM=NO
##NPOINTS= 70
##XYDATA=(XY..XY) 1 
    14          4
    15         32
    18          2
    26          8
    27         65
    28         60
    29        132
    30        712
    31         54
    32          8
    36          4
    38          2
    39         36
    40          5
    41        121
    42         48
    43        296
    44         10
    45         48
    53          4
    54          4
    55         31
    56         28
    57        112
    58         22
    59          8
    60          7
    61          2
    67          3
    69          7
    70          2
    71         12
    72        320
    73        999
    74         48
    75          4
    76         14
    81          4
    82          2
    83          6
    85         11
    86          2
    87          5
    88          7
    91          2
    93          2
    95          3
    97          3
    99          6
   100        328
   101         17
   102         25
   109          2
   113         12
   114          7
   115          2
   129         28
   130          8
   131          4
   132         20
   133          4
   141          4
   149          3
   156          7
   157         21
   158          2
   159          4
   188          3
   230         11
   231          3