##TITLE=Library Entry 43750
##JCAMP-DX=Revision 4.10 
##DATA TYPE=MASS SPECTRUM
##SAMPLE DESCRIPTION=M.HORNING
##NAMES=HP
##CAS NAME=Indol-5-ol, 2TMS derivative
##MOLFORM=C14H23NOSi2
##CAS REGISTRY NO=55712-57-7
##MP= -300
##BP= -300
##MW= 277
##$RETENTION INDEX=1726
##$CONDENSED SPECTRUM=NO
##NPOINTS= 134
##XYDATA=(XY..XY) 1 
    41          5
    42          5
    43         95
    44         42
    45        350
    46         21
    47         17
    51          7
    53         15
    55         15
    57         16
    58         25
    59         45
    61          5
    63          6
    67          7
    69         10
    70          8
    71          7
    72         15
    73        999
    74        100
    75         66
    76         66
    77         15
    79         10
    81          6
    83         20
    84         12
    85          5
    87          5
    88          7
    89         12
    91         10
    93         10
    94          6
    95          5
    96          5
   101          5
   102         10
   103         16
   104         10
   105         10
   106          5
   107          5
   109          5
   114          6
   115         25
   116         18
   117         18
   118          6
   119         21
   120         10
   121          5
   123         23
   124          7
   128         10
   129         11
   130         72
   131         26
   132         12
   133         25
   134         15
   135         11
   143          6
   144         17
   145         12
   146         25
   147         23
   148          6
   149          5
   156         15
   157          6
   158         15
   159         15
   160         26
   161         11
   162         10
   163         15
   170         15
   171          5
   172         41
   173         18
   174         77
   175         15
   176         12
   177          5
   184          5
   186         15
   187         10
   188         37
   189         45
   190         21
   191          5
   193          5
   200          5
   202         25
   203         18
   204         50
   205         23
   206         10
   207         10
   208          5
   217          5
   218          5
   219         35
   220         11
   221         10
   230          5
   231          7
   232         52
   233         16
   234         35
   235         10
   236          5
   246         46
   247         28
   248         36
   249         16
   250         10
   260         15
   261         15
   262        530
   263        150
   264         52
   265         10
   274          6
   275         15
   276         50
   277        999
   278        270
   279        100
   280         18
   281          5