##TITLE=Library Entry 79434
##JCAMP-DX=Revision 4.10 
##DATA TYPE=MASS SPECTRUM
##SAMPLE DESCRIPTION=Japan AIST/NIMC Database- Spectrum MS-IW-1168
##NAMES=HP
##CAS NAME=2,3-Indolinedione 3-benzoylhydrazone
##MOLFORM=C15H11N3O2
##CAS REGISTRY NO=55711-62-1
##MP= -300
##BP= -300
##MW= 265
##$RETENTION INDEX=0
##$CONDENSED SPECTRUM=NO
##NPOINTS= 118
##XYDATA=(XY..XY) 1 
    26          1
    27          8
    28          9
    29          1
    37          2
    38          6
    39         12
    40          1
    41          5
    43          6
    44          3
    49          1
    50         29
    51        115
    52         12
    53          3
    54          1
    55          5
    56          2
    57          8
    59          1
    61          1
    62          5
    63          9
    64          8
    65          6
    66          2
    67          2
    69          4
    70          2
    71          6
    73          1
    74          7
    75         13
    76         40
    77        630
    78         51
    79          3
    81          3
    82          1
    83          4
    84          1
    85          4
    87          1
    88          2
    89          5
    90         10
    91          9
    92          3
    93          1
    95          3
    96          1
    97          4
    99          2
   102          7
   103         23
   104         66
   105        999
   106         74
   107          5
   108          1
   109          2
   110          1
   111          3
   113          1
   115          1
   116          7
   117          5
   118         14
   119          4
   120          3
   121         18
   122          2
   123          1
   125          1
   127          1
   130          1
   131         15
   132        232
   133         23
   134         21
   135          4
   137          1
   139          2
   141          1
   144         12
   145          3
   146         12
   147          2
   149          6
   151          1
   152          2
   153          2
   159        117
   160        544
   161         54
   162         11
   163          1
   165          2
   178          1
   179          1
   180          8
   181          2
   191          1
   193          1
   194          1
   208          2
   209          1
   220          2
   221          4
   236          5
   237        270
   238         43
   239          4
   264          3
   265        221
   266         44
   267          5