##TITLE=Library Entry 87378
##JCAMP-DX=Revision 4.10 
##DATA TYPE=MASS SPECTRUM
##SAMPLE DESCRIPTION=Exported from NIST MS Search
##NAMES=HP
##CAS NAME=Phosphoric acid, dimethyl 1-propenyl ester
##MOLFORM=C5H11O4P
##CAS REGISTRY NO=55712-50-0
##MP= -300
##BP= -300
##MW= 166
##$RETENTION INDEX=0
##$CONDENSED SPECTRUM=NO
##NPOINTS= 14
##XYDATA=(XY..XY) 1 
    39         93
    40          5
    41         67
    79        243
    80        150
   109        639
   110        999
   111         54
   120          5
   140          5
   160         15
   165         18
   166        398
   167         23