##TITLE=Library Entry 39929
##JCAMP-DX=Revision 4.10 
##DATA TYPE=MASS SPECTRUM
##SAMPLE DESCRIPTION=R.D. GRIGSBY & E.J. NORMAN, TEXAS A&M UNIVERSITY, TEXAS
, USA
##NAMES=HP
##CAS NAME=L-Valine, N-(N-acetylglycyl)-, butyl ester
##MOLFORM=C13H24N2O4
##CAS REGISTRY NO=55712-40-8
##MP= -300
##BP= -300
##MW= 272
##$RETENTION INDEX=0
##$CONDENSED SPECTRUM=NO
##NPOINTS= 66
##XYDATA=(XY..XY) 1 
    15          8
    26          3
    27         29
    28         35
    29         63
    30        206
    31         21
    32          6
    36          2
    39         20
    40          4
    41         63
    42          9
    43        105
    44          5
    45         12
    46          2
    53          4
    54          5
    55         51
    56         29
    57         45
    58          8
    59          5
    68          3
    69          9
    70         12
    71          8
    72        999
    73        238
    74         19
    75          4
    83          4
    84          5
    85          4
    86          4
    87          6
    98         12
    99          3
   100        131
   101         11
   102          3
   113          2
   114         12
   115          2
   116         33
   117         31
   118          3
   127          2
   129          9
   130         14
   131          4
   132          2
   144          2
   149          2
   155          9
   156          7
   157          4
   158          5
   171        127
   172          9
   173          2
   174          2
   199          7
   230          3
   272          7