##TITLE=Library Entry 25740
##JCAMP-DX=Revision 4.10 
##DATA TYPE=MASS SPECTRUM
##SAMPLE DESCRIPTION=J.VOTH UNIV. OF CALIFORNIA, DAVIS, CALIFORNIA, 95616, U
SA
##NAMES=HP
##CAS NAME=Decane, 5,6-bis(2,2-dimethylpropylidene)-, (E,Z)-
##MOLFORM=C20H38
##CAS REGISTRY NO=55712-56-6
##MP= -300
##BP= -300
##MW= 278
##$RETENTION INDEX=0
##$CONDENSED SPECTRUM=NO
##NPOINTS= 153
##XYDATA=(XY..XY) 1 
    14          7
    15         61
    16          3
    17          8
    18         28
    26         12
    27        337
    28         56
    29        462
    30         11
    31         15
    32          3
    37          3
    38          7
    39        171
    40         29
    41        775
    42         67
    43        565
    44         22
    45         15
    49          2
    50         13
    51         48
    52        157
    54         24
    55        552
    56         67
    57        999
    58         96
    59         24
    62          3
    63         13
    64          5
    65         50
    66         19
    67        150
    68         26
    69        730
    70         81
    71        101
    72          8
    73          7
    74          6
    75          5
    76          2
    77         87
    78         20
    79         79
    80         17
    81        136
    82         32
    83        966
    84         81
    85        133
    86         11
    87         43
    88          3
    89          3
    90          2
    91         77
    92         13
    93         57
    94         12
    95        118
    96         18
    97        691
    98         57
    99         74
   100         12
   101          9
   102          2
   103          6
   104          3
   105         30
   106          7
   107         67
   108         12
   109        104
   110         17
   111        468
   112         42
   113          3
   114          3
   115          6
   116          9
   117          6
   118          2
   119         13
   120          4
   121         29
   122          8
   123         69
   124         22
   125        126
   126         16
   127          4
   128          3
   129         10
   130          2
   131          5
   133          6
   134          2
   135         14
   136          4
   137         34
   138          6
   139         18
   140          4
   141          4
   143          3
   145          2
   147          4
   148          2
   149          8
   150          2
   151         40
   152          6
   153          2
   154          1
   155          1
   156         16
   157          2
   161          2
   163         10
   164          4
   165         85
   166         17
   167          8
   168          3
   177          7
   178          5
   179         32
   180         18
   181        104
   182         15
   183          1
   191          3
   193          4
   205          6
   206          2
   207         72
   208         12
   209          1
   221        150
   222         27
   223          2
   224          4
   236          4
   263          1
   266          6
   278         36
   279          8