##TITLE=Library Entry 76804
##JCAMP-DX=Revision 4.10 
##DATA TYPE=MASS SPECTRUM
##SAMPLE DESCRIPTION=Insect Chem. Ecol. Lab., USDA, Beltsville, MD 20705
##NAMES=HP
##CAS NAME=2-Phenylethyl tiglate
##MOLFORM=C13H16O2
##CAS REGISTRY NO=55719-85-2
##MP= -300
##BP= -300
##MW= 204
##$RETENTION INDEX=1589
##$CONDENSED SPECTRUM=NO
##NPOINTS= 49
##XYDATA=(XY..XY) 1 
    41         10
    42          1
    43         10
    44          0
    45          2
    50         10
    51         36
    52         11
    53         39
    54         21
    55        310
    56         13
    57          1
    62          2
    63         11
    64          3
    65         37
    66          2
    67          1
    69          1
    71          1
    74          2
    75          2
    76          3
    77         61
    78         34
    79         33
    80          2
    81          1
    82          6
    83        294
    84         15
    85          2
    89          7
    90          3
    91         64
    92          8
    93          0
   102          6
   103         46
   104        999
   105        153
   106          8
   118          0
   121          3
   134          0
   145          0
   204          2
   205          0