##TITLE=Library Entry 66711
##JCAMP-DX=Revision 4.10 
##DATA TYPE=MASS SPECTRUM
##SAMPLE DESCRIPTION=CARL DJERASSI DEPT OF CHEM STANFORD UNIV STANFORD CALIF
 94305
##NAMES=HP
##CAS NAME=Tricyclo[3.3.1.1(3,7)]decane-1,3-dicarboxylic acid, 4-hydroxy-
##MOLFORM=C12H16O5
##CAS REGISTRY NO=55724-16-8
##MP= -300
##BP= -300
##MW= 240
##$RETENTION INDEX=0
##$CONDENSED SPECTRUM=NO
##NPOINTS= 109
##XYDATA=(XY..XY) 1 
    37         10
    39        310
    40         60
    41        630
    42         90
    43        710
    44         40
    45        170
    47         10
    50         30
    51        100
    52         60
    53        230
    54         60
    55        470
    56        100
    57        330
    58         70
    59         10
    60         40
    63         30
    65        180
    66         70
    67        250
    68         70
    69        220
    70         60
    71        140
    73         50
    76         10
    77        480
    78        210
    79        670
    80        100
    81        330
    82         60
    83        140
    84         30
    85         50
    86        710
    87         40
    91        580
    92        260
    93        999
    94        120
    95        140
    96         30
    97         90
    98         20
    99         20
   103         30
   104         20
   105        220
   106         60
   107        190
   108         50
   109         90
   110         30
   111         50
   112         10
   113         10
   115         40
   116         20
   117         60
   118         10
   119        170
   120         70
   121        280
   122         50
   123        150
   124        110
   125         70
   129         40
   130         20
   131        290
   132         50
   133         90
   134         10
   135         60
   136        360
   137        440
   138         80
   139         20
   145         10
   147         30
   148         60
   149        280
   150         40
   151         20
   152         10
   158         10
   159         20
   160         40
   161         10
   163         10
   165         10
   166        400
   167         60
   176         60
   177        110
   178        970
   179        120
   180         10
   194        340
   195        100
   196         20
   204         60
   222        100
   240         40