##TITLE=Library Entry 29777
##JCAMP-DX=Revision 4.10 
##DATA TYPE=MASS SPECTRUM
##SAMPLE DESCRIPTION=CARL DJERASSI DEPT OF CHEM STANFORD UNIV STANFORD CALIF
 94305
##NAMES=HP
##CAS NAME=2-Pentanol, 5-methoxy-2-methyl-
##MOLFORM=C7H16O2
##CAS REGISTRY NO=55724-04-4
##MP= -300
##BP= -300
##MW= 132
##$RETENTION INDEX=0
##$CONDENSED SPECTRUM=NO
##NPOINTS= 29
##XYDATA=(XY..XY) 1 
    41        150
    42        300
    43        620
    44         20
    45        250
    46         10
    53         10
    54         10
    55         80
    56         20
    57         20
    58        240
    59        999
    60         40
    67         40
    68         10
    69         30
    70         20
    71         20
    72         20
    73         20
    74        140
    75         70
    81         10
    82         20
    83         40
    85        380
    86         60
   117         40