##TITLE=Library Entry 22343
##JCAMP-DX=Revision 4.10 
##DATA TYPE=MASS SPECTRUM
##SAMPLE DESCRIPTION=M. CALVIN
##NAMES=HP
##CAS NAME=7-Heptadecanol, 7-methyl-
##MOLFORM=C18H38O
##CAS REGISTRY NO=55723-93-8
##MP= -300
##BP= -300
##MW= 270
##$RETENTION INDEX=0
##$CONDENSED SPECTRUM=NO
##NPOINTS= 141
##XYDATA=(XY..XY) 1 
    40         29
    41        699
    42        123
    43        679
    44         25
    45         70
    46          2
    48          1
    49          2
    50          5
    51          6
    52          6
    53         82
    54         60
    55        959
    56        999
    57        799
    58         90
    59         28
    60          2
    62          1
    63          2
    64          1
    65         14
    66         16
    67        170
    68        210
    69        959
    70        340
    71        290
    72         18
    73          8
    74          2
    75          1
    76          1
    77         17
    78          4
    79         36
    80         11
    82         96
    83        519
    84        190
    85        150
    86         11
    87          6
    88          1
    91          9
    92          2
    93         10
    94          4
    95         63
    96         35
    97        360
    98        150
    99         28
   100          3
   101          2
   102          1
   103          1
   104          1
   105          2
   106          1
   107          2
   108          1
   109         23
   110         63
   111        470
   112        110
   113         23
   114          2
   115          1
   117          1
   119          1
   121          1
   122          1
   123          7
   124         20
   125         48
   126        280
   127         98
   128         17
   129        719
   130         66
   131          5
   132          1
   133          1
   135          1
   137          3
   138         12
   139         30
   140         21
   141          7
   142          2
   143          1
   147          1
   149          2
   151          1
   152          3
   153          8
   154         52
   155          8
   156          1
   165          2
   166         25
   167         92
   168         30
   169          6
   170          1
   171          1
   179          1
   180          1
   181          2
   183         32
   184          7
   185        430
   186         58
   187          5
   193          1
   194          1
   195          2
   196          2
   197          1
   199          1
   205          1
   207          1
   208          1
   209          2
   210          2
   211          1
   223          1
   224          8
   225          1
   237          1
   250          2
   251          1
   252         83
   253         20
   254          4
   255        157
   256         32
   257          2