##TITLE=Library Entry 86328
##JCAMP-DX=Revision 4.10 
##DATA TYPE=MASS SPECTRUM
##SAMPLE DESCRIPTION=CARL DJERASSI DEPT OF CHEM STANFORD UNIV STANFORD CALIF
 94305
##NAMES=HP
##CAS NAME=Aspidofractinin-17-ol, 1-ethyl-
##MOLFORM=C21H28N2O
##CAS REGISTRY NO=55724-54-4
##MP= -300
##BP= -300
##MW= 324
##$RETENTION INDEX=0
##$CONDENSED SPECTRUM=NO
##NPOINTS= 183
##XYDATA=(XY..XY) 1 
    40         40
    41        240
    42        150
    43         50
    44         60
    50         10
    51         30
    52         20
    53         70
    54         70
    55         80
    56         50
    57         30
    58         50
    63         20
    64         20
    65         40
    66         20
    67         80
    68         30
    69         20
    70         40
    72         10
    76         10
    77        100
    78         20
    79         60
    80         70
    81        130
    82         30
    83         10
    84         10
    85         10
    89         20
    90         10
    91         50
    92         10
    93         10
    94         40
    95         10
    96         70
    97         10
    98         10
   101         10
   102         10
   103         30
   104         10
   105         10
   106         20
   107         50
   108        130
   109        999
   110        140
   111         20
   112         10
   113         10
   114         10
   115         50
   116         20
   117         40
   118         10
   119         20
   120         10
   121         30
   122         70
   123         20
   124        920
   125         90
   126         20
   127         30
   128         30
   129         10
   130         30
   131         30
   132         20
   133         30
   134         30
   135         10
   136        100
   137         20
   138         10
   139         20
   140         50
   141         20
   142         20
   143         20
   144         30
   145         10
   146         40
   147         30
   148         50
   152         10
   153         20
   154        220
   155         20
   156         20
   157         20
   158         20
   159         50
   160         30
   161         40
   162         90
   165         10
   166         20
   167         40
   168         20
   169         10
   170         40
   171         20
   172         70
   173         30
   174         40
   175         10
   178         10
   179         10
   180         20
   181         10
   182         20
   183         40
   184         60
   185         30
   186         50
   187         70
   188        110
   189         20
   191         10
   192         10
   193         10
   194         10
   195         10
   196         60
   197         20
   198         30
   199         30
   200         90
   201        160
   202        370
   203         50
   208         10
   209         20
   210         30
   211         20
   212         20
   213         20
   214         10
   215         10
   222         10
   223         20
   224         40
   225         30
   226         20
   227         10
   236         10
   237         20
   238         30
   239         70
   240         40
   241         10
   251         20
   252         20
   253         60
   254         10
   265         20
   266         20
   267         50
   268        110
   269         10
   279         10
   281         40
   282         10
   293         20
   294         10
   295         90
   296        460
   297         90
   307         10
   309         40
   321         20
   322         60
   323        210
   324        600
   325        130
   326         20