##TITLE=Library Entry 80767
##JCAMP-DX=Revision 4.10 
##DATA TYPE=MASS SPECTRUM
##SAMPLE DESCRIPTION=CARL DJERASSI DEPT OF CHEM STANFORD UNIV STANFORD CALIF
 94305
##NAMES=HP
##CAS NAME=Ergost-5-en-3-ol, 22,23-dimethyl-, acetate, (3.beta.)-
##MOLFORM=C32H54O2
##CAS REGISTRY NO=55724-21-5
##MP= -300
##BP= -300
##MW= 470
##$RETENTION INDEX=0
##$CONDENSED SPECTRUM=NO
##NPOINTS= 192
##XYDATA=(XY..XY) 1 
   105        999
   106        250
   107        750
   108        380
   109        810
   110        260
   111        400
   112         90
   113         90
   115        100
   117        200
   118        100
   119        460
   120        160
   121        510
   122        260
   123        470
   124        150
   125        180
   127         80
   128        120
   129        180
   131        330
   132         50
   133        370
   134        170
   135        450
   136        350
   137        260
   138         70
   139         70
   141        120
   142         50
   143        240
   144         60
   145        340
   146         90
   147        390
   148        100
   149        310
   150         70
   151        160
   152         50
   155        120
   156         50
   157        210
   158         80
   159        390
   160        100
   161        360
   162        120
   163        180
   165        120
   167         70
   169         70
   171        130
   172        100
   173        190
   174         70
   175        170
   176         80
   177        170
   178         50
   179         80
   183         90
   184        150
   185        280
   186         70
   187        150
   188         50
   189        160
   190         50
   191        170
   192         70
   193        100
   195         70
   197        140
   199        150
   201        160
   202         70
   203        100
   205         90
   206         70
   207         70
   209        100
   211        120
   213        290
   214        140
   215        160
   216        100
   217         90
   218         50
   219         60
   220         70
   221         80
   223        120
   224        100
   225         90
   227        140
   228        130
   229        260
   230        150
   231        130
   232         60
   233         50
   239         70
   241         90
   242         90
   243        140
   244        160
   245        120
   246        150
   247        150
   253        160
   255        290
   256        190
   257        150
   258         50
   259         90
   260         60
   261         60
   262         90
   263        100
   264         90
   265         80
   267        120
   269        220
   270         70
   271        150
   272         60
   273         90
   274         50
   275         60
   281         50
   283         90
   285        120
   287         70
   288         50
   289        130
   290        100
   291         90
   299         60
   300         20
   301         50
   302         40
   303         40
   304         70
   305         50
   313         30
   314         50
   315         60
   327         30
   328         50
   329         40
   351         40
   352         20
   353        120
   354         50
   355         50
   356         40
   357         30
   364         50
   365         80
   366         90
   367        130
   368        530
   369        160
   370         70
   371         50
   379         50
   380        100
   381        100
   382        170
   383        150
   384        110
   385         50
   386         40
   394         50
   395         50
   396        160
   397        100
   398        180
   399         70
   400         50
   410        100
   411         40
   412        110
   413         30
   414         50
   415         20
   470         20
   471         10