##TITLE=Library Entry 76424
##JCAMP-DX=Revision 4.10 
##DATA TYPE=MASS SPECTRUM
##SAMPLE DESCRIPTION=CARL DJERASSI DEPT OF CHEM STANFORD UNIV STANFORD CALIF
 94305
##NAMES=HP
##CAS NAME=Silane, [[3-(3-bromophenyl)-3-butenyl]oxy]trimethyl-
##MOLFORM=C13H19BrOSi
##CAS REGISTRY NO=55724-00-0
##MP= -300
##BP= -300
##MW= 298
##$RETENTION INDEX=0
##$CONDENSED SPECTRUM=NO
##NPOINTS= 22
##XYDATA=(XY..XY) 1 
    41         80
    43         30
    47         10
    58         10
    59         20
    73        860
    74         80
    75        180
   101        100
   102         20
   103        999
   104         80
   105         10
   115         20
   128         20
   129         40
   253         20
   255         20
   283         30
   285         30
   298         20
   300         20