##TITLE=Library Entry 54122
##JCAMP-DX=Revision 4.10 
##DATA TYPE=MASS SPECTRUM
##SAMPLE DESCRIPTION=D.G.I.KINGSTON POLYTECH. INST., BLACKSBURG, VIRGINIA, U
SA
##NAMES=HP
##CAS NAME=4H-Cyclopentacycloocten-4-one, decahydro-
##MOLFORM=C11H18O
##CAS REGISTRY NO=55723-95-0
##MP= -300
##BP= -300
##MW= 166
##$RETENTION INDEX=0
##$CONDENSED SPECTRUM=NO
##NPOINTS= 58
##XYDATA=(XY..XY) 1 
    39        230
    40         50
    41        610
    42         50
    43         60
    53        140
    54        510
    55        680
    56         80
    57         10
    65         30
    66         50
    67        590
    68        320
    69        150
    70         60
    77         50
    78         10
    79        110
    80        100
    81        410
    82        370
    83        450
    84        999
    85        100
    91         40
    92         30
    93         50
    94        260
    95        550
    96        460
    97        820
    98        400
   105         50
   106         60
   107         50
   108        120
   109        400
   110        250
   111        300
   112        350
   113         30
   119        120
   120        150
   121         30
   122        100
   123        200
   124        120
   125         70
   134         50
   137        120
   138         60
   148        120
   149         30
   151         40
   165         10
   166        750
   167         80