##TITLE=Library Entry 35309
##JCAMP-DX=Revision 4.10 
##DATA TYPE=MASS SPECTRUM
##SAMPLE DESCRIPTION=CARL DJERASSI DEPT OF CHEM STANFORD UNIV STANFORD CALIF
 94305
##NAMES=HP
##CAS NAME=4-Piperidineacetic acid, 1-acetyl-5-ethyl-2-[3-(2-hydroxyethyl)-1
H-indol-2-yl]-.alpha.-methyl-, methyl ester
##MOLFORM=C23H32N2O4
##CAS REGISTRY NO=55724-47-5
##MP= -300
##BP= -300
##MW= 400
##$RETENTION INDEX=0
##$CONDENSED SPECTRUM=NO
##NPOINTS= 295
##XYDATA=(XY..XY) 1 
    60        744
    61        170
    62         42
    63        170
    64        127
    65        368
    66        148
    67        510
    68        510
    69        999
    70        361
    71        872
    72        191
    73        702
    74        106
    75        170
    76         85
    77        368
    78        106
    79        276
    80        276
    81        517
    82        368
    83        553
    84        297
    85        411
    86         85
    87        141
    88         92
    89         56
    90         70
    91        283
    92         92
    93        227
    94        227
    95        312
    96        205
    97        397
    98        170
    99        148
   100         35
   101         70
   102         42
   103         63
   104         56
   105        106
   106        120
   107        156
   108        496
   109        212
   110        709
   111        319
   112         85
   113         92
   114         35
   115         92
   116         42
   117         70
   118         63
   119        113
   120         78
   121         85
   122         78
   123        106
   124        106
   125        106
   126         63
   127         85
   128         70
   129        120
   130        134
   131         28
   132         63
   133         56
   134         42
   135         63
   136         78
   137         85
   138         85
   139         63
   140         49
   141         49
   142         35
   143         70
   144         92
   145         42
   146         49
   147         56
   148         63
   149         92
   150        134
   151         56
   152        234
   153         49
   154         56
   155         49
   156        127
   157         70
   158         56
   159         49
   160         42
   161         28
   162         21
   163         35
   164         28
   165         35
   166         42
   167         56
   168         70
   169         56
   170         42
   171         28
   172         35
   173         21
   174         14
   175        134
   176         85
   177         28
   178         42
   179         21
   180         70
   181         49
   182         56
   183         49
   184         63
   185         49
   186         49
   187         56
   188         28
   189         14
   190         28
   191         35
   192         28
   193         42
   194         78
   195         49
   196         85
   197         42
   198        148
   199         35
   200         21
   201         35
   202         21
   203         56
   204         63
   205         35
   206         42
   207         49
   208         63
   209         49
   210         63
   211         42
   212         35
   213         28
   214         14
   215         14
   216          7
   217         14
   218         28
   219         28
   220         49
   221         56
   222         63
   223         63
   224         99
   225        141
   226         78
   227         21
   228         14
   229         14
   230         14
   231          7
   232         14
   233         21
   234         28
   235         35
   236         42
   237         85
   238         78
   239        163
   240        312
   241         70
   242         28
   243         14
   244         14
   245          7
   246          7
   247         14
   248         28
   249         35
   250         28
   251         49
   252         49
   253         28
   254         28
   255         14
   256         49
   257         14
   258          7
   259          7
   261          7
   262         14
   263         21
   264          7
   265         28
   266         14
   267         56
   268         21
   269         63
   270         21
   271          7
   275         14
   276          7
   277          7
   278          7
   279         28
   280         14
   281         35
   282         21
   283         28
   284         21
   285         14
   286          7
   290         14
   291         14
   292         14
   293         28
   294         21
   295         92
   296         21
   297         28
   298         14
   299         14
   304         14
   305          7
   306         14
   307         14
   308         28
   309         35
   310         21
   311         63
   312         21
   313        198
   314         49
   315         14
   321         21
   322         14
   323         21
   324          7
   325         56
   326         14
   327        290
   328         70
   329         14
   335          7
   336         14
   337         42
   338         14
   339        127
   340         42
   341         28
   342         14
   343         14
   351         28
   352         14
   353         70
   354         14
   355        184
   356         49
   357        170
   358         42
   365         35
   366         14
   367         49
   368        191
   370         85
   371         28
   372         14
   379          7
   380         14
   381         42
   382         63
   383        127
   384         42
   385        290
   386         78
   387         14
   395         35
   396         28
   397         28
   398         85
   399         56
   400        227
   401         92
   402         21