##TITLE=Library Entry 10495
##JCAMP-DX=Revision 4.10 
##DATA TYPE=MASS SPECTRUM
##SAMPLE DESCRIPTION=T. CLERC
##NAMES=HP
##CAS NAME=2-Pentenal, 2-methyl-4-oxo-5-(2,3,4,5-tetrahydro-5-methyl[2,3'-bi
furan]-5-yl)-
##MOLFORM=C15H18O4
##CAS REGISTRY NO=55721-95-4
##MP= -300
##BP= -300
##MW= 262
##$RETENTION INDEX=0
##$CONDENSED SPECTRUM=NO
##NPOINTS= 61
##XYDATA=(XY..XY) 1 
    31         15
    39        384
    40         90
    41        546
    42         46
    43        999
    44         53
    50         30
    51         64
    52         44
    53        153
    54         30
    55         92
    58         23
    59         86
    65         60
    66         38
    67         61
    68         70
    69        292
    70         41
    71         23
    77        123
    78         33
    79        184
    80         46
    81        138
    82         40
    83         55
    91         38
    93         30
    94        138
    95        215
    97        830
    98        400
    99         46
   107        200
   108        184
   109        153
   110         75
   111         46
   119         16
   121         29
   122         18
   123         41
   129         92
   131         23
   133         30
   134         47
   135        100
   136         18
   137         30
   148         30
   149         46
   150         76
   151        784
   152        107
   162        107
   164        184
   244         16
   262         92