##TITLE=Library Entry 87190
##JCAMP-DX=Revision 4.10 
##DATA TYPE=MASS SPECTRUM
##SAMPLE DESCRIPTION=NIST Mass Spectrometry Data Center
##NAMES=HP
##CAS NAME=3.alpha.-Tigloyloxynortropane
##MOLFORM=C12H19NO2
##CAS REGISTRY NO=55727-41-8
##MP= -300
##BP= -300
##MW= 209
##$RETENTION INDEX=1962
##$CONDENSED SPECTRUM=NO
##NPOINTS= 40
##XYDATA=(XY..XY) 1 
    27         24
    28         13
    29         47
    30         11
    32          7
    38          7
    39         24
    45         12
    50         19
    53         21
    54         24
    55         95
    56         19
    59          7
    65         24
    67        116
    68        178
    80        185
    81         62
    82         69
    83         44
    84         11
   100          4
   108         73
   109         30
   110        999
   111         54
   124         16
   125         10
   126         23
   128          4
   129          7
   136          6
   153          5
   168          8
   180          3
   193          6
   194         31
   209         69
   210          8