##TITLE=Library Entry 71736
##JCAMP-DX=Revision 4.10 
##DATA TYPE=MASS SPECTRUM
##SAMPLE DESCRIPTION=Japan AIST/NIMC Database- Spectrum MS-IW-4189
##NAMES=HP
##CAS NAME=Icosanoic anhydride
##MOLFORM=C40H78O3
##CAS REGISTRY NO=55726-22-2
##MP= -300
##BP= -300
##MW= 606
##$RETENTION INDEX=0
##$CONDENSED SPECTRUM=NO
##NPOINTS= 207
##XYDATA=(XY..XY) 1 
    17          2
    18          7
    26          1
    27         21
    28         10
    29         57
    30          1
    31          1
    32          1
    36          4
    38          1
    39         13
    40          3
    41        150
    42         31
    43        278
    44          9
    45          6
    51          1
    53          8
    54         27
    55        266
    56         74
    57        284
    58         15
    59          7
    60        133
    61         57
    62          2
    65          2
    66          4
    67         49
    68         51
    69        160
    70         85
    71        170
    72         11
    73        179
    74         19
    75          1
    77          2
    78          2
    79         13
    80         11
    81         51
    82         59
    83        209
    84        205
    85        114
    86          9
    87         58
    88          9
    89          1
    91          2
    92          1
    93         13
    94         13
    95         38
    96         52
    97        188
    98        999
    99        101
   100          9
   101         24
   102         12
   103          1
   105          1
   107          9
   108          7
   109         21
   110         23
   111        157
   112        246
   113         41
   114          5
   115         41
   116         27
   117          2
   119          1
   121         15
   122          6
   123         12
   124         15
   125         54
   126         26
   127         18
   128          3
   129        117
   130         18
   131          2
   133          1
   135         11
   136          4
   137          8
   138         10
   139         22
   140         11
   141         13
   142          3
   143         24
   144         10
   145          1
   149          7
   150          2
   151          4
   152          8
   153         12
   154          9
   155         10
   156          2
   157         31
   158         11
   159          1
   163          3
   164          1
   165          2
   166          6
   167          9
   168          6
   169          9
   170          2
   171         40
   172         11
   173          1
   177          2
   178          1
   179          2
   180          5
   181          6
   182          6
   183          7
   184          1
   185         50
   186          9
   187          1
   191          1
   192          1
   193          1
   194          5
   195          5
   196          6
   197          5
   198          1
   199         21
   200          7
   201          1
   205          1
   206          1
   207          1
   208          5
   209          4
   210          6
   211          3
   212          1
   213         47
   214          9
   215          1
   219          1
   220          1
   221          1
   222          2
   223          3
   224          8
   225          2
   227         34
   228          7
   229          1
   233          1
   237          3
   238          6
   239          2
   241         24
   242          5
   246          1
   247          1
   250         10
   251          8
   252          9
   253          4
   255         16
   256          5
   265          2
   266          4
   267          1
   269         61
   270         11
   271          1
   275          1
   276          5
   277          2
   279          1
   283         13
   284          3
   292          2
   293          3
   294         18
   295         34
   296          7
   297          1
   310          2
   311          3
   312        294
   313         66
   314          8
   315          1
   336          1
   354          2