##TITLE=Library Entry 11768
##JCAMP-DX=Revision 4.10 
##DATA TYPE=MASS SPECTRUM
##SAMPLE DESCRIPTION=CARL DJERASSI DEPT OF CHEM STANFORD UNIV STANFORD CALIF
 94305
##NAMES=HP
##CAS NAME=Aspidofractinine-3-carboxylic acid, 1-acetyl-6-hydroxy-, methyl e
ster, (2.alpha.,3.beta.,5.alpha.,6.beta.)-
##MOLFORM=C23H28N2O4
##CAS REGISTRY NO=55724-60-2
##MP= -300
##BP= -300
##MW= 396
##$RETENTION INDEX=0
##$CONDENSED SPECTRUM=NO
##NPOINTS= 203
##XYDATA=(XY..XY) 1 
    40         80
    41        560
    42        330
    43        999
    44        120
    45         30
    49         30
    50        170
    51        220
    52        180
    53        100
    54         90
    55        290
    56        640
    57        140
    58         30
    59         10
    61         10
    62         10
    63         50
    64         10
    65         40
    66         20
    67         70
    68         60
    69        210
    70         50
    71         20
    72         10
    73        100
    74         40
    75         30
    76         40
    77        200
    78        680
    79        110
    80         40
    81         60
    82         40
    83         50
    84        350
    85         30
    86         10
    88         10
    89         20
    90         10
    91         50
    92         10
    93         30
    94         30
    95         30
    96         30
    97         20
    98         10
    99         10
   100         10
   101         20
   102         20
   103         20
   104         20
   105         20
   106         30
   107         60
   108         50
   109         50
   110         30
   111         10
   112         40
   113         10
   114         10
   115         80
   116         30
   117         30
   118         20
   119         20
   120         10
   121         20
   122         20
   123         30
   124        120
   125        710
   126         80
   127         40
   128         40
   129         30
   130         80
   131         20
   132         10
   133         10
   134         10
   135         10
   136         10
   137         10
   138         20
   139         30
   140        270
   141         50
   142         20
   143        120
   144        140
   145         10
   148         10
   151         10
   152         50
   153         20
   154         40
   155         30
   156         80
   157         70
   158         80
   159         20
   165         10
   166         20
   167         70
   168         70
   169         60
   170         30
   171         30
   172         10
   178         10
   179         10
   180         50
   181         40
   182         60
   183         40
   184         20
   185         10
   186         10
   189         10
   191         10
   192         10
   193         30
   194         40
   195         50
   196         30
   197         30
   198         10
   199         20
   200         30
   204         10
   205         10
   206         30
   207         50
   208         40
   209         30
   210         20
   211         20
   213         10
   218         10
   219         20
   220         20
   221         30
   222         30
   223         20
   224         10
   233         10
   234         10
   235         10
   236         10
   237         20
   238         20
   239         10
   247         10
   248         10
   249         30
   250         10
   251         20
   252         10
   253         10
   263         10
   264         10
   265         20
   266         10
   267         30
   268         10
   275         10
   276         10
   277         30
   278         10
   279         20
   281         20
   282         20
   291         10
   292         20
   293         30
   294         20
   295         80
   296         20
   308         20
   309         10
   310        120
   311         30
   318         20
   319         20
   320         90
   321         30
   322         20
   323         10
   336         30
   337        100
   338        330
   339         80
   340         20