##TITLE=Library Entry 35331
##JCAMP-DX=Revision 4.10 
##DATA TYPE=MASS SPECTRUM
##SAMPLE DESCRIPTION=CARL DJERASSI DEPT OF CHEM STANFORD UNIV STANFORD CALIF
 94305
##NAMES=HP
##CAS NAME=Dasycarpidan-1-methanol, acetate (ester)
##MOLFORM=C20H26N2O2
##CAS REGISTRY NO=55724-48-6
##MP= -300
##BP= -300
##MW= 326
##$RETENTION INDEX=0
##$CONDENSED SPECTRUM=NO
##NPOINTS= 223
##XYDATA=(XY..XY) 1 
    60        350
    61        130
    63         20
    65         40
    66         30
    67        320
    68        210
    69        999
    70        273
    71        410
    72         30
    73        520
    74         46
    75         20
    76         20
    77         80
    78         30
    79        120
    80         60
    81        430
    82        180
    83        440
    84        180
    85        240
    86         40
    87        110
    88         20
    89         20
    91         60
    92         20
    93        100
    94         90
    95        220
    96        160
    97        340
    98        160
    99         80
   100         30
   101        170
   102         30
   103         20
   105         50
   106         20
   107         70
   108         50
   109        160
   110         90
   111        230
   112         70
   113         50
   114         30
   115         80
   116         30
   117         30
   118         20
   119         40
   120         20
   121         70
   122         50
   123        120
   124        340
   125        120
   126         40
   127         50
   129        173
   130         40
   131         30
   133         26
   134         20
   135         60
   136         40
   137         90
   138         40
   139         60
   140         30
   141         40
   143         40
   144         20
   145         20
   147         20
   149         80
   150         20
   151         53
   152         43
   153         36
   154         43
   155         46
   156         36
   157         36
   158         13
   159         13
   160          6
   161         16
   162         10
   163         36
   164         20
   165         43
   166         40
   167        116
   168         93
   169         40
   170         20
   171         43
   172         13
   173         10
   175         13
   176         10
   177         33
   178         30
   179         46
   180        190
   181         73
   182         43
   183         63
   184         20
   185         60
   186         10
   187         10
   189         16
   190         13
   191         50
   192         43
   193         70
   194         93
   195         70
   196         56
   197         40
   198         20
   199         23
   200          6
   201         10
   202          6
   203         16
   204         26
   205         33
   206         60
   207         63
   208        110
   209         83
   210         40
   211         26
   212          6
   213         33
   214         10
   215          6
   216          6
   217         13
   218         13
   219         16
   220         30
   221         76
   222        156
   223        116
   224         40
   225         16
   226          6
   227         13
   228          6
   229          6
   230          3
   231         10
   232          6
   233         13
   234         13
   235         46
   236         26
   237         56
   238         16
   239         23
   240          6
   241         20
   242         13
   243         10
   245          6
   246          6
   247          6
   249         13
   250         10
   251         23
   252         33
   253         33
   254         10
   255          6
   256         63
   257         23
   258          3
   259          6
   260          6
   261          6
   263         10
   264         30
   265         30
   266         33
   267         60
   268         16
   269         46
   270         20
   271          6
   273          6
   275          6
   279          6
   280          6
   281         10
   282         10
   283          6
   284         43
   285         10
   287          6
   289          3
   294         23
   295         10
   296          6
   297          6
   300          3
   303          3
   308         20
   309          6
   311          6
   323         10
   324         10
   325         10
   326         40
   327         13