##TITLE=Library Entry 86944
##JCAMP-DX=Revision 4.10 
##DATA TYPE=MASS SPECTRUM
##SAMPLE DESCRIPTION=CARL DJERASSI DEPT OF CHEM STANFORD UNIV STANFORD CALIF
 94305
##NAMES=HP
##CAS NAME=Aspidofractinin-3-ol, 17-methoxy-, (2.alpha.,5.alpha.)-
##MOLFORM=C20H26N2O2
##CAS REGISTRY NO=55724-65-7
##MP= -300
##BP= -300
##MW= 326
##$RETENTION INDEX=0
##$CONDENSED SPECTRUM=NO
##NPOINTS= 185
##XYDATA=(XY..XY) 1 
    41        820
    42        910
    43        430
    44        140
    45         50
    47        530
    48        320
    49        180
    50        160
    51        120
    52         80
    53        210
    54        150
    55        350
    56        140
    57        130
    58         60
    59         10
    60         10
    61         10
    62         30
    63         80
    64         30
    65        100
    66         50
    67        220
    68         90
    69         80
    70         50
    71         30
    72         20
    73         10
    74         20
    75         40
    76         40
    77        160
    78         60
    79        140
    80         90
    81        150
    82         60
    83        810
    84         30
    85        380
    86         10
    87         70
    88         10
    89         50
    90         30
    91         80
    92         20
    93         40
    94         40
    95         50
    96        160
    97         30
    98         10
    99         10
   100         10
   101         10
   102         30
   103         40
   104         20
   105         20
   106         10
   107         30
   108         60
   109        250
   110        999
   111        100
   112         10
   113         10
   114         20
   115         70
   116         30
   117         60
   118         20
   119         10
   120         10
   121         10
   122         30
   123         10
   124        220
   125         30
   126         10
   127         30
   128         50
   129         20
   130         70
   131         20
   132         20
   133         10
   134         10
   136         20
   138        120
   139         20
   140         30
   141         30
   142         30
   143         30
   144         40
   145         30
   146         50
   147         10
   148         20
   149         10
   151         10
   152         10
   153         10
   154         50
   155         40
   156         30
   157         20
   158         50
   159         50
   160         70
   161         20
   162         40
   165         10
   166         20
   167         40
   168         30
   169         10
   170         30
   171         20
   172         30
   173         50
   174         80
   175         20
   178         10
   179         10
   180         20
   181         10
   182         10
   183         20
   184         40
   185         20
   186         50
   187         20
   188         30
   189         50
   191         10
   192         10
   193         10
   194         10
   195         10
   196         10
   197         20
   198         20
   199         20
   200         10
   201         10
   202         10
   203         10
   204         10
   207         10
   208         10
   209         10
   210         20
   211         10
   212         20
   213         10
   215         10
   220         10
   221         10
   222         10
   223         10
   224         10
   225         10
   226         10
   227         10
   236         10
   237         10
   239         10
   252         10
   254         10
   265         10
   267         10
   281         10
   295         10
   298         10
   324         20
   325         20
   326        130
   327         40