##TITLE=Library Entry 19868
##JCAMP-DX=Revision 4.10 
##DATA TYPE=MASS SPECTRUM
##SAMPLE DESCRIPTION=CARL DJERASSI DEPT OF CHEM STANFORD UNIV STANFORD CALIF
 94305
##NAMES=HP
##CAS NAME=4-Nonene, 2-methyl-
##MOLFORM=C10H20
##CAS REGISTRY NO=55724-84-0
##MP= -300
##BP= -300
##MW= 140
##$RETENTION INDEX=0
##$CONDENSED SPECTRUM=NO
##NPOINTS= 30
##XYDATA=(XY..XY) 1 
    41        455
    42         99
    43        455
    44          9
    45         19
    51          9
    53         69
    54        108
    55        999
    56        831
    57        267
    65          9
    67         59
    68         39
    69        475
    70        188
    71         19
    77         19
    79         19
    81         39
    82         19
    83         89
    84         69
    85          9
    97         79
    98         29
   111          9
   112         29
   125         19
   140        148