##TITLE=Library Entry 34711
##JCAMP-DX=Revision 4.10 
##DATA TYPE=MASS SPECTRUM
##SAMPLE DESCRIPTION=ASES Database, Dalian Institute, P.R. China
##NAMES=HP
##CAS NAME=Pentanal, 2,2-dimethyl-, hydrazone
##MOLFORM=C7H16N2
##CAS REGISTRY NO=55724-26-0
##MP= -300
##BP= -300
##MW= 128
##$RETENTION INDEX=0
##$CONDENSED SPECTRUM=NO
##NPOINTS= 17
##XYDATA=(XY..XY) 1 
    27        466
    39        353
    41        856
    42        351
    43        995
    54        224
    55        325
    56        295
    68        181
    69        999
    70        378
    71        268
    84         84
    85         83
    96         55
   112         27
   113        111