##TITLE=Library Entry 70100
##JCAMP-DX=Revision 4.10 
##DATA TYPE=MASS SPECTRUM
##SAMPLE DESCRIPTION=CARL DJERASSI DEPT OF CHEM STANFORD UNIV STANFORD CALIF
 94305
##NAMES=HP
##CAS NAME=1,2-Cyclohexanediol, dimethanesulfonate
##MOLFORM=C8H16O6S2
##CAS REGISTRY NO=55724-11-3
##MP= -300
##BP= -300
##MW= 272
##$RETENTION INDEX=0
##$CONDENSED SPECTRUM=NO
##NPOINTS= 134
##XYDATA=(XY..XY) 1 
    41        470
    42         80
    43        240
    44        160
    45        170
    46         50
    47         10
    48         20
    50         20
    51         30
    52         20
    53         60
    54         60
    55        210
    56         30
    57        190
    58         40
    63         10
    64         30
    65         30
    66         10
    67        190
    68         30
    69        310
    70        120
    71         40
    75         10
    77         90
    78         20
    79        910
    80        310
    81        420
    82         50
    83         70
    85         30
    91         10
    95         10
    96         20
    97        999
    98        120
    99         30
   103          2
   104          2
   105          3
   106          1
   107          3
   108          3
   109         13
   110          5
   111         18
   112          8
   113          5
   115          2
   116          2
   117          1
   118          1
   119          2
   120          2
   121          3
   122          4
   123          7
   124          2
   125          7
   126          2
   127          4
   128          1
   129          2
   130          1
   131          2
   133          2
   134          2
   135         13
   136          1
   137          4
   138          2
   139          2
   140          2
   141          1
   142          1
   143          6
   144          1
   145          2
   146          1
   147          1
   148        100
   149         23
   150          7
   151          3
   152          2
   153          2
   154          2
   155          2
   156          1
   157          2
   158          3
   159          1
   160          1
   161          5
   162          3
   163          2
   164          1
   165          3
   166          1
   167          2
   168          1
   169          2
   170          1
   171          1
   175          5
   176         84
   177         11
   178          5
   179          3
   180          1
   182          1
   187          1
   188          1
   189          5
   190          2
   191          1
   193         80
   194          6
   195          4
   196          3
   197          1
   202          2
   203          1
   204          1
   205          1
   207          1
   210          1
   217          2
   218          1
   232          4