##TITLE=Library Entry 41765
##JCAMP-DX=Revision 4.10 
##DATA TYPE=MASS SPECTRUM
##SAMPLE DESCRIPTION=CARL DJERASSI DEPT OF CHEM STANFORD UNIV STANFORD CALIF
 94305
##NAMES=HP
##CAS NAME=Benzeneacetamide, TMS derivative
##MOLFORM=C11H17NOSi
##CAS REGISTRY NO=55724-32-8
##MP= -300
##BP= -300
##MW= 207
##$RETENTION INDEX=0
##$CONDENSED SPECTRUM=NO
##NPOINTS= 71
##XYDATA=(XY..XY) 1 
    40         20
    41         30
    42         30
    43        130
    44        100
    45        250
    46         30
    47        110
    48         10
    49         10
    50         60
    51        120
    52         30
    53         10
    55         10
    56         20
    57         20
    58         40
    59         50
    60         10
    61         60
    62         40
    63        100
    64         30
    65        130
    66         30
    67         10
    70         40
    71         10
    72         50
    73        999
    74        130
    75        560
    76         50
    77         50
    78         10
    85         10
    86         10
    87         10
    88         10
    89        120
    90        170
    91        310
    92        620
    93         50
    96         10
   100        100
   101         10
   102         10
   103         10
   105         10
   115         10
   116        290
   117        350
   118         40
   130         20
   131         20
   132         10
   133         10
   135         20
   146         80
   147        230
   148         40
   149         10
   189         10
   190         10
   192        110
   193         20
   194         10
   207         10
   208         10