##TITLE=Library Entry 85668
##JCAMP-DX=Revision 4.10 
##DATA TYPE=MASS SPECTRUM
##SAMPLE DESCRIPTION=CARL DJERASSI DEPT OF CHEM STANFORD UNIV STANFORD CALIF
 94305
##NAMES=HP
##CAS NAME=Aspidofractinin-17-ol, 1-acetyl-, acetate (ester)
##MOLFORM=C23H28N2O3
##CAS REGISTRY NO=55724-55-5
##MP= -300
##BP= -300
##MW= 380
##$RETENTION INDEX=0
##$CONDENSED SPECTRUM=NO
##NPOINTS= 175
##XYDATA=(XY..XY) 1 
    41        120
    42        110
    43        900
    44         60
    45         10
    51         20
    52         10
    53         30
    54         30
    55         50
    56         40
    57         30
    58         30
    63         10
    65         20
    66         10
    67         50
    68         20
    69         20
    70         30
    77         60
    78         20
    79         40
    80         40
    81         90
    82         20
    83         10
    84         10
    85         10
    89         10
    91         40
    92         10
    93         30
    94         30
    95         30
    96         50
    97         10
   102         10
   103         20
   104         10
   105         20
   106         10
   107         40
   108        100
   109        999
   110        110
   111         10
   115         30
   116         20
   117         20
   118         10
   119         10
   120         10
   121         20
   122         50
   123         20
   124        350
   125         30
   127         20
   128         20
   129         10
   130         30
   131         20
   132         10
   133         10
   134         10
   135         10
   136         60
   137         30
   140         10
   141         10
   142         10
   143         20
   144         20
   145         20
   146         40
   147         10
   148         20
   149         10
   154         30
   155         20
   156         10
   157         10
   158         10
   159         40
   160         40
   161         10
   166         10
   167         20
   168         20
   169         10
   170         20
   171         20
   172         60
   173         50
   174         30
   175         10
   180         10
   181         10
   182         10
   183         20
   184         40
   185         30
   186         20
   187         20
   188         10
   194         10
   195         10
   196         30
   197         20
   198         40
   199         20
   200         10
   201         10
   202         10
   207         10
   208         10
   209         10
   210         30
   211         40
   212         30
   213         10
   214         10
   215         10
   216         50
   217         10
   222         20
   223         20
   224         40
   225         40
   226         20
   227         10
   235         10
   236         20
   237         20
   238         20
   239         40
   240         20
   249         10
   250         10
   251         20
   252         10
   253         10
   254         10
   265         30
   266         10
   267         50
   268         50
   269         10
   281         10
   282         10
   287         30
   293         20
   294         10
   295        160
   296         40
   309         70
   310        170
   311         40
   323         10
   324         10
   335         10
   336         10
   337        210
   338        190
   339         40
   351         10
   352        220
   353         50
   364         10
   378         20
   379         80
   380        460
   381        110
   382         10