##TITLE=Library Entry 8334
##JCAMP-DX=Revision 4.10 
##DATA TYPE=MASS SPECTRUM
##SAMPLE DESCRIPTION=J. PLIMMER- U. KLINGEBIEL
##NAMES=HP
##CAS NAME=1,3,5-Triazine-2,4-diamine, N,N'-bis(1-methylethyl)-6-(methylsulf
onyl)-
##MOLFORM=C10H19N5O2S
##CAS REGISTRY NO=55723-98-3
##MP= -300
##BP= -300
##MW= 273
##$RETENTION INDEX=0
##$CONDENSED SPECTRUM=NO
##NPOINTS= 116
##XYDATA=(XY..XY) 1 
    41        604
    42        247
    43        999
    44        351
    45        468
    46        137
    47        364
    48        325
    49         46
    50         59
    51         52
    52         26
    53         72
    54         59
    55        462
    56        182
    57        462
    58        195
    59         39
    60        137
    61         33
    62         78
    63        416
    64        143
    65        740
    66         19
    67        137
    68        338
    69        345
    70        143
    71        247
    72         19
    73        267
    74         39
    75         19
    76         26
    77         78
    78        124
    79         78
    80        312
    81        130
    82         91
    83        182
    84         72
    85        156
    86         19
    87         33
    88         26
    91         78
    92         13
    93         59
    94         46
    95        104
    96         78
    97        124
    98         78
    99         39
   101         19
   102         13
   103         13
   104         26
   105         52
   106         19
   107         26
   108         46
   109         65
   110        111
   111         78
   112         65
   113         26
   115         33
   116         13
   117         13
   119         33
   120         13
   121         26
   122         26
   123         46
   124         19
   125         39
   126         26
   127         19
   128         19
   129         39
   131         13
   133         26
   134         13
   135        117
   136         39
   137         33
   138         46
   139         13
   141         19
   143         19
   145         26
   147         39
   148         13
   149         46
   150         26
   151         26
   152        149
   153         33
   154         26
   159         39
   191         13
   192         19
   193        130
   194        130
   195         26
   196         19
   197         33
   245         33
   247         33
   258        124
   259         19
   273         91