##TITLE=Library Entry 12928
##JCAMP-DX=Revision 4.10 
##DATA TYPE=MASS SPECTRUM
##SAMPLE DESCRIPTION=CARL DJERASSI DEPT OF CHEM STANFORD UNIV STANFORD CALIF
 94305
##NAMES=HP
##CAS NAME=Aspidofractinine-3-carboxylic acid, 1-acetyl-6-(acetyloxy)-, meth
yl ester, (2.alpha.,3.beta.,5.alpha.,6.beta.)-
##MOLFORM=C25H30N2O5
##CAS REGISTRY NO=55724-59-9
##MP= -300
##BP= -300
##MW= 438
##$RETENTION INDEX=0
##$CONDENSED SPECTRUM=NO
##NPOINTS= 234
##XYDATA=(XY..XY) 1 
    40         28
    41        134
    42        143
    43        999
    44         65
    45        103
    51         25
    52         12
    53         34
    54         25
    55         34
    56         65
    57         87
    58         12
    60         53
    62          3
    63         15
    64          6
    65         31
    66         12
    67         31
    68         21
    69          9
    70         18
    71          6
    72          3
    73          6
    74          6
    75          9
    76          9
    77         68
    78         21
    79         84
    80         43
    81         18
    82         18
    83          9
    84          6
    86          6
    87          3
    88          6
    89         18
    90          9
    91         43
    92         15
    93         28
    94         28
    95         18
    96         12
    97          3
    98          3
   100          3
   101          9
   102         15
   103         15
   104          9
   105         15
   106         46
   107        175
   108         46
   109         25
   110         18
   111          3
   113          3
   114          9
   115         65
   116         25
   117         28
   118         15
   119          9
   120         21
   121         31
   122         43
   123         12
   124         12
   125          9
   126          6
   127         21
   128         40
   129         31
   130         71
   131         18
   132         15
   133          3
   134         28
   135         15
   136          9
   137         12
   138          6
   139         31
   140         18
   141         12
   142         15
   143         62
   144         56
   145          9
   146          6
   147          3
   148          6
   149          6
   150          3
   151         12
   152         18
   153         12
   154         46
   155         31
   156         90
   157         75
   158        121
   159         25
   160          6
   161          3
   162          3
   163          3
   164          3
   165         93
   166         40
   167        312
   168         62
   169         46
   170         34
   171         56
   172         25
   173          9
   177          3
   178         12
   179         71
   180         62
   181         34
   182        175
   183         43
   184         18
   185          9
   186          9
   190          3
   191         12
   192         18
   193         34
   194         56
   195         50
   196         31
   197         25
   198         12
   199         12
   200         37
   201          9
   204         18
   205         15
   206         37
   207         28
   208         40
   209         31
   210         15
   211          9
   212          3
   213          3
   214          3
   216          3
   217          9
   218         15
   219         28
   220         37
   221         50
   222         37
   223         21
   224         12
   225          3
   226          3
   230          3
   231          3
   232          9
   233         15
   234         21
   235         15
   236         15
   237         15
   238         15
   239          6
   245          6
   246          9
   247         28
   248         21
   249         62
   250         34
   251         15
   252          6
   253          3
   260          3
   261          9
   262          3
   263         21
   264          9
   265         18
   266          6
   267          3
   275         12
   276          9
   277         93
   278         46
   279         34
   280          9
   291         31
   292         59
   293         31
   294          9
   295          9
   305          9
   306          3
   307          3
   308          6
   309         15
   310          6
   318         12
   319         71
   320        278
   321        140
   322         37
   323          6
   324          3
   334          3
   335          6
   336          3
   337         78
   338         18
   339          3
   351          6
   352         31
   353          3
   365          3
   378          9
   379         75
   380        268
   381         65
   382          9