##TITLE=Library Entry 18458
##JCAMP-DX=Revision 4.10 
##DATA TYPE=MASS SPECTRUM
##SAMPLE DESCRIPTION=CARL DJERASSI DEPT OF CHEM STANFORD UNIV STANFORD CALIF
 94305
##NAMES=HP
##CAS NAME=Aspidofractinine-1-carboxaldehyde, 3-methylene-, (2.alpha.,5.alph
a.)-
##MOLFORM=C21H24N2O
##CAS REGISTRY NO=55724-71-5
##MP= -300
##BP= -300
##MW= 320
##$RETENTION INDEX=0
##$CONDENSED SPECTRUM=NO
##NPOINTS= 243
##XYDATA=(XY..XY) 1 
    40         66
    41         75
    42        104
    45         12
    46          4
    47          8
    48          8
    49        133
    50         45
    51        262
    52        279
    53        999
    54        145
    55        750
    56         12
    57         16
    58          8
    59         75
    60         16
    61         62
    62         25
    63         62
    64         45
    65         87
    66         79
    67         95
    68         33
    69          8
    70        395
    71         12
    72          8
    73         25
    74         12
    75         45
    76         16
    77         54
    78         29
    79         29
    80         41
    81         12
    82          4
    83         12
    84         12
    85         16
    86         20
    87        100
    88         25
    89         50
    90         33
    91         54
    92         25
    93         29
    94         50
    95          8
    96         33
    97         12
    98         12
    99         29
   100         25
   101         66
   102         20
   103         25
   104         25
   105         25
   106         70
   107         20
   108         16
   109          8
   110          8
   111         25
   112         29
   113         37
   114         37
   115         33
   116         25
   117         25
   118         37
   119        145
   120         66
   121         25
   122         12
   123          8
   124         12
   125         83
   126         37
   127         45
   128         29
   129         12
   130         20
   131         25
   132         70
   133         29
   134         50
   135         12
   136          8
   137         25
   138         45
   139         29
   140         70
   141         41
   142         45
   143         25
   144         20
   145          8
   146         16
   147          4
   148          8
   149         16
   150         16
   151         12
   152         29
   153         20
   154         54
   155         33
   156         58
   157         29
   158         33
   159         12
   160         50
   161          8
   162         12
   163         12
   164        137
   165         37
   166         29
   167         95
   168         95
   169         58
   170         41
   171         25
   172         16
   173          8
   174          4
   176          4
   177          8
   178         20
   179         20
   180         87
   181         50
   182         58
   183         37
   184         20
   185         29
   186          8
   187          4
   188         12
   189          4
   190          8
   191         25
   192         29
   193         45
   194         66
   195         50
   196         62
   197         37
   198         33
   199         16
   200          8
   201          8
   202          4
   203          8
   204         33
   205         29
   206         58
   207         62
   208         75
   209         50
   210         37
   211         20
   212         12
   213        116
   214         20
   215          4
   216          4
   217         12
   218         29
   219         29
   220         66
   221         62
   222         45
   223         45
   224         41
   225         33
   226         12
   227          4
   230          4
   231         12
   232         16
   233         25
   234         41
   235         50
   236         45
   237         62
   238         29
   239         12
   245          4
   246          8
   247         16
   248         37
   249         70
   250         29
   251         33
   252         83
   253         29
   254          4
   255          8
   260          4
   261         12
   262         16
   263         79
   264        120
   265         66
   266         29
   267         20
   268          4
   275          8
   276         12
   277         58
   278         25
   279         12
   280          8
   281          4
   282          4
   283         70
   284         16
   289          8
   290          8
   291        216
   292        154
   293         62
   294         41
   295         16
   305         33
   306         20
   307         20
   308         16
   309         12
   310         20
   318         20
   319        158
   320        420
   321        129
   322         62