##TITLE=Library Entry 89838
##JCAMP-DX=Revision 4.10 
##DATA TYPE=MASS SPECTRUM
##SAMPLE DESCRIPTION=C. REICHARDT, FAC. CHEM., UNIV. MARBURG, MARBURG, W. GE
R.
##NAMES=HP
##CAS NAME=tert-Butylpropanedial
##MOLFORM=C7H12O2
##CAS REGISTRY NO=55740-28-8
##MP= -300
##BP= -300
##MW= 128
##$RETENTION INDEX=0
##$CONDENSED SPECTRUM=NO
##NPOINTS= 58
##XYDATA=(XY..XY) 1 
    14         50
    15         45
    16         20
    17        135
    18        625
    20         15
    26         55
    27        200
    28         20
    29        305
    30         25
    31         60
    38         30
    39        280
    40         60
    41        665
    42         80
    43        325
    44         85
    45         45
    50         30
    51         55
    52         20
    53         80
    54         45
    55        195
    56        175
    57        520
    58         45
    59         55
    60         20
    65         85
    66         35
    67        605
    68         55
    69        105
    70         45
    71         80
    72         25
    79         35
    80         30
    81         40
    82         25
    83         60
    84         35
    85        245
    86         50
    87         60
    91         35
    95        495
    96         40
    99         95
   100         40
   111         35
   113        999
   114         80
   128        485
   129         75