##TITLE=Library Entry 109485
##JCAMP-DX=Revision 4.10 
##DATA TYPE=MASS SPECTRUM
##SAMPLE DESCRIPTION=Chemical Concepts
##NAMES=HP
##CAS NAME=N-Methoxycarbonylmaleimide
##MOLFORM=C6H5NO4
##CAS REGISTRY NO=55750-48-6
##MP= -300
##BP= -300
##MW= 155
##$RETENTION INDEX=0
##$CONDENSED SPECTRUM=NO
##NPOINTS= 65
##XYDATA=(XY..XY) 1 
    25          9
    26         88
    27         11
    29         29
    30          4
    31          4
    38          6
    39         16
    40         39
    41         22
    42         22
    43         22
    44         45
    45          8
    52         14
    53         95
    54        283
    55         57
    56         14
    57         18
    58          8
    59        153
    60          9
    67         16
    68         20
    69         31
    70        425
    71         14
    72          6
    73          7
    76          7
    77          9
    80         30
    81         36
    82         85
    83         25
    84          6
    85         11
    91          7
    92          5
    93          6
    94          6
    95          9
    96        128
    97         64
    98         13
    99         14
   102         10
   105          8
   109          6
   110         31
   111         29
   112         12
   113         10
   119          6
   124        779
   125        999
   126         73
   127         11
   136          6
   137          0
   154          2
   155         78
   156         11
   157          1