##TITLE=Library Entry 86480
##JCAMP-DX=Revision 4.10 
##DATA TYPE=MASS SPECTRUM
##SAMPLE DESCRIPTION=Exported from NIST MS Search
##NAMES=HP
##CAS NAME=2-Propenal, 3-(2,2,6-trimethyl-7-oxabicyclo[4.1.0]hept-1-yl)-
##MOLFORM=C12H18O2
##CAS REGISTRY NO=55759-91-6
##MP= -300
##BP= -300
##MW= 194
##$RETENTION INDEX=0
##$CONDENSED SPECTRUM=NO
##NPOINTS= 23
##XYDATA=(XY..XY) 1 
    27        150
    29        100
    39        150
    41        250
    43        400
    53         90
    55        150
    67         60
    69         90
    77         70
    79        100
    81        150
    85         30
    91         70
    93        100
    95        100
   107        100
   109        999
   110        100
   111         50
   121        150
   151        450
   179         60