##TITLE=Library Entry 43551
##JCAMP-DX=Revision 4.10 
##DATA TYPE=MASS SPECTRUM
##SAMPLE DESCRIPTION=RP-280-1
##NAMES=HP
##CAS NAME=Ambelline, TMS derivative
##MOLFORM=C21H29NO5Si
##CAS REGISTRY NO=55760-25-3
##MP= -300
##BP= -300
##MW= 403
##$RETENTION INDEX=0
##$CONDENSED SPECTRUM=NO
##NPOINTS= 73
##XYDATA=(XY..XY) 1 
    73        999
    74         93
    75        113
    76         11
    77         37
    78         20
    79          8
    80          8
   193         20
   194         11
   195         37
   196         40
   197         33
   198         33
   199         20
   200         11
   201          6
   202         22
   203         62
   204          6
   205          6
   206          6
   207         17
   208          6
   209          6
   210         53
   211        777
   212        155
   213        113
   214         31
   215         42
   216         35
   217         33
   218         33
   219         11
   220         11
   237         17
   238         17
   239        115
   240        104
   241        904
   242        253
   243         51
   244         57
   245         33
   246         22
   247          8
   248          8
   282        555
   283        108
   284         28
   285         17
   286         37
   287         17
   288          8
   289          8
   290          8
   291          8
   292          8
   370         57
   371         51
   372        588
   373        211
   374         71
   375         31
   376          8
   400          2
   401          4
   402        115
   403        777
   404        257
   405         71
   406         11