##TITLE=Library Entry 14379
##JCAMP-DX=Revision 4.10 
##DATA TYPE=MASS SPECTRUM
##SAMPLE DESCRIPTION=Exported from NIST MS Search
##NAMES=HP
##CAS NAME=4-Pentynamide, 2-acetyl-N-(2-methoxyphenyl)-2-(2-propynyl)-
##MOLFORM=C17H17NO3
##CAS REGISTRY NO=55760-06-0
##MP= -300
##BP= -300
##MW= 283
##$RETENTION INDEX=0
##$CONDENSED SPECTRUM=NO
##NPOINTS= 145
##XYDATA=(XY..XY) 1 
    14          4
    15         30
    17          5
    18         16
    26         11
    27         34
    28         78
    29          9
    32         13
    36          7
    37         10
    38         25
    39        126
    40         17
    41         41
    42         12
    43        999
    44         33
    45          7
    50         36
    51        127
    52         80
    53         46
    54         10
    55         22
    57          6
    60          4
    61          6
    62         20
    63         89
    64         45
    65        184
    66         26
    67         18
    68          5
    69          8
    72          4
    74          6
    75          9
    76         13
    77         78
    78         90
    79        143
    80         97
    81         18
    82          7
    83          4
    87          4
    88          5
    89         81
    90         32
    91        142
    92         98
    93         42
    94         44
    95        258
    96         20
    97          8
   102          3
   103         10
   104         10
   105         32
   106        100
   107         18
   108        333
   109         32
   112          7
   115         13
   116          4
   117        106
   118         16
   119         76
   120         99
   121         26
   122         27
   123        406
   124         62
   125          5
   130          8
   131          5
   132         10
   133         41
   134        211
   135         62
   136         10
   143          5
   144          4
   145          4
   146          9
   147         11
   148         16
   149        298
   150         55
   151          7
   158          3
   159          4
   160         45
   161         22
   162          9
   165          6
   168          5
   170         11
   171          4
   172          7
   174          8
   180          7
   181          6
   182          6
   183          4
   184         15
   185          6
   186         17
   187          4
   196          7
   197         12
   198         15
   199          4
   200         24
   201         16
   202        132
   203         19
   208          6
   209          4
   210         16
   212         20
   213          5
   216          3
   218          7
   219          5
   222          6
   224         11
   225         15
   226         24
   227          4
   240        236
   241        110
   242         18
   244         80
   245         26
   252          6
   254          4
   261          4
   268         16
   282        126
   283        487