##TITLE=Library Entry 85778
##JCAMP-DX=Revision 4.10 
##DATA TYPE=MASS SPECTRUM
##SAMPLE DESCRIPTION=Exported from NIST MS Search
##NAMES=HP
##CAS NAME=Cyclobutaneacetonitrile, 1-methyl-2-(1-methylethylidene)-
##MOLFORM=C10H15N
##CAS REGISTRY NO=55760-14-0
##MP= -300
##BP= -300
##MW= 149
##$RETENTION INDEX=0
##$CONDENSED SPECTRUM=NO
##NPOINTS= 12
##XYDATA=(XY..XY) 1 
    41        320
    53        220
    67        669
    68        200
    69        300
    79        250
    81        420
    93        230
   107        280
   109        999
   134        220
   149        480