##TITLE=Library Entry 27070
##JCAMP-DX=Revision 4.10 
##DATA TYPE=MASS SPECTRUM
##SAMPLE DESCRIPTION=Exported from NIST MS Search
##NAMES=HP
##CAS NAME=Carbamic acid, (1H-inden-1-ylidenemethyl)-, 1,1-dimethylethyl est
er
##MOLFORM=C15H17NO2
##CAS REGISTRY NO=55760-22-0
##MP= -300
##BP= -300
##MW= 243
##$RETENTION INDEX=0
##$CONDENSED SPECTRUM=NO
##NPOINTS= 38
##XYDATA=(XY..XY) 1 
    50         30
    51         20
    53         10
    55        120
    56        210
    57        999
    58         40
    59        420
    60         10
    61         10
    62         40
    63         60
    64         20
    65         10
    70         40
    71         20
    74         20
    75         20
    86         20
    87         30
    88         40
    89         20
   113         50
   114        320
   115        290
   116        280
   117         10
   140         90
   141        120
   142         30
   143        529
   144         50
   169        739
   170         90
   187        679
   188         70
   243        290
   244         40