##TITLE=Library Entry 39798
##JCAMP-DX=Revision 4.10 
##DATA TYPE=MASS SPECTRUM
##SAMPLE DESCRIPTION=Exported from NIST MS Search
##NAMES=HP
##CAS NAME=Borane, methanetetrayltetrakis[difluoro-
##MOLFORM=CB4F8
##CAS REGISTRY NO=55760-23-1
##MP= -300
##BP= -300
##MW= 208
##$RETENTION INDEX=0
##$CONDENSED SPECTRUM=NO
##NPOINTS= 8
##XYDATA=(XY..XY) 1 
    49        872
    68         35
    72        999
    91        156
   121        780
   140        595
   159         35
   189        123