##TITLE=Library Entry 29433
##JCAMP-DX=Revision 4.10 
##DATA TYPE=MASS SPECTRUM
##SAMPLE DESCRIPTION=Drug Lab
##NAMES=HP
##CAS NAME=Psilocin, 2TMS derivative
##MOLFORM=C18H32N2OSi2
##CAS REGISTRY NO=55760-24-2
##MP= -300
##BP= -300
##MW= 348
##$RETENTION INDEX=2140
##$CONDENSED SPECTRUM=NO
##NPOINTS= 176
##XYDATA=(XY..XY) 1 
    38          1
    39          2
    40          1
    41          3
    42         30
    43         21
    44         15
    45         79
    46          5
    47          5
    53          2
    54          1
    55          5
    56          8
    58        999
    59         49
    60          1
    61          1
    63          2
    65          1
    67          1
    69          3
    70          4
    71          4
    73        423
    74         41
    75         24
    76          2
    77          5
    78          2
    81          1
    83          2
    85          2
    88          1
    89          2
    91          2
    93          1
    94          1
    96          1
   100          1
   101          2
   102          8
   103          2
   105          2
   107          1
   114          2
   115          9
   116          6
   117          4
   118          2
   119          2
   120          1
   121          2
   123          1
   127          2
   128          7
   129          4
   130          4
   131          3
   132          1
   133          3
   134          1
   135          2
   139          2
   140          1
   141          2
   142          3
   143          4
   144          6
   145          7
   146          2
   147          6
   148          1
   149          3
   151          2
   154          2
   155          3
   156          4
   157          3
   158          3
   159          4
   160          8
   161          6
   162          1
   163          4
   165          1
   168          1
   169          1
   170          6
   171          3
   172         10
   173          3
   174         18
   175          7
   176          2
   177          1
   179          1
   182          2
   183          1
   184          5
   185          5
   186         19
   187          6
   188         10
   189          3
   190          3
   191          4
   193          2
   194          1
   196          1
   198          2
   199          3
   200         16
   201          5
   202         22
   203          8
   204          2
   205          2
   207          2
   212          1
   213          1
   214          7
   215          5
   216         25
   217         11
   218         14
   219          4
   220          1
   228          2
   229          1
   230          7
   231          6
   232          8
   233          5
   234          1
   242          2
   243          2
   244          5
   245          3
   246          9
   247          3
   248          1
   256          3
   257          2
   258          3
   259          4
   260          7
   261          4
   262          1
   272          4
   273          3
   274         19
   275         17
   276          6
   277          2
   286          2
   288         36
   290        906
   291        254
   292         88
   293         13
   294          3
   302         13
   303          9
   304         22
   305          4
   306          2
   332          2
   333         35
   334         10
   335          4
   346          3
   348        166
   349         49
   350         16
   351          3