##TITLE=Library Entry 58653
##JCAMP-DX=Revision 4.10 
##DATA TYPE=MASS SPECTRUM
##SAMPLE DESCRIPTION=A.F.CLIFFORD VIRGINIA POLYTECH. INST., BLACKSBURG, VA.,
 USA
##NAMES=HP
##CAS NAME=Sulfur, tetrafluoro(imidosulfurous difluoridato-N)[1,2,2,2-tetraf
luoro-1-(trifluoromethyl)ethyl]-
##MOLFORM=C3F13NS2
##CAS REGISTRY NO=55780-26-2
##MP= -300
##BP= -300
##MW= 361
##$RETENTION INDEX=0
##$CONDENSED SPECTRUM=NO
##NPOINTS= 40
##XYDATA=(XY..XY) 1 
    31         27
    46         65
    50         18
    51         24
    63         15
    64         20
    65         40
    69        420
    70        150
    76         13
    77         13
    81         49
    84         27
    89        999
    93         13
    94          5
    96         11
   100         91
   101         15
   108          4
   113         11
   119         67
   127          1
   131         15
   132          5
   134         62
   135         15
   146         11
   150         24
   151         16
   154        440
   169         98
   184         40
   192         87
   208          1
   234          5
   239         15
   273          1
   277         85
   342         16