##TITLE=Library Entry 90204
##JCAMP-DX=Revision 4.10 
##DATA TYPE=MASS SPECTRUM
##SAMPLE DESCRIPTION=RADIAN CORP
##NAMES=HP
##CAS NAME=Silane, dichlorocyclohexylmethyl-
##MOLFORM=C7H14Cl2Si
##CAS REGISTRY NO=5578-42-7
##MP= -300
##BP= -300
##MW= 196
##$RETENTION INDEX=0
##$CONDENSED SPECTRUM=NO
##NPOINTS= 111
##XYDATA=(XY..XY) 1 
    26          2
    27         42
    28          7
    29         31
    38          3
    39        162
    40         23
    41        218
    42         58
    43         33
    44          1
    45          2
    50         12
    51         33
    52         18
    53        104
    54        161
    55        534
    56         28
    63        354
    64         23
    65        167
    66         31
    67        410
    68         27
    69         15
    75          2
    76          4
    77         96
    78         59
    79        224
    80         62
    81        198
    82        788
    83        874
    84         58
    85          2
    88          2
    89          6
    90          9
    91         11
    92         15
    93         17
    94          5
    95         14
    96         14
    97         12
    98         46
    99         60
   100         32
   101         41
   102          8
   103         26
   104          3
   105         27
   106          2
   107          7
   109         14
   111          7
   112         48
   113        999
   114         97
   115        702
   116         51
   117        175
   118         17
   119         30
   120          3
   121          4
   123          8
   125         33
   126          3
   127         22
   129          6
   131          2
   132         10
   133          6
   134          4
   135          1
   139         31
   140          3
   141         29
   142          1
   143         10
   145         10
   147          2
   153         14
   154         86
   155         18
   156         57
   157          8
   158          9
   159          1
   160          6
   161         14
   162          3
   163          4
   167         54
   168         25
   169         38
   170         17
   171          7
   172          2
   181         12
   183          8
   196        228
   197         29
   198        154
   199         18
   200         27
   201          1