##TITLE=Library Entry 69612
##JCAMP-DX=Revision 4.10 
##DATA TYPE=MASS SPECTRUM
##SAMPLE DESCRIPTION=T. SPANDE, LBC, NIDDK, NIH, Bethesda, MD 20892
##NAMES=HP
##CAS NAME=Dihydrohistrionicotoxin 285e
##MOLFORM=C19H27NO
##CAS REGISTRY NO=55785-62-1
##MP= -300
##BP= -300
##MW= 285
##$RETENTION INDEX=0
##$CONDENSED SPECTRUM=NO
##NPOINTS= 232
##XYDATA=(XY..XY) 1 
    41        282
    42         87
    43         90
    44         68
    45          4
    46          1
    48          2
    49          0
    50         10
    51         46
    52         26
    53        107
    54         81
    55        259
    56        317
    57         80
    58          9
    59          4
    60          1
    61          4
    62          5
    63         27
    64         18
    65        165
    66         63
    67        186
    68         70
    69         47
    70         46
    71         14
    72          4
    73          7
    74          4
    75          4
    77        222
    78         69
    79        279
    80        113
    81        103
    82        100
    83         27
    84         23
    85          5
    86          2
    87          3
    89         25
    91        284
    92         45
    93         85
    94        116
    95         22
    96        999
    97         82
    98         10
    99          1
   100          1
   101          2
   102         11
   103         45
   104         28
   105        100
   106         64
   107         95
   108        155
   109         68
   110         38
   111         11
   112          3
   113          1
   115         76
   116         29
   117         80
   118         39
   119         38
   120         65
   121         39
   122         83
   123         23
   124        108
   125         14
   126          4
   127         12
   128         40
   129         85
   130         50
   131         69
   132         51
   133         35
   134         49
   135         21
   136         22
   137          7
   138          3
   139          2
   140          1
   141         73
   142         36
   143         30
   144         49
   145         38
   146         43
   147         15
   148         23
   149          7
   150          9
   151          2
   152         17
   153         10
   154         10
   155         34
   156         17
   157         42
   158         31
   159         21
   160         46
   161         16
   162         32
   163         47
   164         10
   165          4
   166          5
   167          6
   168         15
   169          8
   170         18
   171         12
   172         41
   173         13
   174         25
   175         21
   176         75
   177         12
   178          5
   179          7
   180          5
   181          5
   182          5
   183         19
   184         15
   185         10
   186         12
   187          7
   188          9
   189          1
   190         62
   191         10
   192         30
   193          7
   194          4
   195          2
   196          4
   197          3
   198         20
   199          9
   200        153
   201         26
   202         18
   203          4
   204         10
   205          5
   206          3
   207          3
   208          1
   209          2
   210          3
   211          2
   212          8
   213          3
   214         15
   215          3
   216         45
   218        472
   219         70
   220         33
   221          6
   222          1
   223          0
   224          7
   225          0
   226         12
   227          4
   228         11
   229          3
   230          7
   231          5
   232          1
   233          1
   234          0
   235          0
   236          1
   238          8
   239          2
   240          6
   241          1
   242         19
   243          5
   244         21
   245          3
   246          7
   247          1
   248          0
   249          0
   250          1
   251          0
   252         13
   253          3
   254          0
   256         16
   257          8
   258          2
   259          0
   260          0
   262          2
   263          0
   264          1
   266         24
   267         17
   268         29
   269          6
   270         19
   271          3
   272          0
   273          0
   275          0
   279          0
   281          1
   282          0
   284         56
   285         50
   286         20
   287          3
   288          0