##TITLE=Library Entry 47052
##JCAMP-DX=Revision 4.10 
##DATA TYPE=MASS SPECTRUM
##SAMPLE DESCRIPTION=KC74-215-5D
##NAMES=HP
##CAS NAME=Oxazolo[5,4-d]isoxazol-5(2H)-one, 3-benzoyltetrahydro-6a-methyl-2
,6-diphenyl-
##MOLFORM=C24H20N2O4
##CAS REGISTRY NO=55780-95-5
##MP= -300
##BP= -300
##MW= 400
##$RETENTION INDEX=0
##$CONDENSED SPECTRUM=NO
##NPOINTS= 22
##XYDATA=(XY..XY) 1 
    77        999
    91        240
    93        210
   103         60
   104        200
   105        649
   106         80
   117        100
   118        290
   119        330
   120         80
   122        120
   130        170
   144        120
   176        300
   234        140
   250         60
   268         50
   271         30
   282        150
   285        260
   400         50