##TITLE=Library Entry 17411
##JCAMP-DX=Revision 4.10 
##DATA TYPE=MASS SPECTRUM
##SAMPLE DESCRIPTION=NIST Mass Spectrometry Data Center, 2007
##NAMES=HP
##CAS NAME=2-[2-[2-[2-[2-[2-[2-[2-[2-(2-Hydroxyethoxy)ethoxy]ethoxy]ethoxy]e
thoxy]ethoxy]ethoxy]ethoxy]ethoxy]ethanol
##MOLFORM=C20H42O11
##CAS REGISTRY NO=5579-66-8
##MP= -300
##BP= -300
##MW= 458
##$RETENTION INDEX=3226
##$CONDENSED SPECTRUM=NO
##NPOINTS= 137
##XYDATA=(XY..XY) 1 
    15          3
    19          6
    26          2
    27         14
    28         33
    29         34
    30          8
    31         31
    32          1
    33          1
    39          1
    40          1
    41         18
    42         22
    43        116
    44        103
    45        999
    46         26
    47          3
    55          3
    56          5
    57         25
    58         80
    59        123
    60          7
    61          9
    62          1
    63          1
    67          1
    68          1
    69          6
    70         24
    71         33
    72         96
    73        135
    74          9
    75         30
    76          2
    77         10
    78          1
    79          1
    80          6
    81          1
    83          2
    84          2
    85          3
    86         33
    87        309
    88        115
    89        731
    90         36
    91          9
    92          1
    95          1
    96          1
    97          1
    98          1
    99          6
   100          6
   101         57
   102         23
   103         70
   104          9
   105          9
   106          1
   107          3
   112          1
   113          9
   114          7
   115         15
   116         11
   117         47
   118          7
   119         13
   120          1
   121         18
   122          1
   124          1
   128          1
   129          2
   130          1
   131         94
   132         12
   133        355
   134         25
   135          6
   141          1
   143          1
   145          5
   146          1
   147         12
   148          2
   149          2
   151          4
   157          3
   158          2
   159          5
   160          1
   161          4
   162          1
   163          9
   164          1
   165          4
   174          1
   175         43
   176          4
   177         72
   178          7
   179          2
   189          2
   191          1
   193          1
   195          4
   201          3
   202          1
   203          2
   207          8
   208          1
   209          2
   219          8
   220          1
   221         12
   222          1
   223          1
   239          3
   251          4
   252          1
   253          1
   263          1
   265          3
   283          2
   295          2
   309          1
   327          1
   339          1
   371          2
   415          1