##TITLE=Library Entry 34389
##JCAMP-DX=Revision 4.10 
##DATA TYPE=MASS SPECTRUM
##SAMPLE DESCRIPTION=Japan AIST/NIMC Database- Spectrum MS-NW-3189
##NAMES=HP
##CAS NAME=1-Butene, 3,3-dimethyl-
##MOLFORM=C6H12
##CAS REGISTRY NO=558-37-2
##MP= -300
##BP= -300
##MW= 84
##$RETENTION INDEX=507
##$CONDENSED SPECTRUM=NO
##NPOINTS= 40
##XYDATA=(XY..XY) 1 
    14          1
    15         10
    26          9
    27         97
    28          6
    29         64
    30          1
    37          5
    38         14
    39        139
    40         23
    41        834
    42         57
    43         36
    44          1
    49          2
    50         13
    51         22
    52          7
    53         61
    54         10
    55         68
    56         72
    57         75
    58          3
    61          2
    62          3
    63          5
    65          7
    66          2
    67         35
    68          8
    69        999
    70         60
    71          2
    77          1
    79          1
    83          4
    84        225
    85         14