##TITLE=Library Entry 2310
##JCAMP-DX=Revision 4.10 
##DATA TYPE=MASS SPECTRUM
##SAMPLE DESCRIPTION=Japan AIST/NIMC Database- Spectrum MS-NW-1577
##NAMES=HP
##CAS NAME=Isobutylene epoxide
##MOLFORM=C4H8O
##CAS REGISTRY NO=558-30-5
##MP= -300
##BP= -300
##MW= 72
##$RETENTION INDEX=510
##$CONDENSED SPECTRUM=NO
##NPOINTS= 42
##XYDATA=(XY..XY) 1 
    13          2
    14         13
    15         49
    16          1
    17          5
    18         18
    25          4
    26         39
    27        356
    28         30
    29        151
    30          5
    31         66
    32          9
    33          1
    36          2
    37         22
    38         40
    39        257
    40        173
    41        999
    42        773
    43        488
    44         28
    45         18
    49          2
    50          7
    51          5
    52          1
    53         11
    54          6
    55         10
    56          5
    57         82
    58          6
    59          3
    69          3
    70          4
    71         12
    72        495
    73         23
    74          1