##TITLE=Library Entry 29545
##JCAMP-DX=Revision 4.10 
##DATA TYPE=MASS SPECTRUM
##SAMPLE DESCRIPTION=James Little,Eastman Chem.Co.,Kingsport,TN
##NAMES=HP
##CAS NAME=1-Chloro-2-methyl-2-propanol
##MOLFORM=C4H9ClO
##CAS REGISTRY NO=558-42-9
##MP= -300
##BP= -300
##MW= 108
##$RETENTION INDEX=0
##$CONDENSED SPECTRUM=NO
##NPOINTS= 27
##XYDATA=(XY..XY) 1 
    14         23
    15        104
    17         28
    26         24
    27        167
    29        455
    31        435
    39        120
    41        221
    42         43
    43        240
    49         47
    55        113
    57        315
    58         23
    59        999
    60         48
    66         30
    69         10
    73          8
    75         10
    77          9
    91         31
    92         10
    93        418
    94         18
    95        141