##TITLE=Library Entry 23279
##JCAMP-DX=Revision 4.10 
##DATA TYPE=MASS SPECTRUM
##SAMPLE DESCRIPTION=ATLANTIC REFINING CO., PHILADELPHIA, PENNSYLVANIA
##NAMES=HP
##CAS NAME=tert-Butyl iodide
##MOLFORM=C4H9I
##CAS REGISTRY NO=558-17-8
##MP= -300
##BP= -300
##MW= 184
##$RETENTION INDEX=695
##$CONDENSED SPECTRUM=NO
##NPOINTS= 27
##XYDATA=(XY..XY) 1 
    27        154
    28          2
    29        400
    31          4
    36         59
    37         15
    38         45
    39        231
    41        528
    42         57
    43        132
    44          6
    45         20
    50         11
    51         14
    52          4
    53         22
    54          6
    55         86
    56         35
    57        999
    58         42
   127         79
   139          1
   155          1
   169         15
   184         14