##TITLE=Library Entry 41544
##JCAMP-DX=Revision 4.10 
##DATA TYPE=MASS SPECTRUM
##SAMPLE DESCRIPTION=ORMSBG,9(9)888(1974); SPITELLER
##NAMES=HP
##CAS NAME=7,17-Dihydroxyandrostan-3-one,  (5.beta.,7.alpha.,17.beta.)-, 2TM
S derivative
##MOLFORM=C25H46O3Si2
##CAS REGISTRY NO=55801-52-0
##MP= -300
##BP= -300
##MW= 450
##$RETENTION INDEX=0
##$CONDENSED SPECTRUM=NO
##NPOINTS= 53
##XYDATA=(XY..XY) 1 
    73        999
    75        446
    79        106
    81        131
    91         97
    93        119
    95         80
   105        127
   107         89
   115         80
   119        110
   129        212
   131        110
   143         93
   145        119
   147        114
   159         80
   169         89
   173         72
   174         72
   181         63
   197         59
   199         89
   200         76
   211        319
   212         68
   213        102
   229         59
   237         97
   244         93
   250         51
   253         59
   255        119
   256         34
   269         25
   270        425
   271         93
   290         21
   319        340
   320         89
   321         76
   340         68
   341         25
   345         38
   360        323
   361        127
   362         38
   435        131
   436         68
   437         25
   450        212
   451        102
   452         42