##TITLE=Library Entry 51567
##JCAMP-DX=Revision 4.10 
##DATA TYPE=MASS SPECTRUM
##SAMPLE DESCRIPTION=J. Daly, M. Garraffo, T. Spande, LBC, NIDDK, NIH, Bethe
sda, MD 20892
##NAMES=HP
##CAS NAME=(S)-6,6-Dimethyl-2-azaspiro[4.4]non-1-ene
##MOLFORM=C10H17N
##CAS REGISTRY NO=55811-47-7
##MP= -300
##BP= -300
##MW= 151
##$RETENTION INDEX=0
##$CONDENSED SPECTRUM=NO
##NPOINTS= 49
##XYDATA=(XY..XY) 1 
    51         51
    52         29
    53        149
    54        115
    55        242
    56         86
    57         54
    58         99
    59          8
    62          4
    63         15
    64          6
    65         58
    66         31
    67        254
    68        225
    69        114
    70         45
    71         97
    72          7
    77         67
    78         18
    79        105
    80        316
    81        508
    82        999
    83        121
    84         14
    85         23
    91         47
    92         12
    93         48
    94        151
    95        546
    96        298
    97         33
   105         11
   106         11
   107         23
   108        168
   109        115
   110         24
   122         55
   123         57
   124          7
   136        197
   137         23
   150         30
   151         38