##TITLE=Library Entry 60634
##JCAMP-DX=Revision 4.10 
##DATA TYPE=MASS SPECTRUM
##SAMPLE DESCRIPTION=Japan AIST/NIMC Database- Spectrum MS-IW-2605
##NAMES=HP
##CAS NAME=6-Phenylhexanoic acid
##MOLFORM=C12H16O2
##CAS REGISTRY NO=5581-75-9
##MP= -300
##BP= -300
##MW= 192
##$RETENTION INDEX=0
##$CONDENSED SPECTRUM=NO
##NPOINTS= 93
##XYDATA=(XY..XY) 1 
    15          1
    17          1
    18          3
    26          1
    27         24
    28          4
    29         17
    31          4
    38          2
    39         34
    40          3
    41         37
    42          4
    43         19
    44          1
    45         15
    50          6
    51         21
    52          6
    53          6
    54          3
    55         59
    56          3
    57          3
    59         22
    60         38
    61          3
    62          2
    63         10
    64          3
    65         75
    66          5
    67          3
    68          5
    69          2
    71          3
    73         27
    74          4
    75          2
    76          2
    77         34
    78         58
    79         26
    80          2
    83         38
    84          2
    86          1
    87          2
    88          1
    89         10
    90          7
    91        999
    92        409
    93         30
    94          1
    96          4
    97          1
    99          1
   101         96
   102          8
   103         18
   104         52
   105        120
   106         13
   107          5
   114          3
   115         11
   116          4
   117         35
   118         11
   119         12
   120          4
   127          1
   128          3
   129          9
   130        409
   131         54
   132         42
   133         19
   134          1
   145          3
   146          8
   147          2
   149          4
   156          2
   158          1
   173          1
   174         46
   175          9
   176          1
   192        237
   193         31
   194          3