##TITLE=Library Entry 99809
##JCAMP-DX=Revision 4.10 
##DATA TYPE=MASS SPECTRUM
##SAMPLE DESCRIPTION=S.M. Lee, CA Export Lab. Services, CA, USA
##NAMES=HP
##CAS NAME=Mepronil
##MOLFORM=C17H19NO2
##CAS REGISTRY NO=55814-41-0
##MP= -300
##BP= -300
##MW= 269
##$RETENTION INDEX=2298
##$CONDENSED SPECTRUM=NO
##NPOINTS= 61
##XYDATA=(XY..XY) 1 
    51          5
    52          3
    53          3
    54          1
    62          2
    63          9
    64          7
    65         50
    66          4
    67          1
    77          3
    78          1
    79          2
    80          4
    81          7
    82          1
    89         16
    90         17
    91        242
    92         21
    93          2
    94          1
   105          4
   106          1
   107          1
   108          2
   109          6
   110          1
   117          2
   119        999
   120         87
   121          6
   122          1
   135          2
   136          1
   148          2
   149          1
   180          2
   181          2
   182          1
   183          2
   184          1
   196          2
   197          1
   198          5
   199          1
   208          1
   209          3
   210         37
   211          7
   212          1
   226          5
   227         28
   228          5
   229          1
   254          2
   255          1
   269        189
   270         36
   271          4
   272          1