##TITLE=Library Entry 92826
##JCAMP-DX=Revision 4.10 
##DATA TYPE=MASS SPECTRUM
##SAMPLE DESCRIPTION=O A MAMER, MCGILL UNIVERSITY, MONTREAL,
##NAMES=HP
##CAS NAME=Diacetone alcohol, TMS derivative
##MOLFORM=C9H20O2Si
##CAS REGISTRY NO=55816-61-0
##MP= -300
##BP= -300
##MW= 188
##$RETENTION INDEX=0
##$CONDENSED SPECTRUM=NO
##NPOINTS= 115
##XYDATA=(XY..XY) 1 
    16         18
    17          1
    18          1
    25          0
    26          1
    27         13
    28          3
    29         20
    30          3
    31          7
    37          1
    39         17
    40          3
    41         22
    42          8
    43        310
    44         26
    45        115
    46         10
    47         62
    48          3
    49          9
    50          5
    51          3
    52          1
    53          5
    54          1
    55          9
    56          9
    57         22
    58         28
    59         21
    60         11
    61         62
    62          5
    63          5
    64          1
    65          1
    66          1
    67          2
    68          0
    70          4
    71          5
    72         16
    73        525
    74         52
    75        358
    76         32
    77         24
    78          5
    79          4
    80          1
    81          1
    83          7
    84          1
    85          1
    86          2
    87          3
    88          1
    89          2
    90          0
    91         16
    92          1
    93          1
    95          1
    98          2
    99         13
   100          3
   101         11
   102          2
   103          3
   105          1
   106          1
   107          0
   108          0
   113          4
   114          7
   115        999
   116        118
   117         49
   118          4
   119          1
   126          0
   127          2
   128          3
   129          3
   130          9
   131        405
   132         47
   133         18
   134          1
   139          1
   142          0
   143          5
   144          3
   145          1
   147          7
   148          3
   152          3
   153          1
   155          1
   156          0
   157          9
   158          1
   159          1
   166          0
   167          1
   170          1
   173        320
   174         46
   175         17
   176          1
   177          0
   188          1
   189          0