##TITLE=Library Entry 21083
##JCAMP-DX=Revision 4.10 
##DATA TYPE=MASS SPECTRUM
##SAMPLE DESCRIPTION=NIST Mass Spectrometry Data Center, 1990.
##NAMES=HP
##CAS NAME=3-Methyl-4-decanol
##MOLFORM=C11H24O
##CAS REGISTRY NO=55816-17-6
##MP= -300
##BP= -300
##MW= 172
##$RETENTION INDEX=0
##$CONDENSED SPECTRUM=NO
##NPOINTS= 34
##XYDATA=(XY..XY) 1 
    27        141
    28        109
    29        305
    30         15
    31         49
    39        106
    41        408
    42         60
    43        299
    44        108
    45        304
    53         35
    55        999
    56        117
    57        244
    58         42
    59         19
    67         28
    69        347
    70         60
    71         47
    72         23
    81         33
    83         27
    85         28
    86         28
    87        212
    88         12
    97        843
    98         70
   113         25
   114         77
   115        258
   116         20