##TITLE=Library Entry 99275
##JCAMP-DX=Revision 4.10 
##DATA TYPE=MASS SPECTRUM
##SAMPLE DESCRIPTION=A.A.Kutin, Moscow, Russia
##NAMES=HP
##CAS NAME=Benzamide, 2-methyl-N-(2-ethoxyphenyl)-
##MOLFORM=C16H17NO2
##CAS REGISTRY NO=55814-37-4
##MP= -300
##BP= -300
##MW= 255
##$RETENTION INDEX=0
##$CONDENSED SPECTRUM=NO
##NPOINTS= 153
##XYDATA=(XY..XY) 1 
    36          0
    37          0
    38          3
    39         30
    41         14
    42          1
    43          2
    44          0
    45          0
    50          4
    51         18
    52         17
    53         12
    54          1
    55          1
    56          0
    57          0
    62          4
    63         23
    64         12
    65        142
    66          7
    67          1
    68          0
    69          0
    70          0
    71          0
    74          1
    75          2
    76          2
    77          7
    78          5
    79          8
    80         21
    81          5
    82          0
    83          0
    84          0
    85          0
    86          0
    87          0
    89         36
    90         38
    91        450
    92         40
    93          5
    94          1
    95          0
    97          0
   101          0
   102          0
   103          0
   104          1
   105          3
   106          2
   107          1
   108          7
   109          3
   110          0
   111          0
   112          0
   113          0
   114          0
   115          1
   116          1
   117          2
   118         39
   119        999
   120         88
   121          6
   122          0
   123          0
   125          0
   126          0
   127          0
   128          1
   129          0
   130          0
   131          0
   132          1
   133          0
   134          1
   135          3
   136          7
   137         71
   138          7
   139          1
   140          0
   141          0
   142          0
   143          0
   147          0
   148          0
   149          0
   151          0
   152          1
   153          1
   154          0
   155          0
   157          0
   159          0
   163          0
   164          0
   165          1
   166          1
   167          3
   168          1
   169          0
   170          0
   171          0
   177          0
   178          0
   179          0
   180          3
   181          1
   182          0
   183          0
   184          0
   190          0
   192          0
   193          0
   194          0
   195          1
   196          2
   197          0
   198          0
   207          0
   208          2
   209          5
   210          7
   211          1
   212          0
   218          0
   219          0
   222          0
   223          0
   224          0
   225          0
   226          6
   227          1
   236          0
   237          7
   238         14
   239          2
   240          0
   241          0
   252          0
   253          0
   254          3
   255        110
   256         20
   257          2
   258          0