##TITLE=Library Entry 21541
##JCAMP-DX=Revision 4.10 
##DATA TYPE=MASS SPECTRUM
##SAMPLE DESCRIPTION=Exported from NIST MS Search
##NAMES=HP
##CAS NAME=Cyclohexanone, 4-ethyl-4-methyl-3-(1-methylethyl)-, trans-
##MOLFORM=C12H22O
##CAS REGISTRY NO=55821-16-4
##MP= -300
##BP= -300
##MW= 182
##$RETENTION INDEX=0
##$CONDENSED SPECTRUM=NO
##NPOINTS= 16
##XYDATA=(XY..XY) 1 
    27        190
    29        190
    41        519
    43        480
    55        999
    65        719
    70        330
    81        210
    83        430
    98        589
   100        210
   111        170
   139        929
   153         50
   167         70
   182         60