##TITLE=Library Entry 90207
##JCAMP-DX=Revision 4.10 
##DATA TYPE=MASS SPECTRUM
##SAMPLE DESCRIPTION=NIST Mass Spectrometry Data Center
##NAMES=HP
##CAS NAME=Propargyl alcohol, TMS derivative
##MOLFORM=C6H12OSi
##CAS REGISTRY NO=5582-62-7
##MP= -300
##BP= -300
##MW= 128
##$RETENTION INDEX=739
##$CONDENSED SPECTRUM=NO
##NPOINTS= 64
##XYDATA=(XY..XY) 1 
    15          5
    25          1
    26          3
    27          9
    28          3
    29          9
    30          1
    31          4
    37          5
    38         11
    39         44
    40          2
    41          3
    42         10
    43         63
    44         10
    45         77
    46          5
    47         14
    48          1
    49          3
    50          1
    51          3
    52          3
    53         23
    54          6
    55         29
    56          5
    57          9
    58         16
    59         55
    60          8
    61         14
    62          1
    65          2
    66          6
    67         21
    68          4
    69         26
    70          4
    71          5
    72          4
    73         64
    74          7
    75         23
    76          1
    81          2
    83        898
    84        100
    85         48
    86          2
    87          1
    88          1
    95          1
    96          1
    97         12
    98          6
    99          2
   111         11
   113        999
   114        129
   115         48
   127          4
   128          1