##TITLE=Library Entry 44855
##JCAMP-DX=Revision 4.10 
##DATA TYPE=MASS SPECTRUM
##SAMPLE DESCRIPTION=Exported from NIST MS Search
##NAMES=HP
##CAS NAME=L-Galactofuranoside, methyl 6-deoxy-3-O-methyl-, diacetate
##MOLFORM=C12H20O7
##CAS REGISTRY NO=55821-19-7
##MP= -300
##BP= -300
##MW= 276
##$RETENTION INDEX=0
##$CONDENSED SPECTRUM=NO
##NPOINTS= 163
##XYDATA=(XY..XY) 1 
    14         15
    15         67
    16          9
    17         54
    18        240
    26          6
    27         51
    28        149
    29         88
    30         21
    31         33
    32         30
    33         21
    39         42
    40          6
    41        112
    42         45
    43        100
    44         42
    45        131
    65          9
    66          9
    67         24
    68          9
    69         45
    70         15
    71        131
    72         61
    73         82
    74        999
    75         88
    76          9
    77          9
    79          6
    81         24
    82         27
    83        234
    84         18
    85        853
    86         30
    87        393
    88        198
    89         24
    95         18
    96        210
    97         91
    98         30
    99         85
   100         76
   101         79
   102         24
   103        149
   104         18
   111         61
   112         15
   113        359
   114        365
   115        475
   116        942
   117         91
   118         18
   125        189
   126         21
   127         30
   129        548
   130         54
   131         24
   132         15
   141         15
   142         18
   143        100
   144         18
   145         21
   149         54
   156        237
   157        118
   158        176
   159         91
   160          3
   161          4
   162          3
   163          2
   164          2
   165          3
   166          1
   167          8
   168          2
   169          1
   170          4
   171          7
   172        100
   173         38
   174          5
   175          2
   176          5
   177          3
   178          1
   179          1
   180          0
   181          1
   182          2
   183          3
   184          6
   185         17
   186          3
   187          6
   188          2
   189         61
   190          6
   191          4
   192          6
   193          3
   194          2
   195          2
   196          2
   197          1
   198          2
   199          2
   200          3
   201          4
   202          5
   203          4
   204          2
   205          3
   206          2
   207          4
   208          2
   209          2
   210          1
   211          2
   212          1
   213          2
   214          2
   215          1
   216          8
   217          6
   218          2
   219          1
   220          0
   221          1
   222          1
   223          4
   224          1
   225          1
   226          1
   228          2
   229          1
   230          1
   231          4
   232          2
   233          2
   234          1
   235          1
   236          1
   237          0
   238          1
   239          2
   240          0
   241          1
   242          2
   243          2
   244          2
   245        134