##TITLE=Library Entry 54110
##JCAMP-DX=Revision 4.10 
##DATA TYPE=MASS SPECTRUM
##SAMPLE DESCRIPTION=A.A.Kutin, Moscow, Russia
##NAMES=HP
##CAS NAME=2-(1-Pyrrolidinyl)ethyl 4-propoxysalicylate
##MOLFORM=C16H23NO4
##CAS REGISTRY NO=55828-27-8
##MP= -300
##BP= -300
##MW= 293
##$RETENTION INDEX=0
##$CONDENSED SPECTRUM=NO
##NPOINTS= 80
##XYDATA=(XY..XY) 1 
    39         43
    40         29
    41        124
    42        169
    43         93
    44         32
    45          9
    50          3
    51          8
    52          8
    53         26
    54         17
    55         67
    56         50
    57          8
    58          3
    60          1
    62          2
    63          9
    64          5
    65          4
    66          2
    67          6
    68         12
    69         52
    70         26
    71          4
    72          1
    77          2
    78          1
    79          5
    80          7
    81         18
    82         13
    83          8
    84        999
    85         57
    86          4
    87          1
    91          3
    92          2
    93          3
    94          3
    95          4
    96         27
    97        335
    98         43
    99          2
   100          2
   107          4
   108         11
   109          4
   110          2
   111          1
   112          1
   113          1
   114         36
   115          3
   119          2
   120          4
   121          3
   136          7
   137         46
   138          4
   149          4
   152          1
   177          0
   178          0
   179          9
   180          1
   181          1
   222          0
   223          0
   234          1
   235          0
   264          0
   292          0
   293         14
   294          2
   295          0