##TITLE=Library Entry 40922
##JCAMP-DX=Revision 4.10 
##DATA TYPE=MASS SPECTRUM
##SAMPLE DESCRIPTION=CONTINENTAL OIL COMPANY, PONCA CITY, OKLAHOMA, USA
##NAMES=HP
##CAS NAME=3-Heptanol, 3-methyl-
##MOLFORM=C8H18O
##CAS REGISTRY NO=5582-82-1
##MP= -300
##BP= -300
##MW= 130
##$RETENTION INDEX=1010
##$CONDENSED SPECTRUM=NO
##NPOINTS= 79
##XYDATA=(XY..XY) 1 
    12          0
    13          2
    14          8
    15         60
    16          3
    17          3
    18         11
    19          5
    24          0
    25          1
    26         19
    27        226
    28         65
    29        215
    30          6
    31         69
    32          6
    36          0
    37          2
    38          6
    39        101
    40         15
    41        204
    42         36
    43        350
    44         13
    45        283
    46          6
    47          1
    49          1
    50          4
    51          9
    52          4
    53         28
    54          9
    55        411
    56         30
    57        126
    58         27
    59        130
    60          4
    61          0
    63          1
    65          3
    66          1
    67          8
    68          6
    69         33
    70         53
    71         41
    72         17
    73        999
    74         43
    75          4
    77          2
    79          2
    81          3
    82          4
    83         82
    84          7
    85          4
    86          0
    87         10
    91          0
    93          0
    94          0
    95          0
    97          3
    99          0
   101        215
   102         14
   103          1
   105          1
   108          1
   112         10
   113          1
   115         71
   116          5
   130          0