##TITLE=Library Entry 42313
##JCAMP-DX=Revision 4.10 
##DATA TYPE=MASS SPECTRUM
##SAMPLE DESCRIPTION=O9-49-2A
##NAMES=HP
##CAS NAME=Prosta-10,13-dien-1-oic acid, 9-(methoxyimino)-15-[(trimethylsily
l)oxy]-, methyl ester, (13E,15S)-
##MOLFORM=C25H45NO4Si
##CAS REGISTRY NO=55821-11-9
##MP= -300
##BP= -300
##MW= 451
##$RETENTION INDEX=0
##$CONDENSED SPECTRUM=NO
##NPOINTS= 33
##XYDATA=(XY..XY) 1 
    71         65
    73        999
    74         95
    75        290
    79         55
    81         70
    83         30
    89         60
    91         70
    99         55
   105         25
   106         75
   116         30
   117         65
   118        100
   129        644
   130        135
   131         65
   132         90
   147         35
   148        305
   173        180
   199        285
   200         70
   330        100
   348         15
   361        130
   362         20
   380        310
   381         80
   420        205
   421         65
   451         30