##TITLE=Library Entry 48549
##JCAMP-DX=Revision 4.10 
##DATA TYPE=MASS SPECTRUM
##SAMPLE DESCRIPTION=Exported from NIST MS Search
##NAMES=HP
##CAS NAME=Tricyclo[3.3.1.1(3,7)]decanone, 4-(acetyloxy)-, (1.alpha.,3.beta.
,4.beta.,5.alpha.,7.beta.)-
##MOLFORM=C12H16O3
##CAS REGISTRY NO=55821-13-1
##MP= -300
##BP= -300
##MW= 208
##$RETENTION INDEX=0
##$CONDENSED SPECTRUM=NO
##NPOINTS= 67
##XYDATA=(XY..XY) 1 
    40        331
    41        258
    42         42
    43        837
    44        126
    50          8
    51         47
    52         26
    53         97
    54         32
    55        151
    56         10
    57         53
    58         11
    63          8
    65         68
    66         98
    67        186
    68         52
    69         20
    70         88
    71         58
    77        168
    78        746
    79        999
    80        213
    81        109
    82         39
    83         66
    84         14
    92        213
    93        254
    94        125
    95        169
    96        405
    97         68
   103         37
   104         59
   105        106
   106         49
   107         37
   108         14
   109         94
   110         23
   117         13
   119         61
   120        433
   121        130
   122         17
   123         64
   124         11
   125         15
   137         54
   138        421
   139         47
   147          3
   148        803
   149        112
   150         16
   164         11
   165         92
   166         90
   167         17
   180        148
   181         14
   208        187
   209         28