##TITLE=Library Entry 19544
##JCAMP-DX=Revision 4.10 
##DATA TYPE=MASS SPECTRUM
##SAMPLE DESCRIPTION=Exported from NIST MS Search
##NAMES=HP
##CAS NAME=Androst-5-en-17-one, 3-methoxy-16,16-dimethyl-, (3.beta.)-
##MOLFORM=C22H34O2
##CAS REGISTRY NO=55837-03-1
##MP= -300
##BP= -300
##MW= 330
##$RETENTION INDEX=0
##$CONDENSED SPECTRUM=NO
##NPOINTS= 162
##XYDATA=(XY..XY) 1 
    41        806
    42        108
    43        580
    44        241
    45        161
    47         60
    50         64
    51         52
    52         36
    53        209
    54         64
    55        999
    56        189
    57        564
    58         56
    59         72
    61         48
    62         36
    63        153
    65        112
    66         60
    67        495
    68        112
    69        693
    70        141
    71        443
    72         56
    73        116
    77        302
    78        137
    79        552
    80        112
    81        774
    82        161
    83        358
    84         88
    85        161
    91        693
    92        157
    93        548
    94        270
    95        584
    96        137
    97        274
    98         52
    99         56
   103         60
   104         64
   105        620
   106        189
   107        633
   108        177
   109        330
   110        100
   111        177
   112         44
   113         48
   115        121
   116         68
   117        217
   118        133
   119        524
   120        370
   121        717
   122        153
   123        177
   124         72
   125        278
   126         48
   128        116
   129        161
   130         80
   131        302
   132        112
   133        262
   134        104
   135        161
   136         48
   137        233
   138        100
   139        112
   141         64
   142         68
   143        302
   144        104
   145        467
   146        137
   147        161
   148         56
   149        137
   150         40
   151         80
   155         60
   157        225
   158        193
   159        415
   160        121
   161        137
   162         32
   163         80
   165         52
   169         40
   171        161
   172        104
   173        274
   174        104
   175        161
   176         76
   177        193
   178         56
   179         36
   183         56
   185        161
   186         60
   187        100
   188         48
   189         68
   190         40
   191         72
   197         64
   199        435
   200         92
   201         64
   203         52
   204         60
   205        189
   206         52
   211         92
   212         32
   213        217
   214        330
   215        100
   227        141
   228         48
   229         40
   231        161
   232         32
   241        161
   242         48
   243         36
   245         64
   246         68
   255        133
   256        153
   257         88
   258        100
   259        604
   260        104
   265         80
   269        112
   270        137
   271         36
   283        693
   284        193
   285         36
   298        798
   299        254
   300         32
   315        161
   316         40
   330        745
   331        189