##TITLE=Library Entry 35337
##JCAMP-DX=Revision 4.10 
##DATA TYPE=MASS SPECTRUM
##SAMPLE DESCRIPTION=O A MAMER, MCGILL UNIVERSITY, MONTRE
##NAMES=HP
##CAS NAME=N-Crotonylglycine, TMS derivative
##MOLFORM=C9H17NO3Si
##CAS REGISTRY NO=55836-39-0
##MP= -300
##BP= -300
##MW= 215
##$RETENTION INDEX=1482
##$CONDENSED SPECTRUM=NO
##NPOINTS= 98
##XYDATA=(XY..XY) 1 
    14          7
    15         35
    16          5
    26         11
    27         26
    28         76
    29         20
    30         51
    31          8
    32          3
    38         10
    39        136
    40         29
    41        277
    42         32
    43         67
    44         41
    45        146
    46         11
    47         65
    48          4
    51          4
    52          4
    53          9
    54          8
    55         16
    56         17
    57         12
    58         33
    59         44
    60         12
    61         42
    62          3
    63          3
    67          7
    68         33
    69        999
    70         53
    71         15
    72         27
    73        799
    74         78
    75        252
    76         19
    77         16
    79          3
    80          9
    81         11
    82         16
    83          4
    84          5
    85          5
    86         10
    87         12
    88         23
    89          4
    93          5
    95          3
    96          9
    97          8
    98         49
    99         19
   100         10
   101          5
   102         18
   103          4
   104         15
   105          6
   112          5
   116          8
   117          9
   125         11
   127         14
   128          9
   129          3
   130          9
   131          6
   132         11
   140         27
   141          8
   142         13
   143         15
   145          3
   146          3
   147          7
   154          6
   156        464
   157         63
   158         28
   159          3
   170         32
   171         16
   172          5
   173          4
   200        107
   201         16
   202          9
   215          9