##TITLE=Library Entry 9276
##JCAMP-DX=Revision 4.10 
##DATA TYPE=MASS SPECTRUM
##SAMPLE DESCRIPTION=Exported from NIST MS Search
##NAMES=HP
##CAS NAME=L-Talopyranose, 6-deoxy-3-O-methyl-, 2,4-diacetate
##MOLFORM=C11H18O7
##CAS REGISTRY NO=55836-48-1
##MP= -300
##BP= -300
##MW= 262
##$RETENTION INDEX=0
##$CONDENSED SPECTRUM=NO
##NPOINTS= 136
##XYDATA=(XY..XY) 1 
    16         18
    17         69
    18        321
    27         24
    28        187
    29         36
    30         24
    31         18
    32         42
    33         18
    36         18
    39         27
    41         63
    42         21
    43        999
    44         39
    45         97
    67         12
    68         15
    69          3
    70         27
    71         69
    72         24
    73         69
    74        999
    75        999
    76         51
    77         21
    80          6
    81         21
    82         33
    83         87
    84         33
    85        484
    86         36
    87        121
    95         12
    96         27
    97         27
    99         57
   100        172
   101        206
   102         24
   103         75
   111         75
   113         97
   114        127
   115        133
   116        796
   117         16
   118         16
   119         27
   120          3
   121          3
   122          3
   123          2
   124          2
   125         33
   126          8
   127         14
   128          6
   129         59
   130         10
   131          8
   132          3
   133          4
   134          2
   135          2
   136          2
   137          2
   138          2
   139          2
   140          3
   141          9
   142         30
   143         60
   144          8
   145         10
   146          3
   147          1
   148          3
   149         15
   150          2
   153         45
   154          6
   155          3
   156         15
   157         30
   158          6
   159         17
   160          3
   161          2
   162          3
   163          2
   164          1
   169          2
   170          1
   171         10
   172          3
   173          9
   174          3
   175          3
   176          2
   177          2
   178          2
   183          2
   184          8
   185         21
   186          3
   187          2
   189          3
   191          2
   193          4
   194          2
   198          2
   199          2
   200          3
   201          5
   202          5
   203          6
   204          2
   205          1
   206          1
   207          3
   213          4
   216          4
   217          2
   218          2
   219          2
   220          2
   232         58
   233          6
   234          2
   245        114
   246         16
   247          4