##TITLE=Library Entry 40995
##JCAMP-DX=Revision 4.10 
##DATA TYPE=MASS SPECTRUM
##SAMPLE DESCRIPTION=ORVAL A. MAMER, ROYAL VICTORIA HOSPITAL, MONTREAL, CANA
DA
##NAMES=HP
##CAS NAME=N-Propionylglycine, TMS derivative
##MOLFORM=C8H17NO3Si
##CAS REGISTRY NO=55836-38-9
##MP= -300
##BP= -300
##MW= 203
##$RETENTION INDEX=1369
##$CONDENSED SPECTRUM=NO
##NPOINTS= 63
##XYDATA=(XY..XY) 1 
    15         19
    26         11
    27         67
    28         91
    29        281
    30        274
    31         11
    32          6
    41         11
    42         20
    43         61
    44         37
    45        156
    46         12
    47         75
    54          9
    55         24
    56         32
    57        464
    58         56
    59         38
    60         16
    61         58
    68         14
    69         21
    70         40
    72         41
    73        999
    74        101
    75        317
    76         26
    77         19
    79          6
    85         10
    86         54
    87         22
    88         53
    89         10
   100          9
   101         22
   102         47
   104         99
   105         11
   113          7
   114          8
   116         59
   117         18
   130         40
   131        119
   132        121
   133         17
   142         12
   144         89
   145         12
   146         12
   147          8
   158         86
   159        301
   160         45
   161         14
   188        210
   189         30
   190         11