##TITLE=Library Entry 45557
##JCAMP-DX=Revision 4.10 
##DATA TYPE=MASS SPECTRUM
##SAMPLE DESCRIPTION=Exported from NIST MS Search
##NAMES=HP
##CAS NAME=Androst-4-ene-3,17-dione, 19-[(trimethylsilyl)oxy]-, bis(O-methyl
oxime)
##MOLFORM=C24H40N2O3Si
##CAS REGISTRY NO=55836-46-9
##MP= -300
##BP= -300
##MW= 432
##$RETENTION INDEX=0
##$CONDENSED SPECTRUM=NO
##NPOINTS= 109
##XYDATA=(XY..XY) 1 
    75        999
    77        411
    79        380
    81        248
   103        888
   104        197
   105        418
   106        309
   107        192
   115        291
   116        177
   117        304
   118        172
   119        253
   120        225
   121        170
   141        175
   142        134
   143        319
   144        304
   145        319
   146        274
   155        157
   156        299
   157        223
   158        337
   159        274
   181        126
   182        126
   183        126
   184        162
   194        126
   195        121
   196        170
   197        119
   198        139
   222        111
   223         96
   224        152
   225         83
   226        329
   227         86
   237         86
   238         91
   239         73
   240         91
   260         20
   262         33
   263         38
   264         43
   265        114
   266        106
   267        248
   268         83
   269         71
   270         55
   271         17
   277         17
   278         25
   279         73
   280         68
   281         45
   282         45
   283         30
   284         30
   285         15
   286         20
   295         15
   296         12
   297         17
   298         60
   299         40
   300         25
   301         25
   303         15
   309         12
   310         12
   311         30
   312         20
   313         15
   314         55
   315         17
   316         40
   317         27
   318         10
   325         17
   327         20
   328         15
   329         63
   330         35
   331         10
   340         25
   341         25
   342         30
   343         10
   368         15
   369         15
   370         71
   371         27
   372         38
   373         12
   374          5
   400         12
   401         17
   402         20
   403          5
   417          5
   432         33
   433         10