##TITLE=Library Entry 24031
##JCAMP-DX=Revision 4.10 
##DATA TYPE=MASS SPECTRUM
##SAMPLE DESCRIPTION=SERL
##NAMES=HP
##CAS NAME=Hexadecanoic acid, 2-oxo-, methyl ester
##MOLFORM=C17H32O3
##CAS REGISTRY NO=55836-30-1
##MP= -300
##BP= -300
##MW= 284
##$RETENTION INDEX=0
##$CONDENSED SPECTRUM=NO
##NPOINTS= 40
##XYDATA=(XY..XY) 1 
    39         60
    40         20
    41        490
    42        120
    43        790
    44         30
    53         20
    54         30
    55        420
    56        100
    57        999
    58         40
    59         60
    67         90
    68         20
    69        200
    70         50
    71        480
    72         20
    79         10
    81        120
    82         20
    83        160
    84         40
    85        260
    86         20
    95        190
    96         20
    97         80
    98         30
    99         50
   103         10
   109        100
   111         40
   113         10
   123         50
   125         20
   137         20
   225        190
   226         20