##TITLE=Library Entry 44242
##JCAMP-DX=Revision 4.10 
##DATA TYPE=MASS SPECTRUM
##SAMPLE DESCRIPTION=L.L.ENGEL HARVARD MEDICAL SCHOOL, BOSTON, MASSACHUSETTS
, USA
##NAMES=HP
##CAS NAME=Androst-4-en-19-al, 3-(methoxyimino)-17-[(trimethylsilyl)oxy]-, O
-methyloxime, (17.beta.)-
##MOLFORM=C24H40N2O3Si
##CAS REGISTRY NO=55836-45-8
##MP= -300
##BP= -300
##MW= 432
##$RETENTION INDEX=0
##$CONDENSED SPECTRUM=NO
##NPOINTS= 161
##XYDATA=(XY..XY) 1 
    67         91
    69         30
    73        999
    74         79
    75        268
    77         81
    79        123
    80         34
    81         96
    91        149
    92         38
    93        116
    94         38
    95         67
   101         50
   103         42
   104         42
   105        117
   106         81
   107         88
   108         34
   109         47
   115        111
   116         57
   117         88
   118         51
   119         89
   120         46
   121         60
   128         39
   129        402
   130        134
   131         99
   132        101
   133        100
   134         68
   135         46
   141         37
   142         37
   143         99
   144         94
   145        168
   146         80
   147        196
   148         45
   155         39
   156         82
   157         71
   158         92
   159         94
   160         33
   163         56
   164         45
   165         39
   168         35
   169         61
   170         53
   171         79
   172         38
   176         28
   177         33
   181         35
   182         53
   183         54
   184         51
   185         42
   193         24
   194         24
   195         46
   196         47
   197         42
   198         44
   199         27
   207         22
   208         33
   209         33
   210         61
   211         41
   212        109
   213         36
   214         39
   221         16
   222         25
   223         44
   224         42
   225         40
   226         32
   227         23
   236         44
   237         48
   238         39
   239         26
   245         42
   250         21
   251         31
   252         54
   253         46
   254         25
   262         11
   263         14
   264         14
   265          9
   268         14
   269         11
   270         11
   278         13
   279         68
   280         30
   281          5
   282         11
   283         12
   284         15
   285          9
   295          9
   310         83
   311         33
   312         11
   315         11
   316          9
   326          8
   327          6
   328         21
   329          9
   330         10
   339         11
   340         15
   341         63
   342        100
   343        263
   344         97
   345         48
   346         31
   347         10
   348          8
   353         13
   354         26
   355         14
   356          6
   368         13
   369         55
   370        106
   371         93
   372         53
   373         71
   374         53
   375         29
   384          8
   385         23
   386         56
   387         22
   388          8
   400        117
   401        471
   402        169
   403         50
   404         13
   417         24
   418          6
   432        118
   433         43
   434         13