##TITLE=Library Entry 29109
##JCAMP-DX=Revision 4.10 
##DATA TYPE=MASS SPECTRUM
##SAMPLE DESCRIPTION=Exported from NIST MS Search
##NAMES=HP
##CAS NAME=1,3-Benzodioxole-5-methanol, .alpha.-[2-(dimethylamino)ethyl]-
##MOLFORM=C12H17NO3
##CAS REGISTRY NO=55836-42-5
##MP= -300
##BP= -300
##MW= 223
##$RETENTION INDEX=0
##$CONDENSED SPECTRUM=NO
##NPOINTS= 65
##XYDATA=(XY..XY) 1 
    29        163
    30        116
    32        375
    38         44
    39        129
    40         58
    41        102
    42        235
    43        102
    44        273
    45        136
    46         41
    50         34
    51         68
    52         27
    53         37
    54          6
    55         64
    56         44
    57         95
    58        999
    59         95
    60         47
    61         34
    62         64
    63        146
    64         54
    65        112
    67         17
    68         23
    69         54
    70         99
    71         81
    72         68
    73         54
    74         58
    75         27
    76         17
    77         61
    78         41
    79         27
    80          6
    81         34
    89        221
    90         54
    91        109
    92         34
    93         34
   121         95
   122         30
   130          6
   131         95
   146         30
   147        470
   148        477
   149        238
   150         30
   176         85
   177         44
   190         61
   204         37
   205         71
   206         27
   223         95
   224         27