##TITLE=Library Entry 41190
##JCAMP-DX=Revision 4.10 
##DATA TYPE=MASS SPECTRUM
##SAMPLE DESCRIPTION=ORVAL A. MAMER, ROYAL VICTORIA HOSPITAL, MONTREAL, CANA
DA
##NAMES=HP
##CAS NAME=N-Methacryloylglycine, TMS derivative
##MOLFORM=C9H17NO3Si
##CAS REGISTRY NO=55836-40-3
##MP= -300
##BP= -300
##MW= 215
##$RETENTION INDEX=1388
##$CONDENSED SPECTRUM=NO
##NPOINTS= 85
##XYDATA=(XY..XY) 1 
    14          4
    15         35
    26          8
    27         21
    28         69
    29         28
    30         51
    31         11
    38         12
    39        182
    40         59
    41        596
    42         44
    43         82
    44         42
    45        200
    46         15
    47         85
    48          4
    49          3
    53         10
    54          7
    55         20
    56         26
    57         14
    58         51
    59         53
    60         16
    61         57
    62          4
    68         27
    69        814
    70         50
    71          8
    72         39
    73        999
    74        101
    75        324
    76         24
    77         19
    80          4
    81         14
    82         18
    83          4
    84          3
    85          6
    86         19
    87         19
    88         21
    89          5
    96          7
    97         16
    98         46
    99         12
   100         16
   101          9
   102         30
   103          5
   104          3
   112          5
   113          3
   116         12
   117         10
   125          5
   126          7
   127         11
   128          7
   130         11
   131          4
   140         12
   143         26
   144          6
   147          4
   154         45
   155         12
   156        199
   157         28
   158         10
   170        344
   171        208
   172         40
   173          9
   200        191
   201         29
   202         10