##TITLE=Library Entry 41473
##JCAMP-DX=Revision 4.10 
##DATA TYPE=MASS SPECTRUM
##SAMPLE DESCRIPTION=O A MAMER, MCGILL UNIVERSITY, MONTRE
##NAMES=HP
##CAS NAME=N-Formylglycine, TMS derivative
##MOLFORM=C6H13NO3Si
##CAS REGISTRY NO=55836-37-8
##MP= -300
##BP= -300
##MW= 175
##$RETENTION INDEX=0
##$CONDENSED SPECTRUM=NO
##NPOINTS= 79
##XYDATA=(XY..XY) 1 
    14         12
    15         54
    16          7
    18          3
    26         10
    27         26
    28        132
    29         63
    30        150
    31         13
    32          5
    39          7
    40          7
    41         25
    42         34
    43        120
    44         71
    45        263
    46         20
    47         98
    48          5
    49          4
    50          3
    51          6
    52         11
    53          7
    54          3
    55         15
    56         13
    57         22
    58         72
    59         71
    60         19
    61         72
    62          5
    63          4
    66          3
    70          7
    71          6
    72         53
    73        999
    74        110
    75        760
    76         61
    77         47
    78          4
    79         13
    84          3
    85          7
    86         17
    87         12
    88         22
    89          6
    91          3
    93          4
    98          4
   100          9
   101          7
   102         40
   103         75
   104         41
   105         11
   114          3
   115          6
   116        129
   117         33
   118          8
   130         20
   131        233
   132         45
   133         16
   142          3
   145          3
   147         30
   148          5
   149          4
   160        309
   161         36
   162         14