##TITLE=Library Entry 54123
##JCAMP-DX=Revision 4.10 
##DATA TYPE=MASS SPECTRUM
##SAMPLE DESCRIPTION=NIST Mass Spectrometry Data Center, 1998.
##NAMES=HP
##CAS NAME=Buflomedil
##MOLFORM=C17H25NO4
##CAS REGISTRY NO=55837-25-7
##MP= -300
##BP= -300
##MW= 307
##$RETENTION INDEX=2388
##$CONDENSED SPECTRUM=NO
##NPOINTS= 165
##XYDATA=(XY..XY) 1 
    15          5
    26          1
    27          9
    28         17
    29         14
    30         13
    31          1
    38          2
    39         18
    40          3
    41         49
    42        149
    43         18
    44          2
    45          1
    50          5
    51          9
    52          5
    53         19
    54         18
    55        111
    56         36
    57          8
    58          1
    59         12
    61          1
    62          4
    63         12
    64          6
    65         10
    66         13
    67          8
    68         18
    69        102
    70         42
    71          4
    72          1
    74          1
    75          3
    76          3
    77         24
    78         11
    79         17
    80          8
    81         13
    82         25
    83         40
    84        999
    85         68
    86          2
    89          3
    90          3
    91         10
    92         10
    93          9
    94         10
    95         16
    96        102
    97        804
    98        139
    99          8
   102          1
   103          3
   104          2
   105          5
   106          8
   107         16
   108          8
   109         20
   110         49
   111         56
   112         10
   113          2
   114          1
   115          2
   116          1
   117          1
   118          2
   119          3
   120          3
   121         11
   122         24
   123          6
   124          4
   125          2
   130          1
   131          2
   132          1
   133          3
   134          2
   135          9
   136          7
   137         66
   138         10
   139         15
   140          2
   145          1
   146          1
   147          2
   148          2
   149          4
   150          7
   151         10
   152         36
   153          4
   154          2
   159          1
   160          1
   161          3
   162          2
   163          6
   164          4
   165         17
   166          6
   167          7
   168          3
   169          2
   174          1
   175          1
   176          2
   177          4
   178          3
   179          6
   180         32
   181         28
   182          3
   189          2
   190          1
   191          6
   192          5
   193         42
   194          1
   195        421
   196         48
   197          8
   198          1
   204          1
   205          2
   206          1
   207          3
   208          2
   209          1
   210         63
   211         66
   212          8
   213          1
   220          1
   221          1
   222          1
   223         23
   224          3
   235          2
   236          1
   237         17
   238          3
   250          1
   276          2
   279          1
   289          1
   292          1
   305          1
   306          1
   307         22
   308          5
   309          1