##TITLE=Library Entry 83574
##JCAMP-DX=Revision 4.10 
##DATA TYPE=MASS SPECTRUM
##SAMPLE DESCRIPTION=D.HENNEBERG, MAX-PLANCK INSTITUTE, MULHEIM, WEST GERMAN
Y
##NAMES=HP
##CAS NAME=Borinic acid, diethyl-, 1-ethynylcyclohexyl ester
##MOLFORM=C12H21BO
##CAS REGISTRY NO=55848-34-5
##MP= -300
##BP= -300
##MW= 192
##$RETENTION INDEX=0
##$CONDENSED SPECTRUM=NO
##NPOINTS= 107
##XYDATA=(XY..XY) 1 
    27        144
    28        172
    29        221
    30          8
    32          4
    35          0
    36          2
    37         11
    38         16
    39        183
    40         49
    41        243
    42         23
    43         21
    47          1
    49          4
    50         25
    51         74
    52         42
    53         89
    54         21
    55         81
    56         40
    57        120
    59          6
    61          1
    62          3
    63         20
    64         10
    65        113
    66         22
    67        374
    68         83
    69         43
    70          5
    71          2
    72          0
    73          0
    74          2
    75          5
    76          4
    77         97
    78         55
    79        869
    80         64
    81         85
    82         16
    83          6
    84          3
    85         10
    86          2
    87          0
    88          0
    89          3
    91        315
    92         42
    93         20
    94         16
    95         62
    96         29
    97          6
    98          2
    99          1
   100          0
   102          1
   103         10
   104          3
   105         82
   106         71
   107        999
   108         85
   109         25
   110          1
   111          2
   112          5
   113          1
   115          0
   116          0
   117          2
   119          0
   120          1
   121         10
   122          1
   123          9
   124         14
   125         20
   126          1
   133          3
   134         45
   135        198
   136         33
   137          2
   143          0
   145          1
   147          0
   148          0
   149          3
   150          0
   151          0
   155          0
   159          0
   161          1
   162         10
   163         34
   164          3
   173          0
   179          0