##TITLE=Library Entry 25668
##JCAMP-DX=Revision 4.10 
##DATA TYPE=MASS SPECTRUM
##SAMPLE DESCRIPTION=Chemical Concepts
##NAMES=HP
##CAS NAME=3-Pentanone, 1-hydroxy-2-methyl-1-phenyl-
##MOLFORM=C12H16O2
##CAS REGISTRY NO=55848-19-6
##MP= -300
##BP= -300
##MW= 192
##$RETENTION INDEX=0
##$CONDENSED SPECTRUM=NO
##NPOINTS= 121
##XYDATA=(XY..XY) 1 
    25          4
    26         48
    27        221
    28         33
    29        688
    30         21
    31         14
    36          3
    37         27
    38         37
    39        100
    40          9
    41         47
    42         23
    43         75
    44         11
    45          7
    48          3
    49         22
    50        179
    51        342
    52         90
    53         37
    54          5
    55         27
    56         55
    57        999
    58         46
    59          6
    60          2
    61         12
    62         20
    63         36
    64          7
    65         18
    66          4
    67         10
    68          4
    69         11
    70          5
    71         14
    72          4
    73         16
    74         63
    75         36
    76         46
    77        740
    78        152
    79        126
    80         10
    81          4
    82          3
    83          6
    84          3
    85         14
    86        284
    87         24
    88          3
    89         14
    90          8
    91         40
    92         10
    93          3
    94          3
    95          3
    96          3
    97          8
    98          3
    99          3
   100          2
   101          3
   102         13
   103         71
   104         26
   105        569
   106        559
   107        134
   108         57
   109          6
   110          2
   111          3
   112          2
   113          2
   114          3
   115         37
   116          9
   117         68
   118         15
   119          4
   120          2
   121          2
   123          2
   124          2
   125          2
   126          2
   127          3
   128          4
   129          4
   130          2
   131         84
   132         35
   133          7
   143          4
   144          3
   145         60
   146         30
   147          4
   152          6
   153         10
   154         21
   155          7
   163          6
   164          2
   173          7
   174         28
   175          5
   176          1
   177          3
   191          2
   192          3
   193          1