##TITLE=Library Entry 89198
##JCAMP-DX=Revision 4.10 
##DATA TYPE=MASS SPECTRUM
##SAMPLE DESCRIPTION=V.A.Korolev, Moscow, Russia
##NAMES=HP
##CAS NAME=1-Amino-3-(3-methylpiperidin-1-yl)propan-2-ol
##MOLFORM=C9H20N2O
##CAS REGISTRY NO=558479-22-4
##MP= -300
##BP= -300
##MW= 172
##$RETENTION INDEX=0
##$CONDENSED SPECTRUM=NO
##NPOINTS= 66
##XYDATA=(XY..XY) 1 
    29        321
    30        547
    31         23
    37          4
    38         11
    39        153
    40         34
    41        356
    42        388
    43        136
    44        292
    45         23
    50          5
    51         15
    52         14
    53         52
    54         68
    55        451
    56        153
    57         57
    58        206
    59         36
    60         38
    65         10
    66          6
    67         32
    68         52
    69        260
    70        113
    71         13
    72         22
    74          8
    77          2
    79          7
    80         11
    81         16
    82         41
    83         50
    84         63
    85          1
    94          6
    95          3
    96         23
    97          6
    98         58
    99         13
   100         11
   110         17
   111         22
   112        999
   113        143
   114          9
   125          4
   126          2
   127          1
   137         24
   138          9
   139          3
   141          3
   142        141
   143         12
   153          5
   154        102
   155         11
   172         34
   173          4