##TITLE=Library Entry 45323
##JCAMP-DX=Revision 4.10 
##DATA TYPE=MASS SPECTRUM
##SAMPLE DESCRIPTION=Tox21 Consortium/NIST Mass Spectrometry Data Center, 20
12
##NAMES=HP
##CAS NAME=N-(Trimethylsilyl)hexanamide
##MOLFORM=C9H21NOSi
##CAS REGISTRY NO=55848-55-0
##MP= -300
##BP= -300
##MW= 187
##$RETENTION INDEX=0
##$CONDENSED SPECTRUM=NO
##NPOINTS= 122
##XYDATA=(XY..XY) 1 
    14          1
    15          4
    26          5
    27         54
    28         23
    29         92
    30          6
    31          6
    32          1
    37          1
    38          3
    39         42
    40          7
    41        122
    42         34
    43        107
    44         55
    45        133
    46         17
    47         62
    48          4
    49          2
    50          1
    51          4
    52          4
    53         14
    54         51
    55         57
    56         21
    57         23
    58         34
    59         67
    60         20
    61         64
    62          5
    63          3
    64          1
    65          2
    66          2
    67          5
    68         24
    69         18
    70         27
    71         12
    72         90
    73        978
    74        123
    75        999
    76         69
    77         37
    78          2
    79          2
    80          3
    81          2
    82         13
    83          2
    84          4
    85          8
    86         18
    87          6
    88          2
    89          4
    90          5
    91         12
    92          1
    93          1
    95          1
    96          8
    97          2
    98         11
    99         13
   100         75
   101          9
   102          8
   103          2
   104          1
   110          1
   111          1
   112          5
   113          5
   114          6
   115        130
   116        728
   117         73
   118         28
   119          1
   124          1
   126          3
   127          3
   128         83
   129         20
   130         19
   131        793
   132         86
   133         33
   134          2
   140          2
   141          1
   142         19
   143          4
   144         89
   145         20
   146          4
   147          5
   148          1
   154          2
   155          1
   156          2
   158         39
   159          6
   160          2
   168          1
   169          1
   170          3
   172        484
   173         64
   174         20
   175          2
   186          3
   187          9
   188          2
   189          1