##TITLE=Library Entry 51753
##JCAMP-DX=Revision 4.10 
##DATA TYPE=MASS SPECTRUM
##SAMPLE DESCRIPTION=W. GOMBLER, UNIV. SAARLANDES, SAARBRUCKEN, W. GER.
##NAMES=HP
##CAS NAME=Trifluoromethyldisulfane
##MOLFORM=CHF3S2
##CAS REGISTRY NO=55860-39-4
##MP= -300
##BP= -300
##MW= 134
##$RETENTION INDEX=0
##$CONDENSED SPECTRUM=NO
##NPOINTS= 21
##XYDATA=(XY..XY) 1 
    31         72
    32        293
    33         40
    50         74
    63        206
    64        122
    65        185
    66         15
    67         18
    69        435
    76         34
    82        999
    83         34
   101         25
   102        132
   114        238
   115         39
   116         22
   133         25
   134        525
   136         56