##TITLE=Library Entry 59576
##JCAMP-DX=Revision 4.10 
##DATA TYPE=MASS SPECTRUM
##SAMPLE DESCRIPTION=Dr. Jiri Zamecnik, DCIEM, North York, Canada, GP Librar
y
##NAMES=HP
##CAS NAME=4-Benzyloxyphenylacetone
##MOLFORM=C16H16O2
##CAS REGISTRY NO=5586-92-5
##MP= -300
##BP= -300
##MW= 240
##$RETENTION INDEX=0
##$CONDENSED SPECTRUM=NO
##NPOINTS= 34
##XYDATA=(XY..XY) 1 
    39         60
    43        224
    51         40
    52         29
    63         32
    64         13
    65        229
    77         38
    78         45
    79          6
    89         55
    90         20
    91        999
    92        152
   106          8
   107         47
   108          3
   115          2
   133          1
   141          1
   149          1
   152          2
   153          2
   165          3
   166          1
   167          2
   178          1
   181          3
   182          1
   197        198
   198         33
   199          3
   240        144
   241         25