##TITLE=Library Entry 94870
##JCAMP-DX=Revision 4.10 
##DATA TYPE=MASS SPECTRUM
##SAMPLE DESCRIPTION=Humboldt-Universitat zu Berlin, Department of Chemistry
, Analytical Group
##NAMES=HP
##CAS NAME=Di-.beta.-naphthyl disulfide
##MOLFORM=C20H14S2
##CAS REGISTRY NO=5586-15-2
##MP= -300
##BP= -300
##MW= 318
##$RETENTION INDEX=0
##$CONDENSED SPECTRUM=NO
##NPOINTS= 147
##XYDATA=(XY..XY) 1 
    16          2
    17          6
    18         13
    26          1
    27          4
    28          3
    29          4
    31          2
    32          1
    38          4
    39         26
    40          2
    41          8
    42          2
    43         13
    44          3
    45         13
    46          1
    50         14
    51         22
    52          4
    53          1
    55          6
    56          2
    57         17
    58          3
    60          1
    61          2
    62         15
    63         49
    64          6
    65         29
    66          2
    67          2
    69         29
    70          4
    71         10
    73          2
    74         19
    75         25
    76         15
    77         14
    78          2
    79         10
    81          5
    82         10
    83          5
    84          2
    85          6
    86          5
    87         13
    88         19
    89         82
    90          6
    91          2
    93         13
    94          2
    95          3
    96          2
    97          4
    98          6
    99          8
   100          5
   101          9
   102          4
   105          2
   106          3
   107          1
   108          4
   109          2
   110          1
   111          3
   112          2
   113         33
   114         72
   115        999
   116        106
   117          7
   119          2
   121          1
   124          1
   125          5
   126         23
   127         25
   128         18
   129          3
   132          4
   133          1
   134          4
   139          1
   140          1
   141          1
   142          1
   145          2
   146          2
   147          1
   149          1
   152          1
   155          1
   156          1
   157          3
   158         44
   159        449
   160         80
   161         27
   162          5
   163          1
   171          1
   173          1
   185          0
   190         19
   191          4
   192          1
   193          0
   203          0
   224          0
   225          0
   226          1
   227          0
   228          0
   237          0
   239          3
   240          1
   241          0
   250          1
   251          0
   252          9
   253         36
   254        171
   255         37
   256          3
   257          0
   258          0
   270          0
   271          1
   282          2
   283          2
   284         10
   285         23
   286          6
   287          1
   288          0
   318        194
   319         46
   320         24
   321          4
   322          1