##TITLE=Library Entry 50397
##JCAMP-DX=Revision 4.10 
##DATA TYPE=MASS SPECTRUM
##SAMPLE DESCRIPTION=Exported from NIST MS Search
##NAMES=HP
##CAS NAME=Cyclohexanol, 4-ethyl-4-methyl-3-(1-methylethyl)-, (1.alpha.,3.al
pha.,4.beta.)-
##MOLFORM=C12H24O
##CAS REGISTRY NO=55869-52-8
##MP= -300
##BP= -300
##MW= 184
##$RETENTION INDEX=0
##$CONDENSED SPECTRUM=NO
##NPOINTS= 14
##XYDATA=(XY..XY) 1 
    41        669
    43        579
    55        809
    57        400
    67        460
    69        579
    81        999
    83        380
    84        869
    95        519
   123        809
   137        579
   155        240
   166         15