##TITLE=Library Entry 39803
##JCAMP-DX=Revision 4.10 
##DATA TYPE=MASS SPECTRUM
##SAMPLE DESCRIPTION=NIST Mass Spectrometry Data Center, 1994
##NAMES=HP
##CAS NAME=Isothiocyanic acid, hexamethylene ester
##MOLFORM=C8H12N2S2
##CAS REGISTRY NO=5586-70-9
##MP= -300
##BP= -300
##MW= 200
##$RETENTION INDEX=0
##$CONDENSED SPECTRUM=NO
##NPOINTS= 118
##XYDATA=(XY..XY) 1 
    14          7
    15         16
    26         37
    27        285
    28        155
    29        200
    30         26
    31          7
    32         35
    33          4
    34          3
    37          4
    39        298
    40         68
    41        684
    42         67
    43         58
    44         40
    45        111
    46         16
    47          6
    50         12
    51         23
    52         17
    53         72
    54         74
    55        748
    56         56
    57         21
    58         65
    59        102
    60         87
    61          7
    62         18
    63          3
    64          6
    65         12
    66         10
    67         87
    68         30
    69         85
    70         45
    71          3
    72        999
    73         53
    74         68
    75         12
    76          6
    77          5
    78          8
    79         18
    80         27
    81         84
    82         49
    83         71
    84         48
    85        181
    86        101
    87         26
    88          9
    89          3
    90          3
    91          7
    93          4
    94         10
    95          6
    96         13
    97         12
    98         75
    99         23
   100         65
   101         73
   102         11
   103          4
   106          5
   107          8
   108         48
   109         44
   110          7
   111          5
   112         23
   113         42
   114         70
   115         50
   116          6
   117          4
   119         12
   123          6
   124          5
   125          4
   126         11
   127          2
   128         15
   129          5
   132         20
   133          5
   134          8
   135          5
   136         13
   138          5
   139         35
   140         52
   141         38
   142         65
   143          8
   144          5
   145          7
   154          6
   157          4
   158          3
   167        166
   168         17
   169          7
   171          6
   172          3
   200        254
   201         30
   202         24