##TITLE=Library Entry 11771
##JCAMP-DX=Revision 4.10 
##DATA TYPE=MASS SPECTRUM
##SAMPLE DESCRIPTION=NIST Mass Spectrometry Data Center, 1994
##NAMES=HP
##CAS NAME=p-(Chlorophenyl)acetone
##MOLFORM=C9H9ClO
##CAS REGISTRY NO=5586-88-9
##MP= -300
##BP= -300
##MW= 168
##$RETENTION INDEX=0
##$CONDENSED SPECTRUM=NO
##NPOINTS= 69
##XYDATA=(XY..XY) 1 
    13          1
    14          8
    15         54
    16          1
    26          4
    27         10
    29          3
    35          1
    36          1
    37          6
    38         18
    39         55
    40          5
    41          5
    42          1
    43        999
    44         26
    47          1
    48          0
    49          6
    50         30
    51         32
    52          4
    53          1
    57          1
    60          2
    61         11
    62         35
    63         91
    64         15
    65         14
    66          1
    72          2
    73         25
    74         12
    75         22
    76          4
    77         11
    78          1
    79          1
    84          2
    85          6
    86          9
    87          9
    88          1
    89        120
    90         33
    91         23
    92          1
    97          3
    99         32
   100          2
   101         12
   102          3
   103          3
   104          0
   115          1
   118          2
   123          1
   125        180
   126         45
   127         59
   128         13
   129          0
   131          0
   168         57
   169          6
   170         21
   171          1