##TITLE=Library Entry 33247
##JCAMP-DX=Revision 4.10 
##DATA TYPE=MASS SPECTRUM
##SAMPLE DESCRIPTION=Chemical Concepts
##NAMES=HP
##CAS NAME=4,5,6,7-Tetrahydro-3H-cyclopenta[b]pyran-2-one
##MOLFORM=C8H10O2
##CAS REGISTRY NO=5587-71-3
##MP= -300
##BP= -300
##MW= 138
##$RETENTION INDEX=0
##$CONDENSED SPECTRUM=NO
##NPOINTS= 84
##XYDATA=(XY..XY) 1 
    25          9
    26        153
    27        604
    28        249
    29        110
    30          5
    31         17
    36          5
    37         58
    38        134
    39        800
    40        501
    41        336
    42        260
    43        294
    44         14
    45         62
    49         21
    50        127
    51        175
    52        104
    53        249
    54        279
    55        262
    56         32
    57          8
    60         15
    61         17
    62         28
    63         54
    64         15
    65         86
    66         94
    67        501
    68        999
    69         83
    70         14
    71          3
    72          2
    73          8
    74         17
    75          9
    76          4
    77         72
    78         30
    79        133
    80         26
    81        137
    82        314
    83        127
    84         29
    85          5
    86          3
    87          5
    89          5
    90          5
    91         50
    92         32
    93         61
    94         25
    95        218
    96        231
    97         53
    98         47
    99          4
   100          3
   103          3
   105          7
   106          6
   107          7
   108         17
   109        152
   110        279
   111         24
   112          4
   119          4
   120         10
   121          4
   126          5
   136          5
   137         14
   138        271
   139         39
   140          6