##TITLE=Library Entry 586
##JCAMP-DX=Revision 4.10 
##DATA TYPE=MASS SPECTRUM
##SAMPLE DESCRIPTION=Dennis Rohrbaugh, CBDCOM/ERDEC, Edgewood, MD
##NAMES=HP
##CAS NAME=Ethyl trifluoromethyl trisulfide
##MOLFORM=C3H5F3S3
##CAS REGISTRY NO=55882-01-4
##MP= -300
##BP= -300
##MW= 194
##$RETENTION INDEX=0
##$CONDENSED SPECTRUM=NO
##NPOINTS= 33
##XYDATA=(XY..XY) 1 
    29        999
    30         34
    32        165
    33         25
    35        140
    45        231
    46         79
    47         25
    50         21
    51         12
    58        119
    59        100
    60         42
    61         49
    64        501
    65         49
    69        333
    82         32
    83         26
    91         55
    93        138
    95         11
    97         59
    99          8
   101         24
   125         38
   127          7
   129          7
   133         23
   165         10
   166         15
   194        263
   196         50