##TITLE=Library Entry 71152
##JCAMP-DX=Revision 4.10 
##DATA TYPE=MASS SPECTRUM
##SAMPLE DESCRIPTION=AAFS Toxicology Section MS DB Committee, U. Alberta, Ca
nada
##NAMES=HP
##CAS NAME=Mesoridazine
##MOLFORM=C21H26N2OS2
##CAS REGISTRY NO=5588-33-0
##MP= -300
##BP= -300
##MW= 386
##$RETENTION INDEX=3362
##$CONDENSED SPECTRUM=NO
##NPOINTS= 190
##XYDATA=(XY..XY) 1 
    30          8
    31          1
    32          2
    37          5
    39          9
    40          1
    41         24
    42         96
    43         11
    44         23
    45          7
    46          3
    47          3
    49          1
    50          2
    53          4
    54          6
    55         16
    56          7
    57         12
    58         11
    59          1
    61          2
    62          1
    63          6
    64          2
    65          3
    67          9
    68         23
    69         16
    70        165
    71         11
    73          1
    75          5
    76          2
    77          6
    79          3
    80          4
    81          3
    82         16
    83          7
    84         10
    86          3
    88          1
    89          2
    90          2
    91          2
    92          1
    93          6
    94         10
    95         10
    96         39
    98        999
    99         66
   100          2
   101          1
   102          2
   103          1
   105          5
   106          2
   108          8
   109          8
   110          9
   111         11
   112         17
   114          8
   115          4
   117          2
   119          3
   120          4
   122          9
   123          1
   124         21
   125         18
   126         73
   127          9
   128          2
   136          3
   138          3
   139         10
   140          7
   141          4
   142          4
   143          3
   145          4
   146          3
   147          3
   149          3
   151          7
   152         10
   153         18
   154          5
   155          1
   158          3
   159          4
   160          2
   162          2
   164          6
   165          4
   166          5
   167         19
   168          3
   169          6
   170         10
   171         11
   172          4
   173          1
   177          4
   178         12
   179         33
   180         10
   181          1
   182          3
   183          5
   184         10
   185         35
   186         10
   187          3
   190          3
   191          8
   192          5
   193          7
   194          1
   195          6
   196         55
   197         62
   198         26
   199         10
   200          3
   201          2
   203          2
   209          9
   210         32
   211         35
   212         17
   213          4
   214          1
   222          6
   223         24
   224         19
   225         18
   226         11
   227         12
   228          8
   229         13
   230          7
   232          1
   236          2
   239          2
   241          9
   243         17
   245         57
   246         20
   248          2
   252          1
   254          6
   256          9
   258         17
   259         47
   260         23
   261         17
   263          1
   270         14
   272         13
   273         26
   274         28
   275         26
   276          1
   287         20
   288          4
   290          1
   302          2
   315          4
   318          1
   323          2
   327          1
   356          3
   360          1
   367          3
   369         17
   370         19
   371          9
   372          3
   384          3
   386        109
   387         30
   388         13
   389          3
   390          1
   391          1