##TITLE=Library Entry 39255
##JCAMP-DX=Revision 4.10 
##DATA TYPE=MASS SPECTRUM
##SAMPLE DESCRIPTION=Exported from NIST MS Search
##NAMES=HP
##CAS NAME=D-Galactitol, 3,6-anhydro-1,2,4,5-tetra-O-methyl-
##MOLFORM=C10H20O5
##CAS REGISTRY NO=55887-72-4
##MP= -300
##BP= -300
##MW= 220
##$RETENTION INDEX=0
##$CONDENSED SPECTRUM=NO
##NPOINTS= 86
##XYDATA=(XY..XY) 1 
    40         18
    41        131
    42         44
    43        119
    44         97
    45        471
    46         15
    47         26
    53         26
    54          7
    55         44
    56         18
    57         52
    58        426
    59        531
    60         30
    61         18
    66         67
    67         15
    68         22
    69        161
    70         74
    71        999
    72        269
    73        269
    74         48
    75        539
    76         30
    77         15
    81         15
    82         11
    83         82
    84         15
    85         63
    86         18
    87         67
    88        322
    89        411
    90         30
    91         15
    93         11
    94         37
    95         26
    96         11
    97         30
    98         82
    99        531
   100         67
   101        767
   102        479
   103         67
   111        179
   112         59
   113         30
   114         22
   115        164
   116         26
   117         59
   118         22
   124         11
   125         30
   126         22
   127         22
   128        123
   129         89
   130        168
   131        224
   132         30
   133         15
   143        288
   144         33
   145         15
   156        179
   157         59
   158          7
   161        262
   162         22
   175        288
   176         18
   177          7
   188        217
   189         33
   199          7
   200          7
   201          7
   202          7