##TITLE=Library Entry 58327
##JCAMP-DX=Revision 4.10 
##DATA TYPE=MASS SPECTRUM
##SAMPLE DESCRIPTION=Exported from NIST MS Search
##NAMES=HP
##CAS NAME=Cyclobutane, 1-bromo-2-chloro-
##MOLFORM=C4H6BrCl
##CAS REGISTRY NO=55887-83-7
##MP= -300
##BP= -300
##MW= 168
##$RETENTION INDEX=0
##$CONDENSED SPECTRUM=NO
##NPOINTS= 19
##XYDATA=(XY..XY) 1 
    39        180
    41        140
    51         20
    52         30
    53        699
    54        180
    61         40
    62        300
    63         40
    64         90
    75        589
    77        190
    88        420
    89        999
    90        180
    91        330
   140         70
   142         90
   144         10