##TITLE=Library Entry 40521
##JCAMP-DX=Revision 4.10 
##DATA TYPE=MASS SPECTRUM
##SAMPLE DESCRIPTION=MO-5
##NAMES=HP
##CAS NAME=2-Methoxytyramine, TMS derivative
##MOLFORM=C12H21NO2Si
##CAS REGISTRY NO=55887-62-2
##MP= -300
##BP= -300
##MW= 239
##$RETENTION INDEX=0
##$CONDENSED SPECTRUM=NO
##NPOINTS= 93
##XYDATA=(XY..XY) 1 
    14         14
    15         51
    16         13
    18         22
    26         20
    27         37
    28        105
    29         21
    30        888
    31         21
    32         14
    39         31
    41         29
    42         21
    43         79
    44         60
    45        222
    46         15
    47         22
    50         10
    51         37
    52         15
    53         14
    55         18
    57         17
    58         34
    59        151
    60         15
    61         19
    63         14
    65         19
    67         10
    69         19
    72         15
    73        999
    74         91
    75        128
    76         14
    77         46
    78         30
    79         20
    82         10
    83         13
    84         22
    86         29
    89         49
    90         17
    91         33
    93         12
    95         10
    97         11
    99         11
   102         77
   103         22
   104         31
   105         25
   117         16
   119         11
   121         10
   128         22
   133         12
   135         18
   136         12
   137         11
   147         30
   149        107
   150         25
   151         18
   161         16
   162         24
   163         33
   164         15
   165         30
   166         19
   179        209
   180        584
   181        109
   182         34
   192         18
   193         26
   195        207
   196         36
   197         12
   207         28
   209        555
   210        741
   211        144
   212         38
   221         12
   224         72
   225         13
   239        144
   240         28