##TITLE=Library Entry 42786
##JCAMP-DX=Revision 4.10 
##DATA TYPE=MASS SPECTRUM
##SAMPLE DESCRIPTION=O A MAMER, MCGILL UNIVERSITY
##NAMES=HP
##CAS NAME=2,3-Dihydroxy-2-butenedioic acid, (Z)-, 4TMS derivative
##MOLFORM=C16H36O6Si4
##CAS REGISTRY NO=55887-89-3
##MP= -300
##BP= -300
##MW= 436
##$RETENTION INDEX=0
##$CONDENSED SPECTRUM=NO
##NPOINTS= 75
##XYDATA=(XY..XY) 1 
    14         11
    16          5
    29          2
    44         14
    45        147
    46         12
    47          5
    51          0
    52          1
    53          2
    58          5
    59         18
    60          4
    61          1
    66          4
    72         20
    73        999
    74         88
    75         19
    76          1
    99          1
   101          3
   113          0
   115          0
   119          1
   131         28
   132          2
   133         44
   134          7
   143          1
   146          8
   147        456
   148         88
   149         33
   150          5
   157         13
   159          3
   189          4
   190         29
   191          4
   192          4
   193          8
   205          1
   206          4
   207         23
   215          4
   221         44
   222          8
   223          0
   229          4
   231         33
   232          7
   233          4
   259         40
   260          7
   303          7
   305         14
   319         42
   320         13
   321          5
   333         35
   334          7
   393         48
   394         25
   395          7
   419          3
   421        191
   422         75
   423         45
   424         20
   431          3
   435          3
   436         49
   437         21
   438         13