##TITLE=Library Entry 43685
##JCAMP-DX=Revision 4.10 
##DATA TYPE=MASS SPECTRUM
##SAMPLE DESCRIPTION=MO-41
##NAMES=HP
##CAS NAME=Salicylamide, 2TMS derivative
##MOLFORM=C13H23NO2Si2
##CAS REGISTRY NO=55887-58-6
##MP= -300
##BP= -300
##MW= 281
##$RETENTION INDEX=0
##$CONDENSED SPECTRUM=NO
##NPOINTS= 42
##XYDATA=(XY..XY) 1 
    15         32
    17         35
    18        146
    28         62
    43         83
    44         58
    45        334
    46         30
    47         70
    59         49
    61         52
    73        999
    74        120
    75        296
    76         39
    77         40
    84         32
    91         97
   117         45
   131         31
   133         40
   135         92
   147        351
   148         69
   149         63
   151         30
   173         58
   176        385
   177         69
   178         63
   179         21
   191         40
   194         53
   209         66
   250        526
   251        129
   252         57
   264         47
   266        794
   267        192
   268         81
   281         34