##TITLE=Library Entry 50336
##JCAMP-DX=Revision 4.10 
##DATA TYPE=MASS SPECTRUM
##SAMPLE DESCRIPTION=Exported from NIST MS Search
##NAMES=HP
##CAS NAME=Cyclohexane, 1,3-dichloro-
##MOLFORM=C6H10Cl2
##CAS REGISTRY NO=55887-78-0
##MP= -300
##BP= -300
##MW= 152
##$RETENTION INDEX=0
##$CONDENSED SPECTRUM=NO
##NPOINTS= 24
##XYDATA=(XY..XY) 1 
    39         10
    41         50
    53         20
    54         55
    62         10
    65          5
    67         50
    75         30
    76         10
    77         20
    78         35
    79         75
    80        320
    81        999
    82         70
    88         25
    90         10
   116         80
   117         40
   118         35
   119         10
   152         14
   154         10
   156          1