##TITLE=Library Entry 42465
##JCAMP-DX=Revision 4.10 
##DATA TYPE=MASS SPECTRUM
##SAMPLE DESCRIPTION=MO-47
##NAMES=HP
##CAS NAME=Pentanoic acid, 2-[(trimethylsilyl)oxy]-, trimethylsilyl ester
##MOLFORM=C11H26O3Si2
##CAS REGISTRY NO=55887-46-2
##MP= -300
##BP= -300
##MW= 262
##$RETENTION INDEX=1207
##$CONDENSED SPECTRUM=NO
##NPOINTS= 40
##XYDATA=(XY..XY) 1 
    27         23
    28         20
    29         21
    41         15
    43         45
    44         34
    45        159
    46         12
    47         33
    55         67
    57         12
    58         18
    59         73
    61         22
    66         43
    72         25
    73        999
    74         91
    75        151
    81         21
    83         15
   101         15
   103         96
   115         15
   117         14
   129         23
   131         28
   133         70
   134         11
   145        777
   146        106
   147        545
   148         85
   149         56
   157         15
   190         30
   219         69
   220         16
   247         43
   248         10