##TITLE=Library Entry 68547
##JCAMP-DX=Revision 4.10 
##DATA TYPE=MASS SPECTRUM
##SAMPLE DESCRIPTION=Chemical Concepts
##NAMES=HP
##CAS NAME=Ursan-12-one, 3-(acetyloxy)-, (3.beta.)-
##MOLFORM=C32H52O3
##CAS REGISTRY NO=55887-96-2
##MP= -300
##BP= -300
##MW= 484
##$RETENTION INDEX=0
##$CONDENSED SPECTRUM=NO
##NPOINTS= 417
##XYDATA=(XY..XY) 1 
    25          1
    26          4
    27         21
    29         42
    30         13
    39         24
    40          9
    41        283
    42         26
    43        632
    44         47
    45         23
    46          3
    47          3
    48          2
    49          5
    50          5
    51         10
    52          3
    53         18
    54         11
    55        195
    56         19
    57         20
    58          8
    59          9
    60         12
    61          2
    62          3
    63          6
    64          5
    65         12
    66          4
    67         29
    68         42
    69        201
    70         22
    71         48
    72         11
    73          8
    74          3
    75          5
    76          2
    77         23
    78          5
    79         69
    80         18
    81        178
    82         87
    83        125
    84         24
    85         30
    86         22
    87          5
    88         12
    89          7
    90          3
    91        110
    92         31
    93         83
    94        134
    95        999
    96        178
    97        363
    98         66
    99         29
   100          6
   101          7
   102         18
   103         10
   104          7
   105        182
   106         64
   107        446
   108        218
   109        577
   110        172
   111        323
   112         51
   113         19
   114          5
   115         11
   116          6
   117         21
   118         10
   119        168
   120        117
   121        309
   122        194
   123        954
   124        156
   125         73
   126         17
   127         11
   128          6
   129         13
   130          6
   131         32
   132         18
   133        104
   134         68
   135        305
   136        151
   137        230
   138         38
   139         38
   140          9
   141         12
   142          6
   143          9
   144          5
   145         35
   146         20
   147        108
   148         43
   149         87
   150         81
   151         73
   152         39
   153         14
   154          6
   155          6
   156          3
   157         12
   158          5
   159         43
   160         19
   161         87
   162         32
   163         77
   164         33
   165         22
   166         13
   167         28
   168         46
   169          9
   170          5
   171         11
   172          5
   173         34
   174         13
   175         80
   176         98
   177        134
   178         30
   179          9
   180          3
   181          4
   182          2
   183          4
   184          2
   185          9
   186          5
   187         27
   188         19
   189        239
   190         77
   191        128
   192         39
   193         84
   194         16
   195          3
   196          1
   197          2
   198          2
   199          7
   200          5
   201         66
   202         22
   203         74
   204         40
   205         66
   206         18
   207         13
   208          4
   209          4
   210          2
   211          2
   212          1
   213          7
   214          4
   215          9
   216        119
   217         44
   218         12
   219        332
   220         70
   221        112
   222         34
   223          8
   224          3
   225          6
   226          3
   227          6
   228          3
   229         18
   230          8
   231         19
   232         21
   233         42
   234        504
   235        362
   236         56
   237          4
   238          1
   239          3
   240          0
   241          3
   242          1
   243          7
   244          3
   245          8
   246          4
   247         10
   248          7
   249        111
   250         25
   251          4
   252          0
   253          2
   254          0
   255          9
   256          3
   257          8
   258          3
   259          6
   260          2
   261          1
   262          1
   263          2
   264         13
   265          3
   266          0
   267          1
   268          1
   269          4
   270          6
   271         11
   272          3
   273         11
   274          4
   275          5
   276          1
   277          0
   278          1
   279          1
   280          0
   281          2
   282          1
   283          4
   284          1
   285          4
   286          3
   287         10
   288          4
   289          5
   290          4
   291          3
   292          1
   293          5
   294          1
   295          2
   296          1
   297          2
   298          1
   299          5
   300          1
   301          3
   302          2
   304          1
   305          0
   306          0
   307          0
   308          0
   309          0
   310          0
   311          0
   312          3
   313          1
   314          3
   315          2
   316          2
   317          1
   318          1
   319          0
   320          1
   321          1
   322          0
   323          3
   324          0
   325          2
   326          1
   327          3
   328          2
   329          3
   330          1
   331          8
   332          3
   333        243
   334         58
   335          9
   336          1
   337          3
   338          0
   339          3
   340          3
   341          8
   342          3
   343          2
   344          0
   345          7
   346          4
   347          4
   348          0
   349          2
   350          0
   351          1
   352          0
   353          1
   354          1
   355          4
   356          2
   357          3
   358          2
   359         29
   360         10
   361         14
   362          3
   363          1
   364          0
   365          1
   366          0
   367          1
   368          0
   369          1
   370          2
   371          2
   372          1
   373          6
   374          2
   375          1
   376          0
   377          0
   378          0
   379          1
   380          0
   381          7
   382          3
   383          2
   384          1
   385          3
   386          1
   387          4
   388          1
   389          0
   390          0
   391          9
   392          2
   393          2
   394          1
   395          1
   396          0
   397          1
   398          1
   399          4
   400          9
   401          3
   402          1
   403          0
   405          1
   406          4
   407          3
   408          4
   409         29
   410         13
   411          4
   412          0
   413          0
   414          2
   415          0
   421          1
   423          3
   424         23
   425         14
   426          4
   427          2
   428          1
   429          1
   430          0
   434          0
   435          0
   436          0
   437          0
   438          0
   439          0
   440          3
   441          0
   450          3
   451          1
   452          2
   453          1
   454          1
   455          1
   456          0
   466         14
   467         11
   468         15
   469        480
   470        205
   471         44
   472          7
   482          4
   483          8
   484        173
   485         78
   486         15
   487          2