##TITLE=Library Entry 42530
##JCAMP-DX=Revision 4.10 
##DATA TYPE=MASS SPECTRUM
##SAMPLE DESCRIPTION=O A MAMER, MCGILL UNIVERSITY, MONTREAL, CANADA
##NAMES=HP
##CAS NAME=2-Pentenedioic acid, 3-methyl-, bis(trimethylsilyl) ester
##MOLFORM=C12H24O4Si2
##CAS REGISTRY NO=55887-63-3
##MP= -300
##BP= -300
##MW= 288
##$RETENTION INDEX=1471
##$CONDENSED SPECTRUM=NO
##NPOINTS= 57
##XYDATA=(XY..XY) 1 
    15         13
    18         21
    27         18
    28         30
    29         15
    39         29
    43         61
    44         38
    45        180
    46         13
    47         60
    53         47
    54         70
    55         13
    57         11
    58         19
    59         30
    61         33
    72         44
    73        999
    74         95
    75        252
    76         19
    77         12
    81         28
    82        164
    83         16
    97         27
    99         32
   101         11
   103         17
   108         16
   109         83
   111         18
   112         27
   117         14
   131         10
   133         33
   142         25
   147        477
   148         77
   149         49
   157         20
   170         41
   171         12
   183         74
   184         12
   198        102
   199         20
   201         11
   215          7
   229         51
   230         12
   244         26
   273         76
   274         18
   275          8