##TITLE=Library Entry 3135
##JCAMP-DX=Revision 4.10 
##DATA TYPE=MASS SPECTRUM
##SAMPLE DESCRIPTION=Dennis Rohrbaugh, CBDCOM/ERDEC, Edgewood, MD
##NAMES=HP
##CAS NAME=Propane, 1,1'-thiobis[3-chloro-
##MOLFORM=C6H12Cl2S
##CAS REGISTRY NO=55882-21-8
##MP= -300
##BP= -300
##MW= 186
##$RETENTION INDEX=1276
##$CONDENSED SPECTRUM=NO
##NPOINTS= 35
##XYDATA=(XY..XY) 1 
    41        999
    45        361
    46        211
    47        366
    49        263
    51         70
    59         57
    60         32
    61        826
    62         38
    63         55
    73         64
    74         48
    75         72
    76        114
    77         49
    81         47
    83         16
    87         23
    95         12
   108         23
   109         45
   110        254
   111         30
   112         99
   123        394
   124         25
   125        148
   127          3
   137         16
   139          4
   151         11
   186        109
   187         14
   188         75