##TITLE=Library Entry 18044
##JCAMP-DX=Revision 4.10 
##DATA TYPE=MASS SPECTRUM
##SAMPLE DESCRIPTION=NIST Mass Spectrometry Data Center, 1998.
##NAMES=HP
##CAS NAME=Acetic acid, bromochloro-
##MOLFORM=C2H2BrClO2
##CAS REGISTRY NO=5589-96-8
##MP= -300
##BP= -300
##MW= 172
##$RETENTION INDEX=0
##$CONDENSED SPECTRUM=NO
##NPOINTS= 42
##XYDATA=(XY..XY) 1 
    29        255
    31         16
    35         42
    36         66
    37         21
    38         30
    39         14
    40         17
    41        111
    42         12
    43         12
    44        153
    45        392
    46         12
    47        164
    48        363
    49        999
    50        223
    51        294
    52         43
    65        120
    67         21
    76         76
    78         27
    79         72
    80         37
    81         86
    82         16
    91         43
    92        134
    93        143
    94        141
    95         40
   111          6
   127         84
   128        379
   129        203
   130        601
   131         48
   132        120
   172          6
   174         12