##TITLE=Library Entry 95156
##JCAMP-DX=Revision 4.10 
##DATA TYPE=MASS SPECTRUM
##SAMPLE DESCRIPTION=G. VON UNRUH, UNIV. MED. KLINIK, VENUSBERG, BONN, W. GE
R.
##NAMES=HP
##CAS NAME=Diethyl methylpropylmalonate
##MOLFORM=C11H20O4
##CAS REGISTRY NO=55898-43-6
##MP= -300
##BP= -300
##MW= 216
##$RETENTION INDEX=0
##$CONDENSED SPECTRUM=NO
##NPOINTS= 54
##XYDATA=(XY..XY) 1 
    41        359
    42         33
    43         99
    44         40
    45        220
    53         23
    54         11
    55         77
    56         40
    57         59
    58         10
    59        142
    67         22
    68         12
    69        376
    70         21
    71         23
    72         40
    73         74
    82         13
    83         16
    84         12
    85         16
    87        459
    88         19
    95         14
    96         26
    97        163
    98         75
    99         29
   100        205
   101         15
   102         18
   110         48
   113         45
   114         47
   115        999
   116         62
   127         17
   128        492
   129         38
   141         33
   142         36
   143        418
   144         62
   146         36
   170         14
   171        187
   172         20
   173         17
   174        721
   175         62
   176          4
   187          8