##TITLE=Library Entry 35983
##JCAMP-DX=Revision 4.10 
##DATA TYPE=MASS SPECTRUM
##SAMPLE DESCRIPTION=Chemical Concepts
##NAMES=HP
##CAS NAME=Friedelan-3-one
##MOLFORM=C30H50O
##CAS REGISTRY NO=559-74-0
##MP= -300
##BP= -300
##MW= 426
##$RETENTION INDEX=2858
##$CONDENSED SPECTRUM=NO
##NPOINTS= 315
##XYDATA=(XY..XY) 1 
    26          2
    27         31
    28         12
    29        117
    30          2
    31         12
    36          2
    38          2
    39         32
    40         10
    41        465
    42         41
    43        325
    44         14
    45          6
    46          2
    50          2
    51          4
    52          3
    53         82
    54         29
    55        728
    56         74
    57        348
    58         17
    59         28
    60          3
    61          2
    62          2
    63          3
    64          2
    65         31
    66         14
    67        447
    68        148
    69        999
    70         97
    71        103
    72          9
    73          5
    74         16
    75          9
    76          5
    77         66
    78         13
    79        198
    80         43
    81        670
    82        330
    83        371
    84         45
    85         58
    86         14
    87          5
    88         10
    89          9
    90          2
    91        138
    92         31
    93        295
    94        100
    95        821
    96        624
    97        223
    98         31
    99         26
   100          6
   101          6
   102         11
   103          9
   104          8
   105        151
   106         49
   107        388
   108        211
   109        861
   110        239
   111        257
   112         28
   113         30
   114          9
   115         14
   116          9
   117         23
   118         10
   119        163
   120         82
   121        350
   122        137
   123        695
   124        258
   125        703
   126         72
   127         25
   128         10
   129         15
   130          7
   131         31
   132         25
   133        159
   134         90
   135        252
   136        135
   137        322
   138        120
   139         47
   140         10
   141         11
   142          9
   143         16
   144          9
   145         58
   146         33
   147        134
   148         79
   149        229
   150        140
   151        124
   152         77
   153         24
   154          8
   155          8
   156          5
   157         16
   158          9
   159         54
   160         64
   161        216
   162         70
   163        327
   164        125
   165         84
   166         16
   167         14
   168          4
   169          7
   170          5
   171         15
   172         13
   173         57
   174         22
   175        122
   176         56
   177        123
   178         51
   179        293
   180         49
   181          9
   182          4
   183         14
   184          4
   185         21
   186         10
   187         60
   188         20
   189        116
   190         60
   191        223
   192         74
   193        104
   194         39
   195         11
   196          4
   197          4
   198          3
   199         20
   200          9
   201         48
   202         24
   203         87
   204        164
   205        359
   206        145
   207         68
   208         22
   209          6
   210          4
   211          3
   212          2
   213         15
   214         13
   215         90
   216         29
   217        152
   218        294
   219        104
   220        132
   221         46
   222         13
   223          4
   224          2
   225          3
   226          2
   227          9
   228          7
   229         76
   230         38
   231        211
   232        208
   233        127
   234        100
   235         24
   236          2
   237          2
   238          3
   239          2
   240          2
   241         11
   242          5
   243         15
   244         15
   245         90
   246        237
   247        118
   248        118
   249         25
   250          4
   251          2
   252          2
   253          2
   254          2
   255         41
   256         13
   257         76
   258         20
   259         56
   260         19
   261         37
   262         17
   263          5
   264          2
   265          2
   266          2
   267          2
   268          2
   269         17
   270          6
   271         18
   272         13
   273        336
   274        190
   275         95
   276         19
   277          2
   278          1
   279          3
   280          2
   281          2
   282          1
   283          3
   284         14
   285         19
   286         23
   287         84
   288         28
   289          8
   290          2
   295          1
   297          2
   298          2
   299          6
   300          5
   301         10
   302        219
   303         85
   304         16
   305          2
   313          2
   314          1
   315          5
   316          2
   326          2
   327          7
   328          2
   329          2
   337          2
   338          2
   339          5
   340          2
   341         66
   342         20
   343          5
   344         13
   345          2
   353          1
   354          3
   355          5
   356          2
   357          2
   358          1
   359          1
   369          3
   370          2
   379          2
   380          2
   382          1
   383          3
   384          6
   385          2
   397          6
   398          2
   399          2
   401          2
   407          1
   408          3
   409          3
   410          3
   411        102
   412         33
   413          7
   414          2
   426        286
   427        103
   428         20
   429          3