##TITLE=Library Entry 66680
##JCAMP-DX=Revision 4.10 
##DATA TYPE=MASS SPECTRUM
##SAMPLE DESCRIPTION=S.Huang, Org.Mass Spectrom. 24, 1065 (1989)
##NAMES=HP
##CAS NAME=Cyclopentene, octafluoro-
##MOLFORM=C5F8
##CAS REGISTRY NO=559-40-0
##MP= -300
##BP= -300
##MW= 212
##$RETENTION INDEX=0
##$CONDENSED SPECTRUM=NO
##NPOINTS= 26
##XYDATA=(XY..XY) 1 
    50         46
    55         51
    62         42
    69        144
    71         37
    72         37
    74        102
    86         42
    93        999
    94         37
   100         56
   105         42
   112        163
   113         28
   117         32
   124        107
   131         51
   143        602
   144         51
   162        887
   163         56
   174         37
   193        584
   194         37
   212        392
   213         21