##TITLE=Library Entry 71600
##JCAMP-DX=Revision 4.10 
##DATA TYPE=MASS SPECTRUM
##SAMPLE DESCRIPTION=DO-94-2
##NAMES=HP
##CAS NAME=16,28-Secosolanidane-3,16-diol, (3.beta.,5.alpha.,16.beta.,22.xi.
,25.xi.)-
##MOLFORM=C27H47NO2
##CAS REGISTRY NO=55902-91-5
##MP= -300
##BP= -300
##MW= 417
##$RETENTION INDEX=0
##$CONDENSED SPECTRUM=NO
##NPOINTS= 20
##XYDATA=(XY..XY) 1 
    98        999
    99         69
   140        101
   141         28
   150         48
   151         28
   395         11
   396         20
   397         30
   398         28
   399         40
   400         17
   401          4
   402         18
   403          4
   414          4
   415          9
   416         25
   417         12
   418          4