##TITLE=Library Entry 5998
##JCAMP-DX=Revision 4.10 
##DATA TYPE=MASS SPECTRUM
##SAMPLE DESCRIPTION=T. CLERC
##NAMES=HP
##CAS NAME=Kauran-18-al, 17-(acetyloxy)-, (4.beta.)-
##MOLFORM=C22H34O3
##CAS REGISTRY NO=55902-84-6
##MP= -300
##BP= -300
##MW= 346
##$RETENTION INDEX=0
##$CONDENSED SPECTRUM=NO
##NPOINTS= 66
##XYDATA=(XY..XY) 1 
    31         66
    39         66
    41        533
    42         55
    43        999
    45         55
    51         11
    53        122
    55        500
    56         44
    57        133
    61         55
    65         33
    66         22
    67        411
    68         77
    69        244
    71        111
    77        144
    78         55
    79        355
    80         77
    81        500
    82        111
    83         77
    84         44
    91        333
    92        133
    93        311
    94        111
    95        277
    96         77
    97        111
   105        222
   106         88
   107        200
   108         55
   109        266
   117         66
   119        166
   120         55
   121        155
   122         55
   123        388
   124         55
   131         66
   133         77
   134         55
   135        111
   145         33
   147         66
   149         88
   150         33
   159         55
   161         77
   175         44
   187         55
   243         33
   245         22
   257         55
   272         22
   273         22
   286         88
   304         11
   317         55
   346         11