##TITLE=Library Entry 90146
##JCAMP-DX=Revision 4.10 
##DATA TYPE=MASS SPECTRUM
##SAMPLE DESCRIPTION=Patti Price, Georgia Bureau of Investigation, Decatur,
 Georgia
##NAMES=HP
##CAS NAME=Thiothixene
##MOLFORM=C23H29N3O2S2
##CAS REGISTRY NO=5591-45-7
##MP= -300
##BP= -300
##MW= 443
##$RETENTION INDEX=0
##$CONDENSED SPECTRUM=NO
##NPOINTS= 74
##XYDATA=(XY..XY) 1 
    41          8
    42         90
    43         48
    44         19
    54          1
    56         41
    57         14
    58         16
    64          1
    68          4
    69          3
    70        392
    71         30
    72          9
    82          6
    84          4
    94          1
    96          4
    97         11
    98         39
    99         14
   100         21
   101          3
   108          1
   111         19
   112          5
   113        999
   114         72
   115          4
   125          1
   128          2
   139         16
   146          7
   151          7
   152         11
   153          1
   162          3
   163          9
   164          4
   171          1
   176         14
   177          4
   178          3
   184          1
   185          1
   187          4
   189         28
   190          8
   195          7
   196         10
   197          9
   200          4
   202         36
   203         10
   204          2
   208         15
   221        229
   222        108
   223         25
   233         10
   234         58
   235         52
   236         17
   237         11
   239          1
   246          1
   249          3
   262          1
   263          5
   264          1
   304          2
   305          1
   443          4
   445          2