##TITLE=Library Entry 47609
##JCAMP-DX=Revision 4.10 
##DATA TYPE=MASS SPECTRUM
##SAMPLE DESCRIPTION=Japan AIST/NIMC Database- Spectrum MS-NW-7797
##NAMES=HP
##CAS NAME=Benzenemethanol, 4-chloro-3-nitro-
##MOLFORM=C7H6ClNO3
##CAS REGISTRY NO=55912-20-4
##MP= -300
##BP= -300
##MW= 187
##$RETENTION INDEX=0
##$CONDENSED SPECTRUM=NO
##NPOINTS= 142
##XYDATA=(XY..XY) 1 
    14          1
    15          3
    16          2
    18          2
    25          2
    26         14
    27         81
    28         66
    29        137
    30        130
    31        209
    32          3
    35          4
    36         14
    37         48
    38         62
    39        181
    40         17
    41          9
    42          5
    43         13
    44          7
    45          1
    46         18
    47          6
    48          3
    49         26
    50        204
    51        536
    52         83
    53         39
    54          4
    55         41
    56          4
    57          2
    60          9
    61         50
    62         87
    63        177
    64         29
    65        226
    66         43
    67          4
    68          5
    69          1
    70          4
    71          3
    72         16
    73        118
    74        160
    75        443
    76         88
    77        999
    78        271
    79         22
    80          2
    81          2
    83          1
    84         36
    85         50
    86         30
    87         52
    88         18
    89        108
    90         27
    91          9
    92          8
    93         26
    94         65
    95          5
    96          4
    97         32
    98          9
    99         36
   100         17
   101         24
   102          8
   103          9
   104        114
   105        128
   106         54
   107         12
   108          5
   109         14
   110         68
   111        403
   112        242
   113        167
   114         72
   115         18
   116          2
   117          1
   120          1
   121         36
   122          9
   123        502
   124        246
   125        187
   126         43
   127          9
   128         23
   129          8
   130          9
   131          3
   134         12
   135          5
   136          2
   137          1
   138         19
   139        145
   140        355
   141        499
   142        308
   143        159
   144         67
   145          5
   149          1
   152        436
   153         39
   154          7
   155         14
   156          5
   157         16
   158        121
   159         13
   160         38
   161          3
   168          1
   169         16
   170        189
   171         49
   172         66
   173         13
   174          2
   184         14
   185          7
   186        130
   187        978
   188        132
   189        325
   190         30
   191          4