##TITLE=Library Entry 67216
##JCAMP-DX=Revision 4.10 
##DATA TYPE=MASS SPECTRUM
##SAMPLE DESCRIPTION=Exported from NIST MS Search
##NAMES=HP
##CAS NAME=2-Propenoic acid, 3-phenyl-, 6-hydroxy-8-methyl-2-(phenylmethyl)-
8-azabicyclo[3.2.1]oct-3-yl ester
##MOLFORM=C24H27NO3
##CAS REGISTRY NO=55925-24-1
##MP= -300
##BP= -300
##MW= 377
##$RETENTION INDEX=0
##$CONDENSED SPECTRUM=NO
##NPOINTS= 75
##XYDATA=(XY..XY) 1 
    39         25
    41         36
    42        177
    43         29
    44         65
    50         18
    51         36
    52          7
    53         21
    55         21
    56         21
    57         29
    58         29
    65         29
    67         21
    68          7
    70         29
    72         29
    77         86
    78         36
    79         18
    80          7
    81         21
    82        101
    83         21
    84         21
    91        242
    92         29
    93         21
    94        999
    95        108
    96         29
    97         32
    98         79
    99         50
   100         18
   102         36
   103        144
   104         21
   105         21
   108         21
   110         21
   112         36
   113          3
   115         29
   116         10
   117         29
   128         21
   129         21
   130         10
   131         58
   132         21
   138         32
   147         10
   157          7
   158         21
   183         25
   184         54
   185         54
   186         25
   200         18
   202         21
   203          3
   229         21
   230        228
   231         43
   242         10
   246         10
   286         10
   332         10
   333         43
   334         10
   360         10
   377         83
   378         10