##TITLE=Library Entry 89537
##JCAMP-DX=Revision 4.10 
##DATA TYPE=MASS SPECTRUM
##SAMPLE DESCRIPTION=Exported from NIST MS Search
##NAMES=HP
##CAS NAME=8-Azabicyclo[3.2.1]octane-3,6-diol, 8-methyl-2-(phenylmethyl)-, 6
-benzoate
##MOLFORM=C22H25NO3
##CAS REGISTRY NO=55925-26-3
##MP= -300
##BP= -300
##MW= 351
##$RETENTION INDEX=0
##$CONDENSED SPECTRUM=NO
##NPOINTS= 83
##XYDATA=(XY..XY) 1 
    39         47
    41         73
    42        357
    43         21
    44         47
    50         47
    51         98
    52         51
    53         51
    54         51
    55         69
    56         21
    57         47
    58         47
    65         54
    67         21
    68         21
    69         21
    70         21
    76         21
    77        339
    78        127
    79         21
    80         21
    81        434
    82        270
    83         51
    84         51
    91        346
    92         47
    93          7
    94        751
    95        266
    96        244
    97         21
    98         21
   103         25
   104         25
   105        401
   106         51
   108         43
   110         51
   112        999
   113         73
   114          7
   115         62
   116         58
   117         54
   120          7
   122         21
   124         51
   128         25
   129         51
   131         83
   132         21
   138         51
   158         10
   159         10
   160         25
   184         54
   185          3
   201         14
   202         51
   203        175
   204         51
   212         98
   213         25
   215          3
   216          3
   228         21
   229         51
   230         98
   231         21
   246         65
   260        105
   261         21
   306          3
   307         10
   333          3
   334         10
   350          3
   351        127
   352         51