##TITLE=Library Entry 2970
##JCAMP-DX=Revision 4.10 
##DATA TYPE=MASS SPECTRUM
##SAMPLE DESCRIPTION=Japan AIST/NIMC Database- Spectrum MS-NW- 415
##NAMES=HP
##CAS NAME=Tetrabutyl titanate
##MOLFORM=C16H36O4Ti
##CAS REGISTRY NO=5593-70-4
##MP= -300
##BP= -300
##MW= 340
##$RETENTION INDEX=0
##$CONDENSED SPECTRUM=NO
##NPOINTS= 232
##XYDATA=(XY..XY) 1 
    14          5
    15         17
    16          4
    17          2
    18          7
    25          5
    26         57
    27        346
    28        212
    29        312
    30         10
    31        312
    32         13
    33         30
    36          4
    37         19
    38         31
    39        267
    40         56
    41        999
    42        237
    43        738
    44         99
    45         36
    49          9
    50         32
    51         32
    52         12
    53         64
    54         63
    55        386
    56        955
    57        389
    58         49
    59          7
    60         36
    61         25
    63          3
    64          7
    65          7
    66          9
    67        103
    68         64
    69        178
    70         64
    71         91
    72         65
    73         43
    74         10
    77         13
    78          8
    79         33
    80         25
    81        100
    82         72
    83        123
    84         69
    85         57
    86          8
    87         23
    91         21
    92          8
    93         30
    94         18
    95         72
    96         59
    97         91
    98        123
    99         22
   100          8
   101         20
   102          4
   103          4
   104          4
   105         19
   106          8
   107         18
   108         13
   109         41
   110         29
   111         55
   112         34
   113         11
   114          9
   115         12
   116         30
   117         19
   118          5
   119         11
   120          8
   121         19
   122          9
   123         27
   124         19
   125         24
   126         11
   127          9
   128          6
   129         40
   130          8
   131          8
   132          4
   133          9
   134          7
   135         19
   136         10
   137         22
   138         18
   139         14
   140          8
   141          8
   143         11
   144          4
   145          9
   146          4
   147         11
   148          6
   149         11
   150          7
   151         12
   152         18
   153         12
   154          6
   155          8
   156          4
   157         10
   158          5
   159          7
   160          5
   161          8
   162          4
   163          7
   164          5
   165         17
   166         10
   167         10
   168          6
   169          9
   171          8
   173          3
   175          5
   177          4
   178          4
   179          6
   180          9
   181          8
   182          5
   183          6
   185         16
   186          5
   187          5
   189          4
   191          6
   192          7
   193         10
   194         19
   195          7
   196          5
   197          5
   199          8
   201          4
   203          3
   206          5
   207          5
   208         10
   209          8
   210          5
   211         10
   212          5
   213          9
   214          4
   215          5
   218          5
   219          5
   220          4
   221          5
   222         10
   223          8
   224         15
   225         28
   226          8
   227          7
   228          6
   229         15
   230          5
   234          4
   235          8
   236         29
   237         14
   238          6
   239         15
   240          5
   241          9
   242          5
   243         14
   244          3
   247          7
   250          7
   251          4
   252          5
   253          6
   254          5
   255         14
   256         10
   257         28
   258          5
   259          4
   260          4
   263          4
   264         12
   265         23
   266         21
   267        146
   268         36
   269         16
   270          5
   271          6
   278          6
   280          4
   283          4
   284          6
   285          7
   295         24
   296         27
   297        220
   298         49
   299         23
   300          4
   312          9
   313          4
   339          4
   340          4