##TITLE=Library Entry 13415
##JCAMP-DX=Revision 4.10 
##DATA TYPE=MASS SPECTRUM
##SAMPLE DESCRIPTION=Chemical Concepts
##NAMES=HP
##CAS NAME=6,7-Diacetoxy-4-methylcoumarin
##MOLFORM=C14H12O6
##CAS REGISTRY NO=55939-28-1
##MP= -300
##BP= -300
##MW= 276
##$RETENTION INDEX=0
##$CONDENSED SPECTRUM=NO
##NPOINTS= 109
##XYDATA=(XY..XY) 1 
    34          7
    35          7
    36         18
    37         13
    38         45
    39        151
    40         66
    41         63
    43        999
    45         10
    47          1
    48          2
    50         38
    51         36
    52         19
    53         25
    55         13
    56          2
    57          3
    58          1
    60          7
    61          8
    62         19
    63         37
    64         22
    65         60
    66         19
    67         15
    69        102
    71          8
    73          3
    74          7
    75          9
    77         60
    78         22
    79         17
    80          3
    81          2
    82          1
    83          1
    84          1
    85          1
    86          1
    87          2
    89         19
    90         12
    91          8
    92         11
    93         39
    94          7
    95          6
    96          1
    98          1
   101          1
   102          2
   103          2
   105         15
   106          9
   107          9
   108          2
   109          1
   110          1
   111          1
   112          1
   115          1
   117          3
   118          4
   119          4
   120          3
   121          4
   122          4
   123          2
   133          3
   134          9
   135         20
   136          9
   137          1
   145          1
   146          2
   147          3
   148          1
   149          1
   150          1
   152          1
   153          1
   159          1
   160          2
   161          9
   163        129
   164        193
   165         17
   166          2
   167          1
   175          1
   176          1
   184          1
   186          1
   187          2
   192        565
   193         43
   194          5
   217          1
   232          4
   234         54
   235          5
   236          1
   274          3
   276         23
   277          3