##TITLE=Library Entry 27533
##JCAMP-DX=Revision 4.10 
##DATA TYPE=MASS SPECTRUM
##SAMPLE DESCRIPTION=Japan AIST/NIMC Database- Spectrum MS-IW-3433
##NAMES=HP
##CAS NAME=Betamethasone dipropionate
##MOLFORM=C28H37FO7
##CAS REGISTRY NO=5593-20-4
##MP= -300
##BP= -300
##MW= 504
##$RETENTION INDEX=0
##$CONDENSED SPECTRUM=NO
##NPOINTS= 379
##XYDATA=(XY..XY) 1 
    14          1
    15          1
    16          1
    17          7
    18         19
    25          2
    26         10
    27         47
    28         57
    29        312
    30         11
    31         10
    38          1
    39         12
    40          3
    41         52
    42          8
    43         62
    44          7
    45         27
    46          2
    47          3
    50          1
    51          7
    52          3
    53         26
    54          4
    55         72
    56         17
    57        999
    58         45
    59          9
    60          1
    61          2
    63          4
    64          2
    65         21
    66          5
    67         34
    68          5
    69         36
    70          3
    71          9
    73         40
    74         46
    75          8
    76          2
    77         65
    78         13
    79         55
    80          8
    81         43
    82          7
    83         13
    84          1
    85         10
    86          2
    87         51
    88         12
    89          5
    90          3
    91        134
    92         29
    93         62
    94         15
    95         48
    96         13
    97         15
    98          4
    99         10
   100          3
   101         10
   102          3
   103         18
   104          6
   105         48
   106         13
   107        103
   108         39
   109         74
   110         12
   111         32
   112          4
   113          9
   114          5
   115        101
   116         17
   117         32
   118          7
   119         38
   120         25
   121        517
   122        352
   123         63
   124         14
   125         32
   126          5
   127         21
   128         19
   129         22
   130          9
   131         36
   132         14
   133         56
   134         50
   135        192
   136         49
   137         34
   138         10
   139         22
   140          5
   141         19
   142          9
   143         16
   144         11
   145         48
   146         31
   147        176
   148         28
   149         30
   150         30
   151         20
   152         27
   153         46
   154          9
   155         17
   156          5
   157         23
   158         17
   159         66
   160        114
   161         70
   162         15
   163         27
   164          9
   165         30
   166         11
   167         11
   168          6
   169         15
   170          8
   171         75
   172         20
   173         54
   174         13
   175         31
   176         14
   177         46
   178         20
   179         30
   180          9
   181         18
   182          7
   183         11
   184          9
   185         34
   186         30
   187         95
   188         18
   189         44
   190         10
   191         24
   192          8
   193         22
   194          8
   195         25
   196          9
   197         19
   198          8
   199         14
   200          8
   201          9
   202          9
   203         24
   204          8
   205         13
   206          5
   207         19
   208         17
   209         19
   210          9
   211         20
   212         10
   213         22
   214          8
   215         12
   216          5
   217         11
   218          4
   219          7
   220          4
   221         38
   222         14
   223         58
   224         21
   225         28
   226         11
   227         17
   228          6
   229          8
   230          4
   231          5
   232          3
   233         10
   234          6
   235         23
   236         21
   237         35
   238         24
   239         36
   240         15
   241         26
   242         11
   243          9
   244          5
   245          5
   246          3
   247          7
   248          6
   249         13
   250          6
   251         15
   252          8
   253         31
   254         15
   255         13
   256          9
   257          8
   258          5
   259          9
   260          7
   261         10
   262         11
   263         12
   264          6
   265         11
   266          9
   267         53
   268         16
   269         14
   270          4
   271          4
   272          2
   273          4
   274          5
   275         10
   276         15
   277        210
   278         54
   279         40
   280         12
   281         10
   282         17
   283         10
   284          6
   285         12
   286          5
   287          5
   288          1
   289          5
   290          8
   291          8
   292          4
   293         21
   294         24
   295        569
   296        129
   297         64
   298         13
   299          6
   300          3
   301          6
   302          2
   303          7
   304          8
   305          9
   306          3
   307          8
   308         14
   309         11
   310          5
   311          9
   312         12
   313        106
   314         27
   315        497
   316        114
   317         20
   318         12
   319          8
   320          4
   321         10
   322          6
   323         46
   324         12
   325         12
   326          5
   327          4
   328          4
   329         11
   330          3
   331          6
   332          6
   333         71
   334         16
   335          9
   336         52
   337         17
   338          9
   339          7
   340          3
   341         15
   342          6
   343        260
   344         64
   345         11
   346          3
   347          1
   351         11
   352          4
   353          8
   354         33
   355         10
   356          9
   357          3
   358          1
   359          6
   360          1
   361         13
   362          3
   363          1
   366          3
   367          6
   368          2
   369          2
   370          1
   371          8
   372          2
   373          1
   374         15
   375          5
   376          1
   377          2
   382         12
   383          4
   384          1
   389          7
   390          2
   391          1
   392          3
   393          2
   394          1
   395          5
   396          2
   397          2
   398          1
   399          3
   400          1
   409          4
   410        118
   411         34
   412         10
   413          2
   415          4
   416          1
   417         29
   418          7
   419          2
   427          1
   428          2
   429          1
   430          9
   431          3
   448          1
   456          3
   484         71
   485         22
   486          4
   504          1