##TITLE=Library Entry 46594
##JCAMP-DX=Revision 4.10 
##DATA TYPE=MASS SPECTRUM
##SAMPLE DESCRIPTION=R.T.HOLMAN,UNIVERSITY OF MINNESOTA
##NAMES=HP
##CAS NAME=2H-Pyran, tetrahydro-2-(2,5-undecadiynyloxy)-
##MOLFORM=C16H24O2
##CAS REGISTRY NO=55947-04-1
##MP= -300
##BP= -300
##MW= 248
##$RETENTION INDEX=0
##$CONDENSED SPECTRUM=NO
##NPOINTS= 130
##XYDATA=(XY..XY) 1 
    25          1
    26          3
    27         32
    28        180
    29         77
    30        153
    31          8
    32         63
    33          9
    36          3
    37         22
    38         38
    39        246
    40         50
    41        246
    42         41
    43        173
    44         24
    45         12
    46          1
    47          2
    48          2
    49         12
    50        200
    51        619
    52         79
    53         40
    54         33
    55        326
    56         60
    57        173
    58         10
    59         12
    60          9
    61         35
    62         56
    63         87
    64         28
    65        206
    66        173
    67        186
    68         19
    69         31
    70          6
    71         11
    72          2
    73         18
    74         81
    75         65
    76        166
    77        999
    78        279
    79         73
    80         16
    81         12
    82          8
    83         66
    84        120
    85        586
    86         34
    87          4
    88          2
    89          9
    90         23
    91        120
    92         28
    93         36
    94         52
    95         14
    96          5
    97          4
    98          3
    99          2
   100          2
   101         39
   102          4
   103         12
   104          9
   105         12
   106          3
   107         13
   108          7
   109          4
   110          2
   111          4
   112          1
   113          1
   114          2
   115         19
   116          6
   117         21
   118          2
   119          6
   120          3
   121         14
   122         10
   123          3
   124          1
   125          1
   126          1
   127          1
   128          2
   129          3
   130          1
   131          4
   132          3
   133          4
   134         19
   135         13
   136          4
   137          2
   141          2
   142          1
   143          1
   144          1
   145          2
   146          1
   147          4
   148          1
   149          6
   150          3
   151          1
   152          1
   159          2
   160          1
   161          1
   163          2
   170          2
   184          2
   205          2