##TITLE=Library Entry 41209
##JCAMP-DX=Revision 4.10 
##DATA TYPE=MASS SPECTRUM
##SAMPLE DESCRIPTION=DM6-151-U28
##NAMES=HP
##CAS NAME=Decane, 3-methoxy-
##MOLFORM=C11H24O
##CAS REGISTRY NO=55955-64-1
##MP= -300
##BP= -300
##MW= 172
##$RETENTION INDEX=0
##$CONDENSED SPECTRUM=NO
##NPOINTS= 29
##XYDATA=(XY..XY) 1 
    31         32
    41        160
    42         31
    43         85
    44         12
    45        150
    46          3
    55        120
    56         13
    57         29
    58          7
    59         21
    69        350
    70         18
    71         28
    72         12
    73        999
    74         45
    75          3
    83         15
    84          1
   111         81
   112          7
   140         11
   141          1
   143        310
   144         30
   145          2
   172          1