##TITLE=Library Entry 109220
##JCAMP-DX=Revision 4.10 
##DATA TYPE=MASS SPECTRUM
##SAMPLE DESCRIPTION=B. R. ANDERSON
##NAMES=HP
##CAS NAME=Spiro[bicyclo[3.2.1]oct-3-ene-2,2'-[1,3]dioxolane]
##MOLFORM=C10H14O2
##CAS REGISTRY NO=55956-35-9
##MP= -300
##BP= -300
##MW= 166
##$RETENTION INDEX=0
##$CONDENSED SPECTRUM=NO
##NPOINTS= 105
##XYDATA=(XY..XY) 1 
    14          6
    15         35
    16          2
    17          3
    18         13
    19          3
    26         17
    27        124
    28         34
    29         38
    30          6
    31          4
    37          2
    38         14
    39        136
    40         31
    41         64
    42         13
    43         16
    44          2
    45         12
    46          2
    50         14
    51         56
    52         34
    53        107
    54         16
    55         66
    56          3
    57          1
    60          1
    61          2
    62          6
    63         21
    64          6
    65         53
    66         48
    67         27
    68         21
    69          3
    70          0
    73          5
    74          3
    75          3
    76          3
    77         76
    78         64
    79         52
    80         10
    81        206
    82         15
    83          2
    84          0
    85          0
    86          8
    87          2
    89          3
    90          2
    91         73
    92          9
    93         17
    94         15
    95         10
    96          1
    97          2
    98          1
    99         73
   100          5
   101          1
   102          1
   103          6
   104          3
   105         12
   106          4
   107          6
   108          9
   109          2
   110          1
   111          0
   112         12
   113          2
   117          1
   118          2
   119          6
   120          1
   121          7
   122         15
   123          6
   124          4
   125        999
   126         78
   127          7
   135          1
   136         14
   137          7
   138          4
   139          9
   140          1
   147          1
   148          3
   151          1
   165          2
   166        102
   167         12
   168          3