##TITLE=Library Entry 78223
##JCAMP-DX=Revision 4.10 
##DATA TYPE=MASS SPECTRUM
##SAMPLE DESCRIPTION=Exported from NIST MS Search
##NAMES=HP
##CAS NAME=D-Arabino-Hexose, 2-deoxy-, cyclic 1,2-ethanediyl mercaptal, tetr
aacetate
##MOLFORM=C16H24O8S2
##CAS REGISTRY NO=55955-82-3
##MP= -300
##BP= -300
##MW= 408
##$RETENTION INDEX=0
##$CONDENSED SPECTRUM=NO
##NPOINTS= 113
##XYDATA=(XY..XY) 1 
    46        309
    47        280
    48         72
    49         86
    50        289
    51        328
    52        159
    53        396
    54        140
    55        241
    56         67
    57        227
    58        410
    59        545
    60        637
    61        724
    62         96
    63        135
    64        120
    65        140
    66         96
    67         53
    68         62
    69        241
    70         77
    71        173
    72         38
    73        183
    74         48
    75         33
    76         96
    77        120
    78         62
    79         48
    80         14
    81         96
    82         67
    83         38
    84         67
    85        130
    86         58
    87         58
    88         14
    89         29
    90         29
    91         86
    92         33
    93         38
    94         29
    95         43
    96         14
    97        120
    98         33
    99         43
   100         14
   101         38
   102         29
   103        111
   104         19
   105        999
   106         62
   107         96
   108          4
   109         14
   110         19
   111         38
   113         33
   115         62
   116         29
   118        400
   119         77
   120         48
   121          9
   124          4
   125         33
   126         86
   127         33
   128         14
   129         14
   130          4
   140          9
   141          9
   143          4
   144          4
   145          9
   147         38
   157         24
   158         72
   159          4
   160          9
   168         14
   169         33
   173         82
   175          9
   185         96
   186        251
   187         58
   188         29
   189          9
   200         29
   203         14
   215          9
   228         96
   229         29
   230          9
   245          3
   246          1
   247          1
   288          8
   289          3
   290          1
   348          1
   349          1