##TITLE=Library Entry 49721
##JCAMP-DX=Revision 4.10 
##DATA TYPE=MASS SPECTRUM
##SAMPLE DESCRIPTION=R. A. LYND
##NAMES=HP
##CAS NAME=Cyclohexene, 3-(2-propynyl)-
##MOLFORM=C9H12
##CAS REGISTRY NO=55956-43-9
##MP= -300
##BP= -300
##MW= 120
##$RETENTION INDEX=0
##$CONDENSED SPECTRUM=NO
##NPOINTS= 75
##XYDATA=(XY..XY) 1 
    13          2
    14          2
    15         16
    18          1
    25          2
    26         24
    27        166
    28         19
    29         26
    30          0
    31          0
    36          1
    37         15
    38         38
    39        244
    40         26
    41        173
    42          8
    43          1
    44          0
    45          1
    49          3
    50         40
    51         84
    52         38
    53        181
    54         18
    55         38
    56          2
    57          1
    58          2
    60          0
    61          5
    62         12
    63         31
    64          6
    65         53
    66         32
    67         15
    68          5
    69          0
    73          1
    74          6
    75          7
    77        106
    78         47
    79        196
    80         44
    81        999
    82         66
    83          2
    84          1
    85          1
    86          2
    87          1
    88          0
    89          5
    90          3
    91        101
    92        110
    93         10
    94          0
   102          1
   103          5
   104          2
   105         37
   106          3
   112          0
   115          6
   116          1
   117          2
   118          0
   119          9
   120         22
   121          2