##TITLE=Library Entry 11750
##JCAMP-DX=Revision 4.10 
##DATA TYPE=MASS SPECTRUM
##SAMPLE DESCRIPTION=Chemical Concepts
##NAMES=HP
##CAS NAME=3-Buten-2-one, 4-(2-hydroxy-2,6,6-trimethylcyclohexyl)-
##MOLFORM=C13H22O2
##CAS REGISTRY NO=55955-46-9
##MP= -300
##BP= -300
##MW= 210
##$RETENTION INDEX=0
##$CONDENSED SPECTRUM=NO
##NPOINTS= 85
##XYDATA=(XY..XY) 1 
    27         49
    29         57
    39         98
    40         21
    41        260
    42         30
    43        999
    44         39
    45         32
    51         19
    52         13
    53         68
    54         20
    55        154
    56         35
    57         56
    58         34
    59         16
    65         28
    66         15
    67         81
    68         22
    69        205
    70         29
    71        101
    72         16
    76         10
    77         48
    78         14
    79         64
    80         23
    81        142
    82         46
    83        145
    84         43
    85         56
    90         20
    91         49
    92         25
    93         88
    94         30
    95         84
    96         19
    97         36
    98         15
    99         11
   105         22
   106         12
   107        111
   108         28
   109        245
   110         40
   111         54
   112         12
   113         10
   119         35
   120         10
   121         81
   122         33
   123         27
   124         25
   125        567
   126         68
   127         34
   128          9
   133         12
   134         33
   135         29
   136         44
   137         36
   138         11
   139         41
   140         14
   152         50
   153         38
   159         19
   167         11
   175         10
   177         27
   192         22
   194         11
   195         13
   208         10
   210         59
   211         12