##TITLE=Library Entry 57945
##JCAMP-DX=Revision 4.10 
##DATA TYPE=MASS SPECTRUM
##SAMPLE DESCRIPTION=Exported from NIST MS Search
##NAMES=HP
##CAS NAME=Undecanoic acid, 2,4,8-trimethyl-, methyl ester
##MOLFORM=C15H30O2
##CAS REGISTRY NO=55955-77-6
##MP= -300
##BP= -300
##MW= 242
##$RETENTION INDEX=0
##$CONDENSED SPECTRUM=NO
##NPOINTS= 87
##XYDATA=(XY..XY) 1 
    15         19
    27         26
    28         16
    29         55
    33          3
    39         21
    40          3
    41        138
    42         35
    43        243
    45          9
    53         13
    54          8
    55        120
    56         40
    57        204
    58         11
    59         60
    68          9
    69        134
    70         24
    71         86
    72          9
    73         35
    74         13
    79          3
    81         13
    82          3
    83         65
    84         14
    85         65
    86          4
    87         45
    88        999
    89         40
    90          6
    95          9
    96          6
    97         53
    98          9
    99         26
   100          1
   101        647
   102         60
   103          9
   109          9
   110          4
   111         17
   112          8
   113         22
   115         11
   121          6
   123          9
   125         11
   126         13
   127          9
   129         58
   130          9
   135          6
   137          4
   139          9
   141          3
   143          9
   149          6
   153          1
   154          8
   155         30
   156          4
   157         27
   158          3
   167         14
   168          3
   171        130
   172         19
   173          1
   177          6
   183          9
   195          8
   199         45
   200          8
   211         29
   212          9
   227          6
   228          9
   242         45
   243         13
   244          3