##TITLE=Library Entry 21184
##JCAMP-DX=Revision 4.10 
##DATA TYPE=MASS SPECTRUM
##SAMPLE DESCRIPTION=B. R. ANDERSON
##NAMES=HP
##CAS NAME=5H-Cyclohepta-1,4-dioxin, 2,3,6,7,8,9-hexahydro-
##MOLFORM=C9H14O2
##CAS REGISTRY NO=55956-38-2
##MP= -300
##BP= -300
##MW= 154
##$RETENTION INDEX=0
##$CONDENSED SPECTRUM=NO
##NPOINTS= 94
##XYDATA=(XY..XY) 1 
    14         20
    15         93
    16          4
    17         16
    18         58
    19          7
    26         79
    27        413
    28        225
    29        167
    30         10
    31         17
    37          6
    38         24
    39        305
    40         78
    41        331
    42        526
    43        255
    44         19
    45         47
    48          2
    49          2
    50         17
    51         72
    52         55
    53        158
    54        111
    55        999
    56        143
    57         30
    58          3
    61          4
    62         10
    63         25
    64          7
    65         40
    66         32
    67         63
    68         64
    69        321
    70        266
    71         24
    72          4
    73         23
    74          3
    75          2
    76          3
    77         42
    78         12
    79         50
    80        103
    81         80
    82         25
    83        105
    84         18
    85          2
    86         40
    87          5
    89          2
    91         18
    92          6
    93          7
    94          4
    95         11
    96         11
    97         27
    98        544
    99        224
   100         54
   101          3
   104          2
   105          5
   107          2
   108          8
   109          8
   110          5
   111          6
   112         29
   113         48
   114          4
   124          5
   125         79
   126         74
   127          7
   139         12
   140          2
   142         11
   148          2
   152          3
   153         17
   154        390
   155         39
   156          4