##TITLE=Library Entry 66498
##JCAMP-DX=Revision 4.10 
##DATA TYPE=MASS SPECTRUM
##SAMPLE DESCRIPTION=B. R. ANDERSON
##NAMES=HP
##CAS NAME=Bicyclo[3.2.1]oct-2-ene, 3-bromo-4-methyl-, exo-
##MOLFORM=C9H13Br
##CAS REGISTRY NO=55956-41-7
##MP= -300
##BP= -300
##MW= 200
##$RETENTION INDEX=0
##$CONDENSED SPECTRUM=NO
##NPOINTS= 116
##XYDATA=(XY..XY) 1 
    14          9
    15         96
    16          2
    17          3
    18         12
    25          2
    26         46
    27        356
    28         66
    29         96
    30          2
    37         13
    38         51
    39        448
    40         63
    41        248
    42         14
    43         48
    44          5
    45         16
    46          9
    49          4
    50         75
    51        343
    52        136
    53        216
    54         33
    55        223
    56         11
    57          8
    58         39
    59         16
    60          3
    61         18
    62         51
    63        132
    64         33
    65        227
    66        190
    67        172
    68         60
    69          5
    72          2
    73         10
    74         25
    75         27
    76         19
    77        614
    78        228
    79        462
    80        129
    81         41
    82          8
    83          4
    85          4
    86          7
    87          7
    88          3
    89         32
    90         25
    91        526
    92        340
    93        999
    94         98
    95         11
   101          2
   102          8
   103         32
   104         18
   105        114
   106         41
   107         12
   108          1
   109          4
   115         10
   116          3
   117         12
   118          2
   119         22
   120         13
   121        769
   122         75
   123          3
   131          2
   132          2
   133          3
   134          2
   135          2
   143          2
   144          6
   145          7
   146         38
   147          7
   148         32
   149          2
   156         12
   157        107
   158         55
   159        120
   160         43
   161         17
   169          3
   170         17
   171        271
   172         54
   173        263
   174         36
   175          2
   185         15
   186          2
   187         15
   188          1
   200        216
   201         22
   202        211
   203         21