##TITLE=Library Entry 58036
##JCAMP-DX=Revision 4.10 
##DATA TYPE=MASS SPECTRUM
##SAMPLE DESCRIPTION=AU17-6-4
##NAMES=HP
##CAS NAME=D-Glucose, O-2,3,4,6-tetra-O-methyl-.alpha.-D-glucopyranosyl-(1.f
wdarw.6)-O-2,3,4-tri-O-methyl-.alpha.-D-glucopyranosyl-(1.fwdarw.4)-2,3,5,6-
tetra-O-methyl-
##MOLFORM=C29H54O16
##CAS REGISTRY NO=55956-06-4
##MP= -300
##BP= -300
##MW= 658
##$RETENTION INDEX=0
##$CONDENSED SPECTRUM=NO
##NPOINTS= 26
##XYDATA=(XY..XY) 1 
    45        230
    71        100
    75        320
    88        999
    89        120
    99         60
   101        380
   111        170
   115         60
   127        100
   143         30
   145         50
   155        110
   159         20
   175         10
   187        340
   201         20
   219        150
   279         60
   303          2
   305         51
   335          3
   359         11
   391         40
   423         16
   483         48