##TITLE=Library Entry 57403
##JCAMP-DX=Revision 4.10 
##DATA TYPE=MASS SPECTRUM
##SAMPLE DESCRIPTION=Exported from NIST MS Search
##NAMES=HP
##CAS NAME=Nonanoic acid, 4,6-dimethyl-, methyl ester
##MOLFORM=C12H24O2
##CAS REGISTRY NO=55955-66-3
##MP= -300
##BP= -300
##MW= 200
##$RETENTION INDEX=1366
##$CONDENSED SPECTRUM=NO
##NPOINTS= 85
##XYDATA=(XY..XY) 1 
    15         47
    27         61
    28         55
    29        108
    30          4
    31          4
    39         52
    40          9
    41        253
    42         53
    43        484
    44         21
    45         19
    53         21
    54          6
    55        339
    56         48
    57        349
    58          6
    59         95
    60         11
    61          4
    64          3
    65          6
    67         19
    68         13
    69        221
    70         45
    71        435
    72         26
    73         68
    74         50
    75         52
    76          9
    79          6
    81         32
    82         16
    83        167
    84         16
    85        203
    86          9
    87        999
    88        504
    89         30
    91          9
    92          6
    95         13
    97        156
    98         21
    99          8
   101        240
   102         26
   107          9
   108          8
   109         34
   110         24
   111         32
   115         55
   116          6
   124         65
   125         79
   126         48
   127        325
   128         42
   129         74
   130          4
   135          9
   136          8
   139          1
   140          1
   143          9
   150         19
   151         55
   152          6
   153         19
   157         29
   158          8
   167          8
   168          8
   169         55
   170          9
   171         13
   185          6
   200         29
   201          4