##TITLE=Library Entry 66337
##JCAMP-DX=Revision 4.10 
##DATA TYPE=MASS SPECTRUM
##SAMPLE DESCRIPTION=Exported from NIST MS Search
##NAMES=HP
##CAS NAME=2H-1,3-Benzoxazine, 6-(1,1-dimethylethyl)-3,4-dihydro-3-phenyl-
##MOLFORM=C18H21NO
##CAS REGISTRY NO=55955-97-0
##MP= -300
##BP= -300
##MW= 267
##$RETENTION INDEX=0
##$CONDENSED SPECTRUM=NO
##NPOINTS= 198
##XYDATA=(XY..XY) 1 
    12          1
    13          1
    14          9
    15         39
    16          3
    17         15
    18         65
    19          1
    25          1
    26          9
    27         29
    28        149
    29        101
    30         20
    31        209
    32        165
    33          3
    36          6
    37         23
    38         42
    39        109
    40         31
    41         47
    42         14
    43         21
    44         44
    45         50
    46         12
    47          5
    48          1
    49          9
    50         81
    51        181
    52        117
    53         26
    54         26
    55         17
    56          8
    57         15
    58          7
    59         12
    60          5
    61         16
    62         27
    63         56
    64         29
    65        163
    66        258
    67         35
    68          6
    69          6
    70          4
    71          7
    72          3
    73         13
    74         36
    75         24
    76         30
    77        539
    78         82
    79         15
    80          3
    81          7
    82          8
    83          7
    84          3
    85          5
    86          4
    87          7
    88          5
    89         13
    90          8
    91        238
    92        247
    93        999
    94         76
    95          7
    96          4
    97          5
    98          4
    99          3
   100          1
   101          2
   102          3
   103         13
   104        541
   105        630
   106         78
   107         30
   108          9
   109         11
   110         16
   111          9
   112          2
   113          2
   115          7
   116          2
   117         11
   118          8
   119         32
   120         21
   121         22
   122          5
   123          2
   124          1
   125          2
   126          3
   127          4
   128          3
   129          3
   130          1
   131          2
   132          4
   133          8
   134          5
   135          5
   136          3
   137          3
   138          7
   139          3
   140          3
   141          2
   142          5
   143          2
   144          1
   145          2
   146          2
   147         60
   148         12
   149         48
   150          7
   151          1
   152          1
   154          3
   155          2
   156          2
   157          1
   159          1
   161         12
   162         33
   163         27
   164         15
   165          4
   166          1
   167          1
   169          1
   170          2
   171          1
   172          1
   173          1
   175          1
   176          4
   177          6
   178          4
   179          1
   183          1
   191          6
   192          2
   193          1
   194          1
   196          2
   197          2
   198          3
   199          1
   200          1
   201          1
   202          2
   203          3
   204          1
   205          2
   206          2
   207          2
   208          1
   210          1
   211          3
   212          1
   215          1
   216          1
   217          2
   218          1
   219          1
   220          1
   221          1
   222          1
   223          1
   224          1
   236          1
   237          1
   238         22
   239          5
   244          1
   251          1
   252          6
   253         11
   254          1
   255          2
   267          6
   268          1