##TITLE=Library Entry 38313
##JCAMP-DX=Revision 4.10 
##DATA TYPE=MASS SPECTRUM
##SAMPLE DESCRIPTION=A. J. HORNG
##NAMES=HP
##CAS NAME=2-Hepten-3-ol, 4,5-dimethyl-
##MOLFORM=C9H18O
##CAS REGISTRY NO=55956-37-1
##MP= -300
##BP= -300
##MW= 142
##$RETENTION INDEX=0
##$CONDENSED SPECTRUM=NO
##NPOINTS= 80
##XYDATA=(XY..XY) 1 
    13          0
    14          3
    15         40
    16          1
    17          1
    18          6
    19          2
    25          0
    26         10
    27        186
    28         24
    29        119
    30          4
    31         30
    37          3
    38          8
    39        118
    40         16
    41        201
    42         28
    43        459
    44         17
    45         19
    46          0
    49          0
    50          5
    51         11
    52          4
    53         65
    54          8
    55         75
    56         11
    57         39
    58          6
    59          4
    62          0
    63          2
    64          0
    65          5
    66          2
    67         24
    68          4
    69         31
    70         64
    71        999
    72         69
    73          4
    74          0
    75          0
    77          6
    78          1
    79          7
    80          1
    81         19
    82          8
    83         10
    84          3
    85          6
    86          0
    87          3
    91          2
    92          0
    93          1
    94          0
    95          3
    96          0
    97          1
    98          4
    99         12
   100         21
   101          2
   107          0
   109         14
   110          1
   111          0
   113          0
   124          4
   125          1
   127          2
   142          1