##TITLE=Library Entry 29620
##JCAMP-DX=Revision 4.10 
##DATA TYPE=MASS SPECTRUM
##SAMPLE DESCRIPTION=Exported from NIST MS Search
##NAMES=HP
##CAS NAME=2-Propanol, 1-[1-methyl-2-(2-propenyloxy)ethoxy]-
##MOLFORM=C9H18O3
##CAS REGISTRY NO=55956-25-7
##MP= -300
##BP= -300
##MW= 174
##$RETENTION INDEX=984
##$CONDENSED SPECTRUM=NO
##NPOINTS= 74
##XYDATA=(XY..XY) 1 
    15         10
    17          1
    18          7
    19          4
    26          3
    27         31
    28         29
    29         47
    30          7
    31        192
    32          6
    38          1
    39         51
    40          9
    41        193
    42         56
    43         75
    44          5
    45        116
    46          2
    53          1
    54          0
    55         11
    56         10
    57         93
    58         95
    59        999
    60         34
    61          4
    69          5
    70          1
    71         16
    72         19
    74          5
    75          5
    77          1
    79          1
    81          1
    83          4
    84          0
    85          5
    86          1
    87         10
    88          0
    89          1
    91          0
    93          0
    95          0
    97          1
    98          2
    99         19
   100          4
   101         32
   102          2
   103         75
   104          4
   105          0
   107          0
   108          0
   114          1
   115          9
   116          3
   117         79
   118          5
   119          0
   128          1
   129          7
   130         12
   131          2
   143          0
   144          0
   145          0
   174         12
   175          1