##TITLE=Library Entry 17097
##JCAMP-DX=Revision 4.10 
##DATA TYPE=MASS SPECTRUM
##SAMPLE DESCRIPTION=Exported from NIST MS Search
##NAMES=HP
##CAS NAME=Acetamide, 2-methoxy-N-(2-methoxyethyl)-
##MOLFORM=C6H13NO3
##CAS REGISTRY NO=55956-18-8
##MP= -300
##BP= -300
##MW= 147
##$RETENTION INDEX=0
##$CONDENSED SPECTRUM=NO
##NPOINTS= 67
##XYDATA=(XY..XY) 1 
    15         81
    16          2
    17          2
    18         10
    26          2
    27         14
    28         84
    29        126
    30        134
    31         75
    32          8
    33          9
    36          0
    39          1
    40          4
    41         44
    42        148
    43        110
    44        128
    45        999
    46         29
    47          3
    52          0
    54          3
    55          4
    56         29
    57         10
    58        203
    59        209
    60         16
    61          0
    69          0
    70        165
    71         16
    72         40
    73          3
    74         96
    75          6
    76          0
    80          0
    83         51
    84          4
    85        145
    86         13
    87         19
    88          2
    89          1
    90         20
    91          0
    99          0
   100          1
   101          0
   102        201
   103         10
   104          1
   108          2
   109          1
   115        201
   116         20
   117        100
   118          6
   119          0
   128          0
   132         16
   133          0
   137          1
   147          2