##TITLE=Library Entry 46966
##JCAMP-DX=Revision 4.10 
##DATA TYPE=MASS SPECTRUM
##SAMPLE DESCRIPTION=Exported from NIST MS Search
##NAMES=HP
##CAS NAME=1,2,3,4-Oxatriazolium, 5-(ethylamino)-3-phenyl-, hydroxide, inner
 salt
##MOLFORM=C9H10N4O
##CAS REGISTRY NO=55955-52-7
##MP= -300
##BP= -300
##MW= 190
##$RETENTION INDEX=0
##$CONDENSED SPECTRUM=NO
##NPOINTS= 45
##XYDATA=(XY..XY) 1 
    40         54
    41         66
    42         36
    43         78
    44        218
    50         54
    51        166
    52         42
    53         27
    54         24
    55         93
    56         60
    63         21
    64         24
    65         36
    66         54
    67         18
    68         21
    70         33
    71         45
    72         18
    74         12
    75          9
    76         24
    77        999
    78        212
    79         12
    90          9
    91         28
    92         28
    93        183
    94         21
   103         19
   104         33
   105        250
   106         24
   118         13
   119         16
   121         17
   146         13
   160         95
   161         19
   175         22
   189          7
   190         19