##TITLE=Library Entry 32962
##JCAMP-DX=Revision 4.10 
##DATA TYPE=MASS SPECTRUM
##SAMPLE DESCRIPTION=B. R. ANDERSON
##NAMES=HP
##CAS NAME=Bicyclo[3.2.1]octane, 2,2-dichloro-
##MOLFORM=C8H12Cl2
##CAS REGISTRY NO=55956-44-0
##MP= -300
##BP= -300
##MW= 178
##$RETENTION INDEX=0
##$CONDENSED SPECTRUM=NO
##NPOINTS= 112
##XYDATA=(XY..XY) 1 
    15         60
    18          2
    25          1
    26         47
    27        311
    28         68
    29         81
    30          2
    35          5
    36         12
    37         13
    38         41
    39        410
    40         57
    41        285
    42         19
    43          7
    45          4
    47          3
    49         31
    50         49
    51        236
    52         84
    53        197
    54        173
    55         76
    56          7
    57          2
    60          9
    61         49
    62         33
    63         75
    64         15
    65        153
    66         82
    67        999
    68         84
    69         40
    70          3
    72          4
    73         38
    74         20
    75         95
    76         14
    77        257
    78         66
    79        454
    80         98
    81        158
    82        609
    83         44
    84          4
    85         13
    86          5
    87         22
    88         44
    89         23
    90         17
    91         88
    92         14
    93         24
    94          6
    95         67
    96         27
    97          3
    98         15
    99         13
   100         31
   101        114
   102         23
   103         44
   104          7
   105         25
   106         11
   107        376
   108         39
   109         27
   110          2
   111         17
   112         15
   113         69
   114         85
   115         74
   116         46
   117         19
   118          7
   121          3
   122         11
   123          4
   124          7
   125          4
   126          2
   127          9
   128          2
   129          5
   135          2
   141          3
   142         63
   143        379
   144         54
   145        122
   146         11
   147          1
   148          3
   149          2
   150          3
   157          1
   163          1
   178         21
   179          2
   180         13
   182          2