##TITLE=Library Entry 58196
##JCAMP-DX=Revision 4.10 
##DATA TYPE=MASS SPECTRUM
##SAMPLE DESCRIPTION=AU17-6-8
##NAMES=HP
##CAS NAME=D-Glucose, O-2,3,4,6-tetra-O-methyl-.alpha.-D-glucopyranosyl-(1.f
wdarw.4)-O-2,3,6-tri-O-methyl-.alpha.-D-glucopyranosyl-(1.fwdarw.4)-2,3,5,6-
tetra-O-methyl-
##MOLFORM=C29H54O16
##CAS REGISTRY NO=55956-09-7
##MP= -300
##BP= -300
##MW= 658
##$RETENTION INDEX=0
##$CONDENSED SPECTRUM=NO
##NPOINTS= 23
##XYDATA=(XY..XY) 1 
    45        290
    71        230
    75        380
    88        999
    89        120
    99         70
   101        360
   111        240
   115        100
   127        120
   143         30
   145         70
   155         70
   159         20
   187        490
   219        180
   279         70
   305         17
   349          3
   359          5
   391         16
   423         32
   483          7