##TITLE=Library Entry 88666
##JCAMP-DX=Revision 4.10 
##DATA TYPE=MASS SPECTRUM
##SAMPLE DESCRIPTION=Exported from NIST MS Search
##NAMES=HP
##CAS NAME=1-Hexen-3-one, 1-phenyl-, semicarbazone
##MOLFORM=C13H17N3O
##CAS REGISTRY NO=5595-62-0
##MP= -300
##BP= -300
##MW= 231
##$RETENTION INDEX=0
##$CONDENSED SPECTRUM=NO
##NPOINTS= 40
##XYDATA=(XY..XY) 1 
    39         80
    41        110
    43        120
    44        180
    51        110
    63         50
    65         60
    69         70
    77        230
    78         60
    91        180
   102        120
   103        180
   104         70
   111        999
   112         90
   115        200
   116         80
   117         70
   118         60
   127         80
   128        320
   129        270
   130        130
   142         60
   143        689
   144        130
   145        180
   156        130
   157        100
   170         90
   171         60
   172        350
   173         70
   187        609
   188        230
   213         60
   230        100
   231        270
   232         60