##TITLE=Library Entry 61519
##JCAMP-DX=Revision 4.10 
##DATA TYPE=MASS SPECTRUM
##SAMPLE DESCRIPTION=Exported from NIST MS Search
##NAMES=HP
##CAS NAME=2H-1,3-Benzoxazine, 6-chloro-3,4-dihydro-3-(phenylmethyl)-
##MOLFORM=C15H14ClNO
##CAS REGISTRY NO=55955-92-5
##MP= -300
##BP= -300
##MW= 259
##$RETENTION INDEX=0
##$CONDENSED SPECTRUM=NO
##NPOINTS= 145
##XYDATA=(XY..XY) 1 
    14          4
    15         21
    16          3
    17          4
    18          6
    24          2
    26          3
    27         13
    28         42
    29          6
    30          8
    31          3
    32          8
    36          2
    37          7
    38         20
    39         69
    40         11
    41         61
    42         84
    43         22
    44         19
    45          4
    46          1
    49          3
    50         35
    51         74
    52         15
    53          4
    54          2
    55         14
    56          5
    57          7
    58         69
    59         10
    60          1
    61          6
    62         15
    63         44
    64         12
    65        127
    66          8
    67          3
    68          5
    69          2
    70          6
    71          2
    73          4
    74         10
    75         11
    76         12
    77        105
    78         34
    79         12
    80          2
    81          2
    82         10
    83          7
    84          8
    85          3
    86          4
    87          4
    88          1
    89         46
    90         26
    91        999
    92        144
    93          9
    94         15
    95          4
    96          2
    97          1
    99          1
   102          2
   103          8
   104         15
   105         11
   106         10
   107         27
   108          9
   109          2
   110          2
   111          2
   112         26
   113          4
   114          8
   115          3
   116          7
   117         30
   118        197
   119        189
   120         34
   121         10
   122          2
   127          1
   128          1
   130          1
   131          1
   132          3
   133          7
   134         10
   135         12
   136          1
   139          2
   140         30
   141         18
   142         15
   143          6
   144          6
   145          1
   149          4
   150          8
   151          3
   152          3
   153          1
   154          1
   155          1
   158          5
   165          4
   166          2
   167          4
   168         10
   169          2
   170          5
   175          2
   176          2
   181          1
   182          2
   183          2
   184          2
   186          3
   187          4
   193          1
   194         34
   195         40
   196          7
   223          1
   225          1
   227          1
   242         17
   243          5
   256          2
   258         15
   259          3
   260          5