##TITLE=Library Entry 57592
##JCAMP-DX=Revision 4.10 
##DATA TYPE=MASS SPECTRUM
##SAMPLE DESCRIPTION=R RYHAGE MS-LAB KAROLINSKA INSTITUTET STOCKHOLM SWEDEN
##NAMES=HP
##CAS NAME=Undecanoic acid, 2,4,6-trimethyl-, methyl ester
##MOLFORM=C15H30O2
##CAS REGISTRY NO=55955-76-5
##MP= -300
##BP= -300
##MW= 242
##$RETENTION INDEX=0
##$CONDENSED SPECTRUM=NO
##NPOINTS= 116
##XYDATA=(XY..XY) 1 
    12          7
    14         66
    15        107
    16         24
    17          9
    18         76
    25          5
    26         20
    27        274
    28         50
    29        645
    30         34
    31         37
    32          9
    33         12
    37          9
    38         12
    39        249
    40         61
    41        932
    42        269
    43         83
    44         46
    45         39
    50          9
    51         19
    52         10
    53        108
    54         44
    55        813
    56        193
    57        695
    58         34
    59        518
    65         10
    66          9
    67         98
    68         37
    69        513
    70        115
    71        208
    72         19
    73        171
    74        356
    75         27
    77         12
    79         27
    81         42
    82         20
    83        285
    84         41
    85        197
    86         17
    87        796
    88        999
    89         47
    90          5
    91          5
    97         98
    99         88
   100         14
   101        830
   102         64
   103         10
   105          5
   107          5
   109         37
   111         10
   113         12
   114         17
   115         64
   123         14
   125         68
   126         20
   127         10
   128          7
   129        125
   130         14
   131          9
   132         22
   133          7
   135          7
   137         12
   139         39
   140          9
   143         14
   145         24
   146         20
   149         14
   151          5
   152         78
   153         14
   154         12
   155        239
   156         25
   157         27
   160          7
   163          9
   165          5
   171         19
   177          9
   178         22
   179         41
   180          5
   181         10
   183          7
   193         29
   194          5
   195          9
   197         15
   199         37
   209          7
   211         22
   227          9
   228         10
   242         49