##TITLE=Library Entry 58026
##JCAMP-DX=Revision 4.10 
##DATA TYPE=MASS SPECTRUM
##SAMPLE DESCRIPTION=Exported from NIST MS Search
##NAMES=HP
##CAS NAME=Undecanoic acid, 2-methyl-, methyl ester
##MOLFORM=C13H26O2
##CAS REGISTRY NO=55955-69-6
##MP= -300
##BP= -300
##MW= 214
##$RETENTION INDEX=2629
##$CONDENSED SPECTRUM=NO
##NPOINTS= 68
##XYDATA=(XY..XY) 1 
    15         26
    17         19
    18         52
    27         60
    28         52
    29         93
    39         46
    41        172
    42         52
    43        172
    44         21
    45         17
    53         20
    54          9
    55        127
    56         75
    57        154
    58         11
    59         74
    60         11
    67         16
    68         12
    69        109
    70         13
    71         79
    72          9
    73         46
    74         82
    75         13
    81         20
    82         11
    83         52
    84         11
    85         57
    87        205
    88        999
    89         38
    97         24
    98         31
    99         23
   101        287
   102         35
   109         11
   111         20
   112         13
   113         12
   115         56
   116          5
   125          8
   129         19
   130          4
   135         16
   141         38
   142          6
   143         63
   144          9
   147          8
   153          5
   155         12
   157        120
   158          8
   171         39
   172          6
   183         60
   184          4
   185         11
   214         89
   215         19