##TITLE=Library Entry 57946
##JCAMP-DX=Revision 4.10 
##DATA TYPE=MASS SPECTRUM
##SAMPLE DESCRIPTION=Exported from NIST MS Search
##NAMES=HP
##CAS NAME=Tridecanoic acid, 2-methyl-, methyl ester
##MOLFORM=C15H30O2
##CAS REGISTRY NO=55955-78-7
##MP= -300
##BP= -300
##MW= 242
##$RETENTION INDEX=0
##$CONDENSED SPECTRUM=NO
##NPOINTS= 63
##XYDATA=(XY..XY) 1 
    15         16
    16          2
    17          9
    18          6
    27         20
    28         12
    29         50
    39         24
    40          2
    41        119
    42         34
    43        121
    44          2
    45          5
    55         93
    56         11
    57        117
    58         12
    59         52
    67          9
    69         35
    70          2
    71         47
    72         11
    73         27
    74         52
    75         11
    85         21
    86          2
    87        101
    88        999
    89         49
    97         26
    98         16
    99         15
   101        263
   102         20
   111         31
   112         16
   113         20
   115         31
   129         24
   130          2
   139          9
   141          1
   143         63
   144          8
   157         58
   158          5
   169         13
   171         11
   172          2
   181          1
   183         11
   185         65
   186          9
   199         43
   200         11
   211         24
   212          1
   213          1
   242         94
   243         20