##TITLE=Library Entry 15483
##JCAMP-DX=Revision 4.10 
##DATA TYPE=MASS SPECTRUM
##SAMPLE DESCRIPTION=Exported from NIST MS Search
##NAMES=HP
##CAS NAME=Phenol, 4-butoxy-2-[(dimethylamino)methyl]-
##MOLFORM=C13H21NO2
##CAS REGISTRY NO=55955-89-0
##MP= -300
##BP= -300
##MW= 223
##$RETENTION INDEX=0
##$CONDENSED SPECTRUM=NO
##NPOINTS= 133
##XYDATA=(XY..XY) 1 
    12          2
    13          4
    14         16
    15         81
    16          2
    17          7
    18        194
    20          1
    22          2
    26          6
    27         60
    28        311
    29        120
    30         40
    31          5
    32         11
    36          1
    38         14
    39         52
    40         42
    41        122
    42        165
    43        143
    44        999
    45        579
    46         17
    50          6
    51         15
    52          7
    53         17
    54         12
    55         32
    56         12
    57         60
    58          6
    60          2
    61          2
    62          1
    63          7
    64          7
    65         22
    66         13
    67         14
    68          2
    69          4
    71          1
    73          2
    74          1
    75          1
    76          2
    77         20
    78          6
    79          7
    80          1
    81          7
    82         17
    83         16
    84          1
    91         11
    92          2
    93          8
    94         50
    95         15
    96          2
   103          3
   104          1
   105          1
   106          3
   107         24
   108          3
   109         26
   110        507
   111         34
   112          3
   115          6
   116          1
   117          2
   119          6
   120         10
   121          7
   122        108
   123        123
   124        147
   125         12
   127          1
   129          1
   130          1
   131          4
   132          1
   133         28
   134          8
   135          6
   136          6
   137          8
   138          7
   141          1
   144          3
   147         13
   148          2
   149         10
   150          4
   151          7
   152          7
   159          7
   160          2
   161          2
   162          5
   163          7
   164          5
   165          1
   166         69
   167          8
   175          1
   176          7
   177         13
   178         34
   179         73
   180         49
   181          6
   191          1
   192          3
   193          1
   194          1
   197          2
   199          1
   207          2
   208          3
   213          1
   221         35
   222          6
   223         65
   224         15
   225          1