##TITLE=Library Entry 34593
##JCAMP-DX=Revision 4.10 
##DATA TYPE=MASS SPECTRUM
##SAMPLE DESCRIPTION=Exported from NIST MS Search
##NAMES=HP
##CAS NAME=2-Butenamide, N,N-dicyclohexyl-
##MOLFORM=C16H27NO
##CAS REGISTRY NO=55955-94-7
##MP= -300
##BP= -300
##MW= 249
##$RETENTION INDEX=0
##$CONDENSED SPECTRUM=NO
##NPOINTS= 147
##XYDATA=(XY..XY) 1 
    15          3
    17          6
    18         29
    26          2
    27         39
    28         28
    29         64
    30         32
    31          9
    38          3
    39         96
    40         17
    41        516
    42         42
    43         72
    44         81
    45         13
    46          5
    50          3
    51         11
    52          5
    53         45
    54         60
    55        356
    56        259
    57         31
    58          9
    59          7
    60          7
    61          1
    62          2
    63          6
    64          2
    65         16
    66          8
    67         64
    68         75
    69        999
    70         84
    71         16
    72          5
    73          8
    74          3
    76          2
    77         14
    78          5
    79         33
    80         34
    81        102
    82        132
    83        191
    84         42
    85         25
    86        234
    87         16
    88         67
    89          6
    91         46
    92         30
    93         11
    94         16
    95         17
    96         91
    97         52
    98        483
    99         61
   100         58
   101          8
   103          2
   104          3
   106          2
   107          3
   108         20
   109         17
   110        362
   111         68
   112         48
   113         14
   114          3
   115          1
   117          2
   120          1
   121          3
   122         17
   123         14
   124        227
   125         69
   126         32
   127         11
   128          7
   129          2
   131          1
   132          1
   133          1
   134          1
   135          2
   136         19
   137          5
   138        351
   139        164
   140         17
   141          7
   145          3
   148          1
   149          1
   150         34
   151          9
   152        246
   153         37
   154         14
   155         32
   156          6
   164         63
   165         24
   166        503
   167        129
   168        267
   169         32
   170          8
   173         12
   174          2
   176          1
   178         57
   179         19
   180         71
   181         31
   182          7
   192        458
   193        114
   194         17
   195          2
   201          5
   205          3
   206        175
   207         33
   208          8
   220         34
   221         14
   235        378
   236          6
   240          1
   242          3
   247          7
   248         14
   249        378
   250         72
   251          7