##TITLE=Library Entry 32454
##JCAMP-DX=Revision 4.10 
##DATA TYPE=MASS SPECTRUM
##SAMPLE DESCRIPTION=R. A. LYND
##NAMES=HP
##CAS NAME=4,5-Nonadiene, 2-methyl-
##MOLFORM=C10H18
##CAS REGISTRY NO=55956-32-6
##MP= -300
##BP= -300
##MW= 138
##$RETENTION INDEX=0
##$CONDENSED SPECTRUM=NO
##NPOINTS= 78
##XYDATA=(XY..XY) 1 
    14         12
    15        114
    16          3
    17          2
    18          5
    26         50
    27        806
    28         73
    29        390
    30          9
    37         13
    38         46
    39        598
    40        108
    41        923
    42         81
    43        537
    44         20
    45          4
    50         52
    51        130
    52         93
    53        284
    54        454
    55        573
    56        111
    57         68
    58          4
    59          3
    61          4
    62         13
    63         42
    64         12
    65        118
    66         62
    67        999
    68        159
    69        126
    70         18
    71          6
    73          3
    74          5
    75          9
    77        127
    78         34
    79        157
    80         65
    81        820
    82        313
    83         31
    84          7
    85          4
    86          2
    87          2
    89          4
    91         57
    92         12
    93         70
    94         22
    95        625
    96        252
    97         22
    98          2
   103          2
   105          5
   106          1
   107         10
   108          5
   109        129
   110         45
   111          5
   112          1
   121          2
   123         61
   124          6
   137          2
   138         35
   139          4