##TITLE=Library Entry 58007
##JCAMP-DX=Revision 4.10 
##DATA TYPE=MASS SPECTRUM
##SAMPLE DESCRIPTION=AU17-6-6
##NAMES=HP
##CAS NAME=D-Glucose, O-2,3,4,6-tetra-O-methyl-.beta.-D-glucopyranosyl-(1.fw
darw.6)-O-2,3,4-tri-O-methyl-.beta.-D-glucopyranosyl-(1.fwdarw.3)-2,4,5,6-te
tra-O-methyl-
##MOLFORM=C29H54O16
##CAS REGISTRY NO=55956-07-5
##MP= -300
##BP= -300
##MW= 658
##$RETENTION INDEX=0
##$CONDENSED SPECTRUM=NO
##NPOINTS= 24
##XYDATA=(XY..XY) 1 
    45        280
    71        400
    75        370
    88        999
    89        130
    99         70
   101        499
   111        190
   115         70
   127        130
   143         20
   145        200
   155        120
   159        120
   187        320
   201         10
   219        130
   279         60
   305          3
   349          2
   359         19
   391         50
   423         28
   483         45