##TITLE=Library Entry 58031
##JCAMP-DX=Revision 4.10 
##DATA TYPE=MASS SPECTRUM
##SAMPLE DESCRIPTION=Exported from NIST MS Search
##NAMES=HP
##CAS NAME=Dodecanoic acid, 2,8-dimethyl-, methyl ester
##MOLFORM=C15H30O2
##CAS REGISTRY NO=55955-80-1
##MP= -300
##BP= -300
##MW= 242
##$RETENTION INDEX=0
##$CONDENSED SPECTRUM=NO
##NPOINTS= 64
##XYDATA=(XY..XY) 1 
    15         21
    27         38
    29        123
    39         31
    40         13
    41        300
    42         89
    43        350
    45         16
    51         24
    55        263
    56         54
    57        213
    59         79
    60         23
    67         49
    68         38
    69        174
    70         39
    71         52
    72         21
    73         53
    74         46
    79         35
    81         67
    83        101
    85         27
    87         49
    88        999
    89         39
    91         34
    93         34
    95         43
    97         71
    98         27
    99         49
   101        575
   102         67
   107         41
   111         34
   112         35
   113         20
   115         58
   116          1
   128          6
   129         34
   130          8
   135          1
   143        147
   144         17
   153         68
   154          6
   157        486
   158         49
   171         24
   172          1
   185         31
   186          2
   199         61
   200          8
   211         54
   212          5
   242        153
   243         31