##TITLE=Library Entry 32644
##JCAMP-DX=Revision 4.10 
##DATA TYPE=MASS SPECTRUM
##SAMPLE DESCRIPTION=S.A. Rang et al., IR & MS of Unsatd. Hydrocarbons, 1977
##NAMES=HP
##CAS NAME=Benzene, (2-cyclopenten-1-ylmethyl
##MOLFORM=C12H14
##CAS REGISTRY NO=55969-86-3
##MP= -300
##BP= -300
##MW= 158
##$RETENTION INDEX=0
##$CONDENSED SPECTRUM=NO
##NPOINTS= 119
##XYDATA=(XY..XY) 1 
    15          2
    16          0
    24          0
    25          0
    26          5
    27         45
    28         11
    29          6
    30          0
    31          0
    32          1
    33          0
    36          0
    37          1
    38          8
    39        173
    40         29
    41        217
    42          8
    43          3
    44          1
    45          0
    46          0
    49          0
    50         15
    51         61
    52         21
    53         17
    54          2
    55          3
    56          1
    57          1
    58          0
    59          0
    60          0
    61          0
    62          5
    63         35
    64         11
    65        188
    66        579
    67        999
    68         55
    69          2
    70          0
    71          1
    72          0
    73          0
    74          3
    75          5
    76          7
    77         39
    78         18
    79         12
    80          4
    81          1
    82          1
    83          1
    84          0
    85          0
    86          0
    87          1
    88          1
    89         21
    90          8
    91        275
    92         69
    93          5
    94          0
    95          0
    96          0
    97          0
    98          0
    99          0
   100          0
   101          1
   102          7
   103          7
   104          4
   105          1
   106          0
   107          0
   108          0
   109          0
   110          0
   111          0
   112          0
   113          1
   114          1
   115         33
   116          7
   117          7
   118          1
   119          0
   121          0
   123          0
   125          0
   126          2
   127          8
   128         20
   129         11
   130          2
   131          0
   132          0
   138          0
   139          1
   140          0
   141          6
   142          2
   143          4
   144          0
   145          0
   154          1
   155          1
   156          2
   157          1
   158         15
   159          2
   160          0