##TITLE=Library Entry 5990
##JCAMP-DX=Revision 4.10 
##DATA TYPE=MASS SPECTRUM
##SAMPLE DESCRIPTION=CARL DJERASSI DEPT OF CHEM STANFORD UNIV STANFORD CALIF
 94305
##NAMES=HP
##CAS NAME=5.alpha.-Cholesta-7,9(11)-dien-3.beta.-ol, 14-methyl-, acetate
##MOLFORM=C30H48O2
##CAS REGISTRY NO=5596-02-1
##MP= -300
##BP= -300
##MW= 440
##$RETENTION INDEX=0
##$CONDENSED SPECTRUM=NO
##NPOINTS= 174
##XYDATA=(XY..XY) 1 
    41        330
    42         55
    43        999
    44        110
    45         35
    51          5
    53         35
    54          5
    55        315
    56         35
    57        170
    58          5
    60         15
    61          5
    65          5
    67        105
    68         10
    69        175
    70         10
    71         70
    77         40
    78          5
    79         70
    80          5
    81        140
    82         15
    83         85
    84          5
    85         10
    91         85
    92         15
    93         80
    94         20
    95        120
    96         10
    97         45
   105         90
   106         30
   107         80
   108         10
   109         55
   110          5
   111         15
   115         20
   116         10
   117         40
   118         20
   119         90
   120         20
   121         35
   122          5
   123         10
   127          5
   128         35
   129         60
   130         25
   131         85
   132         40
   133         40
   134          5
   135         20
   136          5
   137          5
   141         35
   142         35
   143         85
   144         30
   145         95
   146         30
   147         30
   148          5
   149         10
   152          5
   153         15
   154         15
   155         50
   156         25
   157         85
   158         25
   159         80
   160         15
   161         20
   162          5
   163          5
   165         15
   166          5
   167         25
   168         15
   169         60
   170         25
   171         60
   172         20
   173         50
   174         10
   175         10
   178          5
   179         10
   180          5
   181         25
   182         10
   183         50
   184         20
   185         60
   186         15
   187         15
   189          5
   191          5
   193         15
   194          5
   195         20
   196         10
   197         60
   198         20
   199         60
   200         20
   201         10
   202          5
   203          5
   209         15
   210          5
   211         80
   212         90
   213         65
   214         10
   215          5
   223          5
   224          5
   225        120
   226         35
   227         15
   228          5
   229          5
   231          5
   237          5
   239         10
   240          5
   241          5
   245         20
   251         10
   253         15
   257         15
   258          5
   259         15
   260         35
   261         10
   267         35
   268         10
   271         15
   272         25
   273         45
   274         20
   283          5
   285         60
   286         40
   287         15
   288         10
   295          5
   299          5
   300          5
   311         10
   313         10
   314          5
   327         20
   328          5
   355          5
   365         40
   366         15
   367          5
   380         20
   381         10
   425         45
   426         15
   440         85
   441         30