##TITLE=Library Entry 84085
##JCAMP-DX=Revision 4.10 
##DATA TYPE=MASS SPECTRUM
##SAMPLE DESCRIPTION=NIST Mass Spectrometry Data Center
##NAMES=HP
##CAS NAME=Benzenepropanoic acid, 4-hydroxy-, methyl ester
##MOLFORM=C10H12O3
##CAS REGISTRY NO=5597-50-2
##MP= -300
##BP= -300
##MW= 180
##$RETENTION INDEX=1595
##$CONDENSED SPECTRUM=NO
##NPOINTS= 87
##XYDATA=(XY..XY) 1 
    15          7
    26          2
    27         12
    28          1
    29          8
    30          1
    31          3
    33          1
    37          1
    38          6
    39         45
    40          6
    41          7
    42         11
    43          6
    44          1
    45          6
    46          2
    49          1
    50         13
    51         39
    52         19
    53         31
    54          3
    55         24
    56          1
    59         21
    61          4
    62         11
    63         30
    64         10
    65         59
    66         15
    67          4
    68          1
    69          1
    74          5
    75          5
    76          4
    77        139
    78         36
    79         17
    80          2
    81          5
    82          1
    86          1
    87          2
    89         12
    90          5
    91        102
    92         15
    93         10
    94         37
    95         10
    96          1
   101          2
   102          4
   103         29
   104          3
   105         10
   107        999
   108         85
   109          7
   110          1
   115          1
   118          4
   119         49
   120        450
   121         68
   122          6
   123         30
   124          2
   131          2
   135          1
   136          1
   137         13
   138          1
   147          6
   148          2
   149         31
   150          3
   163          1
   164          1
   165          2
   180        204
   181         23
   182          2