##TITLE=Library Entry 55551
##JCAMP-DX=Revision 4.10 
##DATA TYPE=MASS SPECTRUM
##SAMPLE DESCRIPTION=Exported from NIST MS Search
##NAMES=HP
##CAS NAME=Pentane, 1,1,2,3,4,5-hexachloro-1,2,3,4,5,5-hexafluoro-
##MOLFORM=C5Cl6F6
##CAS REGISTRY NO=55975-93-4
##MP= -300
##BP= -300
##MW= 384
##$RETENTION INDEX=0
##$CONDENSED SPECTRUM=NO
##NPOINTS= 132
##XYDATA=(XY..XY) 1 
    31         43
    35          4
    36          3
    37          1
    47         12
    49          4
    50          4
    55          7
    62          3
    66         18
    68          6
    69        125
    70          1
    71          3
    74         17
    78          6
    79          1
    80          2
    81          1
    82         10
    84          6
    85        999
    86         15
    87        327
    88          3
    89          1
    90         10
    92          3
    93         49
    94          2
    97          7
    98          2
    99          2
   101        211
   102          3
   103        135
   104          2
   105         25
   106          1
   109         45
   110          1
   111         15
   112          3
   113          3
   115          2
   116         62
   117          7
   118         20
   119          4
   121          3
   124          5
   125         10
   127          6
   128          1
   129          4
   131         10
   132         35
   133          1
   134         22
   135        133
   136          7
   137         43
   140          3
   143          9
   148          4
   149         28
   150          3
   151        351
   152          8
   153        226
   154          5
   155         38
   156          1
   159          8
   161          3
   163        137
   164          4
   165         88
   166          3
   167         24
   169         10
   171          4
   175          2
   177          1
   178          3
   179         27
   180          1
   181         25
   182         12
   183          8
   184          7
   185         21
   186          1
   187          6
   193          3
   194          3
   195          1
   196          1
   197          3
   198          2
   200          1
   201         52
   202          2
   203         33
   204          1
   205          5
   209          2
   213         16
   215         10
   217        299
   218         10
   219        286
   220         10
   221         91
   222          3
   223         10
   229          3
   231          3
   233          1
   247          1
   248         17
   249          1
   250         16
   252          5
   263          3
   264          2
   265          1
   266          2
   268          1
   283          6
   285          7
   287          4