##TITLE=Library Entry 49254
##JCAMP-DX=Revision 4.10 
##DATA TYPE=MASS SPECTRUM
##SAMPLE DESCRIPTION=Japan AIST/NIMC Database- Spectrum MS-NW-5633
##NAMES=HP
##CAS NAME=3-Methylene-2-norbornanone
##MOLFORM=C8H10O
##CAS REGISTRY NO=5597-27-3
##MP= -300
##BP= -300
##MW= 122
##$RETENTION INDEX=0
##$CONDENSED SPECTRUM=NO
##NPOINTS= 92
##XYDATA=(XY..XY) 1 
    13          2
    14          6
    15         44
    16          1
    18          2
    25          4
    26         45
    27        301
    28         33
    29         30
    30         23
    31          4
    32          7
    33          2
    36          1
    37         20
    38         53
    39        363
    40        107
    41        178
    42         58
    43        130
    44        237
    45         61
    46         18
    47          1
    49          5
    50         46
    51         95
    52         73
    53        449
    54         95
    55        119
    56         11
    57          9
    58         64
    59          3
    60          8
    61          9
    62         19
    63         43
    64          9
    65        166
    66        364
    67        243
    68         59
    69         13
    70          3
    71          3
    72         35
    73          3
    74          4
    75          4
    76          2
    77        333
    78         92
    79        999
    80         95
    81        111
    82         17
    83          4
    84          1
    85          1
    86          2
    87        141
    88          8
    89          5
    90          2
    91        195
    92         41
    93        897
    94        148
    95         45
    96          8
    97          3
    98          1
    99          1
   102          1
   103         17
   104         54
   105         14
   106          3
   107        103
   108         10
   109          3
   118          1
   119          2
   120          1
   121         79
   122        907
   123         88
   124          4