##TITLE=Library Entry 58041
##JCAMP-DX=Revision 4.10 
##DATA TYPE=MASS SPECTRUM
##SAMPLE DESCRIPTION=AU17-6-9
##NAMES=HP
##CAS NAME=D-Glucose, O-2,3,4,6-tetra-O-methyl-.beta.-D-galactopyranosyl-(1.
fwdarw.4)-O-2,3,6-tri-O-methyl-.beta.-D-galactopyranosyl-(1.fwdarw.4)-2,3,5,
6-tetra-O-methyl-
##MOLFORM=C29H54O16
##CAS REGISTRY NO=55975-32-1
##MP= -300
##BP= -300
##MW= 658
##$RETENTION INDEX=0
##$CONDENSED SPECTRUM=NO
##NPOINTS= 24
##XYDATA=(XY..XY) 1 
    45        340
    71        200
    75        310
    88        999
    89        110
    99         70
   101        370
   111        250
   115         70
   127        120
   143         60
   145         70
   155        130
   159         60
   187        370
   201         20
   219        310
   279        100
   303          3
   305          9
   359         22
   391         43
   423         11
   483         24