##TITLE=Library Entry 18640
##JCAMP-DX=Revision 4.10 
##DATA TYPE=MASS SPECTRUM
##SAMPLE DESCRIPTION=R. A. LYND
##NAMES=HP
##CAS NAME=1,4-Undecadiene, (E)-
##MOLFORM=C11H20
##CAS REGISTRY NO=55976-13-1
##MP= -300
##BP= -300
##MW= 152
##$RETENTION INDEX=0
##$CONDENSED SPECTRUM=NO
##NPOINTS= 86
##XYDATA=(XY..XY) 1 
    14          5
    15         49
    16          1
    18          3
    25          1
    26         38
    27        601
    28         93
    29        490
    30         11
    31          3
    33          1
    37          7
    38         22
    39        474
    40         76
    41        968
    42        136
    43        532
    44         18
    45          1
    49          1
    50         43
    51        105
    52         70
    53        343
    54        999
    55        695
    56        159
    57        113
    58          5
    59          1
    61          2
    62          9
    63         27
    64          7
    65         87
    66        118
    67        719
    68        633
    69        444
    70         73
    71         17
    73          1
    74          4
    75          6
    76          3
    77        106
    78         33
    79        216
    80         75
    81        631
    82        273
    83         88
    84         14
    85          8
    89          2
    91         28
    92          4
    93         16
    94          9
    95        167
    96         99
    97         60
    98         10
   103          2
   105          2
   107          3
   108          2
   109         67
   110         52
   111         28
   112          3
   119          1
   121          1
   122          1
   123         25
   124         55
   125         10
   126          1
   133          1
   135          1
   137          3
   151          1
   152        102
   153         12