##TITLE=Library Entry 40653
##JCAMP-DX=Revision 4.10 
##DATA TYPE=MASS SPECTRUM
##SAMPLE DESCRIPTION=T. REICHENBACH
##NAMES=HP
##CAS NAME=5-Hexen-2-one, 1-methoxy-3-[(trimethylsilyl)methylene]-
##MOLFORM=C11H20O2Si
##CAS REGISTRY NO=55976-15-3
##MP= -300
##BP= -300
##MW= 212
##$RETENTION INDEX=0
##$CONDENSED SPECTRUM=NO
##NPOINTS= 144
##XYDATA=(XY..XY) 1 
    14         21
    15        164
    16          3
    17          9
    18         31
    26          5
    27         49
    28         30
    29         85
    30          6
    31         55
    32          3
    33          1
    37          1
    38          4
    39         74
    40          9
    41         55
    42         33
    43        940
    44         74
    45        293
    46         18
    47         44
    48          2
    49          1
    50          3
    51         21
    52         14
    53         76
    54         19
    55         73
    56         10
    57         37
    58         50
    59        415
    60         39
    61        145
    62         11
    63         10
    64          2
    65         17
    66         23
    67         55
    68         13
    69         65
    70         12
    71         34
    72         26
    73        999
    74         96
    75        925
    76         67
    77         87
    78         31
    79        129
    80         70
    81         26
    82          6
    83         85
    84         10
    85         48
    86          6
    87         33
    88          5
    89          8
    90          2
    91         16
    92          6
    93         41
    96         14
    97         58
    98         13
    99         45
   100          5
   101         86
   102          9
   103         20
   104          2
   105          5
   106          2
   107         11
   108          5
   109        107
   110         15
   111         33
   112          5
   113         49
   114          5
   115         17
   116         57
   117        266
   118         27
   119         13
   120          2
   121         14
   122          8
   123         12
   124          4
   125         11
   126          2
   127         27
   128          5
   129         14
   130         13
   131          3
   133          2
   135          7
   136          3
   137        296
   138         42
   139         26
   140          3
   141         23
   142          6
   143          9
   144          1
   151          1
   152          3
   153          8
   154          5
   155        112
   156         21
   157          6
   158          1
   159          1
   167          2
   169        243
   170        183
   171         37
   172          8
   173          1
   179          1
   181          2
   182          1
   183         24
   184          5
   185          2
   197         11
   198          2
   211          1
   212         66
   213         11
   214          3