##TITLE=Library Entry 68644
##JCAMP-DX=Revision 4.10 
##DATA TYPE=MASS SPECTRUM
##SAMPLE DESCRIPTION=E. S. BEHARE
##NAMES=HP
##CAS NAME=Naphth[1,2-b]oxirene, decahydro-1a,7-dimethyl-
##MOLFORM=C12H20O
##CAS REGISTRY NO=55976-08-4
##MP= -300
##BP= -300
##MW= 180
##$RETENTION INDEX=0
##$CONDENSED SPECTRUM=NO
##NPOINTS= 128
##XYDATA=(XY..XY) 1 
    14          8
    15        106
    16          2
    17          4
    18         13
    19          3
    26         29
    27        498
    28        101
    29        489
    30         11
    31         21
    35          4
    37          6
    38         19
    39        471
    40         86
    41        844
    42         75
    43        567
    44         22
    45         18
    47          5
    49          2
    50         20
    51        165
    52         80
    53        400
    54         96
    55        680
    56         70
    57         79
    58         12
    59          5
    60          2
    61          5
    62         17
    63         54
    64         17
    65        129
    66         81
    67        566
    68        176
    69        403
    70         77
    71         92
    72         10
    73          2
    74          8
    75         11
    76          6
    77        210
    78         59
    79        268
    80         71
    81        623
    82        111
    83        127
    84        144
    85         44
    86          5
    87          3
    89          9
    90          6
    91        188
    92         39
    93        192
    94         75
    95        999
    96        126
    97         91
    98         21
    99          4
   102          4
   103         16
   104          9
   105        126
   106         33
   107        113
   108        102
   109        401
   110        167
   111         83
   112         37
   113          4
   115         15
   116          6
   117         25
   118          5
   119         66
   120         22
   121         96
   122        102
   123        204
   124         56
   125         49
   126          8
   127          3
   128          5
   129          3
   130          2
   131          7
   132          4
   133        936
   134         17
   135         37
   136         32
   137         71
   138         21
   139         13
   145          4
   146          3
   147        124
   148         16
   149         21
   150          9
   151        497
   152         86
   153         10
   161          5
   162         50
   163         12
   165        890
   166        112
   167          8
   179          6
   180        168
   181         22