##TITLE=Library Entry 22458
##JCAMP-DX=Revision 4.10 
##DATA TYPE=MASS SPECTRUM
##SAMPLE DESCRIPTION=Exported from NIST MS Search
##NAMES=HP
##CAS NAME=Propanal, 2-(cyclohexylamino)-2-methyl-, oxime
##MOLFORM=C10H20N2O
##CAS REGISTRY NO=55975-99-0
##MP= -300
##BP= -300
##MW= 184
##$RETENTION INDEX=0
##$CONDENSED SPECTRUM=NO
##NPOINTS= 93
##XYDATA=(XY..XY) 1 
    14          1
    15         19
    16          1
    17         14
    18         75
    26         18
    27        209
    28        122
    29        123
    30         75
    31         76
    32          9
    33          3
    36          1
    37          7
    38         15
    39        143
    41        255
    42        168
    43        161
    44         39
    45          3
    46          5
    50          5
    51         12
    52         11
    53         42
    54         49
    55        228
    56        999
    57         90
    58        458
    59         20
    60          1
    63          1
    65          6
    66          8
    67         44
    68         66
    69         35
    70         96
    71         25
    72          6
    77          8
    79         15
    80          6
    81         38
    82         49
    83        151
    84         76
    85         47
    86         63
    88          9
    93          2
    94          7
    95          9
    96        131
    97         34
    98        114
    99        103
   100         17
   101         10
   108          3
   109          8
   110         53
   111         32
   112          3
   113          6
   122          1
   123          9
   124        144
   125         15
   126          5
   127         14
   128          4
   136          1
   138         18
   139         39
   140        194
   141        175
   142         13
   150         21
   151         16
   152          8
   153          4
   155          3
   165          2
   167        196
   168         23
   169        174
   170         18
   184         11
   185          2