##TITLE=Library Entry 48448
##JCAMP-DX=Revision 4.10 
##DATA TYPE=MASS SPECTRUM
##SAMPLE DESCRIPTION=R. A. LYND
##NAMES=HP
##CAS NAME=5-Decene, 4-ethynyl-, (E)-
##MOLFORM=C12H20
##CAS REGISTRY NO=55976-10-8
##MP= -300
##BP= -300
##MW= 164
##$RETENTION INDEX=0
##$CONDENSED SPECTRUM=NO
##NPOINTS= 105
##XYDATA=(XY..XY) 1 
    14          6
    15         61
    16          1
    17          1
    18          5
    25          1
    26         32
    27        657
    28         52
    29        292
    30          6
    37          7
    38         28
    39        452
    40         53
    41        617
    42         61
    43        338
    44         12
    45          1
    49          2
    50         47
    51        134
    52        106
    53        146
    54         78
    55        356
    56         42
    57         50
    58          3
    61          4
    62         28
    63        100
    64         24
    65        642
    66        396
    67        292
    68         73
    69         61
    70         22
    71          5
    72          2
    73          3
    74         14
    75         23
    76         19
    77        390
    78        260
    79        999
    80        166
    81        287
    82         54
    83         26
    84          5
    85          4
    86          3
    87          3
    88          2
    89         18
    90         10
    91        287
    92         52
    93        565
    94        108
    95         73
    96         45
    97          6
    98          1
    99          1
   101          1
   102          4
   103         16
   104          7
   105         69
   106         24
   107        166
   108         36
   109         34
   110          7
   111          2
   112          3
   113          1
   114          1
   115          6
   116          2
   117          5
   118          1
   119         14
   120          7
   121        251
   122         39
   123         14
   124          3
   133          4
   134          1
   135         80
   136         44
   137          6
   138          4
   149         23
   150          3
   163          1
   164         37
   165          5
   166          4