##TITLE=Library Entry 57889
##JCAMP-DX=Revision 4.10 
##DATA TYPE=MASS SPECTRUM
##SAMPLE DESCRIPTION=AU17-6-7
##NAMES=HP
##CAS NAME=D-Glucose, O-2,3,4,6-tetra-O-methyl-.alpha.-D-glucopyranosyl-(1.f
wdarw.4)-O-2,3,6-tri-O-methyl-.alpha.-D-glucopyranosyl-(1.fwdarw.6)-2,3,4,5-
tetra-O-methyl-
##MOLFORM=C29H54O16
##CAS REGISTRY NO=55975-31-0
##MP= -300
##BP= -300
##MW= 658
##$RETENTION INDEX=0
##$CONDENSED SPECTRUM=NO
##NPOINTS= 26
##XYDATA=(XY..XY) 1 
    45        220
    71        220
    75        470
    88        999
    89        110
    99         50
   101        350
   111        150
   115         70
   127         80
   143         20
   145         50
   155         90
   159         20
   187        320
   219        140
   279         40
   303          1
   305          8
   331          1
   335          2
   359          7
   391          7
   423         17
   483         14
   557         10