##TITLE=Library Entry 49174
##JCAMP-DX=Revision 4.10 
##DATA TYPE=MASS SPECTRUM
##SAMPLE DESCRIPTION=R. A. LYND
##NAMES=HP
##CAS NAME=Cyclohexene, 3-(1-hexenyl)-, (E)-
##MOLFORM=C12H20
##CAS REGISTRY NO=55976-11-9
##MP= -300
##BP= -300
##MW= 164
##$RETENTION INDEX=0
##$CONDENSED SPECTRUM=NO
##NPOINTS= 108
##XYDATA=(XY..XY) 1 
     8          0
    15         42
    16          1
    17          2
    18          9
    26         23
    27        395
    28         51
    29        207
    30          4
    37          4
    38         15
    39        309
    40         42
    41        492
    42         27
    43         79
    44          3
    49          1
    50         20
    51        141
    52         81
    53        210
    54         91
    55        201
    56         17
    57         17
    58          3
    59          1
    61          3
    62         13
    63         48
    64         15
    65        139
    66         86
    67        346
    68         65
    69         26
    70          3
    71          4
    72          1
    73          2
    74          7
    75         13
    76          8
    77        300
    78        134
    79        999
    80        216
    81        251
    82         68
    83         18
    84          2
    85          3
    86          2
    87          2
    88          1
    89         12
    90          9
    91        284
    92         76
    93        280
    94        534
    95         81
    96         27
    97          5
    98          1
   101          1
   102          4
   103         17
   104          9
   105         68
   106         24
   107        687
   108        109
   109         17
   110          5
   112          4
   114          1
   115         11
   116          3
   117          9
   118          2
   119         14
   120          9
   121        187
   122         39
   123          7
   124          1
   127          1
   128          2
   129          1
   131          1
   132          1
   133          5
   134          4
   135        164
   136         25
   137          2
   138          2
   147          3
   149          8
   150          1
   162          5
   163          2
   164        205
   165         27
   166          5