##TITLE=Library Entry 32783
##JCAMP-DX=Revision 4.10 
##DATA TYPE=MASS SPECTRUM
##SAMPLE DESCRIPTION=R. A. LYND
##NAMES=HP
##CAS NAME=5-Undecene, 7-ethenyl-
##MOLFORM=C13H24
##CAS REGISTRY NO=55976-07-3
##MP= -300
##BP= -300
##MW= 180
##$RETENTION INDEX=0
##$CONDENSED SPECTRUM=NO
##NPOINTS= 95
##XYDATA=(XY..XY) 1 
    15         20
    16          0
    17          0
    18          2
    25          0
    26         12
    27        275
    28         32
    29        242
    30          5
    31          0
    37          1
    38          5
    39        157
    40         23
    41        411
    42         25
    43         91
    44          3
    45          1
    50          5
    51         47
    52         35
    53        116
    54         80
    55        267
    56         28
    57         53
    58          2
    59          0
    61          0
    62          3
    63         14
    64          4
    65         59
    66         31
    67        999
    68        350
    69        111
    70         14
    71          5
    73          2
    74          1
    75          3
    76          2
    77         92
    78         29
    79        167
    80         83
    81        520
    82         99
    83         25
    84          4
    85          2
    86          0
    87          1
    89          1
    90          1
    91         36
    92          5
    93         22
    94          9
    95        162
    96         49
    97         14
    98          2
   103          1
   104          0
   105          3
   106          1
   107          3
   108          2
   109         61
   110         32
   111          5
   112          1
   115          0
   117          0
   121          1
   122          2
   123        252
   124         32
   125          2
   126          2
   127          1
   136          0
   137         12
   138         23
   139          2
   151         14
   152          3
   165          5
   166          1
   180         31
   181          4