##TITLE=Library Entry 58020
##JCAMP-DX=Revision 4.10 
##DATA TYPE=MASS SPECTRUM
##SAMPLE DESCRIPTION=AU17-6-5
##NAMES=HP
##CAS NAME=D-Glucose, O-2,3,4,6-tetra-O-methyl-.beta.-D-galactopyranosyl-(1.
fwdarw.6)-O-2,3,4-tri-O-methyl-.beta.-D-galactopyranosyl-(1.fwdarw.4)-2,3,5,
6-tetra-O-methyl-
##MOLFORM=C29H54O16
##CAS REGISTRY NO=55975-30-9
##MP= -300
##BP= -300
##MW= 658
##$RETENTION INDEX=0
##$CONDENSED SPECTRUM=NO
##NPOINTS= 24
##XYDATA=(XY..XY) 1 
    45        170
    71        270
    75        280
    88        999
    89        110
    99         50
   101        420
   111        160
   115         80
   127        140
   143         30
   145         60
   155         80
   159         30
   187        220
   201         10
   219        170
   279         60
   305         14
   349          3
   359          2
   391          2
   423        140
   483          2