##TITLE=Library Entry 644
##JCAMP-DX=Revision 4.10 
##DATA TYPE=MASS SPECTRUM
##SAMPLE DESCRIPTION=NIST Mass Spectrometry Data Center, 1990.
##NAMES=HP
##CAS NAME=Phosphoric acid, diethyl 3,5,6-trichloro-2-pyridyl ester
##MOLFORM=C9H11Cl3NO4P
##CAS REGISTRY NO=5598-15-2
##MP= -300
##BP= -300
##MW= 333
##$RETENTION INDEX=1973
##$CONDENSED SPECTRUM=NO
##NPOINTS= 252
##XYDATA=(XY..XY) 1 
    12          1
    13          4
    15         87
    18          7
    19         10
    24          2
    25         12
    26        103
    27        537
    28          1
    29        999
    30         27
    35         10
    36         20
    37         38
    38          8
    39          6
    41         14
    42         15
    43         93
    44          8
    45         96
    46          6
    47        179
    48         12
    49         34
    50          5
    51         10
    52          8
    53         30
    54          4
    55          1
    59          2
    60         14
    61          6
    62         37
    63         79
    64         29
    65         98
    66          3
    67          4
    69          1
    71         25
    72         79
    73         29
    74         43
    75         49
    76         12
    77          7
    78          2
    79          5
    80          1
    81        849
    82         24
    83         35
    84         28
    85         20
    86         16
    87         13
    88          6
    89          5
    90          2
    91        289
    92         12
    93         23
    94         11
    95          5
    96         12
    97         34
    98        307
    99         75
   100         98
   101         12
   102          3
   105          3
   106         28
   107        237
   108          3
   109        846
   110         84
   111         44
   112         22
   114         24
   115          5
   116         12
   117          7
   118          6
   119         19
   120          6
   121         14
   122          3
   123          7
   124          4
   125         26
   126          8
   127         16
   128          5
   129          5
   132         19
   133        120
   134        101
   135        100
   136         68
   137         53
   138         12
   139          2
   140          1
   141          6
   142         12
   143         11
   144         75
   145         30
   146         55
   147         15
   148         14
   149          7
   150         30
   151          2
   152         20
   153          7
   154          5
   155          4
   156          1
   161        137
   162         57
   163         95
   164         33
   165         20
   166          6
   167          1
   168        180
   169        237
   170        190
   171        216
   172         77
   173         71
   174         14
   175          9
   176          2
   177          2
   178         44
   179          1
   180        122
   181         24
   182        108
   183         19
   184         38
   185          7
   186          4
   188          1
   189          6
   190         31
   191          6
   192         19
   193          3
   194          5
   197        768
   198        126
   199        710
   200         85
   201        238
   202         20
   203         26
   204          2
   205          8
   206         17
   207         99
   208         31
   209         90
   210         41
   211         33
   212         25
   213          8
   214          7
   215         20
   217         14
   218          2
   219          5
   224         45
   225         15
   226         48
   227         11
   228         18
   229          3
   230          2
   231          3
   233          3
   239          1
   242        637
   243         70
   244        415
   245         31
   246         71
   247          3
   252          8
   253          3
   254         11
   255          2
   256          7
   259         52
   260        156
   261         60
   262        152
   263         27
   264         46
   265          6
   266          6
   268         14
   270        727
   271        110
   272        479
   273         47
   274         74
   275          6
   276          3
   277          3
   278         34
   279          6
   280         30
   281          3
   282         15
   283          2
   284          3
   286          1
   288         45
   289         10
   290         50
   291          7
   292         21
   293          3
   294          3
   295          1
   298        524
   299         86
   300        370
   301         43
   302         67
   303          8
   304          4
   305          5
   306         12
   307          4
   308          8
   309          2
   318          2
   333         92
   334         23
   335        103
   336         16
   337         33
   338          5
   339          2