##TITLE=Library Entry 47222
##JCAMP-DX=Revision 4.10 
##DATA TYPE=MASS SPECTRUM
##SAMPLE DESCRIPTION=NIST Mass Spectrometry Data Center, 2008
##NAMES=HP
##CAS NAME=Trifluoroacetamide, TMS derivative
##MOLFORM=C5H10F3NOSi
##CAS REGISTRY NO=55982-15-5
##MP= -300
##BP= -300
##MW= 185
##$RETENTION INDEX=826
##$CONDENSED SPECTRUM=NO
##NPOINTS= 89
##XYDATA=(XY..XY) 1 
    14          1
    15          8
    26          2
    27          7
    28         12
    29         24
    30          5
    31         10
    33          1
    39          1
    40          1
    41          4
    42         17
    43         75
    44         41
    45         85
    46         11
    47         60
    48          5
    49         46
    50         27
    53          8
    54          5
    55         13
    56         17
    57          9
    58         23
    59         12
    60          4
    61          7
    62          8
    63         58
    64          4
    65          3
    66          1
    67          1
    69         55
    70         44
    71          7
    72         60
    73        250
    74         29
    75         14
    76         38
    77        999
    78         77
    79         44
    80          2
    81         10
    82          1
    83          1
    84          1
    85          3
    86          6
    87          1
    88          1
    89          2
    90          8
    91          6
    92          1
    93          1
    96          6
    99          1
   100         34
   101          3
   102          1
   104         26
   105          3
   106          1
   110          1
   111          1
   116        121
   117         12
   118          5
   120        498
   121         43
   122         20
   123          1
   124          1
   143        118
   144         10
   145          5
   151          1
   168          1
   170        409
   171         41
   172         16
   173          1
   185          1