##TITLE=Library Entry 69509
##JCAMP-DX=Revision 4.10 
##DATA TYPE=MASS SPECTRUM
##SAMPLE DESCRIPTION=Chemical Concepts
##NAMES=HP
##CAS NAME=Cantharidin
##MOLFORM=C10H12O4
##CAS REGISTRY NO=56-25-7
##MP= -300
##BP= -300
##MW= 196
##$RETENTION INDEX=1470
##$CONDENSED SPECTRUM=NO
##NPOINTS= 96
##XYDATA=(XY..XY) 1 
    26         58
    27        425
    28         73
    29        182
    30          6
    31         11
    37         11
    38         39
    39        497
    40         91
    41        476
    42        282
    43        118
    44         23
    45          9
    46          3
    47          3
    49          5
    50         41
    51        103
    52         54
    53        232
    54         56
    55        119
    56         20
    57          9
    58          4
    60          3
    61          6
    62         10
    63         25
    64          6
    65         81
    66         44
    67        332
    68        200
    69        141
    70        406
    71         21
    72          3
    74          4
    75          4
    76          3
    77         98
    78         21
    79        172
    80         42
    81        214
    82         67
    83         23
    84          7
    85         15
    90          3
    91         40
    92          5
    93         29
    94         17
    95        200
    96        999
    97        108
    98         10
    99         16
   100        123
   101          9
   103          3
   105          9
   106          4
   107         30
   108         12
   109        155
   110         90
   111         22
   112         31
   113          4
   121          6
   122         11
   123         34
   124         51
   125         55
   126          8
   127         32
   128        880
   129         63
   130          9
   135          8
   137          3
   139          4
   140          5
   149          3
   150          4
   151          4
   153          5
   163          4
   168          3
   181          4
   196          5