##TITLE=Library Entry 86060
##JCAMP-DX=Revision 4.10 
##DATA TYPE=MASS SPECTRUM
##SAMPLE DESCRIPTION=NIST Mass Spectrometry Data Center, 1998.
##NAMES=HP
##CAS NAME=Coumaphos
##MOLFORM=C14H16ClO5PS
##CAS REGISTRY NO=56-72-4
##MP= -300
##BP= -300
##MW= 362
##$RETENTION INDEX=2669
##$CONDENSED SPECTRUM=NO
##NPOINTS= 264
##XYDATA=(XY..XY) 1 
    15          3
    26         11
    27         86
    29        270
    30          7
    31          4
    35          2
    36          1
    37          2
    38          7
    39         36
    40          2
    41          6
    42          3
    43         24
    44          3
    45         46
    46          2
    47         32
    48          5
    49          5
    50         29
    51         84
    52         15
    53         16
    54          2
    55          7
    57          1
    58          2
    59          7
    60          9
    61         15
    62         28
    63        149
    64         36
    65        246
    66          8
    67          8
    68          2
    69         61
    70          3
    71          3
    72          2
    73         31
    74         31
    75         96
    76         38
    77         66
    78         10
    79         29
    80         22
    81        132
    82          3
    83          4
    84          4
    85         12
    86         13
    87         26
    88          8
    89        239
    90         93
    91        171
    92         17
    93         89
    94          4
    95          5
    96         17
    97        902
    98         16
    99        104
   100         12
   101         92
   102         78
   103         24
   104          4
   105         11
   106          3
   107          9
   108          6
   109        999
   110         30
   111         24
   112          8
   113         16
   114          6
   115         10
   116          4
   117         23
   118         55
   119        114
   120         13
   121         78
   122         18
   123         15
   124          8
   125        457
   126         27
   127         68
   128          9
   129         11
   130          5
   131         21
   132          5
   133         17
   134         37
   135         27
   136         18
   137        205
   138         19
   139         30
   140          5
   141          7
   142          4
   143          3
   144          1
   145         12
   146         10
   147         97
   148         12
   149         17
   150         15
   151          7
   152          9
   153        112
   154         79
   155         32
   156         25
   157         16
   158          4
   159          5
   160          1
   161          4
   162         19
   163         37
   164         10
   165         41
   166         10
   167         13
   168          9
   169         17
   170          7
   171          8
   172          2
   173          3
   174          3
   175         23
   176          3
   177          8
   178          5
   179          3
   180          4
   181        109
   182        194
   183         54
   184         66
   185         28
   186          4
   187          9
   188          1
   189          2
   190          3
   191         21
   192          9
   193         30
   194         13
   195          8
   196          6
   197         33
   198         38
   199         15
   200         15
   201          4
   202          2
   203          2
   205          4
   206          1
   207          1
   208          3
   209         36
   210        499
   211         67
   212        166
   213         48
   214          7
   215         10
   216          2
   217          1
   219          2
   220         21
   221         92
   222         18
   223         35
   224          6
   225         41
   226        661
   227         97
   228        262
   229         33
   230         16
   231          4
   237          9
   238          4
   239          7
   240          3
   241         45
   242         17
   243         16
   244          3
   245          3
   249          2
   251          3
   252          5
   253         11
   254         13
   255          4
   256         17
   257         29
   258          6
   259         13
   260          4
   261          3
   262          2
   269          1
   270          3
   271         29
   272          7
   273         15
   274          3
   275          2
   276          1
   278          1
   283          1
   285          3
   287         23
   288         24
   289         43
   290         14
   291         12
   292          2
   299          2
   301          1
   305         50
   306        112
   307         33
   308         43
   309          6
   310          2
   317          4
   319         15
   320          2
   321          5
   328          1
   333         12
   334        134
   335         24
   336         53
   337          6
   338          3
   362        781
   363        129
   364        297
   365         47
   366         18
   367          2