##TITLE=Library Entry 15163
##JCAMP-DX=Revision 4.10 
##DATA TYPE=MASS SPECTRUM
##SAMPLE DESCRIPTION=Japan AIST/NIMC Database- Spectrum MS-NW-8324
##NAMES=HP
##CAS NAME=Cystine
##MOLFORM=C6H12N2O4S2
##CAS REGISTRY NO=56-89-3
##MP= -300
##BP= -300
##MW= 240
##$RETENTION INDEX=0
##$CONDENSED SPECTRUM=NO
##NPOINTS= 194
##XYDATA=(XY..XY) 1 
    12          9
    13          1
    14          7
    15         48
    16        176
    17         79
    18         88
    19          2
    22          8
    25          2
    26         21
    27         67
    28         94
    29         32
    30         49
    31          2
    32         55
    33        232
    34        613
    35         18
    36         31
    37          3
    38         10
    39         29
    40         29
    41         79
    42        220
    43        127
    44        999
    45         75
    46         25
    47         21
    48          5
    49          1
    50          3
    51          7
    52          9
    53         13
    54         37
    55         33
    56         31
    57         28
    58         49
    59        100
    60         51
    61         20
    62          8
    63          3
    64         63
    65          7
    66         12
    67          9
    68         38
    69         51
    70         18
    71         17
    72         12
    73         14
    74         51
    75         43
    76         59
    77          6
    78          7
    79          3
    80          6
    81          4
    82          6
    83          9
    84          9
    85         18
    86         40
    87         15
    88         14
    89          3
    90          3
    91          2
    92          4
    93          9
    94          6
    95          7
    96          9
    97          9
    98          9
    99         21
   100         23
   101         19
   102         14
   103         11
   104          4
   105          3
   106          4
   107          3
   108          4
   109          6
   110          7
   111         10
   112         18
   113          9
   114          9
   115          4
   116          3
   117          3
   118          4
   119          2
   120          2
   121          4
   122          3
   123          4
   124          7
   125          8
   126         13
   127         11
   128          9
   129          7
   130         11
   131          6
   132          7
   133          3
   134          2
   135          2
   136          3
   137          3
   138          6
   139          5
   140          8
   141          4
   142          7
   143          3
   144          3
   145          4
   146          2
   147          3
   148          2
   149          2
   150          2
   151          4
   152          3
   153          4
   154          3
   155          4
   156          3
   157          4
   158          2
   159          2
   160          4
   161          1
   162          2
   163          2
   164          2
   165          2
   166          2
   167          2
   168          3
   169          3
   170          2
   171          2
   172          2
   173          1
   174          1
   175          1
   176          1
   177          2
   178          1
   179          2
   180          2
   181          3
   182          2
   183          3
   184          1
   185          2
   186          1
   187          1
   188          1
   189          1
   190          1
   191          1
   192          5
   193          1
   194          2
   195          2
   196          2
   197          1
   198          1
   199          1
   200          1
   207          1
   208          1
   209          1
   210          1
   211          1
   212          1
   213          1
   224          1
   240          1