##TITLE=Library Entry 15238
##JCAMP-DX=Revision 4.10 
##DATA TYPE=MASS SPECTRUM
##SAMPLE DESCRIPTION=LAC, NIDDK, NIH, Bethesda, MD 20892
##NAMES=HP
##CAS NAME=dl-Allo-cystathionine
##MOLFORM=C7H14N2O4S
##CAS REGISTRY NO=56-88-2
##MP= -300
##BP= -300
##MW= 222
##$RETENTION INDEX=0
##$CONDENSED SPECTRUM=NO
##NPOINTS= 75
##XYDATA=(XY..XY) 1 
    42        907
    43        373
    44        999
    45        822
    46        312
    47        273
    48         29
    49         26
    50         28
    51         56
    52         42
    53         36
    54        137
    55        147
    56        634
    57        161
    58        112
    59        134
    60         68
    61         98
    62          8
    63         27
    64          8
    65         40
    67         20
    68         65
    69         42
    70         64
    71         39
    72         24
    73         49
    74        155
    75         72
    76         44
    77         36
    78         37
    79         20
    80         24
    81          7
    82         27
    83         33
    84         25
    85         44
    86         75
    87         25
    88         71
    89         58
    90        152
    91        105
    92         11
    93         21
    94          7
    96          8
    97         10
    99         13
   100         22
   101         32
   102         32
   104         19
   105          7
   106         16
   107          8
   114         41
   115          9
   116         24
   117        106
   118          8
   128          7
   131         18
   132         18
   133         11
   148          8
   149          7
   177         14
   222         12