##TITLE=Library Entry 53474
##JCAMP-DX=Revision 4.10 
##DATA TYPE=MASS SPECTRUM
##SAMPLE DESCRIPTION=Japan AIST/NIMC Database- Spectrum MS-NW-2549
##NAMES=HP
##CAS NAME=L-Glutamine
##MOLFORM=C5H10N2O3
##CAS REGISTRY NO=56-85-9
##MP= -300
##BP= -300
##MW= 146
##$RETENTION INDEX=0
##$CONDENSED SPECTRUM=NO
##NPOINTS= 59
##XYDATA=(XY..XY) 1 
    14          3
    15          9
    16         46
    17         66
    18         89
    19          1
    25          2
    26         19
    27         46
    28        260
    29         33
    30         33
    31          2
    32          3
    37          3
    38          6
    39         28
    40          9
    41        264
    42         30
    43         25
    44         41
    45         25
    46          6
    51          2
    52          8
    53          4
    54         28
    55         34
    56        186
    57         18
    58          2
    59         44
    60          3
    66         13
    67          2
    68          4
    69          3
    70          2
    71          3
    72         17
    73         29
    74         15
    75          3
    81          2
    82          8
    83         96
    84        999
    85         49
    86          4
    87          8
    88          9
   100         21
   101        103
   102          6
   103          1
   128          3
   129         40
   130          3