##TITLE=Library Entry 57783
##JCAMP-DX=Revision 4.10 
##DATA TYPE=MASS SPECTRUM
##SAMPLE DESCRIPTION=Japan AIST/NIMC Database- Spectrum MS-IW- 985
##NAMES=HP
##CAS NAME=Aspartic acid
##MOLFORM=C4H7NO4
##CAS REGISTRY NO=56-84-8
##MP= -300
##BP= -300
##MW= 133
##$RETENTION INDEX=0
##$CONDENSED SPECTRUM=NO
##NPOINTS= 55
##XYDATA=(XY..XY) 1 
    13          1
    14          6
    15         39
    16          3
    17         22
    18         91
    19          1
    25          1
    26          7
    27         33
    28        291
    29         20
    30         61
    31          3
    32          1
    35          2
    36          3
    38          2
    39          3
    40         12
    41         34
    42        133
    43        465
    44         58
    45         53
    46        154
    47          3
    53          4
    54          2
    55         10
    56          5
    57          1
    59          1
    60         33
    61          2
    68          5
    69          9
    70        580
    71         28
    72          4
    73          5
    74        112
    75          3
    86          6
    87         63
    88        999
    89         43
    90          5
    98          2
    99          3
   115         19
   116          4
   132          3
   133         10
   134          5