##TITLE=Library Entry 8886
##JCAMP-DX=Revision 4.10 
##DATA TYPE=MASS SPECTRUM
##SAMPLE DESCRIPTION=Exported from NIST MS Search
##NAMES=HP
##CAS NAME=Pentane, 2,3,3-trimethyl-
##MOLFORM=C8H18
##CAS REGISTRY NO=560-21-4
##MP= -300
##BP= -300
##MW= 114
##$RETENTION INDEX=760
##$CONDENSED SPECTRUM=NO
##NPOINTS= 63
##XYDATA=(XY..XY) 1 
     1          1
     2          2
    12          1
    13          1
    14          2
    15         32
    16          1
    26          8
    27        182
    28         20
    29        160
    30          4
    37          2
    38          3
    39        105
    40         15
    41        286
    42         54
    43        999
    44         34
    45          1
    46          1
    50          2
    51          6
    52          3
    53         27
    54          6
    55        157
    56         15
    57        358
    58         16
    59          1
    62          1
    63          1
    64          1
    65          3
    66          1
    67          7
    68          1
    69         35
    70        355
    71        453
    72         24
    73          1
    77          1
    78          1
    79          1
    80          1
    81          1
    82          1
    83          6
    84         35
    85        250
    86         16
    87          1
    91          1
    97          1
    98          2
    99         35
   100          3
   101          1
   113          1
   114          1