##TITLE=Library Entry 16952
##JCAMP-DX=Revision 4.10 
##DATA TYPE=MASS SPECTRUM
##SAMPLE DESCRIPTION=Japan AIST/NIMC Database- Spectrum MS-NW-7011
##NAMES=HP
##CAS NAME=Propanedioic acid, dihydroxy-
##MOLFORM=C3H4O6
##CAS REGISTRY NO=560-27-0
##MP= -300
##BP= -300
##MW= 136
##$RETENTION INDEX=0
##$CONDENSED SPECTRUM=NO
##NPOINTS= 46
##XYDATA=(XY..XY) 1 
    12         12
    13          4
    14          1
    15          1
    16         20
    17          9
    18         34
    19          1
    24          3
    28        170
    29        328
    30         81
    31         11
    32          2
    40         12
    41          7
    42          4
    43          6
    44        437
    45        999
    46        515
    47         10
    48          2
    55          1
    56         48
    57          1
    58         12
    59          2
    60          2
    62          1
    68          2
    69          2
    70          2
    71          1
    72          1
    74         41
    75          2
    76          9
    77          1
    80          1
    82          1
    87          1
    88          1
   104          1
   105          1
   118          4