##TITLE=Library Entry 20991
##JCAMP-DX=Revision 4.10 
##DATA TYPE=MASS SPECTRUM
##SAMPLE DESCRIPTION=LAC, NIDDK, NIH, Bethesda, MD 20892
##NAMES=HP
##CAS NAME=Card-20(22)-enolide, 3,5,14,19-tetrahydroxy-, (3.beta.,5.beta.)-
##MOLFORM=C23H34O6
##CAS REGISTRY NO=560-54-3
##MP= -300
##BP= -300
##MW= 406
##$RETENTION INDEX=0
##$CONDENSED SPECTRUM=NO
##NPOINTS= 154
##XYDATA=(XY..XY) 1 
    41        655
    43        832
    44        123
    45         68
    47         20
    51         21
    52         25
    53        354
    54         85
    55        999
    57        441
    58         45
    59         16
    65        188
    66        108
    67        635
    68         25
    69        439
    70         62
    71        166
    72         18
    77        451
    78        109
    79        822
    81        873
    83        415
    84        119
    85        157
    86         31
    91        929
    92         89
    93        630
    94        167
    95        438
    96         57
    97        246
    98        152
    99         56
   103         76
   104         89
   105        614
   106        157
   107        455
   108        142
   109        286
   110         44
   111        706
   112         49
   113         16
   115        111
   116         41
   117        373
   118         89
   119        423
   120        148
   121        335
   122        171
   123        179
   124        163
   125        100
   126         51
   127         34
   128         79
   129        187
   130         94
   131        427
   132        129
   133        391
   134        150
   135        205
   136         95
   137        104
   138         45
   139         26
   140         16
   141         87
   142         63
   143        207
   144        139
   145        359
   146        341
   147        256
   148         88
   149        118
   150         40
   151         55
   152         19
   153         52
   154         29
   155         65
   156         39
   157        131
   158        162
   159        214
   160        360
   161        246
   162         73
   163        232
   164        166
   165         69
   166          7
   167         24
   168          7
   169         55
   170         36
   171         88
   172         49
   173         94
   174         18
   175         73
   176        113
   177         63
   178         96
   179        118
   180         40
   181         82
   182         32
   183         46
   184         19
   185         72
   186         20
   187        187
   188         44
   189         70
   190         18
   191         23
   193          8
   195         67
   197         44
   198          7
   199        156
   200         33
   201         28
   202          6
   203         16
   205         33
   206          7
   207          6
   209         19
   211         31
   212         23
   213         15
   215         41
   217        164
   218         29
   227         15
   229         15
   230          8
   235         17
   322          6
   334         36
   340        119
   341         34
   358         40