##TITLE=Library Entry 91622
##JCAMP-DX=Revision 4.10 
##DATA TYPE=MASS SPECTRUM
##SAMPLE DESCRIPTION=NIST Mass Spectrometry Data Center
##NAMES=HP
##CAS NAME=2-Pentenedioic acid, 2-methoxy-, dimethyl ester
##MOLFORM=C8H12O5
##CAS REGISTRY NO=56009-33-7
##MP= -300
##BP= -300
##MW= 188
##$RETENTION INDEX=1291
##$CONDENSED SPECTRUM=NO
##NPOINTS= 115
##XYDATA=(XY..XY) 1 
    14         15
    15        348
    16          5
    25          1
    26         41
    27        163
    28        132
    29        162
    30         23
    31         59
    32          5
    33         18
    34          1
    35          2
    37         10
    38         31
    39        206
    40         55
    41        232
    42        276
    43        158
    44         17
    45        737
    46         15
    47          4
    49          2
    50         14
    51         20
    52         15
    53        133
    54         66
    55        724
    56         84
    57         37
    58         11
    59        600
    60         13
    61         11
    62          1
    63          1
    65          3
    66          7
    67         16
    68         61
    69        201
    70         32
    71         83
    72          8
    73         27
    74         39
    75         11
    77          1
    79          4
    80          4
    81         70
    82         47
    83         90
    84         16
    85         59
    86          6
    87        152
    88          8
    89          1
    93          1
    94          3
    95         27
    96         87
    97        149
    98         59
    99         46
   100         66
   101         89
   102         11
   103          2
   108          2
   109         16
   110          3
   111         72
   112        177
   113        183
   114          7
   115        999
   116         60
   117          8
   123         14
   124          3
   125        261
   126         29
   127         28
   128        236
   129        351
   130         26
   131          4
   133          3
   138          1
   139          5
   140        116
   141        169
   142         17
   143          8
   144          2
   145          1
   146          1
   155         17
   156         13
   157         34
   158         42
   159          3
   160          1
   169          1
   170          1
   173         11
   174          1
   188          6
   189          1