##TITLE=Library Entry 2431
##JCAMP-DX=Revision 4.10 
##DATA TYPE=MASS SPECTRUM
##SAMPLE DESCRIPTION=Chemical Concepts
##NAMES=HP
##CAS NAME=Tetradecanoic acid, 2-hydroxy-, methyl ester
##MOLFORM=C15H30O3
##CAS REGISTRY NO=56009-40-6
##MP= -300
##BP= -300
##MW= 258
##$RETENTION INDEX=1833
##$CONDENSED SPECTRUM=NO
##NPOINTS= 140
##XYDATA=(XY..XY) 1 
    30          0
    31        111
    33        180
    34          2
    36          2
    37          0
    38          3
    39        190
    40         38
    41        999
    42        159
    43        928
    44        146
    45         67
    50          4
    51          8
    52          1
    53         60
    54         80
    55        812
    56        112
    57        585
    58         53
    59         77
    60         11
    61         24
    62          2
    63          1
    64          1
    65         14
    66         15
    67        164
    68         76
    69        727
    70         78
    71        155
    72         13
    73         10
    74         19
    75          6
    76         19
    77          7
    78          0
    79         20
    80          6
    81        124
    82         73
    83        449
    84         39
    85         81
    86          6
    87         51
    88          5
    89         21
    90        242
    91         11
    92          2
    93          4
    94          4
    95         73
    96         38
    97        352
    98         40
    99         28
   100          8
   101         12
   103         72
   104          6
   105          2
   107          3
   108          2
   109         34
   110         12
   111        191
   112         25
   113         53
   114         18
   115          4
   121          1
   122          0
   123          9
   124         10
   125         99
   126         12
   127         68
   128          9
   129          5
   132          5
   137          8
   138         18
   139         20
   140          1
   141         16
   142          1
   143          6
   145         28
   146          4
   148          1
   151          1
   152         11
   153          4
   154          9
   155          4
   156         12
   157          4
   158          1
   159         10
   160          2
   163          0
   164          1
   165          3
   166          1
   167          1
   169          4
   170          5
   171          1
   172          0
   177          0
   179          1
   180          8
   181          5
   182          2
   183          2
   184          1
   185          2
   186          0
   197          6
   198          5
   199        217
   200         37
   201          5
   207          0
   208          1
   213         15
   214          4
   226          7
   227          1
   230          0
   240          1
   258         13