##TITLE=Library Entry 91312
##JCAMP-DX=Revision 4.10 
##DATA TYPE=MASS SPECTRUM
##SAMPLE DESCRIPTION=NIST Mass Spectrometry Data Center
##NAMES=HP
##CAS NAME=2-Pentenoic acid, 2-methoxy-4-methyl-, methyl ester
##MOLFORM=C8H14O3
##CAS REGISTRY NO=56009-36-0
##MP= -300
##BP= -300
##MW= 158
##$RETENTION INDEX=0
##$CONDENSED SPECTRUM=NO
##NPOINTS= 98
##XYDATA=(XY..XY) 1 
    14          5
    15         96
    16          2
    25          1
    26         27
    27        189
    28         57
    29        171
    30         12
    31         34
    32          1
    33         10
    37          4
    38         15
    39        203
    40         46
    41        431
    42        156
    43        841
    44         30
    45        556
    46         13
    47          2
    49          1
    50         13
    51         22
    52         10
    53        100
    54         49
    55        238
    56         92
    57        276
    58         19
    59        237
    60          9
    61         22
    62          2
    63          3
    64          1
    65         16
    66          7
    67         57
    68         28
    69         99
    70         14
    71         34
    72         25
    73         91
    74         12
    75          2
    77          8
    79         76
    80         64
    81        107
    82         21
    83        183
    84         37
    85        225
    86         16
    87         55
    88          5
    93          9
    94          1
    95         22
    96         12
    97         43
    98         11
    99         83
   100         73
   101         27
   102          3
   103          5
   104          3
   107         13
   108         68
   109         24
   110         25
   111         43
   112          4
   113         21
   115        999
   116         63
   117         34
   118          2
   123          1
   125        164
   126         16
   127         12
   128          8
   129          3
   130          1
   139         10
   140          2
   141         10
   142          6
   143          8
   144          1
   157          2