##TITLE=Library Entry 42426
##JCAMP-DX=Revision 4.10 
##DATA TYPE=MASS SPECTRUM
##SAMPLE DESCRIPTION=Exported from NIST MS Search
##NAMES=HP
##CAS NAME=4-Decanethiol, 8-methoxy-
##MOLFORM=C11H24OS
##CAS REGISTRY NO=56009-25-7
##MP= -300
##BP= -300
##MW= 204
##$RETENTION INDEX=0
##$CONDENSED SPECTRUM=NO
##NPOINTS= 53
##XYDATA=(XY..XY) 1 
    41        248
    42         25
    43         53
    45        146
    47         46
    53         25
    54         17
    55        189
    56         38
    57         48
    58         20
    59         25
    67        120
    68         46
    69         84
    70         17
    71        266
    72         35
    73        999
    74         76
    75         74
    81         46
    82         94
    83        123
    84         17
    85         17
    87         35
    88        117
    95         38
    96         46
    97         56
    99         17
   101         46
   109        174
   110         20
   115         97
   116         20
   129         74
   130         10
   138         17
   139         53
   141         17
   143        305
   144         38
   145         25
   170         20
   171         15
   172        164
   173         33
   174         15
   175         17
   204         48
   205          2