##TITLE=Library Entry 29003
##JCAMP-DX=Revision 4.10 
##DATA TYPE=MASS SPECTRUM
##SAMPLE DESCRIPTION=Exported from NIST MS Search
##NAMES=HP
##CAS NAME=3-Decanamine, 3-methoxy-
##MOLFORM=C11H25NO
##CAS REGISTRY NO=56009-24-6
##MP= -300
##BP= -300
##MW= 187
##$RETENTION INDEX=0
##$CONDENSED SPECTRUM=NO
##NPOINTS= 23
##XYDATA=(XY..XY) 1 
    41        132
    42         25
    43         45
    44         23
    45         53
    55         74
    56        142
    57         45
    58        999
    59         43
    69         25
    70         23
    71         51
    73         91
    83         23
    84         25
   109         63
   126        153
   127         15
   156         12
   158        122
   159         17
   169          2