##TITLE=Library Entry 77615
##JCAMP-DX=Revision 4.10 
##DATA TYPE=MASS SPECTRUM
##SAMPLE DESCRIPTION=NIST Mass Spectrometry Data Center
##NAMES=HP
##CAS NAME=N-phenethylnonanamide
##MOLFORM=C17H27NO
##CAS REGISTRY NO=560089-64-7
##MP= -300
##BP= -300
##MW= 261
##$RETENTION INDEX=2204
##$CONDENSED SPECTRUM=NO
##NPOINTS= 77
##XYDATA=(XY..XY) 1 
    27         12
    29         26
    30         99
    39         17
    41         49
    42         22
    43        119
    55        117
    57        190
    59         19
    63         11
    65         41
    66         20
    67         52
    70         31
    71        159
    72         53
    73         34
    77         68
    78         26
    79         79
    80         25
    81         87
    82         40
    83         63
    90         10
    91        150
    92         40
    94         62
    95         75
    97         37
    99         19
   100         13
   102         15
   103         45
   104        999
   105        247
   106         36
   109         22
   111         22
   115         26
   118         24
   119         15
   122         30
   123         65
   125         17
   134         11
   135         29
   141        357
   142         45
   148         20
   153         21
   155         13
   158          8
   161          9
   163        157
   164         21
   169         12
   170         79
   171         20
   172          6
   176         22
   177         21
   180          8
   181          9
   188          6
   191         13
   192          7
   194          8
   198          7
   200         59
   201         12
   228          6
   232         11
   260          9
   261        110
   262         29