##TITLE=Library Entry 70885
##JCAMP-DX=Revision 4.10 
##DATA TYPE=MASS SPECTRUM
##SAMPLE DESCRIPTION=A.A.Kutin, Moscow, Russia
##NAMES=HP
##CAS NAME=Propanenitrile, 2,2-diethoxy-
##MOLFORM=C7H13NO2
##CAS REGISTRY NO=56011-12-2
##MP= -300
##BP= -300
##MW= 143
##$RETENTION INDEX=0
##$CONDENSED SPECTRUM=NO
##NPOINTS= 38
##XYDATA=(XY..XY) 1 
    38          1
    39          4
    40          5
    41         31
    43        870
    44         27
    45        108
    46          4
    47          9
    51          5
    52         18
    53          9
    54         28
    56        542
    57         22
    58          2
    59         25
    60          9
    61         40
    68          2
    70        643
    71         25
    72         28
    73         11
    84          2
    86          3
    87          3
    89         15
    98        999
    99         65
   100         41
   101          2
   116          5
   117         36
   118          2
   128        217
   129         15
   130          1