##TITLE=Library Entry 19393
##JCAMP-DX=Revision 4.10 
##DATA TYPE=MASS SPECTRUM
##SAMPLE DESCRIPTION=Exported from NIST MS Search
##NAMES=HP
##CAS NAME=Hexanoic acid, 6-cyano-
##MOLFORM=C7H11NO2
##CAS REGISTRY NO=5602-19-7
##MP= -300
##BP= -300
##MW= 141
##$RETENTION INDEX=0
##$CONDENSED SPECTRUM=NO
##NPOINTS= 90
##XYDATA=(XY..XY) 1 
    13          0
    14          3
    15         11
    16          0
    17          5
    18         23
    19          1
    26         20
    27        150
    28        101
    29        117
    30          7
    31         22
    32          7
    36          1
    37          6
    38         14
    39        142
    40         31
    41        518
    42        159
    43        137
    44         10
    45        141
    46          4
    47          3
    49          0
    50          7
    51         15
    52         20
    53         46
    54        344
    55        999
    56         58
    57         21
    58          2
    59        100
    60        221
    61          6
    62          2
    63          3
    64          7
    65          9
    66         15
    67        125
    68         95
    69         84
    70         12
    71          6
    72          1
    73         58
    74          8
    75          1
    76          0
    77          3
    78          2
    79          6
    80         33
    81         21
    82        448
    83        251
    84         14
    85          3
    86          1
    87         11
    88          0
    91          0
    93          2
    94         51
    95        211
    96         71
    97          8
    98          4
    99          2
   101         61
   102          2
   105          1
   108         26
   109          2
   112          3
   113          3
   114          0
   121          1
   122         15
   123         81
   124         25
   125          2
   140          0
   141          0
   142          0