##TITLE=Library Entry 37342
##JCAMP-DX=Revision 4.10 
##DATA TYPE=MASS SPECTRUM
##SAMPLE DESCRIPTION=Chemical Concepts
##NAMES=HP
##CAS NAME=2H-Oxecin-2-one, 3,4,7,8,9,10-hexahydro-4-hydroxy-10-methyl-, [4S
-(4R*,5E,10S*)]-
##MOLFORM=C10H16O3
##CAS REGISTRY NO=56020-71-4
##MP= -300
##BP= -300
##MW= 184
##$RETENTION INDEX=0
##$CONDENSED SPECTRUM=NO
##NPOINTS= 125
##XYDATA=(XY..XY) 1 
    26         15
    27        186
    28         40
    29        249
    30         11
    31         53
    38         15
    39        298
    40         61
    41        558
    42        229
    43        700
    44        117
    45        108
    46          7
    47          9
    48         19
    49          6
    50         15
    51         46
    52         24
    53        130
    54        112
    55        777
    56        142
    57        458
    58         63
    59         39
    60         89
    61         23
    63         12
    64          7
    65         48
    66         40
    67        351
    68        158
    69        496
    70        999
    71        194
    72         31
    73        200
    74         20
    75          8
    76          8
    77         59
    78         20
    79        288
    80        179
    81        478
    82        199
    83        404
    84         72
    85         84
    86        125
    87        133
    88         23
    89         23
    91        114
    92         23
    93         66
    94         53
    95        371
    96        133
    97        138
    98         89
    99         90
   100         23
   101         19
   102         19
   103         15
   104         13
   105         48
   106        103
   107        314
   108         38
   109         71
   110         56
   111        191
   112        402
   113        112
   114         57
   115         49
   116         21
   117         14
   119         12
   120         18
   121         25
   122         27
   123         41
   124        305
   125        261
   126         35
   127         34
   128         82
   129         48
   130          9
   131          8
   133         15
   134          7
   135          7
   136          6
   137         28
   138         52
   139         17
   140         24
   141         81
   142        221
   143         23
   148         34
   149         33
   150         16
   151         18
   152          9
   153          7
   154          6
   155         15
   156         30
   166        104
   167         25
   168          8
   169         10
   183          0
   184         34
   185          3
   186          1