##TITLE=Library Entry 49140
##JCAMP-DX=Revision 4.10 
##DATA TYPE=MASS SPECTRUM
##SAMPLE DESCRIPTION=R. A. LYND
##NAMES=HP
##CAS NAME=Cyclohexene, 3-(3-methyl-1-butenyl)-, (E)-
##MOLFORM=C11H18
##CAS REGISTRY NO=56030-49-0
##MP= -300
##BP= -300
##MW= 150
##$RETENTION INDEX=0
##$CONDENSED SPECTRUM=NO
##NPOINTS= 107
##XYDATA=(XY..XY) 1 
    15         55
    16          1
    17          2
    18          6
    26         33
    27        426
    28         63
    29        278
    30          6
    37          6
    38         23
    39        388
    40         54
    41        547
    42         36
    43         98
    44          3
    45          1
    49          1
    50         29
    51        161
    52         89
    53        236
    54        112
    55        245
    56         32
    57         67
    58          6
    59          2
    61          5
    62         18
    63         57
    64         17
    65        146
    66         88
    67        370
    68         87
    69         62
    70         13
    71         17
    72          2
    73          4
    74          9
    75         15
    76          9
    77        315
    78        127
    79        999
    80        218
    81        384
    82         94
    83         40
    84          8
    85          9
    86          2
    87          3
    88          1
    89         12
    90          8
    91        284
    92         70
    93        328
    94        340
    95        112
    96         65
    97         25
    98          6
    99          5
   101          1
   102          4
   103         17
   104          8
   105         64
   106         20
   107        660
   108        113
   109         43
   110          7
   111          6
   112          1
   113          2
   115         10
   116          3
   117          8
   118          2
   119         12
   120          7
   121        278
   122         48
   123         14
   124          4
   125          2
   126          1
   127          2
   128          1
   133          3
   134          2
   135         59
   136         38
   137         25
   138          9
   139          2
   148          3
   149          6
   150        262
   151         33
   152         17