##TITLE=Library Entry 21950
##JCAMP-DX=Revision 4.10 
##DATA TYPE=MASS SPECTRUM
##SAMPLE DESCRIPTION=Chemical Concepts
##NAMES=HP
##CAS NAME=Propane-1,3-diamine, 2-t-butyl-
##MOLFORM=C7H18N2
##CAS REGISTRY NO=56041-82-8
##MP= -300
##BP= -300
##MW= 130
##$RETENTION INDEX=0
##$CONDENSED SPECTRUM=NO
##NPOINTS= 64
##XYDATA=(XY..XY) 1 
    26          1
    27         26
    28         76
    29         70
    30        525
    31         11
    39         37
    40          7
    41        228
    42         33
    43         44
    44         59
    45         22
    47          1
    50          1
    51          1
    52          1
    53         14
    54          8
    55         51
    56        999
    57        142
    58         14
    59         23
    60          1
    65          3
    66          1
    67         22
    68         16
    69        514
    70         42
    71         17
    72          1
    73          4
    74          1
    77          2
    79          3
    80          1
    81         15
    82          5
    83         12
    84        156
    85         15
    86         21
    87          1
    94          1
    95          1
    96          1
    97          3
    98         10
    99          1
   100         15
   101         24
   102          2
   110          0
   111          3
   112          1
   113         39
   114          6
   115          1
   118          1
   126          0
   129          2
   131          3