##TITLE=Library Entry 48969
##JCAMP-DX=Revision 4.10 
##DATA TYPE=MASS SPECTRUM
##SAMPLE DESCRIPTION=Chemical Concepts
##NAMES=HP
##CAS NAME=2,7-Methanonaphthalene-3-methanol, 1,2,3,4,4a,7,8,8a-octahydro-
##MOLFORM=C12H18O
##CAS REGISTRY NO=56045-33-1
##MP= -300
##BP= -300
##MW= 178
##$RETENTION INDEX=0
##$CONDENSED SPECTRUM=NO
##NPOINTS= 94
##XYDATA=(XY..XY) 1 
    27         85
    28         26
    29         58
    31         42
    39        152
    40         23
    41        284
    42         16
    43         32
    44          5
    45          6
    50         11
    51         58
    52         27
    53         91
    54         35
    55         96
    56         17
    57         41
    58          5
    63         21
    64          9
    65        114
    66         71
    67        462
    68         60
    69         76
    70         32
    71         12
    77        360
    78        219
    79        999
    80        384
    81        269
    82        329
    83         45
    84         22
    85         10
    89         11
    91        930
    92        388
    93        378
    94        125
    95         90
    96         41
    97         23
    98          9
   102          6
   103         45
   104        238
   105        384
   106        155
   107        117
   108         67
   109         85
   110         29
   111          7
   115         46
   116         23
   117        253
   118        127
   119        357
   120         55
   121        143
   122         68
   123         22
   124          9
   127          6
   128         17
   129         23
   130         15
   131        202
   132        101
   133         30
   134         72
   135         88
   136         26
   137         14
   145        119
   146         18
   147        246
   148         32
   149        211
   150         34
   152         24
   159         12
   160        443
   161         63
   162          9
   163         32
   164          5
   177          9
   178        236
   179         30