##TITLE=Library Entry 38181
##JCAMP-DX=Revision 4.10 
##DATA TYPE=MASS SPECTRUM
##SAMPLE DESCRIPTION=CARL DJERASSI DEPT OF CHEM STANFORD UNIV STANFORD CALIF
 94305
##NAMES=HP
##CAS NAME=2-Hexene, 1-methoxy-, (E)-
##MOLFORM=C7H14O
##CAS REGISTRY NO=56052-83-6
##MP= -300
##BP= -300
##MW= 114
##$RETENTION INDEX=0
##$CONDENSED SPECTRUM=NO
##NPOINTS= 28
##XYDATA=(XY..XY) 1 
    26         10
    27        100
    28         40
    29         70
    31         10
    39        100
    40         10
    41        380
    42         20
    43         20
    45        200
    50         10
    51         10
    52         10
    53         60
    54         40
    55        170
    56         10
    58        130
    59         10
    67         70
    71        999
    72         50
    81         10
    82        100
    83         10
    85        130
   114         20