##TITLE=Library Entry 36493
##JCAMP-DX=Revision 4.10 
##DATA TYPE=MASS SPECTRUM
##SAMPLE DESCRIPTION=CARL DJERASSI DEPT OF CHEM STANFORD UNIV STANFORD CALIF
 94305
##NAMES=HP
##CAS NAME=Curan-17-oic acid, 2,16-didehydro-20-hydroxy-19-oxo-, methyl este
r
##MOLFORM=C20H22N2O4
##CAS REGISTRY NO=56053-15-7
##MP= -300
##BP= -300
##MW= 354
##$RETENTION INDEX=0
##$CONDENSED SPECTRUM=NO
##NPOINTS= 219
##XYDATA=(XY..XY) 1 
    60        289
    61        101
    62         14
    63         43
    64         14
    65         58
    66         36
    67        304
    68        253
    69        999
    70        326
    71        521
    72         50
    73        275
    74         43
    75         36
    76         36
    77        115
    78         36
    79         94
    80         72
    81        442
    82        246
    83        449
    84        188
    85        275
    86        166
    87         79
    88         29
    89         50
    90         29
    91         79
    92         29
    93         94
    94         58
    95        246
    96        173
    97        340
    98        152
    99        108
   100         29
   101         87
   102         43
   103         43
   104         43
   105         50
   106         36
   107         58
   108         29
   109        144
   110        159
   111        268
   112         87
   113         79
   114         58
   115        130
   116         58
   117         43
   118         14
   119         58
   120         21
   121         58
   122         36
   123         94
   124         50
   125        311
   126         79
   127        115
   128        123
   129        637
   130        115
   131         29
   132         14
   133         29
   134         21
   135         50
   136         43
   137         79
   138         65
   139        173
   140        210
   141        173
   142         43
   143         65
   144         58
   145         14
   147         29
   149        101
   150         21
   151         58
   152        101
   153        108
   154        210
   155         58
   156        115
   157         43
   158         14
   160         14
   161         36
   163         29
   164         58
   165        123
   166        289
   167        724
   168        376
   169        137
   170         65
   171         29
   172         14
   175         14
   176         14
   177         36
   178         65
   179         94
   180        420
   181        275
   182        347
   183        101
   184         79
   185         36
   186         14
   188         14
   189         14
   190         14
   191         50
   192         72
   193        159
   194        471
   195        159
   196        123
   197         58
   198         21
   199         14
   200         29
   201         29
   202         29
   203         14
   204         21
   205         36
   206         72
   207        195
   208        239
   209        550
   210        123
   211         29
   212         21
   213         50
   214        130
   215         58
   216         43
   217         14
   218         14
   219         29
   220         58
   221         65
   222         58
   223         94
   224        123
   225        166
   226        659
   227        224
   228        144
   229         29
   233         14
   234         14
   235         65
   236        166
   237         43
   238        137
   239        137
   240        159
   241        108
   242         29
   248         14
   249         21
   250         29
   251         87
   252         58
   253         50
   254         43
   255        108
   256         50
   257         21
   264         14
   265         14
   266         14
   267         72
   268        275
   269         79
   270         14
   278         14
   279        130
   280         36
   281         36
   282         21
   283        702
   284        144
   285         21
   293         14
   294         14
   295         21
   296        108
   297         29
   298         21
   299         79
   300         21
   311         94
   312         21
   321         14
   322         14
   323         58
   324         21
   336         14
   337         14
   352         14
   353         21
   354        231
   355         58
   356         14