##TITLE=Library Entry 9008
##JCAMP-DX=Revision 4.10 
##DATA TYPE=MASS SPECTRUM
##SAMPLE DESCRIPTION=CARL DJERASSI DEPT OF CHEM STANFORD UNIV STANFORD CALIF
 94305
##NAMES=HP
##CAS NAME=2-Pentene, 5-(pentyloxy)-, (E)-
##MOLFORM=C10H20O
##CAS REGISTRY NO=56052-85-8
##MP= -300
##BP= -300
##MW= 156
##$RETENTION INDEX=0
##$CONDENSED SPECTRUM=NO
##NPOINTS= 23
##XYDATA=(XY..XY) 1 
    39         90
    40         10
    41        260
    42         80
    43        999
    44         40
    45         10
    53         20
    54         10
    55        140
    56         10
    57         10
    67         30
    68         30
    69        190
    70         30
    71        840
    72         30
    99        380
   100         10
   101         20
   155          0
   156          0