##TITLE=Library Entry 11742
##JCAMP-DX=Revision 4.10 
##DATA TYPE=MASS SPECTRUM
##SAMPLE DESCRIPTION=CARL DJERASSI DEPT OF CHEM STANFORD UNIV STANFORD CALIF
 94305
##NAMES=HP
##CAS NAME=Ergost-4-en-3-one, 12-hydroxy-, (12.alpha.)-
##MOLFORM=C28H46O2
##CAS REGISTRY NO=56052-06-3
##MP= -300
##BP= -300
##MW= 414
##$RETENTION INDEX=0
##$CONDENSED SPECTRUM=NO
##NPOINTS= 143
##XYDATA=(XY..XY) 1 
    41        470
    42         60
    43        999
    44         30
    45         20
    53         90
    55        660
    56         60
    57        340
    58         20
    65         30
    66         20
    67        230
    68         20
    69        320
    70         40
    71        260
    77        100
    78         30
    79        230
    80         60
    81        450
    82         90
    83        180
    84         50
    85         70
    91        220
    92         50
    93        260
    94        250
    95        320
    96         60
    97        150
   105        230
   106         70
   108         80
   109        280
   110         40
   111         70
   117         60
   118         20
   119        200
   120         70
   121        320
   122        220
   123        310
   124        870
   125        100
   129         30
   130         10
   131         90
   132         40
   133        180
   134        110
   135        200
   136        120
   137        280
   138         80
   143         70
   144         30
   145        320
   146         90
   147        240
   148        130
   149        100
   150         20
   151         80
   157         40
   158         30
   159        100
   160         50
   161        140
   162         70
   163         90
   164         40
   171         40
   172         30
   173        110
   174         50
   175         80
   176         50
   177        470
   178         70
   185         60
   186         20
   187         60
   188         20
   189         50
   190         10
   191         10
   199         40
   200         30
   201         40
   202         10
   203         40
   211         20
   213         20
   214         10
   215         30
   216         10
   217         10
   219         20
   220         60
   221         20
   227        130
   228         30
   229         30
   231         20
   241         40
   242         30
   243         30
   245         90
   246         20
   251         60
   255         20
   267         80
   268        130
   269        840
   270        220
   271         80
   272         70
   273        280
   274         60
   287         60
   288         20
   289         40
   297        200
   298         60
   299         30
   354        640
   355         30
   368         40
   370         20
   381         60
   382         20
   394         20
   396        480
   397        160
   398         30
   399         60
   414        280
   415         90
   416         40