##TITLE=Library Entry 19956
##JCAMP-DX=Revision 4.10 
##DATA TYPE=MASS SPECTRUM
##SAMPLE DESCRIPTION=CARL DJERASSI DEPT OF CHEM STANFORD UNIV STANFORD CALIF
 94305
##NAMES=HP
##CAS NAME=2-Butene, 1-propoxy-, (E)-
##MOLFORM=C7H14O
##CAS REGISTRY NO=56052-71-2
##MP= -300
##BP= -300
##MW= 114
##$RETENTION INDEX=0
##$CONDENSED SPECTRUM=NO
##NPOINTS= 27
##XYDATA=(XY..XY) 1 
    39        190
    40         20
    41        280
    42         60
    43        450
    44         40
    45         10
    50         10
    51         20
    52         10
    53         70
    54        110
    55        999
    56         90
    57        730
    58         50
    59         10
    60         10
    69         20
    70         10
    71         90
    72        590
    73         70
    85         20
    99         50
   114         90
   115         10