##TITLE=Library Entry 62013
##JCAMP-DX=Revision 4.10 
##DATA TYPE=MASS SPECTRUM
##SAMPLE DESCRIPTION=CARL DJERASSI DEPT OF CHEM STANFORD UNIV STANFORD CALIF
 94305
##NAMES=HP
##CAS NAME=1H-Indene, octahydro-7a-methyl-1-(phenylmethylene)-
##MOLFORM=C17H22
##CAS REGISTRY NO=56053-05-5
##MP= -300
##BP= -300
##MW= 226
##$RETENTION INDEX=0
##$CONDENSED SPECTRUM=NO
##NPOINTS= 98
##XYDATA=(XY..XY) 1 
    40         30
    41        320
    42         10
    43         60
    50         20
    51        120
    52         30
    53        120
    54         10
    55        130
    56         10
    57         10
    62         10
    63         60
    64         20
    65        140
    66         10
    67        120
    68         10
    69         20
    71         10
    75         10
    76         30
    77        190
    78         60
    79        140
    80         20
    81        110
    82         10
    83         20
    89         50
    90         10
    91        999
    92        110
    93        120
    94         40
    95         90
    96         10
   102         30
   103         40
   104         20
   105         90
   106         10
   107         60
   108         20
   109         20
   115        190
   116         60
   117        110
   118         40
   119         50
   121         30
   122         40
   127         40
   128        140
   129        220
   130         50
   131        520
   132         70
   133         30
   134         30
   135        210
   136         20
   139         10
   141        120
   142         60
   143         70
   144         40
   145         10
   149         10
   151         10
   152         40
   153         40
   154         30
   155         90
   156         20
   157         10
   165         40
   166         10
   167         30
   168         20
   169        110
   170         50
   171         10
   178         10
   179         10
   181         10
   182         20
   183        170
   184        190
   185         20
   197         30
   211        370
   212         60
   223         10
   224         10
   226        340
   227         60