##TITLE=Library Entry 35310
##JCAMP-DX=Revision 4.10 
##DATA TYPE=MASS SPECTRUM
##SAMPLE DESCRIPTION=CARL DJERASSI DEPT OF CHEM STANFORD UNIV STANFORD CALIF
 94305
##NAMES=HP
##CAS NAME=Corynan-17-ol, 18,19-didehydro-10-methoxy-, acetate (ester)
##MOLFORM=C22H28N2O3
##CAS REGISTRY NO=56053-13-5
##MP= -300
##BP= -300
##MW= 368
##$RETENTION INDEX=0
##$CONDENSED SPECTRUM=NO
##NPOINTS= 239
##XYDATA=(XY..XY) 1 
    61        310
    62         40
    63        130
    64         40
    65        200
    66        130
    67        770
    68        300
    69        999
    70        380
    71        820
    72         80
    73        230
    74         50
    75         70
    76         50
    77        440
    78        130
    79        440
    80        190
    81        640
    82        290
    83        610
    84        210
    85        410
    86         50
    87         60
    88         30
    89         80
    90         60
    91        230
    92         80
    93        250
    94        120
    95        320
    96        180
    97        440
    98        180
    99        270
   100         60
   101         70
   102         80
   103        120
   104        100
   105        120
   106         80
   107        130
   108        150
   109        250
   110        130
   111        280
   112         80
   113        100
   114         40
   115        150
   116        100
   117        120
   118        100
   119         80
   120         60
   121         90
   122        110
   123        150
   124         90
   125        150
   126         90
   127        120
   128         70
   129        100
   130        120
   131         80
   132        110
   133        110
   134         40
   135         60
   136         60
   137         70
   138         50
   139        110
   140         90
   141         90
   142        100
   143        160
   144         70
   145         40
   146         30
   147         40
   148         40
   149         60
   150         30
   151         40
   152         40
   153         60
   154        160
   155        110
   156         90
   157         60
   158         80
   159         50
   160         80
   161         30
   163         20
   165         30
   166         30
   167         60
   168         60
   169         60
   170         60
   171         60
   172         60
   173        110
   174        140
   175         30
   177         20
   178         20
   179         20
   180         20
   181         30
   182         30
   183         50
   184         80
   185         70
   186        320
   187         70
   188         30
   189         20
   190         20
   191         20
   192         20
   193         20
   194         20
   195         30
   196         20
   197         30
   198         90
   199        310
   200        260
   201        110
   202         20
   203         10
   204         10
   205         20
   206         20
   207         20
   208         70
   209         30
   210         30
   211         30
   212         60
   213         70
   214         60
   215         30
   216         30
   217         30
   219         20
   220         20
   221         20
   222         20
   223         20
   224         30
   225         50
   226         20
   227         30
   228         20
   229         20
   230         10
   231         10
   232         10
   233         20
   234         20
   235         20
   236         40
   237         30
   238         40
   239         40
   240         20
   241         20
   242         10
   243         10
   245         10
   246         10
   247         30
   248         20
   249         20
   250         20
   251         40
   252         30
   253         70
   254         20
   255         30
   256         20
   257         20
   260         30
   261         20
   262         20
   263         20
   264         30
   265         40
   266         20
   267         80
   268         20
   269         10
   275         10
   277         30
   278         20
   279        220
   280         60
   281        260
   282         60
   283         10
   289         10
   291         20
   292         10
   293         40
   294         10
   295         40
   296         10
   297         30
   298         10
   303         10
   304         10
   305         30
   306         20
   307         40
   308         60
   309         40
   310         20
   323         10
   325         20
   339         30
   340         20
   353         40
   354         20
   365         20
   366         30
   367        220
   368        320
   369        100
   370         30