##TITLE=Library Entry 95495
##JCAMP-DX=Revision 4.10 
##DATA TYPE=MASS SPECTRUM
##SAMPLE DESCRIPTION=A DUFFIELD DEPT GENETICS STANFORD MED CENTER STANFORD C
A 9430
##NAMES=HP
##CAS NAME=Pentanedioic acid, 2,2-dimethyl-, dibutyl ester
##MOLFORM=C15H28O4
##CAS REGISTRY NO=56051-61-7
##MP= -300
##BP= -300
##MW= 272
##$RETENTION INDEX=0
##$CONDENSED SPECTRUM=NO
##NPOINTS= 38
##XYDATA=(XY..XY) 1 
    40          5
    41        177
    42         25
    43         86
    44          6
    45          2
    55         88
    56        106
    57        130
    59          5
    60          5
    67          2
    68          4
    69        167
    70         69
    71         11
    73         96
    83          5
    88         91
    96          7
    97        337
    98         28
    99          1
   101         18
   114         51
   115        999
   116         97
   127          5
   143        288
   144        195
   145         14
   157         32
   170         60
   171        200
   172         21
   199        758
   200        109
   201          1