##TITLE=Library Entry 7082
##JCAMP-DX=Revision 4.10 
##DATA TYPE=MASS SPECTRUM
##SAMPLE DESCRIPTION=CARL DJERASSI DEPT OF CHEM STANFORD UNIV STANFORD CALIF
 94305
##NAMES=HP
##CAS NAME=Ergostane-3,5,6,12,25-pentol, 25-acetate, (3.beta.,5.alpha.,6.bet
a.,12.beta.)-
##MOLFORM=C30H52O6
##CAS REGISTRY NO=56053-00-0
##MP= -300
##BP= -300
##MW= 508
##$RETENTION INDEX=0
##$CONDENSED SPECTRUM=NO
##NPOINTS= 94
##XYDATA=(XY..XY) 1 
    41        760
    43        999
    45        180
    53        130
    55        950
    57        170
    59        240
    67        300
    68        100
    69        650
    70        160
    71        150
    73        120
    77        120
    79        330
    81        640
    82        170
    83        280
    85        120
    91        260
    93        450
    94        170
    95        550
    96        160
    97        160
   105        280
   106        100
   107        380
   108        160
   109        330
   110        100
   111        120
   118        250
   119        110
   120        260
   121        110
   122        210
   127        190
   131        150
   133        220
   135        190
   145        170
   147        180
   149        130
   157         90
   159        160
   161        160
   163        100
   171         80
   172         50
   173        160
   174         60
   175        120
   177         60
   185         70
   187        110
   188         70
   189         90
   191         90
   199         90
   201         80
   203         60
   205         60
   209         60
   213         70
   215         90
   217         80
   227         80
   228         50
   229         70
   231         60
   241         50
   243         50
   245         90
   246         50
   247         50
   259         50
   260         60
   261         40
   267         40
   269         60
   285         70
   287         80
   303         90
   315         50
   321        130
   322         60
   343         70
   349         60
   397         50
   412         90
   430         20
   433         10
   448         20