##TITLE=Library Entry 19954
##JCAMP-DX=Revision 4.10 
##DATA TYPE=MASS SPECTRUM
##SAMPLE DESCRIPTION=CARL DJERASSI DEPT OF CHEM STANFORD UNIV STANFORD CALIF
 94305
##NAMES=HP
##CAS NAME=Heptane, 1-(2-butenyloxy)-, (E)-
##MOLFORM=C11H22O
##CAS REGISTRY NO=56052-77-8
##MP= -300
##BP= -300
##MW= 170
##$RETENTION INDEX=0
##$CONDENSED SPECTRUM=NO
##NPOINTS= 33
##XYDATA=(XY..XY) 1 
    39        170
    40         20
    41        440
    42        110
    43        520
    44         20
    45         10
    50         10
    51         20
    52         10
    53         60
    54        110
    55        999
    56        200
    57        870
    58         40
    67         20
    68         20
    69         90
    70         70
    71         40
    72        790
    73         50
    81         10
    83         10
    85         10
    96         20
    97         40
    98         40
    99         10
   127         90
   128         10
   170         10