##TITLE=Library Entry 75982
##JCAMP-DX=Revision 4.10 
##DATA TYPE=MASS SPECTRUM
##SAMPLE DESCRIPTION=M.G.HORNING,INST.FOR LIPID RES,BAYLOR COLL.OF MED,HOUST
ON,TEX
##NAMES=HP
##CAS NAME=Butanedioic acid, 2-[[[(trimethylsilyl)amino]carbonyl]amino]-, di
methyl ester
##MOLFORM=C10H20N2O5Si
##CAS REGISTRY NO=56051-84-4
##MP= -300
##BP= -300
##MW= 276
##$RETENTION INDEX=0
##$CONDENSED SPECTRUM=NO
##NPOINTS= 63
##XYDATA=(XY..XY) 1 
    41         30
    42         50
    43        165
    44         55
    45         85
    46         10
    47         20
    55         25
    56         10
    57         15
    58         30
    59        100
    60        125
    61         20
    68         10
    69         10
    70        185
    71         15
    72         35
    73        275
    74         85
    75        115
    76         10
    77         15
    85         15
    86         20
    88         70
    89        115
    90         10
    91         10
    93         10
    99         15
   100        140
   101         55
   102        999
   103         55
   104         10
   113         25
   116         20
   117         10
   127         10
   129         25
   130         20
   131         25
   143         35
   144         25
   145         15
   158         15
   159         15
   161         40
   162         20
   174         10
   176         10
   186         10
   187         20
   190         10
   201         35
   202         10
   217         65
   218         25
   229         15
   245         20
   261         50