##TITLE=Library Entry 39833
##JCAMP-DX=Revision 4.10 
##DATA TYPE=MASS SPECTRUM
##SAMPLE DESCRIPTION=CARL DJERASSI DEPT OF CHEM STANFORD UNIV STANFORD CALIF
 94305
##NAMES=HP
##CAS NAME=Heptane, 1-(1-butenyloxy)-, (E)-
##MOLFORM=C11H22O
##CAS REGISTRY NO=56052-80-3
##MP= -300
##BP= -300
##MW= 170
##$RETENTION INDEX=0
##$CONDENSED SPECTRUM=NO
##NPOINTS= 28
##XYDATA=(XY..XY) 1 
    39        100
    40         10
    41        400
    42         90
    43        450
    44         20
    53         40
    54         50
    55        260
    56        170
    57        880
    58         40
    67         10
    68         10
    69        110
    70         80
    71         50
    72        999
    73         60
    81         10
    83         20
    85         10
    96         10
    97         10
    98         30
   127         50
   170        170
   171         20