##TITLE=Library Entry 11567
##JCAMP-DX=Revision 4.10 
##DATA TYPE=MASS SPECTRUM
##SAMPLE DESCRIPTION=CARL DJERASSI DEPT OF CHEM STANFORD UNIV STANFORD CALIF
 94305
##NAMES=HP
##CAS NAME=2,20-Cycloaspidospermidine-1-carboxaldehyde, 3-[(acetyloxy)methyl
]-6,7-didehydro-, (2.alpha.,3.beta.,5.alpha.,12.beta.,19.alpha.,20R)-
##MOLFORM=C23H26N2O3
##CAS REGISTRY NO=56053-40-8
##MP= -300
##BP= -300
##MW= 378
##$RETENTION INDEX=0
##$CONDENSED SPECTRUM=NO
##NPOINTS= 90
##XYDATA=(XY..XY) 1 
    41        250
    42        170
    43        999
    44         70
    45         80
    47         20
    49        150
    50         10
    51         70
    52         20
    53         30
    54         20
    55         50
    56        100
    57         50
    58        120
    60         50
    63         10
    65         20
    67         20
    68         30
    69         20
    71         10
    77         70
    78        100
    79         40
    80         20
    84         80
    86         40
    91         50
    92         10
    93         60
    94         20
   102         10
   104         10
   105         10
   106         10
   115         30
   117         10
   119         10
   120         70
   121        350
   122         50
   123         10
   127         10
   128         20
   129         10
   130         20
   134        170
   135         40
   136         10
   143         10
   144         10
   145         30
   154         10
   155         10
   156         10
   167         20
   168         50
   169         20
   170         80
   171         20
   172         10
   180         20
   182         10
   183         10
   184         40
   194         10
   196         10
   197         10
   198         40
   199         20
   206         10
   207         10
   208         10
   211         20
   212         20
   220         50
   244         10
   289         10
   291         10
   305         10
   317         10
   318         30
   319        190
   320         50
   321         10
   350         30
   363         10
   378        240