##TITLE=Library Entry 58457
##JCAMP-DX=Revision 4.10 
##DATA TYPE=MASS SPECTRUM
##SAMPLE DESCRIPTION=M.G.HORNING,INST.FOR LIPID RES,BAYLOR COLL.OF MED,HOUST
ON,TEX
##NAMES=HP
##CAS NAME=2,3-Furandicarboxylic acid, tetrahydro-5-oxo-3-[(trimethylsilyl)o
xy]-, dimethyl ester
##MOLFORM=C11H18O7Si
##CAS REGISTRY NO=56051-88-8
##MP= -300
##BP= -300
##MW= 290
##$RETENTION INDEX=0
##$CONDENSED SPECTRUM=NO
##NPOINTS= 107
##XYDATA=(XY..XY) 1 
    41         10
    42         45
    43         90
    44         90
    45        310
    46         20
    47         60
    48         10
    51         15
    52         10
    53         30
    54         10
    55         45
    56         15
    57         25
    58         55
    59        420
    60         30
    61         55
    62         10
    69         35
    71         15
    72         50
    73        640
    74         70
    75        290
    76         20
    77         15
    79         25
    83         15
    85         30
    86         10
    87         20
    88         25
    89        999
    90         90
    91         45
    92         10
    96         10
    97         10
    99         35
   100         10
   101         25
   102         10
   103         15
   104         10
   105         65
   106         10
   110         10
   113         45
   114         15
   115         15
   116         10
   121         75
   122         10
   127         15
   129         70
   130         10
   131         35
   133         15
   134         10
   135         10
   141         30
   142         10
   143         30
   144         10
   145         40
   146         15
   147         30
   149         15
   156         20
   157         15
   158         10
   159        460
   160         70
   161         50
   162         10
   171         55
   172         30
   173         15
   174         20
   175         10
   176         10
   177         25
   187        460
   188         70
   189         35
   201         60
   202         55
   203         80
   204         15
   205         10
   207         15
   215        315
   216         40
   217         20
   219         20
   230         10
   231        330
   232         40
   233         15
   247         75
   248         20
   274         10
   275        500
   276         95
   277         40