##TITLE=Library Entry 19051
##JCAMP-DX=Revision 4.10 
##DATA TYPE=MASS SPECTRUM
##SAMPLE DESCRIPTION=CARL DJERASSI DEPT OF CHEM STANFORD UNIV STANFORD CALIF
 94305
##NAMES=HP
##CAS NAME=Ergost-25-ene-3,6-dione, 5,12-dihydroxy-, (5.alpha.,12.beta.)-
##MOLFORM=C28H44O4
##CAS REGISTRY NO=56052-99-4
##MP= -300
##BP= -300
##MW= 444
##$RETENTION INDEX=0
##$CONDENSED SPECTRUM=NO
##NPOINTS= 98
##XYDATA=(XY..XY) 1 
    41        870
    43        850
    53        190
    55        999
    56        100
    57        200
    59        180
    67        390
    68        180
    69        710
    70        630
    71        120
    72        130
    77        170
    79        350
    80        150
    81        440
    82        280
    83        310
    84        100
    91        260
    93        360
    94        120
    95        460
    96        200
    97        160
   105        210
   106        120
   107        290
   108        150
   109        320
   119        130
   121        230
   122        110
   123        220
   124        100
   125        190
   131        100
   133        200
   134        120
   135        520
   136        100
   137         90
   145         80
   147        120
   149         90
   150         50
   152         60
   159         90
   160         50
   161        110
   163         50
   173         90
   174         50
   175         80
   187         90
   188         50
   189         70
   201         50
   203         70
   213         60
   227         60
   241         60
   243         30
   255         40
   257         30
   258         30
   259         40
   273         30
   281         40
   283         90
   284         30
   285         40
   286         50
   298         30
   299        120
   300         80
   301         40
   311         40
   313         30
   317         40
   325         30
   327         90
   328         70
   329         40
   339         30
   408         80
   409         20
   410         20
   411         20
   412         60
   413         20
   414         20
   426         70
   427         20
   428         20
   430         20
   444         30