##TITLE=Library Entry 14253
##JCAMP-DX=Revision 4.10 
##DATA TYPE=MASS SPECTRUM
##SAMPLE DESCRIPTION=CARL DJERASSI DEPT OF CHEM STANFORD UNIV STANFORD CALIF
 94305
##NAMES=HP
##CAS NAME=Ergostane-3,5,6,12-tetrol, (3.beta.,5.alpha.,6.beta.,12.alpha.)-
##MOLFORM=C28H50O4
##CAS REGISTRY NO=56052-11-0
##MP= -300
##BP= -300
##MW= 450
##$RETENTION INDEX=0
##$CONDENSED SPECTRUM=NO
##NPOINTS= 167
##XYDATA=(XY..XY) 1 
    41        420
    42         60
    43        999
    44         30
    45         40
    53         50
    55        700
    56         50
    57        430
    58         20
    67        280
    68         70
    69        400
    70         60
    71        330
    72         10
    73         30
    77         60
    79        200
    80         60
    81        600
    82        140
    83        250
    84        110
    85        110
    91        160
    92         40
    93        330
    94        130
    95        420
    96         80
    97        190
    98         30
   105        230
   106        130
   107        300
   108        100
   109        230
   110        180
   111        150
   117         50
   118         20
   119        160
   120         80
   121        220
   122        110
   123        220
   124        100
   125         50
   128         80
   129         30
   131        120
   132         40
   133        200
   134         50
   135        110
   136         40
   137         80
   138         30
   139         30
   141         60
   143         40
   144         30
   145        130
   146         50
   147        200
   148         50
   149        100
   150         40
   151         30
   157         70
   158         20
   159        120
   160         40
   161        110
   162         30
   163         60
   165         20
   166         20
   167         10
   169         30
   171         50
   172         20
   173         70
   174         20
   175         90
   176         30
   177         90
   178         20
   179         20
   183         30
   185         50
   187         70
   189         40
   191         20
   199         50
   201         50
   203         50
   209         20
   211         40
   213         30
   216         20
   217         50
   219         10
   220        160
   221         50
   225         30
   227         90
   228         20
   229         40
   231         20
   233         20
   241         30
   242         40
   243         80
   244         20
   245         60
   246         20
   247         20
   251        110
   252         40
   253         20
   259         30
   260         30
   261         50
   262         20
   263         20
   269        830
   270        210
   271         40
   273         30
   274         30
   275         20
   279         30
   281         40
   285         20
   286         30
   287        370
   288         90
   289         20
   297        170
   298         40
   303         30
   304        100
   305        290
   306         70
   315        100
   316         30
   330         40
   344        160
   345         40
   360        100
   361         30
   362         40
   363         20
   370         60
   371         30
   378         40
   381         60
   396        120
   397         50
   399         50
   401         40
   414        150
   415         60
   432        250
   433         70