##TITLE=Library Entry 81845
##JCAMP-DX=Revision 4.10 
##DATA TYPE=MASS SPECTRUM
##SAMPLE DESCRIPTION=CARL DJERASSI DEPT OF CHEM STANFORD UNIV STANFORD CALIF
 94305
##NAMES=HP
##CAS NAME=1-Propanone, 3-(2-hydroxyphenyl)-1-phenyl-
##MOLFORM=C15H14O2
##CAS REGISTRY NO=56052-53-0
##MP= -300
##BP= -300
##MW= 226
##$RETENTION INDEX=0
##$CONDENSED SPECTRUM=NO
##NPOINTS= 59
##XYDATA=(XY..XY) 1 
    41         50
    42         10
    43         50
    44         10
    50         90
    51        250
    52         60
    53         50
    55         50
    57         20
    62         20
    63         60
    64         20
    65         70
    66         10
    67         10
    69         10
    74         30
    75         30
    76         50
    77        190
    78        140
    79         70
    81         10
    83         10
   102         20
   103         50
   104         20
   105        999
   106        110
   107        290
   108         50
   115         20
   119         10
   120         20
   121         90
   122        100
   123         10
   131         70
   132         10
   133         30
   149         10
   152         20
   165         40
   167         30
   168         20
   178         30
   179         20
   183         30
   184         30
   197         10
   206         30
   207        200
   208        140
   209         30
   225         30
   226        470
   227        100
   228         10