##TITLE=Library Entry 11055
##JCAMP-DX=Revision 4.10 
##DATA TYPE=MASS SPECTRUM
##SAMPLE DESCRIPTION=CARL DJERASSI DEPT OF CHEM STANFORD UNIV STANFORD CALIF
 94305
##NAMES=HP
##CAS NAME=2-Cyclohexen-1-one, 4-(2-oxopropyl)-
##MOLFORM=C9H12O2
##CAS REGISTRY NO=56051-94-6
##MP= -300
##BP= -300
##MW= 152
##$RETENTION INDEX=0
##$CONDENSED SPECTRUM=NO
##NPOINTS= 21
##XYDATA=(XY..XY) 1 
    41         90
    43        999
    51         30
    52         20
    53        111
    55         40
    58         40
    66         30
    67         40
    68         60
    79         20
    81        232
    82         20
    92         20
    94        181
    95        121
    96         20
   109        272
   110         40
   121         40
   152         20