##TITLE=Library Entry 40602
##JCAMP-DX=Revision 4.10 
##DATA TYPE=MASS SPECTRUM
##SAMPLE DESCRIPTION=CARL DJERASSI DEPT OF CHEM STANFORD UNIV STANFORD CALIF
 94305
##NAMES=HP
##CAS NAME=Ergostane-3,5,6,12,25-pentol, 25-acetate, (3.beta.,5.alpha.,6.bet
a.,12.beta.)-, 3TMS derivative
##MOLFORM=C39H76O6Si3
##CAS REGISTRY NO=56053-01-1
##MP= -300
##BP= -300
##MW= 724
##$RETENTION INDEX=0
##$CONDENSED SPECTRUM=NO
##NPOINTS= 71
##XYDATA=(XY..XY) 1 
    41        191
    43        616
    45        101
    55        323
    57        121
    59         70
    60         60
    67        101
    69        313
    71         50
    73        999
    74         80
    75        272
    79         80
    81        222
    83        171
    91         90
    93        151
    95        202
    96         70
    97         80
   101         90
   103         50
   105        101
   107        131
   109        101
   117        191
   119        111
   121         80
   123         90
   129        141
   131        292
   133        101
   135         50
   142         50
   143        151
   145        161
   147         80
   155         40
   157         40
   159         50
   161         40
   173         40
   191         80
   217        131
   333         30
   340         20
   412         10
   413         10
   415         70
   416         30
   417         10
   427         10
   428         10
   429        232
   430        141
   431         50
   432         20
   475         50
   476         20
   484         40
   485         20
   487         10
   489        121
   490         80
   491         30
   502         10
   544         10
   556         10
   574         20
   634         10