##TITLE=Library Entry 14127
##JCAMP-DX=Revision 4.10 
##DATA TYPE=MASS SPECTRUM
##SAMPLE DESCRIPTION=CARL DJERASSI DEPT OF CHEM STANFORD UNIV STANFORD CALIF
 94305
##NAMES=HP
##CAS NAME=Ergostane-3,12-diol, (3.alpha.,5.beta.,12.alpha.)-
##MOLFORM=C28H50O2
##CAS REGISTRY NO=56052-70-1
##MP= -300
##BP= -300
##MW= 418
##$RETENTION INDEX=0
##$CONDENSED SPECTRUM=NO
##NPOINTS= 126
##XYDATA=(XY..XY) 1 
    41        460
    42         80
    43        999
    44         30
    45         20
    53         70
    54         30
    55        610
    56         70
    57        280
    67        260
    68         60
    69        270
    70         50
    71        170
    77         60
    78         10
    79        190
    80         50
    81        400
    82         80
    83        170
    84         70
    85         60
    91        150
    92         30
    93        260
    94         90
    95        280
    96         80
    97        100
   105        200
   106         80
   107        270
   108         90
   109        180
   110         30
   111         20
   117         40
   118         40
   119        230
   120         60
   121        170
   122         50
   123         90
   124         40
   125         30
   131         90
   132         30
   134         50
   135         90
   136         20
   137         30
   143         20
   144         10
   145        100
   146         40
   147        180
   148         40
   149         60
   157         30
   158         10
   159         90
   160         30
   161        110
   162         30
   163         40
   165         10
   171         20
   173         70
   174         30
   175         40
   177         10
   185         20
   186         10
   187         50
   188         20
   189         30
   199         40
   200         20
   201         80
   202         30
   203         30
   213         80
   214         40
   215         70
   216         20
   217         30
   220         50
   221         10
   227         20
   228         70
   229         50
   231         70
   232         20
   233         10
   241         10
   243        140
   244         30
   246         10
   249         10
   254         10
   255        620
   256        150
   257         30
   271         10
   273        360
   274        110
   275         20
   283        110
   284         20
   301         50
   329         40
   367         70
   368         20
   369         30
   370         20
   371         30
   372         20
   382        240
   383         80
   384         20
   385         50
   386         20
   400        130
   401         40