##TITLE=Library Entry 14282
##JCAMP-DX=Revision 4.10 
##DATA TYPE=MASS SPECTRUM
##SAMPLE DESCRIPTION=CARL DJERASSI DEPT OF CHEM STANFORD UNIV STANFORD CALIF
 94305
##NAMES=HP
##CAS NAME=Ergost-5-ene-3,12-diol, 12-acetate, (3.beta.,12.alpha.)-
##MOLFORM=C30H50O3
##CAS REGISTRY NO=56052-09-6
##MP= -300
##BP= -300
##MW= 458
##$RETENTION INDEX=0
##$CONDENSED SPECTRUM=NO
##NPOINTS= 144
##XYDATA=(XY..XY) 1 
    41        410
    42         70
    43        999
    44         30
    53         60
    55        560
    56         50
    57        230
    58         20
    67        250
    68         40
    69        300
    70         50
    71        260
    77         80
    78         20
    79        220
    80         50
    81        360
    82         70
    83        170
    84         30
    85         80
    91        260
    92         70
    93        270
    94         70
    95        320
    96         60
    97        130
   105        350
   106        100
   107        320
   108         60
   109        170
   110         20
   111         50
   115         20
   117         90
   118         60
   119        270
   120        190
   121        200
   122         30
   123         80
   124         20
   125         20
   128         20
   129         70
   130         30
   131        190
   132         80
   133        210
   134         40
   135         60
   136         30
   137         50
   138         20
   141         20
   142         20
   143        150
   144         80
   145        300
   146         70
   147        150
   148         20
   149         30
   151         20
   155         40
   156         20
   157        120
   158         80
   159        190
   160         80
   161        120
   162         20
   163         30
   169         50
   170         10
   171        110
   172         40
   173         80
   174         20
   175         50
   176         10
   177         30
   178         20
   183         40
   184         10
   185         60
   186         20
   187         30
   189         10
   195         20
   197         60
   198         20
   199         30
   200         40
   201         20
   211         90
   212         30
   213         40
   215         10
   220        110
   221         60
   225         60
   226         20
   227         20
   229         30
   230         10
   239         10
   245         10
   253        140
   254         30
   255         10
   259         10
   260         20
   267         30
   270         40
   271        570
   272        130
   273         30
   274         10
   285         20
   287         90
   288         10
   299         10
   333         70
   334         20
   339         20
   341         20
   365        190
   366         60
   380         50
   381         20
   383        130
   384         40
   394         90
   395         40
   398        500
   399        180
   400         40
   440         10
   458         40