##TITLE=Library Entry 20120
##JCAMP-DX=Revision 4.10 
##DATA TYPE=MASS SPECTRUM
##SAMPLE DESCRIPTION=CARL DJERASSI DEPT OF CHEM STANFORD UNIV STANFORD CALIF
 94305
##NAMES=HP
##CAS NAME=Ergost-25-ene-3,5,6,12-tetrol, (3.beta.,5.alpha.,6.beta.,12.beta.
)-
##MOLFORM=C28H48O4
##CAS REGISTRY NO=56052-97-2
##MP= -300
##BP= -300
##MW= 448
##$RETENTION INDEX=0
##$CONDENSED SPECTRUM=NO
##NPOINTS= 213
##XYDATA=(XY..XY) 1 
    41        760
    42         80
    43        380
    44         30
    45        110
    47         10
    50         20
    51         10
    52         10
    53        110
    54         50
    55        999
    56        100
    57        260
    58         10
    59         10
    65         30
    66         20
    67        380
    68        150
    69        999
    70        330
    71        140
    72         10
    73        130
    74         10
    77         80
    78         10
    79        270
    80         60
    81        680
    82        230
    83        430
    84         70
    85         60
    87         10
    91        220
    92         50
    93        430
    94        180
    95        660
    96        230
    97        220
    98         30
    99         50
   100         20
   101         10
   105        260
   106        100
   107        390
   108        180
   109        470
   110        100
   111        100
   112         10
   113         10
   115         10
   117         50
   118         70
   119        250
   120        130
   121        290
   122        130
   123        270
   124         70
   125         90
   126         20
   127        230
   128         40
   129         40
   130         10
   131        140
   132         60
   133        220
   134         90
   135        210
   136         60
   137        110
   138         20
   139         70
   140         40
   141         20
   142         10
   143         70
   144         30
   145        170
   146         60
   147        210
   148         60
   149        130
   150         40
   151         40
   152         40
   153         20
   155         40
   156         20
   157         90
   158         30
   159        160
   160         60
   161        180
   162         50
   163         90
   164         20
   165         40
   166         20
   167         40
   169         10
   170         10
   171         60
   172         60
   173        170
   174         80
   175        130
   176         40
   177         70
   178         20
   179         10
   183         30
   184         10
   185         70
   186         30
   187        110
   188         60
   189        100
   190         30
   191        100
   192         20
   193         10
   195         10
   197         30
   199         80
   200         20
   201         90
   202         20
   203         50
   204         20
   205         50
   206         20
   209         40
   215         80
   216         30
   217         80
   218         20
   219         20
   225         20
   227         70
   228         30
   229         60
   230         10
   231         50
   232         20
   233         20
   241         40
   242         20
   243         30
   244         10
   245         90
   246         40
   247         30
   249         10
   251         10
   255         10
   257         20
   258         10
   259         60
   260         50
   261         10
   263         40
   264         10
   267         20
   269         40
   270         10
   271         10
   272         10
   273         20
   274         10
   285         50
   286         10
   287         40
   303         80
   304         10
   308         10
   313         20
   314         10
   315         10
   321        100
   322         30
   327         10
   331         10
   342         10
   343        110
   344         30
   346         10
   349         30
   357        100
   358         40
   361         10
   369         20
   384         10
   389         20
   390         10
   392         30
   393         10
   412        110
   413         40
   414         10
   415         10
   430         20
   431         10
   433         10
   448         20
   449         10