##TITLE=Library Entry 153
##JCAMP-DX=Revision 4.10 
##DATA TYPE=MASS SPECTRUM
##SAMPLE DESCRIPTION=Exported from NIST MS Search
##NAMES=HP
##CAS NAME=Ethanamine, N,N-diethyl-2,2-bis[(trichloromethyl)thio]-
##MOLFORM=C8H13Cl6NS2
##CAS REGISTRY NO=56051-72-0
##MP= -300
##BP= -300
##MW= 397
##$RETENTION INDEX=0
##$CONDENSED SPECTRUM=NO
##NPOINTS= 120
##XYDATA=(XY..XY) 1 
    12          7
    13          2
    14          9
    15          2
    25          5
    26         31
    27         71
    28        999
    29        179
    30         19
    31          3
    32         97
    33         12
    34         36
    35          5
    36        699
    37         17
    38        231
    39         13
    40          9
    41         51
    42         91
    43         24
    44        103
    45         68
    46          8
    47         15
    53          9
    54         30
    55         36
    56        225
    57        225
    58         20
    59         49
    66         12
    67         17
    68         15
    69         13
    70         36
    71         21
    72         12
    73         13
    79         30
    80         12
    81         12
    82         18
    83         15
    84          8
    85        145
    86         70
    95         27
    96         16
    97         47
    98          7
    99         14
   100         22
   114        335
   115         23
   116         22
   117         16
   118          6
   119         16
   128        364
   129        277
   130         37
   131         13
   146         52
   160        113
   161         26
   162         15
   163          4
   164        157
   165         12
   166         56
   167         10
   206          3
   207          4
   208         11
   209          2
   210          7
   211          4
   212          3
   213          3
   242          7
   243          3
   244         27
   245          6
   246         44
   247          5
   248          3
   249          3
   250         11
   277         25
   278        279
   279         49
   280        294
   281         36
   282        105
   283         11
   284         17
   325          1
   327          2
   360         15
   361          2
   362         27
   363          4
   364         18
   365          3
   366          5
   367          1
   368          1
   395         17
   396          1
   397         31
   398          3
   399         28
   400          2
   401         13
   402          1
   403          3