##TITLE=Library Entry 3042
##JCAMP-DX=Revision 4.10 
##DATA TYPE=MASS SPECTRUM
##SAMPLE DESCRIPTION=CARL DJERASSI DEPT OF CHEM STANFORD UNIV STANFORD CALIF
 94305
##NAMES=HP
##CAS NAME=Oxirane, 2-ethyl-3-propyl-, trans-
##MOLFORM=C7H14O
##CAS REGISTRY NO=56052-95-0
##MP= -300
##BP= -300
##MW= 114
##$RETENTION INDEX=0
##$CONDENSED SPECTRUM=NO
##NPOINTS= 33
##XYDATA=(XY..XY) 1 
    40         75
    41        999
    42        162
    43        506
    44         93
    45         43
    50         18
    51         25
    52          6
    53         56
    54         50
    55        325
    56        150
    57        625
    58        181
    59        231
    60          6
    65          6
    67         68
    68         12
    69         18
    70          6
    71         56
    72        400
    73         37
    77          6
    79         12
    81         68
    85        218
    86         12
    96         25
    97          6
    99         37