##TITLE=Library Entry 107741
##JCAMP-DX=Revision 4.10 
##DATA TYPE=MASS SPECTRUM
##SAMPLE DESCRIPTION=CARL DJERASSI DEPT OF CHEM STANFORD UNIV STANFORD CALIF
 94305
##NAMES=HP
##CAS NAME=Heptanoic acid, 4-methoxyphenyl ester
##MOLFORM=C14H20O3
##CAS REGISTRY NO=56052-15-4
##MP= -300
##BP= -300
##MW= 236
##$RETENTION INDEX=0
##$CONDENSED SPECTRUM=NO
##NPOINTS= 11
##XYDATA=(XY..XY) 1 
    41         40
    43        130
    55         10
    93         20
   109         90
   111         10
   113         10
   123         10
   124        999
   125         80
   236         30