##TITLE=Library Entry 6145
##JCAMP-DX=Revision 4.10 
##DATA TYPE=MASS SPECTRUM
##SAMPLE DESCRIPTION=CARL DJERASSI DEPT OF CHEM STANFORD UNIV STANFORD CALIF
 94305
##NAMES=HP
##CAS NAME=1-Pentene, 5-(pentyloxy)-
##MOLFORM=C10H20O
##CAS REGISTRY NO=56052-88-1
##MP= -300
##BP= -300
##MW= 156
##$RETENTION INDEX=0
##$CONDENSED SPECTRUM=NO
##NPOINTS= 32
##XYDATA=(XY..XY) 1 
    39        190
    40         50
    41        860
    42        180
    43        999
    44         50
    45         90
    51         10
    53         80
    54         30
    55        240
    56         30
    57        150
    58         20
    59         30
    66         10
    67        310
    68        840
    69        650
    70        390
    71        490
    72         20
    81         80
    85         40
    86         30
    87         40
    99        380
   100         20
   114         50
   127         10
   155          0
   156          1