##TITLE=Library Entry 97111
##JCAMP-DX=Revision 4.10 
##DATA TYPE=MASS SPECTRUM
##SAMPLE DESCRIPTION=CARL DJERASSI DEPT OF CHEM STANFORD UNIV STANFORD CALIF
 94305
##NAMES=HP
##CAS NAME=Ergostane-3,5,6,12-tetrol, (3.beta.,5.alpha.,6.beta.,12.beta.)-,
 3TMS derivative
##MOLFORM=C37H74O4Si3
##CAS REGISTRY NO=56053-02-2
##MP= -300
##BP= -300
##MW= 666
##$RETENTION INDEX=0
##$CONDENSED SPECTRUM=NO
##NPOINTS= 100
##XYDATA=(XY..XY) 1 
    41         79
    43        267
    55        138
    57        188
    67         49
    69        138
    71        148
    73        950
    74         79
    75        227
    81        118
    83         89
    85         49
    93         79
    95        128
    97         69
   103         79
   105         59
   107         69
   109         49
   117        999
   118        108
   119        336
   121         49
   129        128
   131         59
   133         59
   135         29
   142         49
   143         99
   145         69
   147        138
   155         49
   157         39
   159         39
   161         39
   169         29
   171         29
   181         19
   191        554
   192         89
   193         59
   195         19
   197         29
   199         19
   215         19
   217        861
   218        188
   219         99
   230         29
   231         19
   233         49
   269          9
   271         89
   272          9
   273          9
   285          9
   289          9
   315         29
   328         29
   335         49
   342          9
   359          9
   396          9
   403         69
   404         29
   405         29
   417         89
   418        188
   419         79
   420          9
   429          9
   430        247
   432         99
   433         29
   434         19
   458          9
   459          9
   468         69
   469         29
   471          9
   486        158
   487         59
   488         19
   519          9
   532         39
   533         19
   556          9
   557          9
   558        237
   559        118
   560         49
   561         29
   562          9
   576         59
   577         19
   633         19
   648        108
   649         59
   650         29