##TITLE=Library Entry 15068
##JCAMP-DX=Revision 4.10 
##DATA TYPE=MASS SPECTRUM
##SAMPLE DESCRIPTION=CARL DJERASSI DEPT OF CHEM STANFORD UNIV STANFORD CALIF
 94305
##NAMES=HP
##CAS NAME=Lanosta-9(11),25-dien-18-oic acid, 3-(acetyloxy)-20-hydroxy-16-ox
o-, .gamma.-lactone, (3.beta.)-
##MOLFORM=C32H46O5
##CAS REGISTRY NO=56052-65-4
##MP= -300
##BP= -300
##MW= 510
##$RETENTION INDEX=0
##$CONDENSED SPECTRUM=NO
##NPOINTS= 88
##XYDATA=(XY..XY) 1 
    41        380
    43        999
    53         30
    55        250
    56         40
    67        120
    68         40
    69        790
    70         40
    71         40
    79         50
    81        110
    82         30
    83         50
    91         70
    93        100
    95        100
   105         90
   107        100
   108         40
   109        330
   110         10
   117         30
   119         90
   121         90
   122         50
   123        100
   131         70
   133         60
   135         70
   138         40
   143         50
   145         90
   147         40
   149         30
   151         20
   155         30
   157         90
   159         60
   161         20
   169         30
   171         60
   173         30
   183         30
   185         40
   187         20
   194         60
   195         20
   197         30
   199         40
   200         20
   211         10
   213         80
   225         10
   227         30
   228        130
   229         30
   241        110
   242         50
   243         20
   257         20
   279         30
   281         20
   293         50
   316        190
   317         50
   367         50
   381         40
   407         30
   422         10
   423         30
   424         20
   425         10
   435        340
   436        110
   441         10
   450         50
   451         10
   465        100
   466         40
   491         50
   492         60
   493         20
   495         70
   496         20
   510        930
   511        360
   512         70