##TITLE=Library Entry 14838
##JCAMP-DX=Revision 4.10 
##DATA TYPE=MASS SPECTRUM
##SAMPLE DESCRIPTION=CARL DJERASSI DEPT OF CHEM STANFORD UNIV STANFORD CALIF
 94305
##NAMES=HP
##CAS NAME=Cholane-24-thioic acid, 3,12-bis(acetyloxy)-, S-ethyl ester, (3.b
eta.,5.beta.,12.alpha.)-
##MOLFORM=C30H48O5S
##CAS REGISTRY NO=56052-66-5
##MP= -300
##BP= -300
##MW= 520
##$RETENTION INDEX=0
##$CONDENSED SPECTRUM=NO
##NPOINTS= 139
##XYDATA=(XY..XY) 1 
    41        210
    43        999
    53         50
    54         30
    55        420
    56         20
    57         70
    61         40
    62         20
    67        260
    68         40
    69        150
    71         20
    75         30
    77         60
    79        120
    80         50
    81        430
    82         40
    83        100
    84         40
    85         50
    89         70
    91        200
    92         50
    93        340
    94         90
    95        320
    96         30
    97         30
   104         30
   105        310
   106         90
   107        370
   108         80
   109        210
   111         30
   115         40
   117         60
   118         50
   119        190
   120         90
   121        190
   122         40
   123         50
   125         40
   127         20
   129         30
   131        120
   132         50
   133        170
   134         60
   135        130
   137         20
   143         50
   144         10
   145        170
   146         40
   147        110
   148         40
   149        100
   157         60
   158         20
   159        120
   160         30
   161        120
   162         20
   163         60
   171         40
   173         70
   174         10
   175         50
   177         30
   184         90
   185         40
   187         50
   189         30
   193         20
   195         20
   199         50
   200         20
   201         70
   203         10
   211         10
   213        100
   214         50
   215        100
   216         10
   217         10
   227         40
   228         50
   229         70
   231         30
   241         10
   243         10
   244         10
   245         20
   247         10
   251         20
   252         20
   253         30
   254        480
   255        460
   256        100
   257         20
   282         20
   283         50
   284         30
   295         10
   296         10
   297        160
   298         20
   302         20
   309         20
   310         20
   311         30
   315        130
   316         10
   321         90
   322         10
   337         20
   338        100
   339        530
   340        130
   341         40
   342         30
   343         30
   355         30
   356         20
   357        560
   358        150
   398         30
   399        110
   400        200
   401         70
   402         10
   458         20
   460         40
   520         10