##TITLE=Library Entry 7483
##JCAMP-DX=Revision 4.10 
##DATA TYPE=MASS SPECTRUM
##SAMPLE DESCRIPTION=CARL DJERASSI DEPT OF CHEM STANFORD UNIV STANFORD CALIF
 94305
##NAMES=HP
##CAS NAME=Ergost-5-ene-3,12-diol, (3.beta.,12.alpha.)-
##MOLFORM=C28H48O2
##CAS REGISTRY NO=56052-10-9
##MP= -300
##BP= -300
##MW= 416
##$RETENTION INDEX=0
##$CONDENSED SPECTRUM=NO
##NPOINTS= 165
##XYDATA=(XY..XY) 1 
    41        500
    42         90
    43        999
    44         40
    45         50
    53         70
    54         20
    55        700
    56        130
    57        610
    58         30
    67        260
    68         50
    69        370
    70        200
    71        420
    72         30
    77         70
    78         20
    79        220
    80         60
    81        470
    82         90
    83        260
    84         80
    85        120
    90        230
    91         60
    92        260
    93         80
    94        330
    95         80
    96        180
    97         20
    99         20
   100         30
   105        280
   106         90
   107        370
   108         90
   109        190
   110         50
   111         80
   112        120
   113         60
   115         20
   117         70
   118         50
   119        230
   120        170
   121        220
   122         50
   123        110
   124         70
   125         60
   131        160
   132         60
   133        180
   134         50
   135         90
   136         40
   137         60
   138         20
   141         20
   142         20
   143        120
   144         60
   145        260
   146         70
   147        210
   148         50
   149         90
   150         20
   151         40
   155         20
   157         80
   158         60
   159        170
   160         60
   161        150
   162         40
   163         60
   164         20
   165         20
   167         20
   169         30
   171         70
   172         20
   173         70
   174         20
   175         60
   176         20
   177         50
   178         40
   179         20
   183         40
   185         50
   186         20
   187         50
   188         20
   189         30
   197         40
   198         20
   199         40
   201         30
   203         30
   211         60
   212         20
   213         50
   215         30
   217         30
   220        110
   221         40
   225         20
   226         20
   227         30
   229         40
   231         20
   233         20
   239         20
   241         50
   244         60
   245         60
   246         30
   247         30
   249         40
   253        200
   254         50
   255         60
   259         70
   260         30
   270         30
   271        650
   272        180
   273        270
   274        100
   275         30
   287        250
   288         70
   289         30
   299         40
   301         60
   304         60
   305        110
   306         40
   313         50
   314         20
   339         40
   341         50
   355         30
   365        140
   366         50
   372         50
   380         70
   381         40
   383        200
   384         70
   385         50
   398        550
   399        170
   400         80
   401        110
   402         50
   416        200
   417         90