##TITLE=Library Entry 3924
##JCAMP-DX=Revision 4.10 
##DATA TYPE=MASS SPECTRUM
##SAMPLE DESCRIPTION=CARL DJERASSI DEPT OF CHEM STANFORD UNIV STANFORD CALIF
 94305
##NAMES=HP
##CAS NAME=Aspidospermidin-20-one, 1,2-didehydro-
##MOLFORM=C19H22N2O
##CAS REGISTRY NO=56053-19-1
##MP= -300
##BP= -300
##MW= 294
##$RETENTION INDEX=0
##$CONDENSED SPECTRUM=NO
##NPOINTS= 198
##XYDATA=(XY..XY) 1 
    41        999
    42        460
    43        490
    44        120
    45         20
    49         10
    50        220
    51        240
    52        120
    53        240
    54        200
    55        300
    56        270
    57        300
    58         60
    61         10
    62         40
    63        140
    64         60
    65        220
    66         70
    67        180
    68         90
    69        130
    70         70
    71         80
    72         70
    73         40
    74         80
    75        110
    76        260
    77        280
    78        100
    79        100
    80        100
    81        160
    82         60
    83         60
    84         50
    85         50
    86         20
    87         30
    88         30
    89         80
    90         50
    91        100
    92         50
    93        110
    94         60
    95        120
    96        130
    97         60
    98         40
    99         30
   100         10
   101         40
   102         80
   103         70
   104        160
   105         80
   106         40
   107         30
   108        110
   109        660
   110        140
   111         40
   112         20
   113         20
   114         40
   115        160
   116         70
   117         80
   118         40
   119         20
   120         20
   121         40
   122        140
   123        120
   124         60
   125         40
   126         60
   127         60
   128         90
   129         80
   130        160
   131         40
   132         30
   133         40
   134         10
   135         10
   136         40
   137         40
   138        240
   139         70
   140         50
   141         50
   142         60
   143        250
   144        150
   145         30
   146         10
   147         20
   148         10
   149        580
   150        160
   151         80
   152         50
   153         40
   154        100
   155         90
   156        170
   157        190
   158        160
   159         30
   160         10
   163         10
   164         10
   165         30
   166         50
   167        150
   168        140
   169        100
   170         90
   171         60
   172         20
   173         10
   177         10
   178         30
   179         40
   180        120
   181         80
   182        110
   183        100
   184         40
   185         20
   186         10
   190         10
   191         40
   192         40
   193         80
   194         90
   195         80
   196         60
   197         50
   198         20
   199         10
   204         20
   205         80
   206         70
   207         80
   208         70
   209         80
   210         50
   211         30
   212         10
   217         10
   218         20
   219         30
   220         30
   221         60
   222         50
   223        160
   224         50
   225         30
   226         10
   232         10
   233         10
   234         10
   235         30
   236         30
   237         60
   238        140
   239         30
   246         10
   247         30
   248         50
   249        170
   250         70
   251        160
   252        250
   253         60
   254         10
   263         10
   264         10
   265         50
   266         90
   267         20
   275         10
   277         20
   278         10
   279         10
   281         10
   291         10
   292         50
   293        100
   294        410
   295         90
   296         20