##TITLE=Library Entry 39694
##JCAMP-DX=Revision 4.10 
##DATA TYPE=MASS SPECTRUM
##SAMPLE DESCRIPTION=CARL DJERASSI DEPT OF CHEM STANFORD UNIV STANFORD CALIF
 94305
##NAMES=HP
##CAS NAME=Pentane, 1-(1-butenyloxy)-, (Z)-
##MOLFORM=C9H18O
##CAS REGISTRY NO=56052-76-7
##MP= -300
##BP= -300
##MW= 142
##$RETENTION INDEX=0
##$CONDENSED SPECTRUM=NO
##NPOINTS= 21
##XYDATA=(XY..XY) 1 
    39        110
    40         20
    41        260
    42        120
    43        900
    44         40
    53         40
    54         50
    55        230
    56         20
    57        770
    58         30
    69         20
    70         90
    71        100
    72        999
    73         50
    85         50
    99         30
   142        260
   143         30