##TITLE=Library Entry 52292
##JCAMP-DX=Revision 4.10 
##DATA TYPE=MASS SPECTRUM
##SAMPLE DESCRIPTION=CARL DJERASSI DEPT OF CHEM STANFORD UNIV STANFORD CALIF
 94305
##NAMES=HP
##CAS NAME=Diazene, bis[5-methyl-2-(1-methylethyl)cyclohexyl]-, 1,2-dioxide
##MOLFORM=C20H38N2O2
##CAS REGISTRY NO=56052-59-6
##MP= -300
##BP= -300
##MW= 338
##$RETENTION INDEX=0
##$CONDENSED SPECTRUM=NO
##NPOINTS= 46
##XYDATA=(XY..XY) 1 
    30        200
    39         50
    41        290
    42         10
    50         10
    53         20
    54         20
    55        580
    56         30
    57        350
    65         10
    67         60
    68         20
    69        430
    70         50
    71         50
    74         10
    75         20
    77         20
    79         10
    81        140
    82         20
    83        999
    84         70
    95         90
    96         10
    97        180
    98         10
    99         50
   112         20
   113         20
   123         10
   137         20
   138         20
   139        360
   140         20
   141         30
   152         30
   156        150
   157         10
   158         40
   170        220
   171         20
   308         40
   309         10
   338         10