##TITLE=Library Entry 71125
##JCAMP-DX=Revision 4.10 
##DATA TYPE=MASS SPECTRUM
##SAMPLE DESCRIPTION=Chemical Concepts
##NAMES=HP
##CAS NAME=Cyclohexanone, 2-(hydroxyphenylmethyl)-
##MOLFORM=C13H16O2
##CAS REGISTRY NO=56072-25-4
##MP= -300
##BP= -300
##MW= 204
##$RETENTION INDEX=0
##$CONDENSED SPECTRUM=NO
##NPOINTS= 131
##XYDATA=(XY..XY) 1 
    26          9
    27        125
    28         32
    29         59
    31         21
    37          3
    38         10
    39        100
    40         21
    41        152
    42         54
    43         67
    44          9
    45          4
    49          2
    50         32
    51        109
    52         27
    53         30
    54         11
    55        184
    56         18
    57         31
    58          4
    60          3
    61          1
    62          5
    63         13
    64          4
    65         25
    66          7
    67         28
    68         10
    69         40
    70        365
    71         31
    72          3
    73          1
    74         10
    75          5
    76         11
    77        298
    78         54
    79        317
    80         36
    81         30
    82          6
    83        250
    84         17
    85          3
    86          5
    87          4
    88          3
    89         10
    90          3
    91         69
    92          9
    93          4
    94          4
    95          7
    96          7
    97        154
    98        999
    99         60
   100          5
   102          7
   103         12
   104         12
   105        162
   106         76
   107        208
   108         19
   109         14
   110          3
   111          2
   113          2
   114          3
   115         36
   116          8
   117         32
   118          5
   119          4
   120          8
   121          4
   122          2
   123          4
   124          5
   125          2
   127         14
   128         14
   129         24
   130         15
   131          8
   132          3
   133          8
   135          0
   137          3
   138          5
   139          3
   141          4
   142          3
   143          7
   144          5
   145          7
   146          2
   147         19
   149          0
   150          1
   157         51
   158         26
   159          6
   161          8
   162          7
   167          4
   168         12
   169          8
   171         12
   175         21
   176          5
   179          1
   185         77
   186        250
   187         41
   188          4
   189          3
   201          5
   202          5
   203          3
   204        163
   205         27
   206          3