##TITLE=Library Entry 22046
##JCAMP-DX=Revision 4.10 
##DATA TYPE=MASS SPECTRUM
##SAMPLE DESCRIPTION=Chemical Concepts
##NAMES=HP
##CAS NAME=3,3,4,4-Tetramethyl-cyclopentanone
##MOLFORM=C9H16O
##CAS REGISTRY NO=56077-22-6
##MP= -300
##BP= -300
##MW= 140
##$RETENTION INDEX=0
##$CONDENSED SPECTRUM=NO
##NPOINTS= 64
##XYDATA=(XY..XY) 1 
    26          3
    27         67
    28         38
    29         78
    30          2
    31          0
    37          1
    38          4
    39         89
    40         24
    41        267
    42         19
    43         24
    44          3
    45          0
    46          0
    50          3
    51          7
    52          3
    53         24
    54          8
    55        133
    56        999
    57        264
    58         10
    59          0
    61          0
    62          0
    63          1
    64          0
    65          4
    66          1
    67         15
    68          7
    69         33
    70         15
    71          1
    77          2
    78          0
    79          4
    80          0
    81          5
    82          3
    83        151
    84         28
    85         13
    86          0
    91          1
    95          1
    96          0
    97          6
    98         11
    99          0
   107          0
   109          2
   110          0
   112          4
   123          0
   124          0
   125         32
   126          4
   140        103
   141         14
   142          0