##TITLE=Library Entry 9278
##JCAMP-DX=Revision 4.10 
##DATA TYPE=MASS SPECTRUM
##SAMPLE DESCRIPTION=Institute of Organic Chemistry, Novosibirsk, USSR 1988
##NAMES=HP
##CAS NAME=Methyl 2,4-di-O-acetyl-3-O-methyl-6-deoxy-.alpha.-D-mannopyranosi
de
##MOLFORM=C12H20O7
##CAS REGISTRY NO=56083-41-1
##MP= -300
##BP= -300
##MW= 276
##$RETENTION INDEX=0
##$CONDENSED SPECTRUM=NO
##NPOINTS= 76
##XYDATA=(XY..XY) 1 
    40          4
    41         39
    42         22
    43        999
    44         28
    45        149
    53         22
    54          7
    55         56
    56          9
    57         42
    58         27
    59        112
    60          9
    61         36
    67          3
    68          4
    69         22
    70          5
    71         49
    72          9
    73         46
    74        999
    75        439
    76         19
    81          9
    82         15
    83         61
    84         15
    85        249
    86         15
    87         62
    88         23
    89          4
    95          2
    96         15
    97         10
    98          6
    99         39
   100         66
   101        139
   102         10
   103         29
   111         41
   112          3
   113         41
   114         34
   115        439
   116         67
   118          6
   119          9
   125         22
   126          3
   127          6
   128          2
   129         21
   130          3
   131          3
   141         12
   142          9
   143         33
   153         28
   156         14
   157         19
   158          1
   159          4
   171          5
   172          1
   173          4
   175          3
   185          8
   203          1
   213          3
   216          2
   245         23
   246          2