##TITLE=Library Entry 37093
##JCAMP-DX=Revision 4.10 
##DATA TYPE=MASS SPECTRUM
##SAMPLE DESCRIPTION=J.VOTH UNIV. OF CALIFORNIA, DAVIS, CALIFORNIA, 95616, U
SA
##NAMES=HP
##CAS NAME=Aziridine, 1-(1,1-dimethylethyl)-2,3-dimethyl-, cis-
##MOLFORM=C8H17N
##CAS REGISTRY NO=56082-94-1
##MP= -300
##BP= -300
##MW= 127
##$RETENTION INDEX=0
##$CONDENSED SPECTRUM=NO
##NPOINTS= 67
##XYDATA=(XY..XY) 1 
     2          2
    12          0
    13          1
    14          7
    15        104
    16          1
    17          0
    18         12
    25          0
    26         29
    27        153
    28        155
    29        170
    30         18
    31          0
    32          0
    37          2
    38          5
    39         86
    40         15
    41        177
    42        197
    43         45
    44         21
    45          0
    47          0
    48          0
    49          0
    50          2
    51          3
    52          4
    53         11
    54         22
    55        117
    56        166
    57        107
    58         47
    59          1
    64          0
    65          0
    66          0
    67          2
    68         19
    69         11
    70        999
    71        152
    72         13
    73          0
    80          1
    81          1
    82          9
    83          2
    84          5
    85          0
    93          0
    94          0
    95          2
    96          2
    97          2
    98          0
   110          0
   112         82
   113          6
   114          0
   126          0
   127         16
   128          1