##TITLE=Library Entry 34775
##JCAMP-DX=Revision 4.10 
##DATA TYPE=MASS SPECTRUM
##SAMPLE DESCRIPTION=Exported from NIST MS Search
##NAMES=HP
##CAS NAME=2-Buten-1-one, 1-(6,7,7-trimethyl-2,3-dioxabicyclo[2.2.2]oct-5-en
-1-yl)-, [1R-[1.alpha.(E),4.beta.]]-
##MOLFORM=C13H18O3
##CAS REGISTRY NO=56083-37-5
##MP= -300
##BP= -300
##MW= 222
##$RETENTION INDEX=0
##$CONDENSED SPECTRUM=NO
##NPOINTS= 10
##XYDATA=(XY..XY) 1 
    29         80
    43        499
    55        100
    69        999
    83         70
    98        140
   109         60
   125        130
   207          1
   222          1