##TITLE=Library Entry 84100
##JCAMP-DX=Revision 4.10 
##DATA TYPE=MASS SPECTRUM
##SAMPLE DESCRIPTION=P.A. Leclercq, Lab. Instrum. Anal., Tech. Univ. Eindhov
en, Netherlands
##NAMES=HP
##CAS NAME=Diazene, (4-ethoxyphenyl)(4-methoxyphenyl)-, 1-oxide
##MOLFORM=C15H16N2O3
##CAS REGISTRY NO=56095-14-8
##MP= -300
##BP= -300
##MW= 272
##$RETENTION INDEX=0
##$CONDENSED SPECTRUM=NO
##NPOINTS= 89
##XYDATA=(XY..XY) 1 
    14          1
    15         13
    16          0
    18          2
    26         18
    27         97
    29        203
    30          9
    36          5
    38         30
    39         89
    40         14
    41         21
    43          8
    50         46
    51         75
    52        171
    53         61
    54         15
    55         26
    62         19
    63        106
    64        166
    65        179
    66         53
    67         16
    68          8
    69          6
    74         11
    75         12
    76         41
    77        315
    78        146
    79        145
    80        152
    81         48
    89          5
    90         14
    91        104
    92        221
    93        103
    94         15
    95         48
    96          6
   103         11
   106        167
   107        999
   108        136
   109         44
   110          8
   115          8
   121        859
   122        153
   123         82
   124          7
   127         14
   128         16
   135        310
   136         80
   137        188
   138         36
   139          9
   144         18
   145          9
   148          7
   149         37
   150          9
   151         26
   155          7
   156          9
   157          8
   172          7
   173         15
   184         13
   185          6
   187         20
   199          9
   200         13
   201         18
   213          7
   215         70
   216         11
   229         10
   243         25
   256         35
   257          9
   272        515
   273         86
   274         12