##TITLE=Library Entry 8676
##JCAMP-DX=Revision 4.10 
##DATA TYPE=MASS SPECTRUM
##SAMPLE DESCRIPTION=Finnigan MAT: Toxicological Library (LIBR-TX)
##NAMES=HP
##CAS NAME=Ergotaman-3',6',18-trione, 12'-hydroxy-2'-methyl-5'-(2-methylprop
yl)-, (5'.alpha.)-
##MOLFORM=C30H37N5O5
##CAS REGISTRY NO=561-94-4
##MP= -300
##BP= -300
##MW= 547
##$RETENTION INDEX=0
##$CONDENSED SPECTRUM=NO
##NPOINTS= 36
##XYDATA=(XY..XY) 1 
    43        999
    55        393
    57        686
    59        193
    69        341
    70        691
    71        450
    83        238
    84        120
    85        288
    97        195
    98        116
    99        129
   111        128
   125        108
   126         70
   127         89
   139         68
   141         67
   153         79
   154        472
   155         87
   167         99
   180         67
   181         59
   195         69
   196        135
   207         80
   209        107
   210         98
   221         97
   223         71
   224        158
   267        217
   268         40
   281         20