##TITLE=Library Entry 23805
##JCAMP-DX=Revision 4.10 
##DATA TYPE=MASS SPECTRUM
##SAMPLE DESCRIPTION=R RYHAGE MS-LAB KAROLINSKA INSTITUTET STOCKHOLM SWEDEN
##NAMES=HP
##CAS NAME=Barbituric acid, 5-allyl-5-neopentyl-
##MOLFORM=C12H18N2O3
##CAS REGISTRY NO=561-83-1
##MP= -300
##BP= -300
##MW= 238
##$RETENTION INDEX=1720
##$CONDENSED SPECTRUM=NO
##NPOINTS= 162
##XYDATA=(XY..XY) 1 
    15         13
    16          1
    18         13
    26          5
    27         71
    28         26
    29        146
    30         11
    31          0
    35         10
    36         16
    37          6
    38          1
    39        104
    40         21
    41        419
    42         35
    43        113
    44         32
    45         11
    46          5
    47         30
    48         14
    49          2
    50         13
    51          9
    52         18
    53         69
    54         18
    55        126
    56         81
    57        999
    58         53
    59          3
    61          3
    63          4
    64          2
    65         19
    66         25
    67         52
    68         10
    69         33
    70         18
    71         48
    72          3
    73          1
    74          3
    75          1
    76          2
    77         17
    78         11
    79         17
    80         31
    81         22
    82         10
    83        134
    84         10
    85         87
    86          1
    87          7
    89          2
    90          2
    91         13
    92          5
    93          5
    94         19
    95         31
    96         35
    97         27
    98         66
    99          6
   100          1
   103          2
   105          3
   106         12
   107          6
   108         13
   109         14
   110          6
   111          7
   112          9
   113          1
   114          5
   115          3
   116          1
   117          1
   118          8
   119          1
   120          4
   121          5
   122         14
   123          6
   124         56
   125          4
   126          8
   127          2
   128          4
   129          2
   130          1
   131          1
   132          0
   134          2
   135          5
   136          7
   137          7
   138         11
   139          8
   140          6
   141        388
   142         52
   143         14
   144          1
   150          2
   151          6
   152         16
   153         34
   154          2
   155         24
   156          3
   157          6
   158          2
   161          1
   162          1
   163          5
   164          2
   165          4
   166          4
   167        358
   168        220
   169         35
   170          9
   171          5
   172          2
   173          2
   177          2
   178          3
   179          9
   180          9
   181        150
   182        142
   183         34
   184          7
   193          1
   194          3
   195         22
   196         12
   197         18
   198          2
   204          1
   205          3
   207          4
   208          1
   209          2
   210          5
   211         13
   212          3
   221          5
   222          2
   223         70
   224         11
   238         10
   239          1