##TITLE=Library Entry 71454
##JCAMP-DX=Revision 4.10 
##DATA TYPE=MASS SPECTRUM
##SAMPLE DESCRIPTION=Patti Price, Georgia Bureau of Investigation, Decatur,
 Georgia
##NAMES=HP
##CAS NAME=Norpipanone
##MOLFORM=C23H29NO
##CAS REGISTRY NO=561-48-8
##MP= -300
##BP= -300
##MW= 335
##$RETENTION INDEX=2488
##$CONDENSED SPECTRUM=NO
##NPOINTS= 72
##XYDATA=(XY..XY) 1 
    55         19
    56          5
    57         23
    58          1
    67          2
    68          5
    69         13
    70         21
    71          1
    77          5
    78          1
    83          4
    84          3
    85          1
    89          2
    91         14
    92          1
    96         31
    97         10
    98        999
    99         67
   100          1
   102          2
   103          4
   104          1
   105          7
   106          1
   110          6
   111         82
   112         50
   113          4
   114          1
   115         21
   116          4
   117          5
   118          1
   127          1
   128          2
   139          3
   151          2
   152          8
   153          1
   163          2
   164          4
   165         29
   166          5
   167          5
   168          1
   176          3
   177          2
   178         25
   179         13
   180          3
   181          1
   188          1
   189          3
   190          2
   191          5
   192          1
   193          5
   194          2
   195          2
   224          9
   225          1
   251          6
   252          1
   276          2
   277          1
   334          1
   335          7
   336          1
   337          1