##TITLE=Library Entry 39524
##JCAMP-DX=Revision 4.10 
##DATA TYPE=MASS SPECTRUM
##SAMPLE DESCRIPTION=Patti Price, Georgia Bureau of Investigation, Decatur,
 Georgia
##NAMES=HP
##CAS NAME=Properidine
##MOLFORM=C16H23NO2
##CAS REGISTRY NO=561-76-2
##MP= -300
##BP= -300
##MW= 261
##$RETENTION INDEX=1750
##$CONDENSED SPECTRUM=NO
##NPOINTS= 128
##XYDATA=(XY..XY) 1 
    42        337
    43        242
    50          8
    51         50
    52         12
    53         36
    54         13
    55         13
    56         27
    57        318
    58         25
    59          5
    60          1
    62          4
    63         24
    64          3
    65         38
    66          6
    67          5
    68         11
    69          4
    70        565
    71        999
    72         46
    74          5
    75         11
    76         20
    77        162
    78         37
    79         26
    81         12
    82         20
    83         11
    84          5
    85          5
    86          5
    87         26
    88          6
    89         25
    90          5
    91        310
    92         32
    94         27
    95          5
    96        171
    97         23
    98          3
    99          8
   100          1
   101          6
   102         43
   103        342
   104         38
   105         17
   106          3
   110          3
   112          2
   113          1
   114          2
   115        188
   116         80
   117         43
   118          9
   119          4
   120          9
   121          1
   123          1
   127         51
   128        103
   129        108
   130         35
   131        155
   132         24
   133          4
   134          6
   135          1
   140        131
   141         24
   142         10
   143         20
   144         48
   146         11
   147          5
   149         52
   150          3
   151          1
   154          3
   155          3
   156          9
   157         14
   158         53
   159         18
   160         11
   161          1
   162         21
   163          4
   164          1
   168          2
   169          7
   170         20
   171          4
   172        307
   173         79
   174        344
   175         49
   176          4
   183          7
   186          1
   190         85
   191         16
   200          3
   201          1
   202         42
   203          4
   204         30
   205          3
   218        865
   219        125
   220         15
   221          1
   232          1
   246        107
   247         20
   259          1
   260        161
   261        468
   262         86
   263          8