##TITLE=Library Entry 79898
##JCAMP-DX=Revision 4.10 
##DATA TYPE=MASS SPECTRUM
##SAMPLE DESCRIPTION=NIST Mass Spectrometry Data Center, 1992
##NAMES=HP
##CAS NAME=4-Chloro-3-nitrobenzophenone
##MOLFORM=C13H8ClNO3
##CAS REGISTRY NO=56107-02-9
##MP= -300
##BP= -300
##MW= 261
##$RETENTION INDEX=0
##$CONDENSED SPECTRUM=NO
##NPOINTS= 157
##XYDATA=(XY..XY) 1 
    14          0
    16          0
    17          0
    18          8
    26          1
    27         13
    28         18
    29          0
    30         32
    32          1
    35          0
    36          1
    37          3
    38          7
    39         11
    40          1
    41          0
    44          0
    46          6
    47          0
    48          0
    49          4
    50         57
    51        157
    52          9
    53          6
    55          0
    60          1
    61          4
    62         10
    63         23
    64          2
    65          1
    66          0
    67          0
    69          0
    70          0
    71          0
    72          2
    73         11
    74         65
    75        104
    76         55
    77        486
    78         33
    79          1
    80          1
    81          0
    84         13
    85          3
    86          9
    87          6
    88          2
    89          3
    90          3
    91          1
    92          0
    93          2
    94          1
    97          2
    98          9
    99          6
   100          2
   101          3
   102          4
   103          5
   104          0
   105        999
   106         72
   107          5
   108          2
   109         13
   110         71
   111         11
   112         24
   113          3
   114          1
   115          1
   117          4
   119          0
   121          1
   122          2
   123          1
   124          1
   125          4
   126         15
   127          2
   128          3
   134          0
   135          0
   136          0
   138         88
   139         17
   140         30
   141          2
   146          0
   147          0
   149          4
   150         19
   151         24
   152         38
   153          5
   154          4
   155          0
   156          1
   160          0
   161          0
   162          0
   163          1
   164          0
   166          0
   167          1
   168          3
   169          0
   170          0
   173          0
   174          0
   175          3
   176          0
   177          1
   178          0
   179          2
   180          4
   181          1
   184         94
   185         10
   186         36
   187          4
   188          2
   189          0
   195          0
   196          0
   200          1
   202          0
   203          0
   214         21
   215         12
   216         10
   217          5
   218          0
   226         17
   227          2
   228          0
   231          2
   232          0
   233          1
   244         16
   245          5
   246          5
   247          2
   258          0
   259          0
   261        285
   262         45
   263         94
   264         14
   265          1