##TITLE=Library Entry 96452
##JCAMP-DX=Revision 4.10 
##DATA TYPE=MASS SPECTRUM
##SAMPLE DESCRIPTION=NIST Mass Spectrometry Data Center
##NAMES=HP
##CAS NAME=Metanephrine, 3TMS derivative
##MOLFORM=C19H39NO3Si3
##CAS REGISTRY NO=56114-63-7
##MP= -300
##BP= -300
##MW= 413
##$RETENTION INDEX=1907
##$CONDENSED SPECTRUM=NO
##NPOINTS= 190
##XYDATA=(XY..XY) 1 
    29          1
    31          1
    42          6
    43          8
    44         10
    45         61
    46          4
    47          4
    53          1
    55          2
    56          1
    57          4
    58          7
    59         32
    60          3
    61          2
    65          1
    66          1
    69          1
    70          2
    71          3
    73        658
    74         65
    75         38
    76          2
    77          3
    78          1
    79          1
    83          1
    84          1
    85          1
    86         11
    87          2
    88          2
    89          9
    90          1
    91          6
    92          1
    93          1
    95          1
    99          1
   100          9
   101          5
   102          3
   103          4
   104          2
   105          3
   106          1
   107          1
   109          1
   113          1
   114          5
   116        999
   117        265
   118         95
   119         11
   120          1
   121          3
   123          1
   126          1
   128          1
   129          1
   130          3
   131          7
   132          2
   133         17
   134          3
   135          6
   136          2
   137          3
   138          1
   139          1
   143          1
   144          1
   145          2
   146          4
   147         63
   148         12
   149         12
   150          2
   151          3
   152          1
   155          1
   159          1
   160          9
   161          5
   162          7
   163          8
   164          2
   165          5
   166          2
   167          1
   172          1
   173          1
   174          2
   175          2
   176          2
   177          9
   178          3
   179         14
   180         14
   181          3
   182          1
   188          1
   189          1
   190          2
   191          3
   192         27
   193         28
   194         18
   195          5
   196          1
   203          1
   204          2
   205          3
   206          2
   207          7
   208          2
   209         12
   210          2
   211          1
   218          2
   219          4
   220          4
   221          6
   222          5
   223         18
   224          4
   225          1
   233          1
   234          1
   235          2
   236          3
   237          6
   238          1
   239          1
   248          1
   249          1
   250          4
   251         13
   252          5
   253          5
   254          3
   255          1
   262          1
   263          1
   264          1
   265          6
   266          2
   267         20
   268          5
   269          2
   278          1
   279          2
   280          2
   281         11
   282          3
   283          2
   292          1
   293          1
   294          2
   295          3
   297        216
   298         58
   299         22
   300          4
   301          1
   308          1
   309          1
   310          2
   311          1
   322          1
   323          3
   324          8
   325          2
   326          2
   355          2
   370          1
   383          2
   384          1
   396          1
   398         85
   399         31
   400         15
   401          3
   402          1
   411          1
   412          2
   413          1
   414          1