##TITLE=Library Entry 46423
##JCAMP-DX=Revision 4.10 
##DATA TYPE=MASS SPECTRUM
##SAMPLE DESCRIPTION=R.W.A.OLIVER UNIV. OF SALFORD, SALFORD, LANCASHIRE, UK
##NAMES=HP
##CAS NAME=[2,2'-Binaphthalene]-1,1',4,4'-tetrone, 3-hydroxy-
##MOLFORM=C20H10O5
##CAS REGISTRY NO=56119-07-4
##MP= -300
##BP= -300
##MW= 330
##$RETENTION INDEX=0
##$CONDENSED SPECTRUM=NO
##NPOINTS= 29
##XYDATA=(XY..XY) 1 
    76        999
    77        630
   104        500
   105        560
   141         55
   143         55
   149        100
   155         55
   174         55
   185         50
   187        110
   188        110
   189        200
   190         45
   200         55
   216         45
   218         50
   244         25
   246         90
   272         55
   274         50
   288         35
   290         35
   300        140
   302         15
   314         45
   328        220
   330        790
   331        140