##TITLE=Library Entry 43473
##JCAMP-DX=Revision 4.10 
##DATA TYPE=MASS SPECTRUM
##SAMPLE DESCRIPTION=WASHINGTON UNIVERSITY MEDICAL SCHOOL W.R. SHERMAN
##NAMES=HP
##CAS NAME=Imidazoleacetic acid, 2TMS derivative
##MOLFORM=C11H22N2O2Si2
##CAS REGISTRY NO=56114-70-6
##MP= -300
##BP= -300
##MW= 270
##$RETENTION INDEX=0
##$CONDENSED SPECTRUM=NO
##NPOINTS= 123
##XYDATA=(XY..XY) 1 
    52          7
    53          6
    54         11
    55         10
    56          8
    57          8
    58         28
    59         25
    60          3
    61          7
    65          6
    66          4
    67          8
    68          4
    69         12
    70          9
    71          9
    72         29
    73        999
    74         89
    75        111
    76         11
    77          5
    78          6
    79          4
    80          6
    81         10
    83         17
    84         50
    85         15
    86          5
    87          4
    93         30
    94          5
    95         10
    96          6
    97          6
    98         13
    99          5
   100          9
   103          3
   105          4
   108          8
   109          3
   110          9
   111         17
   112         19
   113          5
   114          6
   116          6
   117         11
   119          3
   120          6
   125          4
   126          9
   127         13
   128          5
   129          6
   130          6
   131         12
   132          7
   133          8
   135          5
   137          9
   138         18
   139         12
   140          4
   142         15
   143          6
   147        132
   148         18
   149         16
   151         13
   152          8
   153        154
   154        103
   155         26
   156         13
   157          4
   167          7
   170         12
   171          6
   180         38
   181         21
   182          9
   183         34
   184         72
   185         19
   186          7
   191          5
   197         10
   198         20
   199         18
   200          6
   206          3
   208          4
   209          5
   211        181
   212         42
   213         16
   214          4
   222          4
   224         12
   225         87
   226        423
   227        118
   228         46
   229          8
   230          3
   241         41
   242         16
   243          6
   255        222
   256         51
   257         24
   258          5
   267          3
   268          4
   269          7
   270        241
   271         58
   272         25
   273          4