##TITLE=Library Entry 3094
##JCAMP-DX=Revision 4.10 
##DATA TYPE=MASS SPECTRUM
##SAMPLE DESCRIPTION=Exported from NIST MS Search
##NAMES=HP
##CAS NAME=Thiophene, 2,3-bis(1,1-dimethylethoxy)-
##MOLFORM=C12H20O2S
##CAS REGISTRY NO=5612-70-4
##MP= -300
##BP= -300
##MW= 228
##$RETENTION INDEX=0
##$CONDENSED SPECTRUM=NO
##NPOINTS= 22
##XYDATA=(XY..XY) 1 
    40        142
    41        999
    42        142
    43        200
    44        142
    45        128
    50         85
    51         85
    52         85
    53         85
    55        285
    56        342
    57        971
    58        228
    59        185
    60         42
    87         71
    88         71
   116        857
   117        142
   118         42
   172        114