##TITLE=Library Entry 32835
##JCAMP-DX=Revision 4.10 
##DATA TYPE=MASS SPECTRUM
##SAMPLE DESCRIPTION=NIST Mass Spectrometry Data Center
##NAMES=HP
##CAS NAME=1,8,11-Heptadecatriene, (Z,Z)-
##MOLFORM=C17H30
##CAS REGISTRY NO=56134-03-3
##MP= -300
##BP= -300
##MW= 234
##$RETENTION INDEX=1665
##$CONDENSED SPECTRUM=NO
##NPOINTS= 91
##XYDATA=(XY..XY) 1 
    27         14
    29         49
    39         77
    40         10
    41        322
    42         27
    43         51
    44          2
    50          2
    51         14
    52          3
    53        106
    54        221
    55        310
    56         28
    57         42
    62          1
    63          3
    64          1
    65         70
    66         98
    67        999
    68        299
    69        237
    70         23
    72          2
    73          1
    76          1
    77        145
    78         51
    79        454
    80        269
    81        819
    82        343
    83         98
    84          5
    85         19
    86          1
    90          1
    91        152
    92         43
    93        256
    94        143
    95        431
    96        264
    97         55
    98          4
   102          1
   105         18
   106          7
   107        108
   108         31
   109        224
   110        309
   111         48
   112          3
   121        178
   122         49
   123         58
   124         67
   125         10
   126          1
   132          5
   133         18
   135         69
   136         34
   138         29
   139          4
   141          1
   144          1
   147          8
   148          4
   149         82
   150          9
   151          5
   152          3
   157          1
   163         16
   164          5
   165          4
   166          9
   167          1
   177          3
   180          2
   181          1
   185          2
   191          8
   203          1
   219          2
   234         26
   235          1