##TITLE=Library Entry 7287
##JCAMP-DX=Revision 4.10 
##DATA TYPE=MASS SPECTRUM
##SAMPLE DESCRIPTION=CARL DJERASSI DEPT OF CHEM STANFORD UNIV STANFORD CALIF
 94305
##NAMES=HP
##CAS NAME=Ergostan-6-one, 3,25-bis(acetyloxy)-5-hydroxy-, (3.beta.,5.alpha.
)-
##MOLFORM=C32H52O6
##CAS REGISTRY NO=56143-29-4
##MP= -300
##BP= -300
##MW= 532
##$RETENTION INDEX=0
##$CONDENSED SPECTRUM=NO
##NPOINTS= 169
##XYDATA=(XY..XY) 1 
    41        380
    42         40
    43        999
    44         50
    45        270
    53         60
    54         30
    55        620
    56         60
    57        220
    59         70
    60        280
    61         20
    65         20
    67        230
    68        110
    69        510
    70        200
    71        120
    73        150
    77         50
    79        170
    80         50
    81        420
    82        240
    83        360
    84         70
    85         50
    87         30
    91        120
    92         30
    93        260
    94        120
    95        380
    96        220
    97        170
    98         40
    99         30
   101         80
   105        140
   106         40
   107        210
   108        110
   109        310
   110        260
   111        120
   112         20
   113         20
   117         30
   118         40
   119        100
   120         70
   121        200
   122         70
   123        180
   124         60
   125         40
   127         30
   129         20
   131         60
   132         30
   133        150
   134         50
   135        120
   136         50
   137         60
   138         30
   139         30
   141         30
   143         30
   145         70
   146         20
   147         90
   148         40
   149         80
   150         30
   151         30
   152         70
   155         30
   157         40
   158         30
   159         60
   160         30
   161         70
   162         30
   163         60
   164         30
   171         40
   173         50
   174         30
   175        100
   176         40
   177         50
   178         40
   185         40
   187         40
   189         40
   191         30
   199         50
   200         30
   201         40
   202         40
   203         30
   211         40
   213         50
   214         30
   215         30
   217         30
   218         30
   227         70
   228         40
   229         50
   231         30
   239         30
   241         50
   242         30
   243         40
   245         40
   246         30
   252         30
   253         30
   257         30
   259         30
   260         40
   267         50
   268         30
   269         70
   270         30
   271         30
   285         50
   286         30
   287         40
   295         30
   296         30
   297         70
   298         30
   299         30
   310         50
   311         30
   312         30
   313         40
   315         40
   316         40
   327         30
   328         40
   329         40
   330         60
   332         40
   342         30
   343         20
   344         20
   345        120
   346         60
   373         60
   374         20
   379         10
   380         10
   386         10
   388         30
   389         10
   394         30
   395         10
   396         10
   398         20
   412         90
   413         20
   414         10
   458         10
   472         40