##TITLE=Library Entry 70970
##JCAMP-DX=Revision 4.10 
##DATA TYPE=MASS SPECTRUM
##SAMPLE DESCRIPTION=INST.OF CLINICAL BIOCHEM,RIKSHOSP,UNIV.OF OSLO,E.JELLUM
,ET.A
##NAMES=HP
##CAS NAME=Proline, 2-methyl-5-oxo-, methyl ester
##MOLFORM=C7H11NO3
##CAS REGISTRY NO=56145-24-5
##MP= -300
##BP= -300
##MW= 157
##$RETENTION INDEX=0
##$CONDENSED SPECTRUM=NO
##NPOINTS= 6
##XYDATA=(XY..XY) 1 
    42        180
    55        220
    70        100
    98        999
    99         70
   157         10