##TITLE=Library Entry 14536
##JCAMP-DX=Revision 4.10 
##DATA TYPE=MASS SPECTRUM
##SAMPLE DESCRIPTION=DENNIS H SMITH DEPT OF CHEM STANFORD UNIV STANFORD CALI
F 9430
##NAMES=HP
##CAS NAME=Pregn-4-ene-3,20-dione, 17-hydroxy-2-methyl-, (2.alpha.)-
##MOLFORM=C22H32O3
##CAS REGISTRY NO=56145-30-3
##MP= -300
##BP= -300
##MW= 344
##$RETENTION INDEX=0
##$CONDENSED SPECTRUM=NO
##NPOINTS= 137
##XYDATA=(XY..XY) 1 
    40         16
    41        335
    42          9
    43        999
    45         23
    51         15
    53         87
    55        281
    57         34
    58         41
    59         25
    65         52
    66         13
    67        217
    68         17
    69        127
    71         49
    77        176
    78         44
    79        231
    80         23
    81        169
    83         32
    85          9
    87         93
    91        309
    92         53
    93        221
    94         33
    95        138
    96         16
    97        109
   100         13
   103         22
   104         10
   105        204
   106         43
   107        200
   108         51
   109        105
   110         12
   111        168
   115         33
   116         25
   117         76
   118          9
   119        162
   120         37
   121        187
   122         45
   123        189
   124         33
   125         23
   128         33
   129         48
   130         23
   131         87
   132         22
   133        123
   134         38
   135        203
   136        102
   137        175
   138         98
   141         14
   142         17
   143         41
   144         16
   145        258
   146         43
   147        141
   148         28
   149         45
   150         52
   151        124
   152         32
   155         12
   157         39
   158         11
   159         73
   160         12
   161         75
   162         29
   163         52
   164          9
   169         28
   170         11
   171         62
   172         23
   173         95
   175         43
   176         18
   177         28
   183         15
   185         30
   187         60
   188         42
   189         53
   190         20
   197         12
   199         18
   201         45
   203         20
   211         20
   213         12
   215         32
   216         11
   225         51
   226         11
   227         88
   228         21
   229         25
   231          9
   241         17
   242         12
   243        415
   245         18
   256         37
   257         85
   258        148
   259         59
   265         31
   270          9
   283        269
   284         49
   287         10
   297         11
   299         16
   301        957
   316         20
   317         10
   326         50
   327         11
   329         34
   330         11
   344        305
   345         75