##TITLE=Library Entry 20224
##JCAMP-DX=Revision 4.10 
##DATA TYPE=MASS SPECTRUM
##SAMPLE DESCRIPTION=CARL DJERASSI DEPT OF CHEM STANFORD UNIV STANFORD CALIF
 94305
##NAMES=HP
##CAS NAME=Ergost-25-ene-3,5,6-triol, (3.beta.,5.alpha.,6.beta.)-
##MOLFORM=C28H48O3
##CAS REGISTRY NO=56143-28-3
##MP= -300
##BP= -300
##MW= 432
##$RETENTION INDEX=0
##$CONDENSED SPECTRUM=NO
##NPOINTS= 249
##XYDATA=(XY..XY) 1 
    41        660
    42         50
    43        220
    44         40
    45         30
    53        120
    54         30
    55        999
    56         80
    57        200
    58         10
    59         10
    65         30
    66         20
    67        410
    68        170
    69        910
    70        510
    71        120
    72         10
    73         20
    77         80
    78         20
    79        290
    80         70
    81        810
    82        330
    83        420
    84        110
    85         40
    86         10
    87         10
    91        200
    92         50
    93        450
    94        220
    95        720
    96        350
    97        180
    98         20
    99         20
   101         20
   102         10
   103         10
   104         10
   105        240
   106         90
   107        380
   108        290
   109        590
   110        180
   111        130
   112         10
   115         10
   117         40
   118         40
   119        220
   120        100
   121        250
   122        210
   123        350
   124         80
   125         50
   126         20
   127         10
   128         80
   129         40
   130         10
   131        110
   132         40
   133        210
   134        110
   135        200
   136         70
   137        110
   138         30
   139         80
   140         30
   141        110
   142         30
   143         60
   144         20
   145        120
   146         50
   147        180
   148         80
   149        180
   150         60
   151         70
   152        120
   153         20
   154         10
   155         30
   156         20
   157         90
   158         40
   159        130
   160         50
   161        160
   162         60
   163        130
   164         40
   165         40
   166         50
   167         20
   169         30
   170         20
   171         60
   172         30
   173        100
   174         50
   175        140
   176         60
   177         90
   178         30
   179         30
   180         20
   183         30
   184         20
   185         90
   186         40
   187        110
   188         40
   189         90
   190         40
   191         40
   192         20
   193         20
   194         20
   195         20
   197         60
   198         20
   199         60
   200         30
   201        100
   202         40
   203         70
   204         30
   205         30
   206         20
   207         20
   208         20
   209         30
   211        140
   212         50
   213        110
   214         30
   215        110
   216         40
   217         50
   218         30
   219         30
   220         30
   221         20
   225         50
   226         30
   227         50
   228         20
   229        270
   230        120
   231        110
   232         30
   233         50
   234         30
   237         20
   239         20
   241         30
   242         20
   243        110
   244        170
   245         80
   246         30
   247        220
   248        120
   249         30
   250         30
   253         60
   254         20
   255         40
   256         40
   257         40
   259         20
   260         20
   261        120
   262         60
   263         30
   265         20
   269        190
   270         70
   271        180
   272         50
   273         40
   274        100
   275         30
   276         40
   283         30
   286         30
   287        200
   288         70
   289         40
   290         30
   292         60
   293         30
   297         70
   298         30
   299         50
   300         30
   301         30
   304         50
   305        210
   306        120
   307         30
   311         40
   312         40
   313         30
   315         70
   316         40
   325         30
   326         40
   327         40
   329         30
   330         80
   331         30
   333         80
   334         30
   343         40
   344         50
   345         30
   348         40
   353         40
   363         40
   367         50
   368         40
   378         60
   381        120
   382         60
   383         40
   385         40
   396         90
   397         50
   399         60
   400         40
   414        210
   415         80
   416         40
   417         70
   418         40
   432         70
   433         40