##TITLE=Library Entry 13693
##JCAMP-DX=Revision 4.10 
##DATA TYPE=MASS SPECTRUM
##SAMPLE DESCRIPTION=CARL DJERASSI DEPT OF CHEM STANFORD UNIV STANFORD CALIF
 94305
##NAMES=HP
##CAS NAME=2,20-Cyclo-8,9-secoaspidospermidine-3-methanol, 9-acetyl-, acetat
e (ester), (2.alpha.,3.beta.,5.alpha.,12.beta.,19.alpha.,20R)-
##MOLFORM=C24H32N2O3
##CAS REGISTRY NO=56145-37-0
##MP= -300
##BP= -300
##MW= 396
##$RETENTION INDEX=0
##$CONDENSED SPECTRUM=NO
##NPOINTS= 176
##XYDATA=(XY..XY) 1 
    40         80
    41        240
    42         60
    43        999
    44         60
    45         10
    51         10
    53         30
    54         15
    55        100
    56         20
    57         15
    58         10
    65          5
    67         30
    68         10
    69         25
    70         25
    77         40
    79         30
    81         30
    82          5
    83          5
    84         15
    86          5
    89         10
    91         35
    92         10
    93         35
    94         15
    95         20
    96         15
    97         10
   103         10
   104         10
   105         15
   106          5
   107          5
   115         50
   116          5
   117         15
   118         10
   126         40
   127         15
   128         25
   129         25
   130         85
   131         20
   132          5
   133         10
   135         20
   138          5
   140          5
   141         10
   142         15
   143         45
   144         55
   145          5
   147          5
   153          5
   154         45
   155         35
   156         80
   157         25
   158         25
   159         25
   160          5
   166          5
   167         55
   168        160
   169        115
   170        105
   171         85
   172         15
   180         55
   181        295
   182        145
   183         35
   184         15
   186          5
   187         15
   188          5
   191          5
   192         15
   193         25
   194         65
   195         45
   196         75
   197         55
   198         15
   199          5
   200          5
   201          5
   202         15
   203          5
   204         15
   205          5
   206         35
   207         35
   208         65
   209         25
   210         15
   211          5
   212          5
   213        315
   214         55
   215          5
   216          5
   217          5
   218         15
   219         15
   220         35
   221         15
   222         55
   223         15
   224         15
   225          5
   226          5
   228         25
   229          5
   232          5
   233          5
   234         35
   235         25
   236         35
   237         15
   238         85
   239         45
   240         15
   241        220
   242         35
   243          5
   247          5
   248         25
   249         25
   250         45
   251         35
   252         95
   253         25
   262         30
   263         15
   264         45
   265        115
   266         45
   267          5
   276         15
   277         25
   278         15
   279         45
   280          5
   293         75
   294         45
   295         15
   296          5
   298         45
   299          5
   307         45
   308          5
   311          5
   312          5
   321        245
   322          5
   323         15
   324          5
   325          5
   326          5
   335         25
   336         95
   337        175
   338         35
   353          5
   381         15
   395         15
   396        235
   397         65
   398          5