##TITLE=Library Entry 13133
##JCAMP-DX=Revision 4.10 
##DATA TYPE=MASS SPECTRUM
##SAMPLE DESCRIPTION=DENNIS H SMITH DEPT OF CHEM STANFORD UNIV STANFORD CALI
F 9430
##NAMES=HP
##CAS NAME=Pregna-1,4,7,16-tetraene-3,20-dione
##MOLFORM=C21H24O2
##CAS REGISTRY NO=56145-33-6
##MP= -300
##BP= -300
##MW= 308
##$RETENTION INDEX=0
##$CONDENSED SPECTRUM=NO
##NPOINTS= 120
##XYDATA=(XY..XY) 1 
    41         70
    43        999
    45         20
    51         19
    52         13
    53         38
    55         58
    65         39
    67         31
    75         24
    77        110
    78         35
    79         91
    81         32
    83         19
    85          8
    89         16
    91        156
    92         27
    93         78
    94          9
    95         50
   102         13
   103         30
   104         17
   105         91
   106         18
   107         75
   108         14
   109         20
   115        116
   116         38
   117         62
   118         19
   119         42
   120         21
   121        107
   122         93
   123         46
   124         23
   127         46
   128        119
   129        105
   130         43
   131        147
   132         46
   133         99
   134         67
   135        164
   136         59
   137         63
   138          9
   141         58
   142         36
   143         50
   144         58
   145        126
   146         50
   147         96
   148         33
   149         36
   150         28
   152         30
   153         23
   155         41
   156         10
   157        127
   158        101
   159        184
   160         82
   161         58
   165         33
   166         20
   167         24
   169         19
   171        211
   172        136
   173        169
   174        163
   175        424
   178         21
   179         19
   181         15
   183         22
   184         12
   185         36
   186         31
   187         59
   189         24
   191         13
   193         11
   195          9
   197         22
   198        118
   199         34
   200         28
   201          9
   202         10
   209         18
   210          9
   211         14
   223         14
   225          9
   237         20
   249          9
   250         13
   251         17
   265         54
   266         10
   269          8
   275         12
   282         40
   283          9
   291          8
   293         47
   294         12
   295         12
   308        297
   309         97
   310         11