##TITLE=Library Entry 14813
##JCAMP-DX=Revision 4.10 
##DATA TYPE=MASS SPECTRUM
##SAMPLE DESCRIPTION=CARL DJERASSI DEPT OF CHEM STANFORD UNIV STANFORD CALIF
 94305
##NAMES=HP
##CAS NAME=2,20-Cycloaspidospermidine-3-carboxylic acid, 1-formyl-10-oxo-, m
ethyl ester, (2.alpha.,3.alpha.,5.alpha.,12.beta.,19.alpha.,20R)-
##MOLFORM=C22H24N2O4
##CAS REGISTRY NO=56145-38-1
##MP= -300
##BP= -300
##MW= 380
##$RETENTION INDEX=0
##$CONDENSED SPECTRUM=NO
##NPOINTS= 218
##XYDATA=(XY..XY) 1 
    41        300
    42        150
    43        999
    44        120
    45         50
    50        120
    51        150
    52        140
    53        100
    54         60
    55        180
    56         50
    57         60
    58        200
    59         80
    60         10
    63         60
    65         70
    67        110
    68         40
    69         50
    70         30
    71         20
    73         20
    74         30
    75         30
    76         50
    77        240
    78        570
    79        110
    80         50
    81         90
    82         40
    83         30
    84         20
    87         20
    89         20
    90         30
    91        120
    92         20
    93         50
    94         80
    95         70
    96         80
    97         30
    98         10
    99         10
   101         30
   102         40
   103         50
   104         40
   105         60
   106         30
   107         30
   108         60
   109         90
   110        330
   111        110
   112         10
   113         10
   114         20
   115         80
   116         30
   117         40
   118         30
   119         10
   120         10
   121         20
   122         20
   123        210
   124        360
   125         80
   126         10
   127         60
   128         90
   129        100
   130         90
   131         30
   132         30
   136         30
   137         20
   138         10
   139         20
   140         50
   141         30
   142         30
   143         60
   144         40
   145         10
   146         80
   147         10
   149         20
   154        120
   155         90
   156        200
   157         60
   158         20
   159         20
   160         30
   166         20
   167         80
   168         60
   169        240
   170        120
   171         30
   176         30
   177         60
   178         20
   179         20
   180         60
   181         40
   182         40
   183         60
   184        190
   185         50
   186         10
   191         20
   192         20
   193         50
   194         90
   195         40
   196         30
   197         50
   198        110
   199         50
   200         30
   201        270
   202        150
   203         20
   204         20
   205         10
   206         40
   207         50
   208         70
   209         50
   210         20
   211         60
   212         50
   213         30
   214         60
   215        140
   216         30
   217         10
   219         10
   220         30
   221         30
   222         30
   223         30
   224         10
   225         30
   226         20
   227         80
   228         20
   229        150
   230         20
   234         10
   235         30
   236         10
   237         40
   238         30
   239         20
   240         10
   243        140
   244         20
   247         10
   248         20
   249         30
   250         20
   251         40
   252         10
   253         20
   254         60
   255         10
   256         50
   257         10
   263         10
   264         20
   265         90
   266         80
   267         30
   268         10
   270         20
   277         10
   278         10
   279        130
   280         30
   281         20
   282         10
   283         10
   291         20
   292         20
   293         80
   294         20
   295         10
   305         10
   308         10
   309         10
   310         10
   319         10
   320         30
   321         60
   322         10
   323         10
   324         10
   335         10
   336         20
   337         60
   338         20
   349         40
   350         20
   351         40
   352        680
   353        170
   354         30
   368         60
   369         10
   380        120
   381         10