##TITLE=Library Entry 6803
##JCAMP-DX=Revision 4.10 
##DATA TYPE=MASS SPECTRUM
##SAMPLE DESCRIPTION=CARL DJERASSI DEPT OF CHEM STANFORD UNIV STANFORD CALIF
 94305
##NAMES=HP
##CAS NAME=Aspidospermidine-3-carboxylic acid, 20-(acetyloxy)-2,3-didehydro-
, methyl ester, (5.alpha.,12.beta.,19.alpha.,20R)-
##MOLFORM=C23H28N2O4
##CAS REGISTRY NO=56143-41-0
##MP= -300
##BP= -300
##MW= 396
##$RETENTION INDEX=0
##$CONDENSED SPECTRUM=NO
##NPOINTS= 218
##XYDATA=(XY..XY) 1 
    41        175
    42        170
    43        999
    44        550
    45        240
    46         10
    47         55
    48         30
    49         25
    50         45
    51         35
    52         20
    53         35
    54         20
    55         90
    56         60
    57         80
    59         25
    60        200
    61         15
    62          5
    63         20
    64         15
    65         40
    66         15
    67         50
    68         30
    69         70
    70         30
    71         25
    72          5
    73         20
    74         15
    75         10
    76         25
    77         50
    78         20
    79         35
    80         25
    81         35
    82         25
    83        170
    84         45
    85        125
    86         10
    87         30
    88          5
    89         10
    90          5
    91         30
    92         55
    93         45
    94         25
    95         30
    96         30
    97         25
    98         25
    99         10
   100          5
   101         15
   102         20
   103         20
   104         35
   105         45
   106         35
   107         45
   108         30
   109         50
   110         40
   111         30
   112         10
   113         10
   114         10
   115         35
   116         20
   117         30
   118         10
   119         15
   120         20
   121         30
   122        285
   123         35
   124         40
   125         15
   126          5
   127         25
   128         30
   129         20
   130         30
   131         15
   132          5
   133         10
   134         10
   135         20
   136         15
   137         10
   138         25
   139         15
   140         20
   141         15
   142         15
   143         20
   144         20
   145         10
   146          5
   147         10
   148         10
   149        275
   150        245
   151         10
   152         15
   153         10
   154         35
   155         20
   156         35
   157         25
   158         15
   159         10
   160          5
   163          5
   164          5
   165         10
   166         15
   167         45
   168         55
   169         35
   170         25
   171         15
   172          5
   177          5
   178         10
   179         10
   180         35
   181         20
   182        285
   183         60
   184         15
   185         10
   190          5
   191         10
   192         10
   193         15
   194         55
   195         30
   196         20
   197         25
   198         10
   199          5
   204         10
   205         20
   206         30
   207         25
   208         60
   209         30
   210         20
   211         10
   214          5
   217         10
   218         10
   219         20
   220         15
   221         20
   222         15
   223         30
   224         10
   228         15
   229          5
   230          5
   231          5
   232          5
   233         10
   234         15
   235         10
   236          5
   237         10
   238          5
   239         10
   247         15
   248         10
   249         30
   250         15
   251        125
   252         35
   253         10
   259         15
   260         10
   261         15
   262         10
   263         20
   264          5
   265         15
   266         10
   267         10
   268         10
   273         10
   274         10
   275         15
   276         10
   277         30
   278         55
   279         45
   280         15
   281         10
   295         15
   300        505
   303         10
   304         15
   306         10
   307         10
   309         10
   336         35
   337         30
   338         95
   339         25
   350         15
   351         15
   396         25
   397         15