##TITLE=Library Entry 21063
##JCAMP-DX=Revision 4.10 
##DATA TYPE=MASS SPECTRUM
##SAMPLE DESCRIPTION=J.A.KATZENELLENBOGEN UNIV. ILLINOIS, URBANA, ILLINOIS,
 USA
##NAMES=HP
##CAS NAME=2,6-Decadien-1-ol, 7-methyl-3-propyl-
##MOLFORM=C14H26O
##CAS REGISTRY NO=56153-12-9
##MP= -300
##BP= -300
##MW= 210
##$RETENTION INDEX=0
##$CONDENSED SPECTRUM=NO
##NPOINTS= 85
##XYDATA=(XY..XY) 1 
    27         65
    28         49
    29        212
    30         11
    31        183
    32        132
    39         88
    40         15
    41        268
    42         19
    43        187
    44          8
    45         20
    46          5
    51          6
    53         70
    54         16
    55        999
    56         69
    57         46
    58         21
    59         13
    65         19
    66         10
    67         93
    68         98
    69        138
    70         24
    71         95
    72          5
    73         13
    77         26
    78         10
    79         96
    80         32
    81        142
    82         28
    83         72
    84        105
    85         14
    87         21
    91         33
    92          6
    93         63
    94         10
    95         46
    96         66
    97        311
    98         30
    99         14
   100          6
   101          5
   105         10
   107         52
   108         60
   109         42
   110          9
   111         10
   112         39
   113          8
   120         18
   121         82
   122         26
   123         23
   124         10
   125         25
   126          6
   135          9
   137          8
   139         31
   149        108
   150         19
   151          5
   163         15
   165          6
   166          5
   167         41
   168         13
   177          7
   179         50
   180          9
   192         26
   193          6
   210         56
   211          9