##TITLE=Library Entry 78751
##JCAMP-DX=Revision 4.10 
##DATA TYPE=MASS SPECTRUM
##SAMPLE DESCRIPTION=Asinex Ltd, Moscow, Russia
##NAMES=HP
##CAS NAME=Benzoic acid 5-methyl-2-phenyl-2H-pyrazol-3-yl ester
##MOLFORM=C17H14N2O2
##CAS REGISTRY NO=56159-67-2
##MP= -300
##BP= -300
##MW= 278
##$RETENTION INDEX=0
##$CONDENSED SPECTRUM=NO
##NPOINTS= 105
##XYDATA=(XY..XY) 1 
    33          0
    34          0
    36          2
    37          3
    38         10
    39         53
    40         47
    41          8
    42          3
    43          4
    44          8
    45          1
    46          0
    50         35
    51        118
    52         10
    53          2
    54          3
    55          3
    56          1
    57          2
    60          0
    61          0
    62          2
    63          6
    64          6
    65          5
    66          1
    67          6
    68          3
    69          3
    70          1
    71          1
    73          1
    74          6
    75          7
    77        426
    78         27
    79          2
    80          0
    81          0
    82          1
    83          0
    84          0
    87          0
    88          0
    89          3
    90          1
    91         10
    92          1
    93          0
    94          0
    95          0
    97          0
    98          0
   101          0
   102          1
   105        999
   106         75
   107          5
   108          0
   110          0
   111          0
   112          0
   113          0
   115          4
   116          2
   117          0
   118          0
   119          0
   120          0
   121          0
   122          7
   123          0
   127          0
   128          0
   129          0
   130          0
   131          0
   132          0
   139          1
   140          0
   141          0
   143          0
   144          0
   145          0
   146          0
   151          0
   152          0
   153          0
   156          0
   157          0
   158          0
   166          0
   167          0
   171          1
   173          8
   174          5
   175          0
   181          0
   251          0
   276          0
   278         30
   279          5
   280          0