##TITLE=Library Entry 58425
##JCAMP-DX=Revision 4.10 
##DATA TYPE=MASS SPECTRUM
##SAMPLE DESCRIPTION=V.G.Zaikin, Petrochem. Synth. Inst., Moscow
##NAMES=HP
##CAS NAME=Butyric acid, tridecyl ester
##MOLFORM=C17H34O2
##CAS REGISTRY NO=56164-20-6
##MP= -300
##BP= -300
##MW= 270
##$RETENTION INDEX=0
##$CONDENSED SPECTRUM=NO
##NPOINTS= 74
##XYDATA=(XY..XY) 1 
    26         15
    27        104
    28         54
    29        142
    31          7
    39         77
    40         19
    41        386
    42        129
    43        771
    44         55
    45         15
    51          8
    52          7
    53         18
    54         69
    55        404
    56        291
    57        408
    58         25
    60         55
    61         15
    65          7
    66          9
    67         65
    68        117
    69        337
    70        348
    71        825
    72         55
    73         29
    79          7
    81         29
    82        137
    83        362
    84        214
    85        117
    86         21
    87         16
    88         91
    89        999
    90         48
    91          7
    95         16
    96         65
    97        278
    98        137
    99         29
   101         15
   109          7
   110         29
   111        141
   112         91
   113         17
   115          7
   116          7
   124          7
   125         68
   126         55
   127          9
   129         11
   139         21
   140         28
   141          7
   144         49
   145          4
   152          7
   153         11
   154         94
   155         19
   182        118
   183         24
   227         12
   228          7