##TITLE=Library Entry 17392
##JCAMP-DX=Revision 4.10 
##DATA TYPE=MASS SPECTRUM
##SAMPLE DESCRIPTION=NIST Mass Spectrometry Data Center, 2007
##NAMES=HP
##CAS NAME=Heptaethylene glycol
##MOLFORM=C14H30O8
##CAS REGISTRY NO=5617-32-3
##MP= -300
##BP= -300
##MW= 326
##$RETENTION INDEX=2364
##$CONDENSED SPECTRUM=NO
##NPOINTS= 94
##XYDATA=(XY..XY) 1 
    15         12
    16          1
    19         14
    25          1
    26          5
    27         32
    28         57
    29         58
    30         11
    31         51
    32          2
    33          1
    39          1
    40          1
    41         15
    42         18
    43        112
    44        100
    45        999
    46         24
    47          3
    55          1
    56          3
    57         19
    58         63
    59         85
    60          6
    61          8
    62          1
    69          3
    70         12
    71         16
    72         48
    73         70
    74          6
    75         35
    76          2
    77         11
    80          1
    83          1
    84          1
    85          1
    86         16
    87        152
    88         77
    89        430
    90         21
    91          3
    99          2
   100          3
   101         32
   102         13
   103         38
   104          5
   105          4
   107          4
   113          1
   114          2
   115          4
   116          3
   117         15
   118          2
   119         11
   120          1
   121         16
   131         36
   132          5
   133        138
   134         10
   135          3
   145          1
   147          3
   148          1
   149          1
   151          5
   161          1
   163         11
   164          1
   165          3
   175         15
   176          2
   177         17
   178          2
   179          1
   195          3
   207          5
   208          2
   209          1
   219          1
   221          1
   223          2
   239          5
   251          2
   283          1