##TITLE=Library Entry 52775
##JCAMP-DX=Revision 4.10 
##DATA TYPE=MASS SPECTRUM
##SAMPLE DESCRIPTION=Japan AIST/NIMC Database- Spectrum MS-IW-1908
##NAMES=HP
##CAS NAME=Heptylcyclohexane
##MOLFORM=C13H26
##CAS REGISTRY NO=5617-41-4
##MP= -300
##BP= -300
##MW= 182
##$RETENTION INDEX=1346
##$CONDENSED SPECTRUM=NO
##NPOINTS= 99
##XYDATA=(XY..XY) 1 
    26          1
    27         35
    28          7
    29         66
    30          1
    36          1
    39         40
    40          7
    41        214
    42         36
    43        119
    44          4
    50          1
    51          3
    52          2
    53         22
    54         46
    55        510
    56         92
    57        110
    58          5
    63          1
    65          5
    66          4
    67        160
    68         40
    69        123
    70         65
    71         32
    72          2
    77          7
    78          2
    79          9
    80          3
    81         35
    82        815
    83        999
    84         96
    85         20
    86          1
    91          4
    92          1
    93          2
    94          1
    95         10
    96         19
    97         72
    98         48
    99         10
   105          3
   106          1
   107          1
   108          1
   109          3
   110          6
   111         20
   112          9
   113          4
   115          2
   117          1
   119          3
   120          1
   121          3
   122          1
   123          1
   124          2
   125          8
   126          4
   127          1
   128          1
   129          1
   131          1
   133          1
   135          3
   136          2
   137          2
   138          1
   139          4
   140          3
   141          5
   143          1
   144          1
   145          2
   149          1
   150          1
   151          1
   152          1
   153          1
   154          4
   155          1
   156          5
   157          1
   158          2
   159          1
   163          1
   181          1
   182        104
   183         14
   184          1