##TITLE=Library Entry 13922
##JCAMP-DX=Revision 4.10 
##DATA TYPE=MASS SPECTRUM
##SAMPLE DESCRIPTION=CARL DJERASSI DEPT OF CHEM STANFORD UNIV STANFORD CALIF
 94305
##NAMES=HP
##CAS NAME=5.alpha.,17.alpha.-Pregnan-20-one, 12.beta.-hydroxy-
##MOLFORM=C21H34O2
##CAS REGISTRY NO=5618-23-5
##MP= -300
##BP= -300
##MW= 318
##$RETENTION INDEX=0
##$CONDENSED SPECTRUM=NO
##NPOINTS= 154
##XYDATA=(XY..XY) 1 
    40        150
    41        540
    42         90
    43        999
    44        110
    45         30
    51         20
    52         10
    53        120
    54         30
    55        460
    56        160
    57        150
    58         10
    65         60
    66         20
    67        330
    68         60
    69        190
    70         20
    71        130
    72         10
    73         10
    77        120
    78         40
    79        220
    80         50
    81        380
    82         50
    83        120
    84         90
    85         40
    86         20
    91        180
    92         40
    93        200
    94         50
    95        240
    96         40
    97         60
    98         10
    99         30
   100         10
   103         20
   104         10
   105        160
   106         50
   107        180
   108         60
   109        280
   110         50
   111         30
   115         20
   116         10
   117         30
   118         20
   119         70
   120         50
   121        140
   122         50
   123         90
   124         10
   125         20
   128         20
   129         10
   130         10
   131         40
   132         30
   133        120
   134         20
   135        110
   136         20
   137         60
   138         10
   141         10
   143         10
   145         50
   146         50
   147        150
   148         40
   149        210
   150         40
   151         20
   153         10
   157         10
   159         30
   160         10
   161        130
   162         20
   163         50
   164         10
   165         10
   171         10
   172         10
   173         20
   174         10
   175         40
   176         10
   177         10
   178         10
   179         10
   185         10
   187         10
   188         10
   189         30
   190         40
   191         20
   192         10
   193         10
   199         10
   201         20
   202         10
   203         40
   204         10
   205         10
   213         10
   214         10
   215         50
   216         30
   217         20
   219         10
   227         10
   229         10
   230         10
   231         10
   232         10
   233        720
   234        140
   235         10
   241         10
   242        220
   243         80
   244         10
   255         40
   256         30
   257        480
   258        110
   259         20
   260         10
   267         10
   271         10
   272         10
   275         20
   282         10
   285        120
   286         30
   300        240
   301         60
   302         10
   303         10
   316         10
   317         20
   318         50
   319         10