##TITLE=Library Entry 7655
##JCAMP-DX=Revision 4.10 
##DATA TYPE=MASS SPECTRUM
##SAMPLE DESCRIPTION=C.C.SWEELEY,DEPT OF BIOCHEM,MICHIGAN STATE UNIV.EAST LA
NSING,
##NAMES=HP
##CAS NAME=Benzo[g]pteridine-2,4(3H,10H)-dione, 7,10-dimethyl-
##MOLFORM=C12H10N4O2
##CAS REGISTRY NO=5618-84-8
##MP= -300
##BP= -300
##MW= 242
##$RETENTION INDEX=0
##$CONDENSED SPECTRUM=NO
##NPOINTS= 155
##XYDATA=(XY..XY) 1 
    40         72
    41        838
    42        496
    43        999
    44        115
    45         32
    46          6
    49          6
    50         26
    51         72
    52         28
    53         39
    54         23
    55        155
    56        763
    57        873
    58         33
    59          4
    60         18
    61          4
    62          9
    63         28
    64          4
    65         42
    66         21
    67          4
    68          3
    69        562
    70         46
    71        121
    72          8
    73         11
    74          5
    75         10
    76          3
    77         58
    78         21
    79          4
    81         11
    82         10
    83         14
    84         65
    85         23
    86         93
    87          8
    88         11
    89         39
    92          7
    93          9
    96          3
    98          7
    99          9
   100         24
   101          3
   102         10
   103         26
   104         29
   105          3
   106          3
   108          7
   109          4
   110          5
   111          3
   112          3
   113          9
   114          4
   116         24
   117         35
   119        114
   120          3
   121          5
   122          3
   123          3
   125          4
   126          3
   128          3
   129         14
   130         11
   131        118
   132         14
   133          4
   140          4
   142          5
   144         57
   145        124
   146         74
   147         14
   152          3
   153          4
   154          4
   155          4
   156         31
   157         54
   158         21
   159         11
   160         31
   161         44
   162         13
   168          4
   169         67
   171         25
   173         28
   174        101
   175          7
   179          3
   181         60
   183          3
   184          4
   185          4
   186          4
   188          7
   189        228
   190         35
   191          3
   197          4
   198          4
   199         81
   200          8
   201          7
   202          5
   203          3
   204          3
   205          9
   207          4
   208          4
   209          4
   210          5
   211          4
   212          4
   213          5
   214          3
   215          4
   216          4
   217         98
   218          3
   219         23
   221          4
   222          4
   223          3
   224          3
   227          4
   228         37
   229          6
   230          4
   231         30
   232          3
   236          4
   238          3
   240          4
   241          4
   242        172
   243         58
   244          4
   245          4
   246          4