##TITLE=Library Entry 24336
##JCAMP-DX=Revision 4.10 
##DATA TYPE=MASS SPECTRUM
##SAMPLE DESCRIPTION=EP-1262
##NAMES=HP
##CAS NAME=Octadecanoic acid, 2-[(1-oxododecyl)oxy]-1,3-propanediyl ester
##MOLFORM=C51H98O6
##CAS REGISTRY NO=56183-45-0
##MP= -300
##BP= -300
##MW= 806
##$RETENTION INDEX=0
##$CONDENSED SPECTRUM=NO
##NPOINTS= 455
##XYDATA=(XY..XY) 1 
    26          5
    27         52
    28         17
    29        158
    30          5
    31          7
    32          1
    36          1
    37          1
    38          2
    39         34
    40          9
    41        361
    42         77
    43        805
    44         29
    45         20
    46          1
    47          1
    50          1
    51          2
    52          1
    53         15
    54         40
    55        515
    56        113
    57        999
    58         52
    59         20
    60        258
    61         77
    62          3
    63          1
    65          3
    66          4
    67        100
    68         48
    69        319
    70         77
    71        547
    72         34
    73        323
    74         32
    75          5
    76          1
    77          3
    78          2
    79         20
    80         12
    81        129
    82         51
    83        281
    84        171
    85        348
    86         27
    87         55
    88          7
    89          2
    90          1
    91          5
    92          2
    93         21
    94         11
    95        181
    96         48
    97        216
    98        261
    99         90
   100         29
   101         32
   102         10
   103          2
   104          1
   105          3
   106          1
   107         18
   108          7
   109        106
   110         25
   111        103
   112         87
   113         52
   114          9
   115         39
   116         37
   117         20
   118          2
   119          2
   120          2
   122          5
   123         48
   124         13
   125         36
   126         23
   127         24
   128          5
   129         19
   130         13
   131          2
   132          1
   133          2
   134          2
   135         19
   136          5
   137         19
   138         12
   140         13
   141         15
   142          5
   143         19
   144          3
   145         13
   147          2
   148          1
   149          9
   150          3
   151          9
   152          6
   153         11
   154         12
   155         14
   156          4
   157         16
   158         90
   159         12
   160          2
   161          1
   162          1
   163          8
   164          3
   165          9
   166          5
   167          7
   168          7
   169         12
   170          6
   171        145
   172         23
   173          4
   174          1
   175          1
   176          1
   177          3
   178          2
   179          3
   180          5
   181         10
   182         15
   183        419
   184         61
   185         65
   186         11
   187          3
   188          1
   189          1
   190          1
   191          2
   192          1
   193          2
   194          2
   195          4
   196          6
   197          9
   198          5
   199         23
   200          7
   201          4
   202          1
   203          1
   204          1
   205          1
   206          1
   207          1
   208          2
   209          4
   210          5
   211          8
   212          2
   213         34
   214          8
   215          2
   216          1
   217          1
   218          1
   219          1
   220          1
   221          1
   222          5
   223          4
   224          7
   225         11
   226          3
   227         61
   228         11
   229          2
   230          1
   231          1
   232          1
   233          1
   234          1
   235          1
   236          1
   237          3
   238          3
   239         10
   240          4
   241         50
   242         10
   243          4
   244          1
   245          1
   246          1
   247          3
   248          2
   249          4
   250          1
   251          1
   252          3
   253          7
   254          3
   255         32
   256         11
   258         22
   259          4
   260          1
   261          1
   262          1
   263          1
   264          5
   265          9
   266         26
   267        229
   268         48
   269         22
   270          5
   271          1
   273          1
   274          1
   275          4
   276          1
   277          1
   279          1
   280          2
   281          6
   282          3
   283         18
   284         29
   285          9
   286          1
   290          1
   291          1
   292          1
   293          2
   294          1
   295          5
   296          2
   297         13
   298         36
   299         26
   300          5
   301          1
   302          1
   306          1
   307          1
   309          9
   310          3
   311        210
   312         46
   313          8
   314          1
   315          1
   316          1
   317          1
   321          1
   322          2
   323          4
   324          4
   325          2
   326          7
   327          5
   328          1
   335          1
   336          2
   337          4
   338          4
   339         32
   340         17
   341        155
   342         38
   343          7
   344          1
   349          1
   350          1
   351          2
   352          1
   353         30
   354          9
   355          2
   356          1
   357          1
   358          1
   359          5
   360          1
   364          1
   365          3
   366          2
   367         68
   368         19
   369          4
   370          1
   378          1
   379          2
   380          1
   381         12
   382         52
   383         33
   384          7
   385          2
   386          1
   392          1
   393          5
   394          3
   395        300
   396         84
   397         15
   398          2
   400          1
   401          1
   407          2
   408          2
   409         31
   410         11
   411          3
   412          1
   413          1
   419          1
   420          1
   421          3
   422          2
   423         28
   424         11
   425          3
   426          1
   427          1
   435          2
   436          1
   437         49
   438         17
   439          5
   440          1
   442          2
   447          1
   448          2
   449          3
   450          2
   451         84
   452         33
   453          7
   454          2
   463          1
   464          1
   465         21
   466          9
   467          3
   468          1
   477          2
   478          1
   479         74
   480         28
   481          6
   482          1
   491          1
   492          1
   493          3
   494         15
   495          6
   496          2
   497          1
   505          1
   506          1
   507         14
   508          7
   509         11
   510          4
   511          1
   519          1
   520          2
   521         23
   522         77
   523        255
   524         90
   525         20
   526          4
   527          1
   532          1
   533          1
   535          4
   536          3
   537          1
   541          1
   549          5
   550          3
   551          1
   557        123
   563         16
   564         11
   565          4
   566          1
   567          3
   568          1
   577          6
   578          4
   579          3
   580          1
   582          1
   583          1
   591          1
   592          3
   593          1
   594          1
   604          2
   605          9
   606         27
   607         68
   608         29
   609          7
   610          1
   619          1
   620          1
   621          1
   633          1
   634          1
   635          1
   648          6
   649          3
   651          3
   652          2
   653          1
   662          1
   663          1
   666          2
   667          1
   676          2
   677          1
   690          1
   691          1
   704          1
   705          1
   718          1
   732          1
   733          1
   788          1
   789          1
   806          1
   807          1