##TITLE=Library Entry 6102
##JCAMP-DX=Revision 4.10 
##DATA TYPE=MASS SPECTRUM
##SAMPLE DESCRIPTION=B.WEBSTER ICI PHARMACEUTICALS DIVISION, ALDERLEY PARK C
HESHIRE
##NAMES=HP
##CAS NAME=Hydroxylamine, O-(2-methylpropyl)-
##MOLFORM=C4H11NO
##CAS REGISTRY NO=5618-62-2
##MP= -300
##BP= -300
##MW= 89
##$RETENTION INDEX=0
##$CONDENSED SPECTRUM=NO
##NPOINTS= 27
##XYDATA=(XY..XY) 1 
    39        273
    40         40
    41        787
    42        273
    43        999
    44         93
    45         33
    46         80
    47         10
    50          7
    51         10
    53         27
    54          7
    55        240
    56        200
    57        540
    58         67
    59         14
    60         10
    69         14
    70         87
    71        240
    72         33
    73         10
    74         20
    75          7
    89          7