##TITLE=Library Entry 75083
##JCAMP-DX=Revision 4.10 
##DATA TYPE=MASS SPECTRUM
##SAMPLE DESCRIPTION=Chemical Concepts
##NAMES=HP
##CAS NAME=Cyclohexanone, 4,4-dimethoxy-
##MOLFORM=C8H14O3
##CAS REGISTRY NO=56180-50-8
##MP= -300
##BP= -300
##MW= 158
##$RETENTION INDEX=0
##$CONDENSED SPECTRUM=NO
##NPOINTS= 71
##XYDATA=(XY..XY) 1 
    26         16
    27        126
    28         46
    29         96
    30          6
    31         31
    33          2
    37          2
    38          6
    39         83
    40         17
    41        150
    42         45
    43        102
    44         12
    45         43
    47          2
    50          4
    51          9
    52          5
    53         36
    54         39
    55        231
    56         42
    57        262
    58         27
    59        128
    60         41
    67        223
    68         69
    69         30
    70          6
    71         42
    72         81
    73         17
    74         13
    75          4
    77          3
    79          3
    81         12
    82          6
    83         26
    84         25
    85        281
    86         24
    87          5
    88         17
    95         24
    96         65
    97         77
   101        999
   102        324
   103         32
   104          2
   109          8
   111         21
   112          3
   113          3
   114          4
   115          6
   125          2
   126         38
   127        773
   128         40
   129          5
   141          4
   142          6
   143         16
   157          5
   158         95
   159          8