##TITLE=Library Entry 61147
##JCAMP-DX=Revision 4.10 
##DATA TYPE=MASS SPECTRUM
##SAMPLE DESCRIPTION=ORMSBG,9(7)672(1974); TAMAS
##NAMES=HP
##CAS NAME=Benzenepropanoic acid, .alpha.-(aminooxy)-
##MOLFORM=C9H11NO3
##CAS REGISTRY NO=5619-43-2
##MP= -300
##BP= -300
##MW= 181
##$RETENTION INDEX=0
##$CONDENSED SPECTRUM=NO
##NPOINTS= 16
##XYDATA=(XY..XY) 1 
    44        260
    45         73
    51         77
    59         62
    65        160
    77        100
    79        110
    91        999
   103        120
   107        350
   120        150
   131        160
   149        180
   164         12
   166         15
   181          5