##TITLE=Library Entry 42899
##JCAMP-DX=Revision 4.10 
##DATA TYPE=MASS SPECTRUM
##SAMPLE DESCRIPTION=Exported from NIST MS Search
##NAMES=HP
##CAS NAME=D-Glycero-D-gulo-Heptose, 2,3,4,5,6,7-hexakis-O-(trimethylsilyl)-
, O-methyloxime
##MOLFORM=C26H65NO7Si6
##CAS REGISTRY NO=56196-15-7
##MP= -300
##BP= -300
##MW= 671
##$RETENTION INDEX=0
##$CONDENSED SPECTRUM=NO
##NPOINTS= 84
##XYDATA=(XY..XY) 1 
    29          9
    41          4
    43          4
    45         28
    59         28
    72          4
    73        999
    74         80
    75         66
    89         33
   101          9
   103        228
   104         19
   105         19
   117         57
   129         33
   130          4
   131         14
   133         57
   143          9
   145          4
   147        238
   148         38
   149         28
   157          9
   160        400
   161         57
   162         14
   163          4
   189         38
   190          9
   191        152
   192         23
   193         14
   201         23
   204         76
   205        228
   206         42
   207         28
   216          9
   217        238
   218         42
   219         19
   221          9
   229          4
   230          4
   231         23
   232          4
   233          4
   234          4
   246          4
   259         33
   262         52
   263          9
   274         14
   277         23
   278          4
   291         19
   293          4
   305         52
   306         19
   307        219
   308         61
   309         28
   319        133
   320         38
   321         14
   331         85
   332         33
   333         14
   344         23
   345          9
   356          4
   364         38
   365          9
   376         23
   377          9
   421         90
   422         38
   423         14
   466         47
   467         23
   468          9
   568          4