##TITLE=Library Entry 41967
##JCAMP-DX=Revision 4.10 
##DATA TYPE=MASS SPECTRUM
##SAMPLE DESCRIPTION=Exported from NIST MS Search
##NAMES=HP
##CAS NAME=D-Ribose, 2-O-methyl-3,4,5-tris-O-(trimethylsilyl)-, O-methyloxim
e
##MOLFORM=C16H39NO5Si3
##CAS REGISTRY NO=56196-10-2
##MP= -300
##BP= -300
##MW= 409
##$RETENTION INDEX=0
##$CONDENSED SPECTRUM=NO
##NPOINTS= 89
##XYDATA=(XY..XY) 1 
    29         42
    30         14
    31         28
    32         33
    41          9
    42          4
    43         23
    44         23
    45        123
    55          9
    57          4
    58         14
    59         76
    61          4
    71         14
    72         28
    73        999
    74         85
    75        104
    77          9
    79          4
    84          9
    85          9
    87          4
    89         90
    90          4
    91          4
    99         14
   100         14
   101         33
   102        119
   103        447
   104         38
   105         23
   113          4
   115          4
   116         28
   117        133
   118         14
   119         14
   126          9
   129         28
   130          4
   131        123
   132         14
   133         76
   134          9
   135          4
   142          9
   143         28
   146        257
   147        328
   148         57
   149         28
   156          9
   157         14
   158         14
   159         28
   163         14
   172         38
   173         47
   174         23
   175         23
   189         38
   190          9
   191         14
   198         28
   204         33
   205        152
   206         33
   207         14
   214         14
   216          9
   217        133
   218         33
   219         19
   221          9
   230          9
   233          9
   246          9
   247          9
   274         33
   275          4
   277         23
   287          4
   306          9
   307        114
   308         42
   309         28