##TITLE=Library Entry 43641
##JCAMP-DX=Revision 4.10 
##DATA TYPE=MASS SPECTRUM
##SAMPLE DESCRIPTION=VERN REINHOLD,A.D.LITTLE INC.,CAMBRIDGE,MASS
##NAMES=HP
##CAS NAME=.alpha.-d-Glucopyranose, 2-(acetylamino)-3,6-anhydro-2-deoxy-1,4-
bis-O-(trimethylsilyl)-
##MOLFORM=C14H29NO5Si2
##CAS REGISTRY NO=56196-86-2
##MP= -300
##BP= -300
##MW= 347
##$RETENTION INDEX=0
##$CONDENSED SPECTRUM=NO
##NPOINTS= 111
##XYDATA=(XY..XY) 1 
    30         50
    31        101
    39         28
    42         46
    43        239
    46         39
    49         28
    53         33
    54         48
    56         70
    58        134
    59        386
    60         94
    61         90
    67         52
    68         54
    69        116
    70         44
    71         98
    72        118
    73        999
    74        134
    76         70
    80         26
    81         26
    83         81
    84         30
    85         48
    87         87
    88         79
    89        323
    90         24
    96         33
    97        393
    98         57
    99         54
   100         65
   101        296
   102         83
   103        463
   104         30
   105         30
   109         37
   110         28
   111         50
   112         46
   113         35
   115         33
   116        701
   117        404
   118         76
   119         41
   125         57
   126         98
   128         35
   129        123
   130         44
   131         44
   132         76
   133        149
   139         70
   140         33
   141         39
   142         63
   143         83
   144        101
   145         35
   147         85
   149         98
   150         28
   154         24
   155         41
   156         44
   157        164
   158        492
   159        189
   160        316
   161         44
   169         70
   170         52
   172         35
   173         39
   174         37
   182         90
   183         41
   184         50
   185         26
   186        118
   187         50
   198         76
   199         92
   200        109
   201         26
   202        272
   204         26
   207         52
   211         37
   212         28
   214        470
   215         83
   216         28
   224         48
   230         24
   242         61
   243         87
   244         52
   258        775
   259        162
   260         83
   272         52
   332         59