##TITLE=Library Entry 41970
##JCAMP-DX=Revision 4.10 
##DATA TYPE=MASS SPECTRUM
##SAMPLE DESCRIPTION=NIST Mass Spectrometry Data Center, 2010
##NAMES=HP
##CAS NAME=d-Ribose, 2,3,4,5-tetrakis-O-(trimethylsilyl)-, O-methyloxime
##MOLFORM=C18H45NO5Si4
##CAS REGISTRY NO=56196-08-8
##MP= -300
##BP= -300
##MW= 467
##$RETENTION INDEX=1668
##$CONDENSED SPECTRUM=NO
##NPOINTS= 214
##XYDATA=(XY..XY) 1 
    15          1
    26          1
    27          3
    28         22
    29         12
    30          2
    31          6
    32          3
    39          1
    40          1
    41          6
    42          2
    43         12
    44         13
    45         79
    46          5
    47          9
    49          1
    52          1
    53          2
    54          4
    55          8
    56          2
    57          4
    58          9
    59         55
    60          5
    61          6
    66          1
    67          2
    68          1
    69          2
    70          5
    71          3
    72         20
    73        999
    74         84
    75         73
    76          4
    77          4
    82          3
    83          1
    84          3
    85          4
    86          5
    87          5
    88          4
    89         54
    90          5
    91          3
    94          1
    97          1
    98          2
    99          4
   100         23
   101         22
   102         13
   103        810
   104         76
   105         47
   106          3
   107          1
   110          1
   111          2
   112          3
   113          6
   114         14
   115          9
   116          9
   117         79
   118          9
   119         11
   120          1
   121          1
   126          4
   127          4
   128          5
   129         46
   130         12
   131         34
   132          6
   133         93
   134         13
   135          8
   136          1
   140          2
   141          2
   142          6
   143         13
   144          3
   145         12
   146          3
   147        312
   148         49
   149         31
   150          4
   151          2
   152          1
   154          1
   155          1
   156          1
   157          6
   158          9
   159          4
   160         88
   161         20
   162          5
   163         12
   164          2
   165          1
   168          5
   169          2
   170          1
   171          1
   172         12
   173          8
   174         11
   175         11
   176          2
   177          3
   178          1
   184          1
   186          2
   187          1
   188          2
   189        122
   190         23
   191         32
   192          5
   193          3
   198          3
   199          1
   200          4
   201         32
   202          7
   203          7
   204         62
   205         53
   206         13
   207          8
   208          1
   209          1
   214          2
   215          2
   216          9
   217        275
   218         57
   219         24
   220          4
   221          8
   222          2
   223          1
   228          2
   229          1
   230          2
   231          7
   232          3
   233         20
   234          8
   235          3
   236          1
   240          1
   241          1
   242          4
   243          2
   244          1
   246          3
   247          1
   248          3
   249          1
   256          6
   257          3
   258          1
   262          9
   263          2
   264          1
   272          1
   274          5
   275          1
   276          1
   277         40
   278         11
   279          6
   280          1
   288          4
   289          1
   290          1
   291          7
   292          2
   293          1
   302          2
   303          1
   304          1
   305          3
   306          2
   307        181
   308         53
   309         27
   310          5
   311          1
   315          1
   316          1
   318          1
   319          2
   320          1
   330          4
   331          3
   332          2
   333          1
   362          3
   363          1
   364          1
   452          1
   467          1