##TITLE=Library Entry 44136
##JCAMP-DX=Revision 4.10 
##DATA TYPE=MASS SPECTRUM
##SAMPLE DESCRIPTION=M.G.HORNING,INST.FOR LIPID RES,BAYLOR COLL.OF MED,HOUST
ON,TEX
##NAMES=HP
##CAS NAME=Butanoic acid, 4-[bis[(trimethylsilyl)oxy]phosphinyl]-2-[(trimeth
ylsilyl)amino]-, trimethylsilyl ester
##MOLFORM=C16H42NO5PSi4
##CAS REGISTRY NO=56196-75-9
##MP= -300
##BP= -300
##MW= 471
##$RETENTION INDEX=0
##$CONDENSED SPECTRUM=NO
##NPOINTS= 165
##XYDATA=(XY..XY) 1 
    41         74
    42         11
    43         37
    44         51
    45        162
    46         14
    47         40
    54         18
    55         18
    56        577
    57         37
    58         18
    59         55
    60         14
    61         29
    63          7
    70          7
    71          7
    72         33
    73        999
    74        103
    75        255
    76         22
    77         29
    78          7
    79          7
    81          7
    82          7
    83          7
    84         18
    85         11
    86          7
    87         11
    89          7
    91          7
    93         37
    95         11
    98         14
    99          7
   100         18
   101          7
   102          7
   103         18
   105          7
   107          7
   112         18
   113          7
   114         22
   115         11
   116          7
   117         22
   119         14
   121         44
   122          7
   123          7
   126         14
   128        218
   129         29
   130         29
   131         44
   132         22
   133        103
   134         18
   135        114
   136         14
   137         14
   140          7
   142          7
   144          7
   145          7
   146          7
   147        192
   148         37
   149         48
   150          7
   151         18
   156          7
   160          7
   163          7
   165         11
   172          7
   174          7
   176         14
   177          7
   179          7
   181         25
   192          7
   193         14
   194         14
   195        118
   196         22
   197         22
   202          7
   203          7
   207         29
   208          7
   209        103
   210         29
   211        170
   212         29
   213         22
   218         14
   219          7
   221          7
   223          7
   224         44
   225        111
   226         70
   227        148
   228         29
   229         14
   237         51
   238         14
   239         11
   240         51
   241         14
   242          7
   250         14
   251          7
   252          7
   253         70
   254         81
   255         22
   256          7
   264         14
   265          7
   266         51
   267         11
   268         11
   269          7
   293         14
   294         14
   295          7
   296          7
   297          7
   298         18
   299         51
   300         14
   301         22
   302          7
   312         96
   313         29
   314         14
   325          7
   326          7
   338         14
   339          7
   340          7
   354        607
   355        185
   356        111
   357         29
   358          7
   366         37
   367         14
   368         14
   369          7
   428          7
   438          7
   456        129
   457         48
   458         29
   459          7
   471         14
   472          7