##TITLE=Library Entry 42027
##JCAMP-DX=Revision 4.10 
##DATA TYPE=MASS SPECTRUM
##SAMPLE DESCRIPTION=Exported from NIST MS Search
##NAMES=HP
##CAS NAME=d-Xylose, 2,3,4,5-tetrakis-O-(trimethylsilyl)-, O-methyloxime
##MOLFORM=C18H45NO5Si4
##CAS REGISTRY NO=56196-07-7
##MP= -300
##BP= -300
##MW= 467
##$RETENTION INDEX=0
##$CONDENSED SPECTRUM=NO
##NPOINTS= 59
##XYDATA=(XY..XY) 1 
    29          9
    31         14
    43          9
    44          9
    45         66
    59         57
    72         14
    73        999
    74         85
    75         76
    88         38
   100         14
   101         14
   103        657
   104         57
   105         33
   117         76
   129         38
   131         23
   133         57
   147        238
   148         38
   149         23
   157         14
   160         66
   161         19
   172         28
   173          4
   174          9
   175          9
   189        104
   190         19
   191         28
   201         38
   203          9
   204        142
   205        138
   206         33
   207         14
   217        295
   218         61
   219         28
   221          9
   231          9
   233         23
   234         19
   256         14
   262          4
   276         47
   277          9
   278          4
   288          9
   291          9
   307        319
   308         85
   309         38
   310          9
   329          9
   331          9