##TITLE=Library Entry 14594
##JCAMP-DX=Revision 4.10 
##DATA TYPE=MASS SPECTRUM
##SAMPLE DESCRIPTION=DENNIS H SMITH DEPT OF CHEM STANFORD UNIV STANFORD CALI
F 9430
##NAMES=HP
##CAS NAME=Pregn-5-en-20-one, 3-(acetyloxy)-16,17-epoxy-, (16.alpha.)-
##MOLFORM=C23H32O4
##CAS REGISTRY NO=56193-62-5
##MP= -300
##BP= -300
##MW= 372
##$RETENTION INDEX=0
##$CONDENSED SPECTRUM=NO
##NPOINTS= 103
##XYDATA=(XY..XY) 1 
    41        119
    43        999
    45          8
    53         36
    55        137
    57         10
    65         19
    67         87
    69         33
    77         71
    78         19
    79        131
    80         15
    81        144
    82          9
    83          8
    91        197
    92         42
    93        115
    94         19
    95         62
    97          8
   103         13
   104         11
   105        201
   106         42
   107        178
   108         23
   109         51
   115         31
   116         15
   117         73
   118         21
   119         87
   120         58
   121        136
   122         23
   123         29
   128         27
   129         46
   130         27
   131         97
   132         23
   133         57
   135         53
   136         16
   137         37
   141         38
   142         14
   143        115
   144         33
   145        167
   146         49
   147         79
   148         11
   149         18
   151         19
   155         29
   156         10
   157         68
   158         54
   159        124
   160         21
   161         55
   163         39
   167          8
   169         27
   171         36
   172         13
   173         29
   175         39
   176          8
   181         10
   183         21
   185         17
   186         11
   187         21
   188         19
   189         52
   195         20
   196          9
   197         19
   198          8
   199         10
   201         10
   209         14
   211         15
   236          9
   237         82
   238         15
   251        137
   252         48
   253         33
   269        221
   270         44
   279         66
   280          8
   281         35
   294          8
   296        170
   297         80
   312        682
   313        140