##TITLE=Library Entry 11294
##JCAMP-DX=Revision 4.10 
##DATA TYPE=MASS SPECTRUM
##SAMPLE DESCRIPTION=Chemical Concepts
##NAMES=HP
##CAS NAME=Hex-2-enopyranoside, ethyl 2,3-dideoxy-, diacetate
##MOLFORM=C12H18O6
##CAS REGISTRY NO=56196-39-5
##MP= -300
##BP= -300
##MW= 258
##$RETENTION INDEX=0
##$CONDENSED SPECTRUM=NO
##NPOINTS= 97
##XYDATA=(XY..XY) 1 
    38          3
    39         33
    40          7
    41         37
    42         14
    43        999
    44         25
    45          7
    47          2
    50          0
    51          2
    52          3
    53         16
    54          6
    55         37
    56          7
    57        127
    58          8
    59          2
    60          1
    61          9
    63          0
    64          0
    65          8
    66          5
    67          5
    68         13
    69         33
    70          7
    71          7
    72          1
    73          7
    74          0
    75          0
    77          1
    78          0
    79          0
    80          1
    81         50
    82         14
    83         44
    84         17
    85         85
    86        142
    87          8
    88          1
    89          2
    93          6
    94          6
    95          2
    96          0
    97         43
    98          5
    99         11
   100          1
   101          3
   103          9
   109         12
   110         17
   111        211
   112         22
   113          3
   114        962
   115         65
   116          7
   117          0
   125         14
   126          1
   127          6
   128          3
   129          2
   138          2
   139          5
   140          0
   141          0
   143         25
   144          2
   145          0
   152          1
   153         76
   154          6
   155          2
   156        154
   157         21
   158          2
   169          0
   171          6
   172          0
   174          1
   185          4
   197          1
   198          1
   199          3
   213         54
   214          5
   215          0
   216          3