##TITLE=Library Entry 70151
##JCAMP-DX=Revision 4.10 
##DATA TYPE=MASS SPECTRUM
##SAMPLE DESCRIPTION=Exported from NIST MS Search
##NAMES=HP
##CAS NAME=Cyclopropaneundecanal, 2-nonyl-
##MOLFORM=C23H44O
##CAS REGISTRY NO=56196-17-9
##MP= -300
##BP= -300
##MW= 336
##$RETENTION INDEX=0
##$CONDENSED SPECTRUM=NO
##NPOINTS= 69
##XYDATA=(XY..XY) 1 
    65         25
    66         53
    67        518
    68        383
    69        867
    70        512
    71        320
    72         44
    77         25
    78         18
    79        125
    80        154
    81        676
    82        628
    83        990
    84        465
    85        264
    86         47
    91         28
    92         22
    93        135
    94        198
    95        842
    96        647
    97        999
    98        770
    99        138
   100         40
   107        106
   108        119
   109        512
   110        327
   111        588
   112        339
   113         81
   114         47
   115         25
   121        289
   122        132
   123        283
   124        213
   125        273
   126        220
   127         69
   128         37
   177         31
   178         40
   179         59
   180         50
   181        311
   182         53
   183         37
   219         25
   220         31
   222         40
   223        622
   224        110
   225         18
   251         28
   252         47
   253         25
   318         31
   319         11
   320         13
   334          7
   335         10
   336        162
   337         33
   338          9