##TITLE=Library Entry 44552
##JCAMP-DX=Revision 4.10 
##DATA TYPE=MASS SPECTRUM
##SAMPLE DESCRIPTION=AB176-271-C
##NAMES=HP
##CAS NAME=Tetradecanoic acid, 5,9,13-trimethyl-, methyl ester
##MOLFORM=C18H36O2
##CAS REGISTRY NO=56196-55-5
##MP= -300
##BP= -300
##MW= 284
##$RETENTION INDEX=0
##$CONDENSED SPECTRUM=NO
##NPOINTS= 83
##XYDATA=(XY..XY) 1 
    41        324
    42         76
    43        553
    44         30
    45         30
    53         30
    54         11
    55        393
    56        137
    57        534
    58         42
    59        125
    67         61
    68         45
    69        442
    70         76
    71        320
    72         19
    73         38
    74        999
    75        251
    81         68
    82         34
    83        217
    84         38
    85        122
    86         22
    87        503
    88         95
    93         38
    94         30
    95         76
    96         34
    97        263
    98         49
    99         34
   100         38
   101        213
   102         38
   107         22
   108         34
   109         49
   110         30
   111        103
   112         38
   113         30
   114          7
   115         19
   123         38
   124         22
   125         72
   126         30
   127         22
   128         11
   129        305
   130         34
   139         49
   140         15
   141         15
   142          7
   143         30
   149         61
   157         38
   167         68
   168          7
   171         49
   172         11
   185         22
   199         38
   200         11
   208         19
   209          7
   219         15
   220          3
   241        183
   242         26
   252         15
   253         11
   254          3
   269         11
   270          3
   284         38
   285          7