##TITLE=Library Entry 44269
##JCAMP-DX=Revision 4.10 
##DATA TYPE=MASS SPECTRUM
##SAMPLE DESCRIPTION=M.G.HORNING,INST.FOR LIPID RES,BAYLOR COLL.OF MED,HOUST
ON,TEX
##NAMES=HP
##CAS NAME=Phosphonic acid, [1-isothiocyanato-2-[4-[(trimethylsilyl)oxy]phen
yl]ethyl]-, bis(trimethylsilyl) ester
##MOLFORM=C18H34NO4PSSi3
##CAS REGISTRY NO=56196-77-1
##MP= -300
##BP= -300
##MW= 475
##$RETENTION INDEX=0
##$CONDENSED SPECTRUM=NO
##NPOINTS= 145
##XYDATA=(XY..XY) 1 
    41         17
    42          8
    43         29
    44         17
    45        152
    46         11
    47          8
    50         17
    51         11
    52          8
    57         11
    58         11
    59         17
    61         17
    63         11
    65         14
    67          8
    71         11
    72         23
    73        999
    74        108
    75         97
    76         20
    77         29
    78         14
    79         14
    82         23
    84         11
    89          8
    90         14
    91         41
    92          8
   102         14
   103         14
   104         11
   107          8
   109         11
   115         20
   116         26
   117         29
   118          8
   119         29
   120         11
   121         47
   122         11
   123         11
   131         35
   132         11
   133         94
   134         14
   135        123
   136         14
   137         23
   138         11
   142          8
   145         14
   146          8
   147        194
   148         29
   149         64
   150          8
   151         41
   152         11
   153         11
   156         11
   158          8
   159          8
   161         41
   162         11
   163         20
   164         17
   165         17
   166         23
   175         23
   176         20
   177        158
   178         35
   179        529
   180         88
   181         35
   190         29
   191         11
   192         76
   193         23
   195        135
   196         17
   197         23
   202         14
   203         11
   205         17
   206         11
   207         17
   209         29
   210         11
   211        105
   212         17
   213          8
   216         11
   217         17
   218         38
   219         14
   220         11
   221         11
   225         85
   226         55
   227         20
   228         11
   234         44
   235         17
   236         20
   237         14
   239         11
   249         52
   250         29
   251         17
   252          8
   253         11
   255          8
   268         35
   269         11
   281         11
   283         17
   311         20
   313         20
   315         14
   327         14
   329          8
   369         23
   370         11
   385         11
   401         94
   402         29
   403         17
   416         23
   417        587
   418        241
   419         91
   420         29
   426         47
   427         26
   428         17
   429         11
   460         76
   461         44
   462         17