##TITLE=Library Entry 44058
##JCAMP-DX=Revision 4.10 
##DATA TYPE=MASS SPECTRUM
##SAMPLE DESCRIPTION=O A MAMER, MCGILL UNIVERSITY
##NAMES=HP
##CAS NAME=Methyl 2-hydroxystearate, TMS derivative
##MOLFORM=C22H46O3Si
##CAS REGISTRY NO=56196-58-8
##MP= -300
##BP= -300
##MW= 386
##$RETENTION INDEX=2320
##$CONDENSED SPECTRUM=NO
##NPOINTS= 142
##XYDATA=(XY..XY) 1 
    14          9
    15         39
    16          4
    17          3
    18         14
    26         11
    27         41
    28        101
    29        116
    30          3
    31          5
    32         18
    39         23
    40          6
    41        213
    42         37
    43        349
    44         18
    45         53
    46          3
    47         10
    50          3
    52          3
    53         11
    54         17
    55        197
    56         32
    57        239
    58         17
    59        131
    60         10
    61         19
    66          3
    67         62
    68         25
    69        188
    70         22
    71        116
    72         23
    73        999
    74        113
    75        237
    76         16
    77         11
    79         10
    80          4
    81         68
    82         28
    83        228
    84         20
    85         72
    86          6
    87         31
    88          7
    89        407
    90         34
    91         69
    92          6
    93          7
    95         58
    96         18
    97        180
    98         18
    99         16
   100          2
   101         40
   102          9
   103        248
   104         23
   105         21
   107         17
   108          3
   109         26
   110          8
   111         73
   112          7
   113          9
   114          2
   115         38
   116         27
   117         17
   118          3
   119         33
   120          3
   121          3
   123         10
   124          3
   125         19
   127          6
   129        158
   130         20
   131         22
   132          5
   133          5
   137          4
   139          4
   141          3
   143         19
   144          3
   145         22
   146         28
   147          6
   153          3
   157          6
   159         96
   160         13
   161         12
   162         18
   163          2
   171          7
   173          4
   185         12
   199          4
   201          4
   207         15
   208          3
   213          3
   215          3
   227          4
   241          5
   243          3
   257          3
   271          4
   281          2
   283          3
   297          3
   311          6
   313          4
   327        988
   328        264
   329         71
   330         13
   331          3
   343         38
   344         11
   345          3
   371        342
   372         96
   373         27
   374          5
   386          8
   387          2