##TITLE=Library Entry 41452
##JCAMP-DX=Revision 4.10 
##DATA TYPE=MASS SPECTRUM
##SAMPLE DESCRIPTION=VERN REINHOLD,A.D.LITTLE INC.,CAMBRIDGE,MASS.
##NAMES=HP
##CAS NAME=.beta.-D-Xylofuranose, 1,2-bis-O-(trimethylsilyl)-, cyclic methyl
boronate
##MOLFORM=C12H27BO5Si2
##CAS REGISTRY NO=56196-82-8
##MP= -300
##BP= -300
##MW= 318
##$RETENTION INDEX=0
##$CONDENSED SPECTRUM=NO
##NPOINTS= 177
##XYDATA=(XY..XY) 1 
    30         22
    31         31
    33          6
    36         39
    38         25
    39         61
    40         42
    41         76
    42         72
    43        174
    44        334
    45        239
    46         33
    47         79
    48         15
    50         12
    51         27
    52         29
    53         35
    54         30
    55         66
    56         44
    57         78
    58         33
    59         90
    61         46
    62         12
    63         16
    64         14
    65         17
    66         45
    67         27
    68         46
    69        104
    70         30
    71         27
    72         37
    73        999
    74        130
    75        683
    76         56
    77         52
    78         25
    79         33
    80         15
    81         33
    82         27
    83         64
    84         70
    85        112
    86         20
    87         41
    88         16
    89         30
    91         14
    92         18
    93         33
    94         32
    95         31
    96         64
    97        185
    98         38
    99         44
   100         24
   101        113
   102         33
   103        153
   104         27
   105         27
   107         10
   108         32
   109        193
   110        197
   111         20
   112         42
   113         59
   114         33
   115        111
   116         42
   117         96
   118         18
   119         29
   121         10
   123          8
   124         12
   125         27
   126         17
   127         37
   128         28
   129        140
   130         39
   131         65
   132         25
   133        101
   134         34
   135         30
   137         15
   138         24
   139         50
   140         18
   141         31
   142         37
   143        107
   144         18
   145         10
   146          2
   147        532
   148         92
   149         56
   150         17
   152          7
   153          9
   154         20
   155         49
   156         24
   157         39
   158         29
   159         18
   161         14
   163          7
   165          6
   166         12
   167         16
   168         22
   169         29
   170         17
   171         65
   172         21
   173          7
   175         31
   176          8
   177         25
   178         11
   179         12
   182         23
   183         21
   184         68
   185        323
   186         53
   187         36
   188         28
   189        113
   190         30
   191        111
   192         19
   193         20
   194         16
   197          6
   198         20
   199        183
   200        478
   201         71
   202         41
   203         25
   204         45
   205         28
   206         14
   207         12
   211         11
   212         21
   213         58
   214         21
   215         14
   217         34
   218         21
   228          8
   231         19
   232          6
   240          8
   243         34
   259         17
   273          8
   281          6
   283          7
   302         19
   303         45
   304         15