##TITLE=Library Entry 45332
##JCAMP-DX=Revision 4.10 
##DATA TYPE=MASS SPECTRUM
##SAMPLE DESCRIPTION=M.G.HORNING,INST.FOR LIPID RES,BAYLOR COLL.OF MED,HOUST
ON,TEX
##NAMES=HP
##CAS NAME=Pantolactone, TMS derivative
##MOLFORM=C9H18O3Si
##CAS REGISTRY NO=56193-78-3
##MP= -300
##BP= -300
##MW= 202
##$RETENTION INDEX=0
##$CONDENSED SPECTRUM=NO
##NPOINTS= 52
##XYDATA=(XY..XY) 1 
    40        193
    41         78
    42         17
    43         89
    44         59
    45        181
    46         12
    47         64
    50          9
    51         10
    52         10
    53         21
    54          6
    55         34
    56         14
    57         25
    58         23
    59        125
    60         15
    61         50
    64         29
    67         10
    68          7
    69         15
    71          7
    72         15
    73        390
    74         40
    75        999
    76         73
    77         39
    79         14
    83          9
    85          9
    99         14
   101         14
   102          6
   103          9
   113         12
   115         18
   127          9
   129         37
   131         71
   132          9
   133          6
   143        312
   144         81
   145         28
   146          7
   187        171
   188         34
   189          7