##TITLE=Library Entry 13797
##JCAMP-DX=Revision 4.10 
##DATA TYPE=MASS SPECTRUM
##SAMPLE DESCRIPTION=DENNIS H SMITH DEPT OF CHEM STANFORD UNIV STANFORD CALI
F 9430
##NAMES=HP
##CAS NAME=Pregnane-11,20-dione, 3-(acetyloxy)-, (3.alpha.)-
##MOLFORM=C23H34O4
##CAS REGISTRY NO=56193-60-3
##MP= -300
##BP= -300
##MW= 374
##$RETENTION INDEX=0
##$CONDENSED SPECTRUM=NO
##NPOINTS= 113
##XYDATA=(XY..XY) 1 
    41        121
    42         14
    43        999
    44         21
    45         10
    50         13
    51         23
    53         34
    55        153
    61         10
    65         21
    66         11
    67        153
    68         36
    69         79
    71         73
    77        102
    78         21
    79        189
    81        235
    83         43
    84         62
    85        255
    91        165
    92         45
    93        229
    94        103
    95        185
    96         30
    97         19
    98         16
   104         13
   105        224
   106         71
   107        191
   108        257
   109        183
   111         16
   115         11
   117         32
   118         59
   119         92
   120         52
   121        139
   122         60
   123         79
   124         17
   129         16
   130         13
   131         52
   132         21
   133        100
   134         35
   135        124
   136         32
   137         23
   143         19
   144         13
   145         42
   146         15
   147        138
   148         51
   149         84
   151         32
   156         12
   157         35
   158         10
   159         76
   160         43
   161         48
   163         18
   171         13
   173         75
   175         70
   176         10
   177         72
   178        120
   179         18
   182         11
   183         62
   185         14
   187         13
   188         35
   189         28
   190         19
   191        152
   192         22
   193         96
   201         21
   204         10
   206        139
   207         25
   211         31
   212         14
   213         17
   215         14
   219        459
   227         18
   229         28
   230         28
   238         15
   241         15
   243         34
   244         29
   253         47
   260        185
   271         17
   278         10
   281         14
   296         81
   299        233
   314        361
   374        155