##TITLE=Library Entry 41407
##JCAMP-DX=Revision 4.10 
##DATA TYPE=MASS SPECTRUM
##SAMPLE DESCRIPTION=VERN REINHOLD,A.D.LITTLE INC.,CAMBRIDGE,MASS.
##NAMES=HP
##CAS NAME=l-Galactopyranose, 6-deoxy-1,2-bis-O-(trimethylsilyl)-, cyclic me
thylboronate
##MOLFORM=C13H29BO5Si2
##CAS REGISTRY NO=56196-83-9
##MP= -300
##BP= -300
##MW= 332
##$RETENTION INDEX=0
##$CONDENSED SPECTRUM=NO
##NPOINTS= 163
##XYDATA=(XY..XY) 1 
    30         20
    31         23
    34          8
    36         47
    37          8
    38         28
    39         51
    40         46
    41        121
    42         77
    43        207
    44        376
    45        293
    46         27
    47        159
    48         19
    49         21
    50         23
    51         24
    52          7
    53         36
    54         25
    55         65
    56         35
    57         89
    58         49
    59         61
    60         29
    61         41
    63         22
    64         18
    65         26
    66         34
    67         29
    68         25
    69         36
    70         24
    71         42
    72         38
    73        999
    74        197
    75        966
    76         71
    77         59
    78         25
    79         21
    80         13
    81         26
    82         27
    83         92
    84        129
    85         46
    86         13
    87         25
    88         18
    89         22
    91         22
    93         32
    94         23
    95         18
    96         38
    97        117
    98         39
    99         41
   100         22
   101         66
   102         20
   103         60
   104         16
   105         27
   106          8
   107         11
   108          8
   109         24
   110         40
   111         92
   113         30
   114         16
   115        311
   116         67
   117         76
   118          8
   119         28
   120         13
   121          7
   122         17
   123         15
   124         15
   125         26
   126         20
   127         24
   128         28
   129        125
   130        962
   131        183
   132         49
   133         87
   134         25
   135         16
   136         10
   137          9
   138         19
   139         20
   140         16
   141         26
   142         27
   143         95
   144         23
   145         21
   146         12
   147        399
   148         62
   149         45
   150          7
   151         17
   153         22
   154          7
   155         16
   156         81
   157        386
   158         55
   159         33
   160          6
   170         21
   171         10
   172          6
   173         14
   175          7
   177         10
   182         16
   183         16
   184         14
   185         45
   186         18
   187          8
   188         12
   189         62
   190         20
   191         88
   192         29
   197          6
   198          7
   199          8
   203         17
   204        109
   205         30
   206         17
   207         15
   212          6
   213         16
   214         28
   215         16
   217          7
   219          7
   220          7
   221          6
   225          8
   226         17
   227         37
   229          8
   231         17
   259         11
   273         23