##TITLE=Library Entry 97060
##JCAMP-DX=Revision 4.10 
##DATA TYPE=MASS SPECTRUM
##SAMPLE DESCRIPTION=Exported from NIST MS Search
##NAMES=HP
##CAS NAME=Methyl 15-hydroxyhexadecanoate, TMS derivative
##MOLFORM=C20H42O3Si
##CAS REGISTRY NO=56196-04-4
##MP= -300
##BP= -300
##MW= 358
##$RETENTION INDEX=0
##$CONDENSED SPECTRUM=NO
##NPOINTS= 67
##XYDATA=(XY..XY) 1 
    39          4
    41         24
    42          8
    43         56
    44          8
    45         20
    47          8
    48          4
    55         72
    56          8
    57         16
    58          8
    59         28
    61         16
    67         16
    68          8
    69         52
    70          8
    71         16
    72          8
    73        288
    74         76
    75        144
    76         12
    77          4
    81         20
    82          8
    83         28
    84          8
    85          8
    87         28
    89         20
    91         20
    95         24
    96         12
    97         28
    98         12
    99         40
   101         12
   103          8
   105          4
   107         28
   108         24
   109         12
   110          4
   111          8
   115          8
   116          8
   117        999
   118        104
   119         40
   121          8
   123          8
   129         12
   131          8
   144         12
   147         40
   148          8
   150          4
   159         68
   160          8
   311         72
   312         16
   328         20
   343         52
   344         12
   358          4