##TITLE=Library Entry 7484
##JCAMP-DX=Revision 4.10 
##DATA TYPE=MASS SPECTRUM
##SAMPLE DESCRIPTION=DENNIS H SMITH DEPT OF CHEM STANFORD UNIV STANFORD CALI
F 9430
##NAMES=HP
##CAS NAME=Pregnane-3,20-dione, 21-(acetyloxy)-11,17-dihydroxy-
##MOLFORM=C23H34O6
##CAS REGISTRY NO=56193-59-0
##MP= -300
##BP= -300
##MW= 406
##$RETENTION INDEX=0
##$CONDENSED SPECTRUM=NO
##NPOINTS= 220
##XYDATA=(XY..XY) 1 
    40         11
    41        207
    42         84
    43        999
    44          7
    45         50
    46         13
    51          9
    53         56
    54         17
    55        325
    56         20
    57         58
    58          6
    59          5
    60          8
    61         12
    65         24
    66         12
    67        149
    68         43
    69        128
    70         24
    71         52
    73         51
    74         21
    77         62
    78         17
    79        157
    81        190
    82          9
    83         68
    84         28
    85         17
    86          9
    87         38
    91        130
    92         29
    93        146
    94         50
    95        184
    96         40
    97        130
    98         27
    99         25
   100         15
   101         21
   103         26
   104          9
   105        178
   106         48
   107        157
   108         53
   109        107
   110         62
   111         69
   112          7
   113          9
   115         11
   116          9
   117         44
   118         45
   119        179
   120         53
   121        125
   122         70
   123         98
   124         46
   125         40
   128         12
   129         27
   130         13
   131         72
   132         46
   133        110
   134         52
   135         83
   136         43
   137         40
   138         12
   139         14
   141          8
   142         14
   143         52
   144         28
   145        111
   146         34
   147         84
   148         29
   149         76
   150         15
   151         23
   155         23
   156         18
   157         58
   158         26
   159        143
   160         42
   161         80
   162         26
   163         42
   164         17
   165         15
   168          5
   169         37
   170         38
   171         90
   172        126
   173         89
   174         57
   175         51
   176         14
   177         28
   181          7
   182         11
   183         26
   184         43
   185         94
   186         40
   187         73
   188         22
   189         23
   190          8
   191         17
   192          6
   193          8
   195         19
   196          8
   197         23
   198          9
   199         41
   200         24
   201         33
   202          7
   203         20
   204         15
   205         12
   206          6
   209         42
   210         14
   211         87
   212         18
   213         37
   214         16
   215         29
   216         19
   217         49
   218         16
   219          7
   223          9
   224         21
   225         29
   226         14
   227        107
   228         27
   229        202
   230         54
   231         32
   232         10
   233          5
   237         10
   238          7
   239         16
   240         19
   241         38
   242        184
   243         82
   244        175
   245         15
   246         16
   247         10
   248          5
   249          9
   251         21
   252          6
   253         19
   254         10
   255         19
   256          8
   257         30
   258         35
   259         36
   260         24
   261         12
   267         40
   268         15
   269        201
   270         49
   271         41
   272         15
   273          5
   277         11
   282         19
   283         18
   284         16
   285         82
   286         40
   287        237
   290          9
   292          6
   295         31
   297         12
   300         22
   301          7
   302         12
   303         23
   304         36
   305         80
   310         52
   313         35
   315          5
   317         14
   318          7
   328         87
   329         24
   331          6
   334          8
   346         54
   347         15
   406         38