##TITLE=Library Entry 43251
##JCAMP-DX=Revision 4.10 
##DATA TYPE=MASS SPECTRUM
##SAMPLE DESCRIPTION=O A MAMER, MCGILL UNIVERSITY, MONTRE
##NAMES=HP
##CAS NAME=Galacturonic acid, 2,3,4,5-tetrakis-O-(trimethylsilyl)-, trimethy
lsilyl ester
##MOLFORM=C21H50O7Si5
##CAS REGISTRY NO=56192-87-1
##MP= -300
##BP= -300
##MW= 554
##$RETENTION INDEX=0
##$CONDENSED SPECTRUM=NO
##NPOINTS= 101
##XYDATA=(XY..XY) 1 
    12          6
    20          7
    27          5
    41          7
    43         12
    44          9
    45         47
    47          6
    53          6
    55          7
    57          7
    58          7
    59         18
    61          9
    66          6
    68          6
    69          6
    72         18
    73        999
    74         84
    75         93
    76         10
    79          7
    83          6
    98          5
    99          6
   101         11
   103         26
   116         12
   117         19
   119          8
   125          6
   129         28
   131         22
   132          8
   133         44
   134          8
   135          7
   141          7
   142          6
   143         35
   144          7
   145          8
   147        254
   148         38
   149         32
   169         15
   171          6
   175          6
   177          6
   189         31
   190         10
   191        111
   192         23
   193         13
   204        626
   205        123
   206         57
   207         10
   208          5
   215          7
   217        373
   218         81
   219         42
   220          6
   221         15
   222          7
   231          6
   232         10
   233         39
   234         10
   243         11
   245         14
   257         12
   265         14
   285          7
   291         15
   292        123
   293         37
   294         20
   295          6
   305        115
   306         34
   307         21
   308          6
   318          5
   319          7
   331         14
   332          6
   333         17
   334          6
   335         12
   359          9
   375         10
   376          6
   421          8
   449         24
   450         10
   451          6
   539         15
   540          7