##TITLE=Library Entry 14631
##JCAMP-DX=Revision 4.10 
##DATA TYPE=MASS SPECTRUM
##SAMPLE DESCRIPTION=DENNIS H SMITH DEPT OF CHEM STANFORD UNIV STANFORD CALI
F 9430
##NAMES=HP
##CAS NAME=Pregnan-20-one, 5,6-difluoro-3-hydroxy-, (3.beta.)-
##MOLFORM=C21H32F2O2
##CAS REGISTRY NO=56193-66-9
##MP= -300
##BP= -300
##MW= 354
##$RETENTION INDEX=0
##$CONDENSED SPECTRUM=NO
##NPOINTS= 135
##XYDATA=(XY..XY) 1 
    41        198
    43        999
    45         19
    53         62
    55        200
    57         48
    65         40
    67        182
    68         26
    69         88
    71        110
    77        106
    78         27
    79        234
    80         28
    81        192
    83         43
    84         59
    85        201
    91        261
    92         68
    93        200
    94         58
    95        216
    96         29
    97         13
   103         24
   105        236
   106         77
   107        235
   108         63
   109         85
   111         16
   115         29
   116         26
   117         81
   118         29
   119        146
   120         98
   121         89
   122         14
   123         40
   124         27
   125         31
   128         22
   129         59
   130         37
   131        123
   132         52
   133        112
   134         31
   135         58
   137         26
   141         27
   143         78
   144         41
   145        160
   146         57
   147         95
   149         46
   151         13
   155         30
   156         16
   157         68
   158         44
   159        134
   160         64
   161        108
   162         24
   163         59
   169         27
   171         57
   172         15
   173         58
   174         30
   175         22
   177         24
   178         13
   183         26
   185         45
   187        112
   189         30
   191         28
   192         14
   195         15
   197         25
   199         39
   203         21
   204         40
   205         85
   206         19
   209         16
   211         42
   212         22
   213        113
   214         31
   215         41
   223         19
   225         22
   227         24
   228         17
   229         23
   230         27
   231        165
   232         43
   239         22
   240         22
   241         34
   243         29
   244         20
   246         19
   253         18
   255         70
   256         30
   257         35
   259         15
   263         18
   265         43
   270         13
   271         22
   272         17
   273         18
   281         28
   283        173
   291         13
   296         14
   298        214
   299         19
   301         61
   314         41
   316        377
   318         15
   319         18
   334         47
   336         29