##TITLE=Library Entry 24758
##JCAMP-DX=Revision 4.10 
##DATA TYPE=MASS SPECTRUM
##SAMPLE DESCRIPTION=CARL DJERASSI DEPT OF CHEM STANFORD UNIV STANFORD CALIF
 94305
##NAMES=HP
##CAS NAME=Curan-19,20-diol, 16,17-didehydro-, (19S)-
##MOLFORM=C19H24N2O2
##CAS REGISTRY NO=56192-68-8
##MP= -300
##BP= -300
##MW= 312
##$RETENTION INDEX=0
##$CONDENSED SPECTRUM=NO
##NPOINTS= 213
##XYDATA=(XY..XY) 1 
    50         35
    51        112
    52         56
    53        218
    54        183
    55        887
    56        485
    57        999
    58        316
    59         84
    60        338
    61        443
    62         21
    63         63
    64         56
    65        140
    66         56
    67        373
    68        246
    69        746
    70        718
    71        415
    72         70
    73        345
    74         56
    75         49
    76         42
    77        281
    78         70
    79        154
    80        112
    81        394
    82        323
    83        331
    84        154
    85        211
    86         42
    87         63
    88        140
    89         77
    90         77
    91        169
    92         70
    93        133
    94        147
    95        225
    96        267
    97        225
    98        112
    99         63
   100         21
   101         49
   102         56
   103         98
   104         49
   105         63
   106         84
   107         91
   108        133
   109        147
   110        133
   111        112
   112         84
   113         56
   114         28
   115        211
   116         91
   117        154
   118         91
   119        112
   120         49
   121         56
   122         49
   123         77
   124         63
   125         56
   126         35
   127         77
   128         91
   129        105
   130        450
   131        211
   132         49
   133         35
   134         21
   135         42
   136         49
   137         49
   138         77
   139         42
   140         35
   141         49
   142         70
   143        281
   144        528
   145         70
   146         21
   147         21
   148         14
   149         49
   150         21
   151         28
   152         49
   153         35
   154         84
   155         56
   156        147
   157         77
   158         70
   159         14
   161          7
   163         21
   164         28
   165         35
   166         35
   167        183
   168        147
   169         84
   170         84
   171         63
   172        105
   173         21
   177         21
   178         21
   179         28
   180        225
   181        169
   182        704
   183        197
   184        126
   185         84
   186         14
   189          7
   190          7
   191         63
   192         35
   193         56
   194        162
   195         98
   196        323
   197        112
   198         56
   199         70
   200         21
   201          7
   202          7
   203          7
   204         14
   205         21
   206         35
   207         28
   208        105
   209         63
   210        126
   211         98
   212         42
   213         21
   217          7
   218          7
   219          7
   220         21
   221         21
   222         42
   223         49
   224         63
   225         77
   226        415
   227         70
   228          7
   231          7
   232          7
   233          7
   234          7
   235          7
   236         21
   237         49
   238         42
   239        429
   240         98
   241         63
   242         14
   249         14
   250          7
   251         28
   252         14
   253         14
   254         21
   255          7
   256         28
   257          7
   259          7
   265         14
   266         21
   267        204
   268         56
   269         35
   279         21
   280          7
   281         14
   283         21
   284         14
   291         14
   292         14
   293         14
   294         42
   295        500
   296        112
   297         35
   298         14
   311         42
   312        359
   313         84
   314         14