##TITLE=Library Entry 44357
##JCAMP-DX=Revision 4.10 
##DATA TYPE=MASS SPECTRUM
##SAMPLE DESCRIPTION=SW-4
##NAMES=HP
##CAS NAME=.alpha.-Cortolone, 4TMS derivative
##MOLFORM=C33H66O5Si4
##CAS REGISTRY NO=56196-46-4
##MP= -300
##BP= -300
##MW= 654
##$RETENTION INDEX=3210
##$CONDENSED SPECTRUM=NO
##NPOINTS= 212
##XYDATA=(XY..XY) 1 
    15          1
    26         11
    41         15
    43         13
    45         39
    47         12
    53         10
    55         39
    58          6
    59          9
    61         11
    67         39
    69         29
    72         10
    73        999
    74         74
    75        164
    76         12
    77         17
    79         44
    81         60
    82          7
    83         18
    85          6
    89         13
    91         41
    92         11
    93         58
    94         13
    95         66
    96          7
    97          7
   101         19
   103         68
   104         13
   105         69
   106         10
   107         79
   108         10
   109         28
   115         13
   116         13
   117         66
   118         11
   119         40
   120         10
   121         39
   122          6
   123         13
   127         10
   128          7
   129         79
   130         15
   131         44
   132         10
   133         69
   134         10
   135         23
   141         12
   142         10
   143         41
   144         10
   145         39
   146          7
   147        266
   148         41
   149         50
   150         11
   151          7
   154         17
   155         28
   156         10
   157         22
   158          6
   159         21
   160          9
   161         63
   162         10
   163         10
   165          7
   167         13
   168          9
   169         60
   170         12
   171         19
   172          7
   173         27
   175         38
   176          6
   177         11
   179          6
   181         15
   182         13
   183         17
   185         13
   187         46
   188         10
   189         50
   190         11
   191        105
   192         19
   193         18
   194          6
   195         28
   196          9
   197         11
   199         12
   201         15
   203          7
   204          9
   205         43
   206         10
   207          5
   208         11
   209         15
   211         60
   212         15
   213         26
   214          7
   215          1
   216          7
   217         37
   218         11
   219         12
   221         10
   222         11
   223         10
   225         13
   227         89
   228         17
   229         19
   230         16
   231         34
   232         12
   233         12
   235         10
   239         11
   241         37
   242         11
   243        144
   244         43
   245         19
   247          7
   251         23
   252          7
   253         12
   255          7
   261          6
   263          7
   265         27
   266          6
   267         10
   268          7
   269        253
   270         56
   271         12
   277          6
   279         10
   281         10
   282         10
   286          6
   287         11
   288         10
   289          9
   291          6
   295          5
   296         13
   303          7
   304          7
   305         10
   315          6
   317         10
   333          6
   343         12
   357          9
   358         17
   359        389
   360        121
   361         44
   362          9
   369          6
   371         29
   372         10
   385         16
   387          7
   394          7
   431          7
   433          6
   446          6
   447         10
   448         49
   449        927
   450        365
   451        140
   452         35
   453          7
   459         17
   460         10
   461         28
   462         10
   463          9
   475         10
   476          6
   549         11
   550         16
   551        180
   552         88
   553         44
   554         13
   654         23
   655         19
   656          9