##TITLE=Library Entry 97048
##JCAMP-DX=Revision 4.10 
##DATA TYPE=MASS SPECTRUM
##SAMPLE DESCRIPTION=Exported from NIST MS Search
##NAMES=HP
##CAS NAME=3,27-Dioxa-2,28-disilanonacosane, 2,2,4,28,28-pentamethyl-
##MOLFORM=C30H66O2Si2
##CAS REGISTRY NO=56196-19-1
##MP= -300
##BP= -300
##MW= 514
##$RETENTION INDEX=0
##$CONDENSED SPECTRUM=NO
##NPOINTS= 46
##XYDATA=(XY..XY) 1 
    67         24
    68         24
    69         88
    70         12
    71         52
    72         12
    73        316
    74         32
    75        272
    76         16
    77          8
   103         80
   117        999
   118        104
   119         52
   147         64
   149        192
   150         28
   191         31
   192          5
   193          5
   194          1
   195          2
   196          1
   197          2
   198          0
   199          1
   367         27
   368          9
   369          2
   409         23
   410          8
   411          3
   412          0
   423          0
   424         16
   425          7
   426          0
   483          9
   484          4
   485          1
   499         12
   500          5
   501          2
   513          0
   514          0