##TITLE=Library Entry 59743
##JCAMP-DX=Revision 4.10 
##DATA TYPE=MASS SPECTRUM
##SAMPLE DESCRIPTION=LAC, NIDDK, NIH, Bethesda, MD 20892
##NAMES=HP
##CAS NAME=N-Carboxybenzyl-S-benzylcysteine
##MOLFORM=C18H19NO4S
##CAS REGISTRY NO=5619-12-5
##MP= -300
##BP= -300
##MW= 345
##$RETENTION INDEX=0
##$CONDENSED SPECTRUM=NO
##NPOINTS= 116
##XYDATA=(XY..XY) 1 
    41         92
    42         28
    43         15
    44         16
    45         86
    46          6
    47          4
    48          6
    49         15
    50         34
    51         71
    52         18
    53          7
    54          1
    55          2
    56          0
    57          2
    58          3
    59          1
    60          2
    61          6
    62         16
    63         50
    64         16
    65        157
    66          8
    67          0
    68         10
    69          9
    70          2
    71          2
    72          0
    73          1
    74          6
    75          5
    76          5
    77         63
    78         21
    79         23
    80          2
    81          0
    82          2
    83          1
    84          0
    85          1
    86          5
    87          3
    88          0
    89         41
    90         14
    91        999
    92        105
    93          7
    94          0
    95          2
    96          2
    97          1
    99          0
   102          0
   103          1
   104          2
   105         10
   106          5
   107         14
   108         12
   109          1
   114          0
   115          0
   116          1
   117          2
   118          0
   120          0
   121         47
   122         31
   123         13
   124          3
   130          4
   131          5
   132          4
   133          0
   137          2
   139          0
   140         26
   141          2
   142          1
   151          2
   153          1
   155          0
   156          0
   159          9
   160          3
   161          0
   162          0
   164          0
   165          0
   176          2
   177          0
   178          0
   180          0
   181         19
   182          2
   197          4
   198          0
   204          1
   208          4
   209          0
   210          2
   213          1
   214          0
   225          5
   226          0
   253          1
   254          1
   300          2
   301          0
   345          1