##TITLE=Library Entry 18736
##JCAMP-DX=Revision 4.10 
##DATA TYPE=MASS SPECTRUM
##SAMPLE DESCRIPTION=Exported from NIST MS Search
##NAMES=HP
##CAS NAME=Cyclobutane, 3-ethenyl-1,1,2-trifluoro-
##MOLFORM=C6H7F3
##CAS REGISTRY NO=56196-27-1
##MP= -300
##BP= -300
##MW= 136
##$RETENTION INDEX=0
##$CONDENSED SPECTRUM=NO
##NPOINTS= 20
##XYDATA=(XY..XY) 1 
    50         40
    51        105
    52         58
    53         81
    54        999
    55         58
    57         53
    59         73
    64         34
    72        559
    73         26
    77         59
    90         76
    95         27
    96         12
    97         31
   103         10
   115         10
   116         11
   136         12