##TITLE=Library Entry 43277
##JCAMP-DX=Revision 4.10 
##DATA TYPE=MASS SPECTRUM
##SAMPLE DESCRIPTION=Chemical Concepts
##NAMES=HP
##CAS NAME=Butanal, 2,3,4-tris[(trimethylsilyl)oxy]-, O-methyloxime, [R-(R*,
R*)]-
##MOLFORM=C14H35NO4Si3
##CAS REGISTRY NO=56196-36-2
##MP= -300
##BP= -300
##MW= 365
##$RETENTION INDEX=0
##$CONDENSED SPECTRUM=NO
##NPOINTS= 218
##XYDATA=(XY..XY) 1 
    25          0
    26          4
    27         12
    28         32
    29         26
    30          6
    31         16
    32          1
    33          0
    36          0
    37          0
    38          0
    39          4
    40          1
    41         12
    42          3
    43         28
    44         22
    45        130
    46          9
    47         19
    48          0
    49          0
    50          0
    51          0
    52          1
    53          3
    54          4
    55         15
    56          3
    57          7
    58         16
    59         93
    60          9
    61         12
    62          0
    63          0
    64          0
    65          0
    66          7
    67          5
    68          2
    69          1
    70          4
    71          5
    72         20
    73        999
    74        109
    75        108
    76          6
    77          3
    78          0
    79          0
    80          1
    81          0
    82         11
    83          2
    84          8
    85          5
    86          6
    87          5
    88          7
    89         76
    90          7
    91          3
    92          0
    93          0
    94          0
    95          0
    96          0
    97          0
    98          3
    99          5
   100         42
   101         27
   102         18
   103        114
   104         11
   105         23
   106          5
   107          1
   108          1
   109          0
   110          0
   111          1
   112          3
   113          3
   114          8
   115         11
   116          8
   117        336
   118         33
   119         23
   120          1
   121          1
   122          0
   123          0
   124          0
   125          0
   126          3
   127          2
   128          3
   129         23
   130         45
   131         26
   132          6
   133         81
   134         11
   135          7
   136          0
   139          0
   140          2
   141          1
   142          6
   143          4
   144          2
   145          6
   146          2
   147        473
   148         74
   149         41
   150          4
   151          1
   152          0
   154          4
   155          3
   156          2
   157          1
   158          6
   159          2
   160         16
   161        133
   162         14
   163         24
   164          3
   165          1
   170          0
   171          0
   172          6
   173          4
   174          1
   175          6
   176          1
   177         14
   178          2
   179          1
   185          0
   186         10
   187          2
   188          2
   189         14
   190          3
   191          4
   192          0
   193          0
   195          0
   199          0
   200          5
   201         22
   202          7
   203          7
   204         19
   205        527
   206        103
   207         47
   208          5
   209          1
   214          1
   215          1
   216         10
   217         12
   218          3
   219          3
   220          0
   221          3
   222          0
   223          0
   228          1
   229          1
   230          2
   231          9
   232          3
   233         22
   234          9
   235          2
   236          0
   243          0
   244          5
   245          1
   246          4
   247          1
   248          0
   260         13
   261          2
   262         15
   263          2
   264          1
   288          2
   289          0
   290          2
   291          4
   292          1
   293          0
   306          0
   307          1
   308          0
   318          3
   319          4
   320          1
   321          0
   334          2
   335          0
   350         14
   351          4
   352          1
   365          6
   366          1
   367          0