##TITLE=Library Entry 43978
##JCAMP-DX=Revision 4.10 
##DATA TYPE=MASS SPECTRUM
##SAMPLE DESCRIPTION=WASHINGTON UNIVERSITY MEDICAL SCHOOL W.R. SHERMAN
##NAMES=HP
##CAS NAME=erythro-2-Pentulose, 1,3,4-tris-O-(trimethylsilyl)-, 5-[bis(trime
thylsilyl) phosphate]
##MOLFORM=C20H51O8PSi5
##CAS REGISTRY NO=56192-89-3
##MP= -300
##BP= -300
##MW= 590
##$RETENTION INDEX=0
##$CONDENSED SPECTRUM=NO
##NPOINTS= 185
##XYDATA=(XY..XY) 1 
    51          3
    53          5
    55         10
    58          4
    59         29
    61          4
    67          3
    69          6
    71          3
    72         13
    73        999
    74         73
    75         88
    76          7
    77          7
    79          4
    81          5
    85          3
    89          5
    93         13
    95          5
    97          5
    99          6
   101         37
   102          5
   103         56
   104          4
   105          4
   111          3
   113         10
   115         11
   116         19
   117         22
   118          3
   119          6
   127          7
   129         94
   130         15
   131         19
   132          3
   133         67
   134          9
   135         13
   140          7
   141          6
   142          9
   143         23
   144          3
   145         13
   147        217
   148         36
   149         31
   150          3
   151          6
   153          4
   155          3
   156          3
   157         15
   158          4
   168          3
   169         46
   170          9
   171         15
   177          5
   181          3
   189         10
   190          3
   191         33
   192          6
   193         11
   195         12
   196          3
   197          4
   203          9
   204         26
   205         15
   206          3
   207         23
   208          5
   209          5
   210          3
   211         70
   212         11
   213          6
   215         52
   216         13
   217        325
   218         83
   219         32
   220          5
   221          9
   225         26
   226          5
   227         43
   228         10
   229         13
   230         68
   231         26
   232         17
   233          9
   234          3
   241          5
   242          6
   243        164
   244         35
   245         24
   246          5
   253          6
   255          3
   257         10
   258         26
   259         63
   260         14
   261          6
   269          8
   271          4
   281          3
   283         14
   284         10
   285         21
   286          5
   291          6
   299        459
   300        113
   301         67
   302         12
   303          4
   305        114
   306         36
   307         17
   308          3
   313         13
   314         28
   315        568
   316        143
   317         88
   318         18
   319          9
   328         38
   329         12
   330          7
   331         14
   332          5
   333         13
   334          3
   341         23
   342          5
   343         10
   345          6
   348         26
   349         10
   350          4
   357        470
   358        127
   359         70
   360         14
   361          5
   369         11
   370          6
   371         13
   372          4
   373         17
   374          4
   375          3
   387        135
   388         47
   389         37
   390          9
   391          4
   395         19
   396          5
   397          3
   417          8
   431          3
   445          8
   447          4
   459         27
   460         10
   461          8
   485         31
   486         11
   487          7
   575         17
   576          8
   577          4