##TITLE=Library Entry 26445
##JCAMP-DX=Revision 4.10 
##DATA TYPE=MASS SPECTRUM
##SAMPLE DESCRIPTION=Exported from NIST MS Search
##NAMES=HP
##CAS NAME=2H-Pyran-2-methanol, 6-ethoxy-3,6-dihydro-3-hydroxy-
##MOLFORM=C8H14O4
##CAS REGISTRY NO=56196-33-9
##MP= -300
##BP= -300
##MW= 174
##$RETENTION INDEX=0
##$CONDENSED SPECTRUM=NO
##NPOINTS= 46
##XYDATA=(XY..XY) 1 
    39        210
    40         54
    41        129
    42         71
    43        156
    44         44
    45        340
    46        129
    47         20
    53         34
    54         23
    55        163
    56         51
    57        999
    58         61
    60         13
    61         13
    65          6
    66          6
    67         17
    68        244
    69        159
    70         61
    71         30
    73         34
    81         61
    82         23
    83         88
    84         51
    85        476
    86        346
    87         27
    95          6
    96         13
    97        132
    98         61
    99         23
   100          6
   101         27
   110         20
   111         64
   112         40
   113         17
   114        700
   115         54
   129        129