##TITLE=Library Entry 41501
##JCAMP-DX=Revision 4.10 
##DATA TYPE=MASS SPECTRUM
##SAMPLE DESCRIPTION=VERN REINHOLD,A.D.LITTLE INC.,CAMBRIDGE,MASS.
##NAMES=HP
##CAS NAME=.alpha.-D-Galactopyranose, 1,2,3-tris-O-(trimethylsilyl)-, cyclic
 methylboronate
##MOLFORM=C16H37BO6Si3
##CAS REGISTRY NO=56196-95-3
##MP= -300
##BP= -300
##MW= 420
##$RETENTION INDEX=0
##$CONDENSED SPECTRUM=NO
##NPOINTS= 228
##XYDATA=(XY..XY) 1 
    30         24
    31         37
    36         43
    38         26
    39         83
    40         37
    41        119
    42         70
    43        225
    44        350
    45        532
    46         46
    47        278
    48         15
    49         23
    50         19
    51         40
    52         27
    53         45
    54         33
    55        138
    56         59
    57         91
    58         77
    59        254
    60         39
    61         79
    62         17
    63         21
    64         19
    65         27
    66         29
    67         29
    68         30
    69        115
    70         31
    71         42
    72         73
    73        999
    74        305
    75        951
    76        109
    77        158
    78         25
    79         23
    80         14
    81        131
    82         26
    83         71
    84        136
    85        127
    86         23
    87         39
    88         20
    89        121
    90         22
    91         22
    93         41
    94         18
    95         29
    96         94
    97        303
    98         43
    99         58
   100         27
   101        220
   102         37
   103        498
   104         40
   105         49
   109         41
   110         35
   111         80
   112         22
   113         74
   114        188
   115        664
   116        197
   117        807
   118         78
   119         55
   121         21
   122         20
   123         34
   124         22
   125         36
   126         18
   127         51
   128         32
   129        530
   130         87
   131        182
   132         39
   133        214
   134         33
   135         38
   137         18
   138         28
   139         57
   140         22
   141         28
   142         75
   143        148
   144         31
   145        107
   146         33
   147        843
   148        161
   149        164
   150         31
   151         38
   152         14
   153         25
   154         19
   155        111
   156         63
   157        194
   158         31
   159         77
   160         29
   161         27
   163         45
   164         16
   165         18
   168         23
   169         52
   170         74
   171        204
   172         40
   173         31
   174         24
   175         48
   176         18
   177         43
   178         16
   179         25
   181         15
   182         19
   183         67
   184         29
   185         50
   186         24
   187         38
   188         25
   189        254
   190         51
   191        910
   192        203
   193        101
   194         23
   195         19
   196         12
   197         33
   198         40
   199         99
   200         25
   201         33
   202         11
   203        110
   204        721
   205        166
   206         61
   207         43
   208         11
   210         20
   211         59
   212         59
   213         45
   214         17
   215         30
   216         18
   217        265
   218        387
   219         96
   220         43
   221         32
   222         14
   223         19
   224         20
   225         43
   226         20
   227         27
   230         68
   231        148
   232         38
   233         31
   240         17
   241         29
   242         16
   243         50
   244         28
   245        110
   246        274
   247         82
   248         31
   249         14
   255         18
   257         19
   258         37
   259         45
   260         22
   261         12
   265         20
   267         18
   271         13
   272         21
   273         53
   274         20
   275         16
   279         71
   280         28
   281         23
   284         13
   285         32
   286         25
   287         32
   288         19
   289         13
   299         13
   302         24
   303         13
   313         13
   314         12
   315         46
   316         16
   317         24
   345         19
   393         15