##TITLE=Library Entry 60324
##JCAMP-DX=Revision 4.10 
##DATA TYPE=MASS SPECTRUM
##SAMPLE DESCRIPTION=NIST Mass Spectrometry Data Center
##NAMES=HP
##CAS NAME=1(2H)-Naphthalenone, 3,4,4a,5,6,7-hexahydro-4a,5-dimethyl-3-(1-me
thylethenyl)-, [3S-(3.alpha.,4a.alpha.,5.alpha.)]-
##MOLFORM=C15H22O
##CAS REGISTRY NO=562-23-2
##MP= -300
##BP= -300
##MW= 218
##$RETENTION INDEX=1756
##$CONDENSED SPECTRUM=NO
##NPOINTS= 150
##XYDATA=(XY..XY) 1 
    26          1
    27         52
    28          8
    29         61
    30          1
    37          1
    38          8
    39        266
    40         71
    41        422
    42         70
    43         85
    44          2
    45          1
    50         19
    51        101
    52         61
    53        258
    54         33
    55        222
    56         14
    57         11
    58          6
    59          4
    60          1
    61          1
    62          7
    63         44
    64         21
    65        278
    66        134
    67        315
    68         66
    69         97
    70          9
    71         10
    72          5
    73          5
    74          6
    75          8
    76         11
    77        652
    78        151
    79        966
    80        661
    81        257
    82         62
    83         24
    84          8
    85          4
    86          4
    87          5
    88          2
    89         26
    90         10
    91        999
    92        188
    93        842
    94        278
    95        337
    96         60
    97         38
    98          3
    99          2
   101          3
   102         14
   103         77
   104         30
   105        666
   106        334
   107        861
   108        604
   109        245
   110         32
   111         34
   112          7
   115         95
   116         36
   117        132
   118         49
   119        602
   120        233
   121        391
   122        341
   123         93
   124         11
   125          3
   126          2
   127         17
   128         50
   129         56
   130         21
   131        101
   132        195
   133        819
   134        535
   135        385
   136        107
   137        110
   138         12
   141         17
   142         17
   143         85
   144         30
   145        145
   146         55
   147        445
   148        167
   149        141
   150         60
   151         15
   152          3
   153          3
   154          1
   155          5
   156         10
   157        166
   158         45
   159        177
   160         79
   161        641
   162        103
   163         28
   164          3
   168          1
   169          1
   170          6
   171         16
   172          6
   173         12
   174         30
   175        345
   176        944
   177        133
   178          8
   184          1
   185         61
   186          9
   189         33
   190         32
   199          1
   200         52
   201          9
   202          2
   203        178
   204         26
   217          4
   218        315
   219         52
   220          3