##TITLE=Library Entry 37668
##JCAMP-DX=Revision 4.10 
##DATA TYPE=MASS SPECTRUM
##SAMPLE DESCRIPTION=Exported from NIST MS Search
##NAMES=HP
##CAS NAME=1,3-Cyclohexanedione, 2,2-dimethyl-
##MOLFORM=C8H12O2
##CAS REGISTRY NO=562-13-0
##MP= -300
##BP= -300
##MW= 140
##$RETENTION INDEX=0
##$CONDENSED SPECTRUM=NO
##NPOINTS= 28
##XYDATA=(XY..XY) 1 
    39        313
    40         69
    41        469
    42        516
    43        156
    44        250
    51         16
    53         25
    54         16
    55        766
    56         56
    57         25
    65         16
    67        375
    68         38
    69        156
    70        999
    71         63
    83         31
    84         94
    85        125
    86          6
    97        906
    98         63
   111         31
   112         31
   140        813
   141         63