##TITLE=Library Entry 39310
##JCAMP-DX=Revision 4.10 
##DATA TYPE=MASS SPECTRUM
##SAMPLE DESCRIPTION=Japan AIST/NIMC Database- Spectrum MS-NW-6105
##NAMES=HP
##CAS NAME=Terpinen-4-ol
##MOLFORM=C10H18O
##CAS REGISTRY NO=562-74-3
##MP= -300
##BP= -300
##MW= 154
##$RETENTION INDEX=1177
##$CONDENSED SPECTRUM=NO
##NPOINTS= 112
##XYDATA=(XY..XY) 1 
    14          1
    15          9
    17          2
    18         12
    19          1
    26          5
    27        115
    28         16
    29         53
    30          1
    31         18
    32          2
    37          1
    38          5
    39        102
    40         27
    41        231
    42         26
    43        290
    44         12
    45         19
    50          8
    51         25
    52         13
    53         91
    54         14
    55        172
    56         12
    57         23
    58         27
    59         35
    60          2
    61          1
    62          4
    63          8
    64          2
    65         30
    66         12
    67        137
    68        152
    69        212
    70         37
    71        999
    72         51
    73          5
    74          1
    75          1
    76          1
    77         88
    78         15
    79         47
    80         10
    81        124
    82         33
    83        101
    84         17
    85         19
    86        272
    87         22
    88          1
    89          2
    90          1
    91         76
    92         68
    93        434
    94         45
    95         59
    96         14
    97         16
    98         17
    99          6
   100          1
   102          1
   103          5
   104          3
   105         13
   106          4
   107         16
   108          5
   109         14
   110         43
   111        498
   112         39
   113          3
   115          3
   116          1
   117          5
   118          1
   119         21
   120          4
   121         47
   122          5
   123          3
   124          1
   125         24
   126          3
   127          3
   131          2
   132          2
   133          1
   134          7
   135          3
   136         87
   137         14
   138          2
   139         28
   140          3
   152          1
   153          1
   154        148
   155         17
   156          2