##TITLE=Library Entry 8782
##JCAMP-DX=Revision 4.10 
##DATA TYPE=MASS SPECTRUM
##SAMPLE DESCRIPTION=Exported from NIST MS Search
##NAMES=HP
##CAS NAME=Pentane, 3,3-dimethyl-
##MOLFORM=C7H16
##CAS REGISTRY NO=562-49-2
##MP= -300
##BP= -300
##MW= 100
##$RETENTION INDEX=659
##$CONDENSED SPECTRUM=NO
##NPOINTS= 53
##XYDATA=(XY..XY) 1 
     1          3
     2          1
    12          1
    13          1
    14          1
    15         22
    16          1
    25          1
    26         10
    27        175
    28         22
    29        184
    30          4
    37          1
    38          3
    39         93
    40         12
    41        198
    42         32
    43        999
    44         34
    45          1
    50          2
    51          6
    52          3
    53         21
    54          5
    55        116
    56         13
    57         51
    58          2
    62          1
    63          1
    64          1
    65          2
    66          1
    67          4
    68          1
    69         11
    70        189
    71        624
    72         35
    73          1
    77          1
    78          1
    79          1
    81          1
    83          1
    84          6
    85        162
    86         11
    87          1
   100          1