##TITLE=Library Entry 52570
##JCAMP-DX=Revision 4.10 
##DATA TYPE=MASS SPECTRUM
##SAMPLE DESCRIPTION=J.T. CLERC, ORGANIC CHEM. LAB., ETH, ZURICH, SWITZ.
##NAMES=HP
##CAS NAME=1,3-Cyclohexanedione, 4,4-dimethyl-
##MOLFORM=C8H12O2
##CAS REGISTRY NO=562-46-9
##MP= -300
##BP= -300
##MW= 140
##$RETENTION INDEX=0
##$CONDENSED SPECTRUM=NO
##NPOINTS= 27
##XYDATA=(XY..XY) 1 
    17         61
    18        223
    26         61
    27        223
    28        158
    29        191
    39        321
    40        126
    41        552
    42        321
    43        288
    50         89
    51         56
    53        121
    54         93
    55        715
    56        845
    57        126
    69        154
    70        284
    83        999
    84        280
    97        146
   112        313
   125         81
   140        402
   141         77