##TITLE=Library Entry 56200
##JCAMP-DX=Revision 4.10 
##DATA TYPE=MASS SPECTRUM
##SAMPLE DESCRIPTION=Chemical Concepts
##NAMES=HP
##CAS NAME=But-2-enamide, N,N-diisopropyl-
##MOLFORM=C10H19NO
##CAS REGISTRY NO=56209-39-3
##MP= -300
##BP= -300
##MW= 169
##$RETENTION INDEX=0
##$CONDENSED SPECTRUM=NO
##NPOINTS= 25
##XYDATA=(XY..XY) 1 
    39         69
    40         53
    41        306
    42         85
    43        119
    44        164
    56         10
    58        211
    68         16
    69        824
    70         70
    72          9
    84         24
    85          4
    86        999
    87         47
   100         17
   112         85
   126         99
   127          8
   154        206
   155         17
   168          9
   169        212
   170         21