##TITLE=Library Entry 58934
##JCAMP-DX=Revision 4.10 
##DATA TYPE=MASS SPECTRUM
##SAMPLE DESCRIPTION=NIST Mass Spectrometry Data Center
##NAMES=HP
##CAS NAME=2,2,6,6-Tetrachlorocyclohexanol
##MOLFORM=C6H8Cl4O
##CAS REGISTRY NO=56207-45-5
##MP= -300
##BP= -300
##MW= 236
##$RETENTION INDEX=0
##$CONDENSED SPECTRUM=NO
##NPOINTS= 150
##XYDATA=(XY..XY) 1 
    15         20
    17          6
    18          6
    26         94
    27        355
    28         33
    29        217
    30          7
    32          1
    35         33
    36         37
    37         73
    38        133
    39        618
    40         84
    41        304
    42         41
    43         19
    44         20
    47         44
    48         34
    49        137
    50        104
    51        182
    52         23
    53         87
    54         14
    55         82
    56         10
    57         28
    60         25
    61        162
    62         57
    63        244
    65        503
    66         52
    67        113
    68         18
    69         44
    70          8
    71          5
    72         18
    73         91
    74         26
    75        353
    76         89
    77        165
    78         51
    79         10
    80         10
    81          9
    82         15
    83         47
    84         15
    85         55
    86          9
    87         56
    88         10
    89         52
    91        999
    92         46
    93        341
    94         24
    95         23
    96         65
    97         21
    98         44
    99         52
   101        377
   102         43
   103        140
   104         97
   105         29
   106         32
   107         13
   109        163
   110        238
   111        143
   112        204
   113         41
   114         60
   115          8
   116          9
   117         12
   119          5
   120          3
   122        269
   123         31
   124        179
   125         58
   126         30
   127         27
   128         12
   129         68
   130         13
   131         34
   132          5
   133         11
   134          7
   135         57
   136        321
   137        102
   138        207
   139         56
   140         36
   141         12
   143         13
   144          3
   145         13
   146          5
   147         40
   148          6
   149         25
   150          3
   151          7
   156          2
   158          2
   159          3
   165         92
   166         10
   167         53
   169         51
   170        114
   171         53
   172        111
   173         17
   174         37
   175          4
   176          4
   183        112
   184         11
   185        116
   186          9
   187         39
   188          3
   189          6
   200         56
   201         90
   202         58
   203         87
   204         20
   205         27
   206          3
   207          3
   218          9
   220         12
   222          6
   236          7
   238         11
   240          4