##TITLE=Library Entry 92831
##JCAMP-DX=Revision 4.10 
##DATA TYPE=MASS SPECTRUM
##SAMPLE DESCRIPTION=VERN REINHOLD,A.D.LITTLE INC.,CAMBRIDGE,MASS
##NAMES=HP
##CAS NAME=.alpha.-D-Galactopyranoside, methyl 2-(acetylamino)-2-deoxy-3,6-d
i-O-methyl-, TMS derivative
##MOLFORM=C14H29NO6Si
##CAS REGISTRY NO=56211-05-3
##MP= -300
##BP= -300
##MW= 335
##$RETENTION INDEX=0
##$CONDENSED SPECTRUM=NO
##NPOINTS= 73
##XYDATA=(XY..XY) 1 
    43        110
    45        143
    47         11
    56         17
    58         37
    59         67
    60         12
    61         19
    72         27
    73        738
    74         57
    75        210
    76         18
    80         50
    85         16
    86         63
    87         13
    89        180
    90         21
    91         13
    98         57
    99         22
   101         21
   102         20
   103         22
   110         12
   111         16
   112         18
   114         25
   115        999
   116        123
   117         31
   118         15
   122         41
   126         19
   128         57
   129         92
   130         15
   133         19
   140         37
   141         11
   142         11
   144         45
   145         17
   146        143
   147         26
   148         16
   153         11
   154         20
   156         24
   158         20
   159         54
   160         72
   161         14
   168         93
   170         24
   174         11
   185         21
   186        441
   187         67
   188         55
   189         35
   198         11
   200         36
   201         63
   202         12
   214         23
   228         13
   229         11
   230         23
   247         11
   261         58
   272         29