##TITLE=Library Entry 92819
##JCAMP-DX=Revision 4.10 
##DATA TYPE=MASS SPECTRUM
##SAMPLE DESCRIPTION=VERN REINHOLD,A.D.LITTLE INC.,CAMBRIDGE,MASS
##NAMES=HP
##CAS NAME=.alpha.-D-Galactopyranoside, methyl 2-(acetylamino)-2-deoxy-3,4-d
i-O-methyl-6-O-(trimethylsilyl)-
##MOLFORM=C14H29NO6Si
##CAS REGISTRY NO=56211-02-0
##MP= -300
##BP= -300
##MW= 335
##$RETENTION INDEX=0
##$CONDENSED SPECTRUM=NO
##NPOINTS= 104
##XYDATA=(XY..XY) 1 
    30         38
    31         38
    33         13
    36         16
    38         15
    39         23
    41         73
    42         66
    43        151
    44         64
    45        145
    46         27
    47         30
    49         43
    50         12
    51         34
    52         25
    53         22
    54         21
    55         27
    56         36
    57         38
    58         82
    59         96
    60         47
    61         26
    65         15
    66         12
    68         22
    69         44
    70         20
    71         82
    72         51
    73        936
    74        125
    75        459
    76         29
    77         38
    78         34
    79         50
    80         32
    81         22
    82         16
    83         21
    84         48
    85         34
    86         85
    87         20
    88        158
    89        204
    90         30
    91         34
    93         17
    94         15
    95         18
    96         16
    97         13
    98         79
    99         29
   100         18
   101         58
   102         26
   103         70
   104         21
   105         19
   108         17
   109         19
   110         16
   111         62
   112         58
   113         20
   114         34
   115        999
   116        152
   117        130
   118         15
   119         21
   122         11
   124         16
   126         16
   127         15
   128        231
   129         73
   130         57
   131         39
   132         13
   133         25
   138         25
   139         15
   140         21
   141         40
   142         22
   143         44
   144         29
   145         33
   146         17
   147         31
   151         11
   152         15
   153         35
   154         30
   155         11
   156         13
   272         25