##TITLE=Library Entry 46059
##JCAMP-DX=Revision 4.10 
##DATA TYPE=MASS SPECTRUM
##SAMPLE DESCRIPTION=NIST Mass Spectrometry Data Center, 1998.
##NAMES=HP
##CAS NAME=Androst-16-en-3-ol, (3.beta.,5.alpha.)-, TMS derivative
##MOLFORM=C22H38OSi
##CAS REGISTRY NO=56210-81-2
##MP= -300
##BP= -300
##MW= 346
##$RETENTION INDEX=2245
##$CONDENSED SPECTRUM=NO
##NPOINTS= 246
##XYDATA=(XY..XY) 1 
    15          1
    27          8
    29         24
    30          1
    31          1
    39         22
    40          4
    41        135
    42          7
    43         39
    44         10
    45         69
    46          4
    47         40
    48          2
    49          2
    50          1
    51          7
    52          5
    53         64
    54         12
    55        201
    56         10
    57         15
    58          8
    59         62
    60         13
    61         70
    62          5
    63          4
    64          2
    65         47
    66         15
    67        224
    68         22
    69         52
    70          6
    71          7
    72         13
    73        490
    74         59
    75        999
    76         73
    77        243
    78         46
    79        450
    80         68
    81        303
    82         24
    83         34
    84          3
    85         10
    86          2
    87          5
    88          3
    89         26
    90          2
    91        482
    92         86
    93        561
    94        394
    95        227
    96         20
    97         18
    98          2
    99         10
   100          2
   101         38
   102          7
   103         35
   104         22
   105        315
   106        161
   107        420
   108        111
   109        107
   110         11
   111          8
   112          1
   113          8
   114          2
   115         52
   116         25
   117        118
   118         30
   119        176
   120         64
   121        151
   122         23
   123         43
   124          5
   125          3
   126          1
   127         15
   128         22
   129        114
   130         50
   131        202
   132         49
   133        264
   134         60
   135         97
   136         14
   137         16
   138          2
   139          2
   140          1
   141         12
   142         50
   143         52
   144         21
   145        177
   146         94
   147        296
   148        351
   149        191
   150         36
   151         18
   152          4
   153          5
   154          3
   155         64
   156         16
   157         33
   158         79
   159        149
   160         60
   161        207
   162         74
   163         25
   164          4
   166          9
   167          5
   168          4
   169         15
   170          5
   171         37
   172         16
   173         72
   174         31
   175         46
   176         12
   177          3
   178          1
   179          2
   180          1
   181         13
   182         13
   183         23
   184          6
   185         56
   186         17
   187         55
   188         20
   189         23
   190          4
   191          4
   192          1
   193          2
   194          1
   195          6
   196         49
   197         16
   198          6
   199         98
   200         36
   201         97
   202         30
   203          5
   204          1
   207          1
   208          1
   209         14
   210          3
   211          3
   212          2
   213         29
   214         19
   215         27
   216         28
   217        104
   218         17
   219          3
   220          1
   221          1
   222          1
   223          3
   224          1
   225          3
   226          1
   227         26
   228         13
   229          4
   230         26
   231          5
   233          1
   235          4
   236          2
   237          6
   238          2
   239          6
   240          1
   241        584
   242        115
   243         29
   244          5
   245          1
   247          1
   249          1
   250          2
   251         15
   252          3
   253          2
   254          1
   255        104
   256        138
   257         38
   258          6
   259          1
   261          1
   263          1
   272          1
   278          1
   289         92
   290         26
   291         10
   292          2
   303          1
   304          1
   305          2
   313          2
   314          1
   315          1
   317          2
   318          1
   329          1
   331        502
   332        143
   333         37
   334          6
   344          1
   345          8
   346        266
   347         78
   348         19
   349          3