##TITLE=Library Entry 41509
##JCAMP-DX=Revision 4.10 
##DATA TYPE=MASS SPECTRUM
##SAMPLE DESCRIPTION=VERN REINHOLD,A.D.LITTLE INC.,CAMBRIDGE,MASS.
##NAMES=HP
##CAS NAME=.beta.-D-Galactopyranoside, methyl 2,3-bis-O-(trimethylsilyl)-, c
yclic methylboronate
##MOLFORM=C14H31BO6Si2
##CAS REGISTRY NO=56211-08-6
##MP= -300
##BP= -300
##MW= 362
##$RETENTION INDEX=0
##$CONDENSED SPECTRUM=NO
##NPOINTS= 259
##XYDATA=(XY..XY) 1 
    30         34
    31         48
    36         58
    37         18
    38         29
    39         80
    40         41
    41        127
    42         97
    43        326
    44        423
    45        430
    46         38
    47        273
    48         31
    49         27
    50         31
    51         36
    52         39
    53         49
    54         42
    55        144
    56        103
    57        121
    58         34
    59        147
    60         35
    61         54
    62         21
    63         28
    64         20
    65         33
    66         34
    67         47
    68         60
    69        134
    70         39
    71         40
    72         42
    73        999
    74        182
    75        982
    76        130
    77        179
    78         44
    79         35
    80         26
    81         95
    82         34
    83         63
    84        107
    85        161
    86         34
    87         29
    88         18
    89         62
    90         24
    91         50
    92         21
    93         27
    94         39
    95         44
    96         61
    97        183
    98         49
    99         48
   100         32
   101        127
   102         33
   103        357
   104         43
   105         38
   106         16
   107         25
   108         21
   109         57
   110         69
   111        116
   112         31
   113         93
   114         67
   115        208
   116        136
   117        388
   118         41
   119         44
   120         17
   121         26
   122         29
   123         52
   124         33
   125         53
   126         54
   127         95
   128         31
   129        316
   130         55
   131        123
   132         32
   133        138
   134         37
   135         65
   136         23
   137         28
   138         39
   139         67
   140         30
   141         40
   142         42
   143        117
   144         43
   145         85
   146         27
   147        395
   148         73
   149         73
   150         32
   151         60
   152         36
   153         32
   154         24
   155        114
   156         47
   157        116
   158         37
   159         46
   160         18
   161         33
   162         20
   163         40
   164         13
   165         28
   166         22
   167         37
   168         39
   169        192
   170         72
   171        144
   172         26
   173         38
   174         22
   175         46
   176         15
   177         31
   178         17
   179         29
   180         22
   181         30
   182         22
   183         70
   184         32
   185         46
   186         31
   187         33
   188         27
   189        134
   190         42
   191        124
   192         33
   193         40
   194         18
   195         36
   196         22
   197         78
   198         62
   199        169
   200         39
   201         45
   202         26
   203         37
   204        464
   205        122
   206         48
   207         37
   208         17
   209         24
   210         29
   211         58
   212         76
   213         78
   214         29
   215         27
   217        169
   218        111
   219         42
   220         19
   221         31
   222         20
   223         24
   224         13
   225         42
   226         27
   227         37
   228         18
   229         26
   230         44
   231         56
   232         23
   233         28
   234         14
   237         15
   239         26
   240         72
   241        270
   242         46
   243         46
   244         21
   245         36
   246         51
   247         34
   248         21
   249         19
   251         15
   253         26
   254         13
   255         25
   257         31
   258         16
   259         38
   260         22
   267         12
   269         14
   270         14
   271         29
   272         19
   273         26
   279         11
   282         15
   283         20
   284         22
   285         28
   286         23
   287         32
   288         18
   289         15
   293         12
   297         11
   299         28
   300         24
   301         41
   302         45
   303         24
   304         14
   311         11
   313         25
   314         21
   315         57
   316         23
   317         23
   327         21
   328         23
   329         34
   330         52
   331         88
   332         32
   333         21
   341         16
   342         13
   343         19