##TITLE=Library Entry 42310
##JCAMP-DX=Revision 4.10 
##DATA TYPE=MASS SPECTRUM
##SAMPLE DESCRIPTION=STER PREG MOTM L SE30 01 2757 E. M.HORN
##NAMES=HP
##CAS NAME=Pregna-5,16-dien-20-one, 3-[(trimethylsilyl)oxy]-, O-methyloxime,
 (3.beta.)-
##MOLFORM=C25H41NO2Si
##CAS REGISTRY NO=56210-84-5
##MP= -300
##BP= -300
##MW= 415
##$RETENTION INDEX=0
##$CONDENSED SPECTRUM=NO
##NPOINTS= 312
##XYDATA=(XY..XY) 1 
    41        304
    42        304
    43        200
    44        149
    45        209
    46         14
    47         80
    48          4
    49          4
    50          9
    51         20
    52         14
    53         94
    54         24
    55        300
    56         54
    57        140
    58         29
    59        114
    60         29
    61         80
    62          9
    63         14
    64          9
    65         80
    66         44
    67        244
    68         54
    69        120
    70        120
    71         80
    72         54
    73        999
    74        269
    75        929
    76         74
    77        280
    78         69
    79        324
    80         64
    81        274
    82         64
    83         74
    84         64
    85         60
    86          9
    87         14
    88          9
    89         40
    90         20
    91        664
    92        144
    93        354
    94        124
    95        164
    96         69
    97         49
    98         29
    99         29
   100         44
   101         54
   102         20
   103         89
   104         69
   105        489
   106        124
   107        320
   108        134
   109        104
   110         54
   111         34
   112         24
   113         34
   114         29
   115        154
   116        120
   117        289
   118        209
   119        380
   120        264
   121        244
   122        124
   123         74
   124         49
   125         29
   126         29
   127         40
   128        109
   129        999
   130        280
   131        349
   132        284
   133        329
   134        269
   135        124
   136         74
   137         29
   138         54
   139         24
   140         29
   141         74
   142         69
   143         44
   144        124
   145        289
   146        200
   147        240
   148        124
   149         64
   150         80
   151         54
   152        134
   153         60
   154         40
   155        124
   156         60
   157        200
   158        144
   159        249
   160        109
   161         74
   162         34
   163         34
   164        280
   165        124
   166         74
   167         44
   168         40
   169         89
   170         60
   171        109
   172         94
   173        120
   174         60
   175         24
   176         34
   177         24
   178        114
   179         49
   180         34
   181         60
   182         40
   183         84
   184         54
   185         64
   186         60
   187         34
   188         24
   189         14
   190         34
   191         20
   192         24
   193         29
   194         24
   195         54
   196         40
   197         64
   198         44
   199         54
   200         64
   201         29
   202         34
   203         24
   204        129
   205         34
   206         20
   207         49
   208         29
   209         44
   210         34
   211         60
   212         40
   213         69
   214         29
   215          9
   216         20
   217         24
   218         20
   219         20
   220         14
   221         34
   222         29
   223         40
   224         34
   225         29
   226         29
   227         20
   228         14
   229          9
   230         20
   231         20
   232        109
   233         29
   234         14
   235         24
   236         24
   237         69
   238         44
   239         69
   240         80
   241         20
   242          9
   243          9
   244         14
   245         14
   246          4
   247         14
   248         14
   249         14
   250         20
   251         40
   252         60
   253        140
   254        160
   255        104
   256         34
   257          9
   258         29
   259          9
   260          4
   261          9
   262         14
   263         29
   264         44
   265         20
   266         24
   267         14
   268         40
   269         29
   270         34
   271         14
   272          4
   273          4
   276          4
   277         34
   278         84
   279         89
   280         29
   281         14
   282         20
   283         29
   284         60
   285        149
   286        999
   287        224
   288         29
   289          4
   292         14
   293         20
   294        464
   295        124
   296         24
   297         20
   298          4
   299          9
   300          4
   308          4
   309         14
   310        494
   311        129
   312         20
   313         14
   314          4
   324         24
   325        220
   326         69
   327         14
   328          4
   341          9
   342         20
   343         24
   344          9
   352          4
   353          4
   354         14
   355         20
   356         14
   357         20
   358          9
   359         54
   360         20
   361          9
   362          4
   367          4
   368         29
   369         24
   370         14
   371          4
   372          4
   373          4
   374         20
   375          4
   382         14
   383         29
   384        400
   385        149
   386         44
   387         14
   388          4
   398          4
   399         14
   400        309
   401        104
   402         29
   403          4
   413          4
   414          9
   415        749
   416        269
   417         74
   418         14
   419          4