##TITLE=Library Entry 43216
##JCAMP-DX=Revision 4.10 
##DATA TYPE=MASS SPECTRUM
##SAMPLE DESCRIPTION=VERN REINHOLD,A.D.LITTLE INC.,CAMBRIDGE,MASS.
##NAMES=HP
##CAS NAME=.alpha.-D-Galactopyranoside, methyl 2,3-bis-O-(trimethylsilyl)-,
 cyclic phenylboronate
##MOLFORM=C19H33BO6Si2
##CAS REGISTRY NO=56211-20-2
##MP= -300
##BP= -300
##MW= 424
##$RETENTION INDEX=0
##$CONDENSED SPECTRUM=NO
##NPOINTS= 250
##XYDATA=(XY..XY) 1 
    30         35
    31         40
    33         11
    36         35
    38         26
    39         63
    41        151
    42         56
    43        137
    44        156
    45        609
    46         43
    47         68
    49         11
    50         34
    51         58
    52         49
    53         51
    54         27
    55        105
    56         35
    57         60
    58         46
    59        338
    60         35
    61         64
    62          5
    63         16
    65         32
    66          9
    67         33
    68         45
    69        165
    70         39
    71         57
    72         80
    73        999
    74        456
    75        596
    76         55
    77        142
    78         94
    79         41
    80          7
    81        111
    82         22
    83         40
    85         59
    87         42
    88         30
    89        282
    90         42
    91        280
    92         31
    93         34
    94         14
    95         23
    97         46
    98         28
    99         60
   100         31
   101        175
   102         46
   103        221
   104        156
   105        262
   106         36
   107         12
   109         46
   111         47
   112         23
   113         47
   114         29
   115         72
   116        666
   117        363
   118         70
   119        111
   120         19
   121         33
   125         19
   126         12
   127         50
   128         18
   129        409
   130         70
   131        333
   132         67
   133        968
   134        282
   135        261
   136         41
   137         58
   138          6
   139         14
   141         45
   142         43
   143        210
   144         43
   145         75
   146        230
   147        877
   148        208
   149        174
   150         36
   151         36
   153         21
   154          9
   155        129
   156         34
   157         65
   158         74
   159        331
   160        111
   161         63
   162         37
   163        124
   164         33
   165         35
   167          7
   168          6
   169        104
   170         38
   171         57
   172         41
   173        201
   174         50
   175         90
   176         56
   177        215
   178         47
   179         54
   180          6
   181          8
   183         44
   184         35
   185         80
   186         44
   187         46
   188         54
   189        511
   190        142
   191        196
   192         50
   193         52
   195         28
   197         12
   199         34
   200         36
   201         74
   202         19
   203         60
   204        995
   205        510
   206        215
   207        178
   208         42
   209         60
   210          8
   212         17
   213         49
   214          7
   215         49
   216         23
   217        371
   218         94
   219         55
   220         15
   221        622
   222        123
   223         62
   224         11
   225         15
   227          6
   229         24
   230         22
   231         83
   232         52
   233        181
   234         54
   235         35
   237          5
   241          7
   243        121
   244         64
   245        190
   246         62
   247        109
   248         35
   249         22
   250         21
   251         43
   253          8
   255          5
   259         47
   260         42
   261         79
   262         44
   263         72
   264         20
   265          6
   266         11
   267         32
   269          7
   272         16
   274        152
   276         89
   277         37
   278         34
   283          5
   286         23
   287         65
   288         25
   290         14
   292         11
   293          5
   303         37
   304         91
   305         33
   306         44
   307          8
   308          6
   309         17
   310          7
   319         71
   320          5
   321         44
   322         89
   323         36
   324          7
   335         10
   336         32
   337          6
   348          5
   349         36
   350        100
   351         35
   352         11
   362         26
   363         55
   364         33
   365         19
   377         12
   378         53
   380          6
   393         16
   394         37
   395          6
   410         28
   411          7