##TITLE=Library Entry 41469
##JCAMP-DX=Revision 4.10 
##DATA TYPE=MASS SPECTRUM
##SAMPLE DESCRIPTION=STER ANDR MOTM L 00 0000 E M.HORN
##NAMES=HP
##CAS NAME=Androst-5-en-16-one, 3,17-bis[(trimethylsilyl)oxy]-, O-methyloxim
e, (3.beta.,17.beta.)-
##MOLFORM=C26H47NO3Si2
##CAS REGISTRY NO=56210-92-5
##MP= -300
##BP= -300
##MW= 477
##$RETENTION INDEX=0
##$CONDENSED SPECTRUM=NO
##NPOINTS= 313
##XYDATA=(XY..XY) 1 
    41        329
    42         60
    43        280
    44         84
    45        324
    46         20
    47         80
    48          4
    49          9
    50         20
    51         24
    52         29
    53         64
    54         14
    55        224
    56         44
    57         74
    58         40
    59        280
    60         34
    61         89
    62          9
    63         14
    64          4
    65         34
    66         20
    67        200
    68         34
    69        100
    70         29
    71         44
    72         74
    73        999
    74        394
    75        999
    76         94
    77        189
    78         40
    79        269
    80         49
    81        344
    82         40
    83         44
    84         54
    85         54
    86         14
    87         14
    88         14
    89        429
    90         40
    91        309
    92         54
    93        229
    94         64
    95        140
    96         24
    97         29
    98         40
    99         34
   100         84
   101         84
   102         74
   103        180
   104         49
   105        360
   106         74
   107        184
   108         40
   109         49
   110         20
   111         24
   112         14
   113        240
   114        154
   115        114
   116        280
   117        224
   118        129
   119        224
   120         94
   121         74
   122         34
   123         20
   124         20
   125         24
   126         14
   127         34
   128        140
   129        734
   130        174
   131        240
   132        109
   133        654
   134         89
   135         49
   136         20
   137         14
   138         20
   139         14
   140         14
   141         60
   142        129
   143        240
   144        154
   145        369
   146        100
   147        100
   148         24
   149         24
   150         14
   151         14
   152         20
   153         14
   154         40
   155         84
   156         64
   157        280
   158        999
   159        220
   160        109
   161         29
   162         14
   163         14
   164         14
   165         24
   166         34
   167         34
   168         44
   169         69
   170         49
   171        109
   172         49
   173        549
   174        829
   175        180
   176         44
   177         14
   178          9
   179         29
   180         34
   181         54
   182         60
   183         69
   184         44
   185         49
   186         24
   187         24
   188         14
   189         14
   190          9
   191          9
   192         14
   193         29
   194         34
   195         60
   196         49
   197         80
   198         44
   199         44
   200         24
   201         14
   202          9
   203          9
   204          9
   205         14
   206         20
   207         29
   208         34
   209         34
   210         49
   211         64
   212         49
   213         89
   214         29
   215          9
   216         24
   217          9
   218          9
   219          9
   220         14
   221         20
   222         14
   223         44
   224         54
   225         60
   226         29
   227         20
   228         14
   229          9
   230          4
   231          9
   232          9
   233          9
   234         14
   235         24
   236         14
   237         20
   238         34
   239         14
   240         14
   241          9
   242          9
   243          4
   244          4
   245          4
   246          9
   247          9
   248          9
   249         34
   250         24
   251         14
   252         20
   253         14
   254         20
   255          9
   256          9
   257          9
   258         20
   259          9
   260          9
   261          9
   262          4
   263          4
   264         14
   265          9
   266        244
   267         64
   268         24
   269          4
   280          4
   281          9
   282         14
   283         20
   284         14
   285          4
   286          9
   287         29
   288          9
   289         14
   290          4
   296          9
   297          9
   298          9
   299          4
   300          9
   301         24
   302         29
   303         14
   304          9
   305          4
   313         14
   314          9
   315         24
   316         14
   317         44
   318         20
   319          4
   340          9
   341         29
   342         40
   343         20
   344          4
   345         14
   346          9
   347          4
   348          9
   349         20
   350          4
   354          4
   355         24
   356        260
   357         69
   358         40
   359         14
   360          4
   371          4
   372         54
   373         20
   374         14
   375          9
   386          9
   387         24
   388          9
   389          4
   394          4
   395         24
   396          9
   397          4
   429          9
   430         24
   431         20
   432         29
   433         14
   434          4
   445         54
   446        700
   447        380
   448        129
   449         49
   450         14
   451          4
   461         24
   462        300
   463        129
   464         40
   465          9
   466          4
   475          9
   476         20
   477        160
   478         54
   479         20
   480          4