##TITLE=Library Entry 41379
##JCAMP-DX=Revision 4.10 
##DATA TYPE=MASS SPECTRUM
##SAMPLE DESCRIPTION=VERN REINHOLD,A.D.LITTLE INC.,CAMBRIDGE,MASS.
##NAMES=HP
##CAS NAME=.beta.-D-Galactopyranoside, methyl 2,6-bis-O-(trimethylsilyl)-, c
yclic methylboronate
##MOLFORM=C14H31BO6Si2
##CAS REGISTRY NO=56211-06-4
##MP= -300
##BP= -300
##MW= 362
##$RETENTION INDEX=0
##$CONDENSED SPECTRUM=NO
##NPOINTS= 243
##XYDATA=(XY..XY) 1 
    30         33
    31         38
    35         12
    36         48
    37         14
    38         25
    39         81
    40         51
    41        149
    42        105
    43        508
    44        416
    45        331
    46         38
    47        190
    48         21
    49         33
    50         23
    51         38
    52         32
    53         63
    54         38
    55        152
    56         97
    57        149
    58         32
    59        156
    60         38
    61         62
    62         12
    63         19
    64         19
    65         30
    66         29
    67         43
    68         45
    69        138
    70         40
    71         42
    72         54
    73        999
    74        127
    75        979
    76         91
    77        149
    78         39
    79         27
    80         24
    81        124
    82         34
    83         86
    84        173
    85        192
    86         28
    87         35
    89        113
    90         25
    91         38
    93         34
    94         30
    95         36
    96         79
    97        351
    98         48
    99         72
   100         30
   101        152
   102         38
   103        290
   104         33
   105         39
   107         21
   109         52
   110         66
   111        110
   112         48
   113        109
   114        105
   115        407
   116        143
   117        533
   118         70
   119         43
   120         16
   121         24
   122         30
   123         43
   124         35
   125         60
   126         68
   127        121
   128         27
   129        491
   130         67
   131        101
   132         47
   133         63
   134         20
   135         56
   137         33
   138         40
   139         96
   140         25
   141         38
   142         48
   143        112
   144         31
   145        120
   146         32
   147        361
   148         43
   149         72
   150         47
   151         78
   152         19
   153         31
   154         21
   155        104
   156         62
   157        157
   158         51
   159         80
   160         26
   161         31
   162         20
   163         54
   164         27
   165         25
   166         21
   167         39
   168         37
   169         98
   170         63
   171        178
   172         42
   173         43
   174         30
   175         37
   176         20
   177         36
   178         19
   179         26
   180         28
   181         30
   182         17
   183         57
   184         29
   185         37
   186         27
   187         40
   188         25
   189         66
   190         25
   191        405
   192         95
   193         50
   194         20
   195         34
   196         23
   197         56
   198         35
   199         57
   200         37
   201         45
   202         26
   203         77
   204        378
   205        109
   206         46
   207         34
   208         14
   209         22
   210         25
   211         51
   212         47
   213         42
   214         16
   215         26
   217        125
   218        342
   219        102
   220         53
   221         28
   222         13
   223         26
   224         11
   225         33
   226         23
   227         32
   228         17
   229         28
   230         59
   231        115
   232         40
   233         27
   235         11
   237         19
   240         20
   241         40
   242         24
   243         45
   244         19
   245        109
   246        347
   247         65
   248         34
   249         36
   253         21
   254         17
   255         26
   257         25
   258         24
   259         40
   260         19
   267         20
   268         13
   271         24
   272         13
   273         29
   281         16
   283         13
   284         31
   285         52
   286         26
   287         28
   289         13
   298         17
   299         29
   300         13
   302         12
   314         15
   315         34
   316         15
   317         15
   326         12
   327         24
   328         20
   329         24
   331         22
   341         28
   342         34
   343         16
   345         17