##TITLE=Library Entry 42855
##JCAMP-DX=Revision 4.10 
##DATA TYPE=MASS SPECTRUM
##SAMPLE DESCRIPTION=VERN REINHOLD,A.D.LITTLE INC.,CAMBRIDGE,MASS.
##NAMES=HP
##CAS NAME=.alpha.-D-Galactopyranoside, methyl 2,6-bis-O-(trimethylsilyl)-,
 cyclic butylboronate
##MOLFORM=C17H37BO6Si2
##CAS REGISTRY NO=56211-12-2
##MP= -300
##BP= -300
##MW= 404
##$RETENTION INDEX=0
##$CONDENSED SPECTRUM=NO
##NPOINTS= 254
##XYDATA=(XY..XY) 1 
    30         24
    31         41
    33          7
    36         19
    37         18
    38         27
    39         87
    40         43
    41        182
    42         67
    43        172
    44        120
    45        239
    46         25
    47         74
    48         17
    49         31
    50         44
    51         53
    52         84
    53         68
    54         92
    55        385
    56        203
    57         61
    58         45
    59        229
    60         35
    61         59
    62         11
    63         19
    64          7
    65         26
    66         29
    67         48
    68         57
    69        125
    70         53
    71         61
    72         53
    73        999
    74        174
    75        469
    76         48
    77         78
    78         39
    79         91
    80         36
    81        110
    82         64
    83        142
    84         42
    85         59
    86         25
    87         44
    88         24
    89        292
    90         40
    91         42
    92         15
    93         36
    94         31
    95         44
    96         55
    97         84
    98         37
    99         70
   100         61
   101        270
   102         45
   103        196
   104         34
   105         43
   106         12
   107         30
   108         34
   109         69
   110         66
   111        112
   112         38
   113         69
   114         32
   115        128
   116        113
   117        231
   118         43
   119         50
   120         13
   121         15
   122         27
   123         41
   124         50
   125         68
   126         42
   127         60
   128         41
   129        264
   130         50
   131        155
   132         38
   133        143
   134         33
   135         39
   136         35
   137         45
   138         58
   139        152
   140         47
   141         45
   142         55
   143        101
   144         30
   145         55
   146        129
   147        383
   148         61
   149         66
   150         35
   151         40
   152         48
   153         49
   154         23
   155         93
   156        179
   157        708
   158        110
   159        123
   160         34
   161         33
   162         19
   163         61
   164         37
   165         49
   166         52
   167         79
   168         65
   169         90
   170         36
   171         56
   172         25
   173         50
   174         39
   175         56
   176         21
   177         46
   178         17
   179         38
   180         48
   181         53
   182         37
   183         63
   184         37
   185         58
   186         29
   187         38
   188         22
   189         78
   190         31
   191        455
   192        101
   193         78
   194         60
   195         66
   196         25
   197         36
   198         40
   199        113
   200         32
   201         30
   202          7
   203         99
   204        485
   205        105
   206         49
   207         55
   208         71
   209        171
   210        215
   211         48
   212         38
   213         52
   214         16
   215         34
   217        221
   218        479
   219        118
   220         55
   221         47
   222         95
   223        133
   224         42
   225         39
   226         30
   227         35
   228         20
   229         18
   230        141
   231        345
   232         85
   233         46
   234         18
   235         11
   236         21
   237         30
   238         22
   239         37
   240         33
   241         41
   242         22
   243         45
   244         13
   245         39
   246         10
   249         16
   250         15
   251         17
   253         43
   254         51
   255         40
   256         18
   257         38
   259         11
   260          9
   265         18
   266         40
   267         61
   268         44
   269         44
   270         13
   271         21
   273         61
   274         28
   275         14
   281         14
   282         12
   284          8
   285          9
   286          6
   287         58
   288        127
   289         48
   290         22
   291          9
   298         10
   299         17
   300         18
   301         38
   302         19
   327          7
   329         18
   330          7
   356          8
   357         37
   358         15