##TITLE=Library Entry 20447
##JCAMP-DX=Revision 4.10 
##DATA TYPE=MASS SPECTRUM
##SAMPLE DESCRIPTION=NIST Mass Spectrometry Data Center
##NAMES=HP
##CAS NAME=Methyl myristoleate
##MOLFORM=C15H28O2
##CAS REGISTRY NO=56219-06-8
##MP= -300
##BP= -300
##MW= 240
##$RETENTION INDEX=1715
##$CONDENSED SPECTRUM=NO
##NPOINTS= 161
##XYDATA=(XY..XY) 1 
    15         11
    26          2
    27         57
    28         16
    29         76
    30          3
    31          5
    33          1
    39        116
    40         24
    41        490
    42         98
    43        215
    44          9
    45         24
    46          1
    50          3
    51         12
    52         10
    53        101
    54        197
    55        999
    56        177
    57         95
    59        244
    60          8
    61          3
    62          1
    63          2
    64          1
    65         37
    66         21
    67        308
    68        181
    69        504
    70         96
    71         46
    72         12
    73         55
    74        581
    75         66
    76          5
    77         33
    78         12
    79         96
    80         43
    81        292
    82        201
    83        373
    84        351
    85         76
    87        449
    88         43
    89          4
    91         34
    92          8
    93         49
    94         51
    95        215
    96        399
    97        356
    98        321
    99         52
   100         13
   101         85
   102          9
   103          2
   105         19
   106          8
   107         36
   108         39
   109        145
   110        236
   111        187
   112         76
   113         76
   114         55
   115         79
   116         11
   117          2
   118          3
   119         42
   120         14
   121         47
   122         21
   123        178
   124        229
   125        112
   126         21
   127         51
   128         50
   129         38
   130          9
   131          2
   132          1
   133         35
   134         26
   135         35
   136         10
   137        106
   138         82
   139         34
   140          6
   141         60
   142         12
   143         27
   144          9
   145          2
   147         28
   148         18
   149         12
   150          6
   151         63
   152         43
   153         15
   154          4
   155         10
   156          2
   157         13
   158          8
   159          1
   161         16
   162          4
   163          2
   164         63
   165         61
   166        239
   167         44
   168          4
   169          5
   170          1
   171          4
   172          4
   173          1
   175          2
   177          1
   179         30
   180         19
   181          3
   183          3
   184          1
   185          2
   189          3
   190         19
   191         15
   192          2
   193          5
   194          1
   197         10
   198          1
   199          1
   208        158
   209        141
   210         21
   211          4
   212          1
   222          3
   223          1
   240         44
   241          9
   242          1