##TITLE=Library Entry 18384
##JCAMP-DX=Revision 4.10 
##DATA TYPE=MASS SPECTRUM
##SAMPLE DESCRIPTION=Chemical Concepts
##NAMES=HP
##CAS NAME=Chromium, tricarbonyl(.eta.6-1,4-difluorobenzene)-
##MOLFORM=C9H4CrF2O3
##CAS REGISTRY NO=56213-60-6
##MP= -300
##BP= -300
##MW= 250
##$RETENTION INDEX=0
##$CONDENSED SPECTRUM=NO
##NPOINTS= 144
##XYDATA=(XY..XY) 1 
    26          1
    27          2
    28          3
    29          0
    31          2
    37          2
    38          5
    39          6
    40         17
    41          1
    42          0
    43          1
    44          0
    45          1
    49          1
    50        150
    51         11
    52        999
    53        106
    54         25
    55          1
    56          0
    57          7
    58          0
    60          0
    61          3
    62          7
    63         13
    64          6
    65          1
    66          0
    67          1
    68          3
    69          9
    70          2
    71        158
    72         22
    73          4
    74         63
    75         61
    76         54
    77          5
    78          8
    79          0
    80        147
    81         18
    82          3
    83          2
    84          0
    85          0
    86          2
    87          1
    88          5
    89          2
    90          6
    91          1
    92          1
    93          1
    94          3
    95          3
    96          1
    97          5
    99          7
   100          1
   101          3
   102          0
   103          0
   104          0
   105          0
   106          1
   107          2
   108         21
   109          2
   110          1
   111          5
   113          0
   114         24
   115          1
   116          0
   117          0
   120          0
   121          0
   123          0
   125          0
   126          0
   127          2
   128          0
   130          0
   135          0
   144          3
   145          2
   146          2
   147          4
   148          6
   149          0
   154          0
   156          0
   157          0
   158         17
   159          3
   160          0
   163          0
   164          7
   165          8
   166        141
   167         22
   168          4
   169          0
   172          0
   175          1
   176          0
   177          0
   182          0
   186          2
   187          0
   192          2
   193          1
   194         32
   195          7
   196          1
   204          0
   205          0
   214          0
   220          0
   221          0
   222         13
   223          2
   228          0
   229          0
   232          6
   233          1
   234          0
   240          0
   241          0
   242          4
   243          1
   244          0
   246          0
   248         13
   249          1
   250        243
   251         45
   252         12
   253          1