##TITLE=Library Entry 89688
##JCAMP-DX=Revision 4.10 
##DATA TYPE=MASS SPECTRUM
##SAMPLE DESCRIPTION=Chemical Concepts
##NAMES=HP
##CAS NAME=Pentanedioic acid, 2-methylene-, dimethyl ester
##MOLFORM=C8H12O4
##CAS REGISTRY NO=5621-44-3
##MP= -300
##BP= -300
##MW= 172
##$RETENTION INDEX=1180
##$CONDENSED SPECTRUM=NO
##NPOINTS= 80
##XYDATA=(XY..XY) 1 
    26         81
    27        355
    28         33
    29         77
    30         16
    31         42
    33         10
    37          7
    38         27
    39        239
    40         88
    41        184
    42        100
    43        134
    44          8
    45        107
    46          2
    47          1
    49          5
    50         40
    51         67
    52         51
    53        433
    54        193
    55        168
    56         28
    57         36
    58         11
    59        411
    60         15
    61          4
    65          2
    66          4
    67         16
    68         14
    69         50
    70          8
    71         92
    72          6
    74          8
    75         10
    79          7
    80         16
    81        354
    82        217
    83         70
    84         28
    85         53
    86          3
    87          7
    90          6
    91          3
    94          1
    95          1
    96          1
    97         85
    98         12
    99         18
   100          2
   101          1
   108          5
   109         88
   110         10
   111         30
   112        999
   113        410
   114         31
   115          5
   125          4
   127          1
   129          3
   130          1
   139          2
   140        642
   141        409
   142         36
   143          3
   144          9
   172         15
   173          1