##TITLE=Library Entry 20108
##JCAMP-DX=Revision 4.10 
##DATA TYPE=MASS SPECTRUM
##SAMPLE DESCRIPTION=Japan AIST/NIMC Database- Spectrum MS-IW-3652
##NAMES=HP
##CAS NAME=cis-9-Hexadecenal
##MOLFORM=C16H30O
##CAS REGISTRY NO=56219-04-6
##MP= -300
##BP= -300
##MW= 238
##$RETENTION INDEX=1780
##$CONDENSED SPECTRUM=NO
##NPOINTS= 165
##XYDATA=(XY..XY) 1 
    15          3
    26          3
    27        115
    28         21
    29        250
    30          6
    31         19
    36          1
    38          2
    39        119
    40         21
    41        739
    42        147
    43        510
    44         42
    45         19
    50          2
    51          8
    52          6
    53         87
    54        331
    55        999
    56        347
    57        358
    58         34
    59         13
    60          8
    61          1
    63          2
    64          1
    65         24
    66         46
    67        590
    68        380
    69        810
    70        384
    71        168
    72         23
    73         16
    74          1
    75          1
    77         26
    78         14
    79        162
    80        141
    81        552
    82        527
    83        535
    84        270
    85        101
    86         19
    87          8
    88          1
    91         21
    92          7
    93        142
    94        119
    95        424
    96        407
    97        354
    98        399
    99         50
   100         13
   101          8
   102          1
   103          1
   104          1
   105          9
   106          4
   107         89
   108         82
   109        196
   110        174
   111        216
   112        135
   113         24
   114         12
   115          8
   116          1
   117          2
   118          1
   119          8
   120          6
   121        181
   122         72
   123         87
   124        111
   125         72
   126         36
   127         17
   128          7
   129          5
   130          1
   131          2
   132          1
   133          6
   134          4
   135        102
   136         44
   137         48
   138         77
   139         32
   140         20
   141         10
   142          8
   143          2
   145          2
   147          3
   148          3
   149         41
   150         16
   151         25
   152         34
   153         18
   154         13
   155          6
   156          7
   157          3
   158          1
   159          2
   161          2
   162          1
   163         18
   164          9
   165         13
   166         19
   167         11
   168          8
   169          5
   170          3
   171          1
   175          1
   177          9
   178          6
   179          8
   180          5
   181          8
   182          7
   183          3
   191          6
   192         10
   193          5
   194         21
   195         13
   196          6
   197          2
   205          1
   206          4
   207          5
   208          2
   209          6
   210          3
   211          1
   218          1
   219          1
   220         98
   221         17
   222         13
   223          3
   224          1
   236         11
   237          3
   238         41
   239          7
   240          1