##TITLE=Library Entry 42139
##JCAMP-DX=Revision 4.10 
##DATA TYPE=MASS SPECTRUM
##SAMPLE DESCRIPTION=O A MAMER, MCGILL UNIVERSITY
##NAMES=HP
##CAS NAME=D-Erythro-Pentopyranose, 2-deoxy-1,3,4-tris-O-(trimethylsilyl)-
##MOLFORM=C14H34O4Si3
##CAS REGISTRY NO=56227-34-0
##MP= -300
##BP= -300
##MW= 350
##$RETENTION INDEX=0
##$CONDENSED SPECTRUM=NO
##NPOINTS= 109
##XYDATA=(XY..XY) 1 
    15          6
    27          6
    29         21
    31          7
    39          8
    41         12
    42          5
    43         31
    44         24
    45        114
    46         11
    47         26
    53         11
    54         18
    55         14
    57         11
    58         14
    59        124
    60         11
    61         26
    66          6
    69         23
    70          6
    71          9
    72         30
    73        999
    74         91
    75        196
    76         15
    77         10
    81         25
    85         10
    87         14
    88          7
    89         10
    98          4
    99         12
   100          6
   101        386
   102         40
   103        240
   104         24
   105         14
   111          5
   113          8
   115         15
   116        781
   117        131
   118         39
   119         13
   127          9
   129        139
   130         19
   131         69
   132         11
   133        105
   134         16
   135         12
   139          5
   140          5
   142         21
   143         18
   144         12
   145          8
   147        354
   148         59
   149         53
   150          8
   151          6
   155         29
   157         10
   158          7
   161         12
   170          7
   171         38
   172          7
   173          5
   175         18
   177         23
   178          4
   189         47
   190         13
   191        189
   192         34
   193         17
   203          8
   204        166
   205         34
   206         16
   215          8
   216          7
   217        168
   218         46
   219         56
   220         12
   221          8
   230          5
   231          6
   232          5
   233         11
   245         34
   247         16
   260         79
   261         20
   262          8
   265          5
   305         12
   306          6
   307          6