##TITLE=Library Entry 9646
##JCAMP-DX=Revision 4.10 
##DATA TYPE=MASS SPECTRUM
##SAMPLE DESCRIPTION=J. Klune, Insect Chem. Ecol. Lab., USDA, Beltsville, MD
 20705
##NAMES=HP
##CAS NAME=13-Tetradecen-1-ol acetate
##MOLFORM=C16H30O2
##CAS REGISTRY NO=56221-91-1
##MP= -300
##BP= -300
##MW= 254
##$RETENTION INDEX=1805
##$CONDENSED SPECTRUM=NO
##NPOINTS= 113
##XYDATA=(XY..XY) 1 
    41        336
    42        117
    43        999
    44         32
    45          7
    47          5
    53         17
    54         81
    55        553
    56        278
    57        640
    58         34
    59          8
    61         55
    62         11
    63          2
    65          4
    66         11
    67        123
    68        269
    69        512
    70        276
    71        358
    72         23
    73         31
    74          1
    77          2
    79         13
    80          8
    81         90
    82        481
    83        647
    84        206
    85        207
    86         20
    87          5
    88          5
    91          2
    93          5
    94          5
    95         63
    96        206
    97        633
    98        130
    99         50
   100          5
   101          5
   102          2
   107          2
   108          2
   109         27
   110         62
   111        333
   112         87
   113         27
   114          7
   115          5
   116         35
   117          1
   121          1
   122          2
   123         17
   124         44
   125        162
   126         57
   127         18
   128          1
   129          1
   130         14
   131          0
   136          1
   137         11
   138         30
   139         65
   140         37
   141         12
   142          1
   149          0
   151          3
   152         19
   153         35
   154         27
   155          9
   165          1
   166         14
   167         20
   168         19
   169          5
   179          0
   180         13
   181         15
   182         15
   183          4
   194         19
   195         12
   196         14
   197          3
   208         10
   209          8
   210         10
   211          2
   217          0
   222         10
   223          7
   224         11
   225          5
   236          9
   237         19
   238          8
   239          6
   253          7
   254         19
   255          6