##TITLE=Library Entry 5111
##JCAMP-DX=Revision 4.10 
##DATA TYPE=MASS SPECTRUM
##SAMPLE DESCRIPTION=R.A. CORRAL, FAC. CIENC. EXACT., UNIV. NAC. LA PLATA, A
RGENT.
##NAMES=HP
##CAS NAME=5-(p-Chlorophenylsulphonyl)dihydro-1,3,5-dioxazine
##MOLFORM=C9H10ClNO4S
##CAS REGISTRY NO=56221-09-1
##MP= -300
##BP= -300
##MW= 263
##$RETENTION INDEX=0
##$CONDENSED SPECTRUM=NO
##NPOINTS= 39
##XYDATA=(XY..XY) 1 
    27         20
    28         25
    29        160
    30        200
    31        120
    41         30
    42        999
    43         30
    44         40
    50        140
    51         90
    58        270
    74         60
    75        340
    76         90
    77         50
    85         40
    87         40
    88         80
   111        790
   112        200
   113        270
   114         60
   128         20
   159         30
   175        560
   176         60
   177        210
   178         20
   203         40
   204        140
   205         50
   206         50
   232         50
   234         20
   262         60
   263         70
   264         30
   265         20