##TITLE=Library Entry 56067
##JCAMP-DX=Revision 4.10 
##DATA TYPE=MASS SPECTRUM
##SAMPLE DESCRIPTION=Div. of Experiment Therapeutics WRAIR, WRAMC, Washingto
n DC 20307
##NAMES=HP
##CAS NAME=Aniline, N-(2-(diethylamino)ethyl)-2,4-dinitro-
##MOLFORM=C12H18N4O4
##CAS REGISTRY NO=56223-91-7
##MP= -300
##BP= -300
##MW= 282
##$RETENTION INDEX=0
##$CONDENSED SPECTRUM=NO
##NPOINTS= 86
##XYDATA=(XY..XY) 1 
    41          2
    42         47
    43         14
    44         15
    46          1
    49          1
    50          3
    51          8
    52          5
    53          2
    54          4
    55          2
    56         32
    57          7
    58        116
    59          2
    61          0
    62          1
    63          9
    64          4
    65          6
    66          1
    67          1
    68          1
    70          6
    71          5
    72         11
    74          2
    75          5
    76          7
    77         10
    78          6
    79          1
    80          1
    81          0
    82          0
    84          5
    86        999
    87         43
    89          6
    90          4
    91          5
    92          2
    93          1
    95          0
    98          1
    99          0
   100          1
   102          1
   103          1
   104          5
   105          2
   106          1
   108          0
   114          1
   116          2
   117          5
   118          4
   119          1
   120          0
   121          0
   122          0
   130          1
   131          0
   132          1
   133          1
   134          1
   144          0
   145          0
   146          0
   149          1
   150          1
   151          0
   163          0
   164          1
   166          0
   180          1
   192          0
   196          1
   210          1
   218          0
   263          0
   267          1
   268          0
   281          1
   282          4