##TITLE=Library Entry 59044
##JCAMP-DX=Revision 4.10 
##DATA TYPE=MASS SPECTRUM
##SAMPLE DESCRIPTION=R.A. CORRAL, FAC. CIENC. EXACT., UNIV. NAC. LA PLATA, A
RGENT.
##NAMES=HP
##CAS NAME=5-(p-Tolylsulfonyl)dihydro-1,3,5-dioxazine
##MOLFORM=C10H13NO4S
##CAS REGISTRY NO=56221-08-0
##MP= -300
##BP= -300
##MW= 243
##$RETENTION INDEX=0
##$CONDENSED SPECTRUM=NO
##NPOINTS= 31
##XYDATA=(XY..XY) 1 
    28        120
    29        130
    30        190
    31         60
    39        100
    41         40
    42        720
    43         20
    44         30
    50         20
    51         40
    58        190
    63         60
    64         40
    65        210
    87         30
    88        200
    89         60
    90         40
    91        999
    92        260
    93         20
   139         20
   155        490
   156         70
   157         30
   184        100
   185         40
   212         50
   242         50
   243        100