##TITLE=Library Entry 907
##JCAMP-DX=Revision 4.10 
##DATA TYPE=MASS SPECTRUM
##SAMPLE DESCRIPTION=R.A. CORRAL, FAC. CIENC. EXACT., UNIV. NAC. LA PLATA, A
RGENT.
##NAMES=HP
##CAS NAME=4H-1,3,5-Dioxazine, dihydro-5-(methylsulfonyl)-
##MOLFORM=C4H9NO4S
##CAS REGISTRY NO=56221-06-8
##MP= -300
##BP= -300
##MW= 167
##$RETENTION INDEX=0
##$CONDENSED SPECTRUM=NO
##NPOINTS= 35
##XYDATA=(XY..XY) 1 
    15        470
    16         20
    17         50
    18        230
    27         90
    28        530
    29        590
    30        999
    31        230
    32         30
    34         20
    41        130
    42        490
    43         20
    44         70
    45         60
    46         30
    47         20
    48         50
    58        280
    63         60
    64         40
    65         80
    76         50
    79        590
    80         80
    81         40
    92         50
   107        110
   108        430
   109         90
   110         40
   121         40
   136         60
   166         90