##TITLE=Library Entry 72302
##JCAMP-DX=Revision 4.10 
##DATA TYPE=MASS SPECTRUM
##SAMPLE DESCRIPTION=V.A.Korolev, Moscow, Russia
##NAMES=HP
##CAS NAME=2'-Phenyl-tetrahydro-3'aH-spiro[1,3-dioxolane-2,5'-isoindole]-1',
3'-dione
##MOLFORM=C16H17NO4
##CAS REGISTRY NO=56229-77-7
##MP= -300
##BP= -300
##MW= 287
##$RETENTION INDEX=0
##$CONDENSED SPECTRUM=NO
##NPOINTS= 110
##XYDATA=(XY..XY) 1 
    33          1
    38         18
    39        174
    40         75
    41        141
    42        247
    43        119
    44         59
    45         59
    50         14
    51         60
    52         27
    53         83
    54         77
    55        274
    56         16
    57         14
    62          3
    63         27
    64         58
    65         65
    66         30
    67        111
    68         83
    69         35
    70         15
    71          8
    73         11
    76          5
    77        141
    78         35
    79         61
    80         22
    81         43
    82         10
    83          5
    84          1
    86        526
    87         30
    88          1
    89          1
    90          4
    91        140
    92         26
    93         52
    94         14
    95         46
    96         27
    97          6
    98          9
    99        999
   100         66
   101          3
   103          8
   104         13
   105         19
   106          8
   107          7
   109          3
   110         13
   112         10
   113          7
   115          9
   116          3
   117         18
   118          3
   119         86
   120         22
   121          2
   125         60
   126         22
   127          1
   128          7
   129          9
   130          8
   131          6
   132          2
   133          3
   134          2
   139         20
   140         45
   141          5
   143          3
   144          3
   145          4
   146          4
   147          2
   155          3
   156          1
   159          1
   166          2
   167          3
   173          6
   174          6
   175          5
   187         13
   188          4
   200          3
   226          1
   227          1
   228          1
   242          2
   243          3
   244          1
   258          4
   259          5
   260          1
   287        129
   288         19
   289          1