##TITLE=Library Entry 44192
##JCAMP-DX=Revision 4.10 
##DATA TYPE=MASS SPECTRUM
##SAMPLE DESCRIPTION=M.G.HORNING,INST.FOR LIPID RES,BAYLOR COLL.OF MED,HOUST
ON,TEX
##NAMES=HP
##CAS NAME=Retinoic acid, TMS derivative
##MOLFORM=C23H36O2Si
##CAS REGISTRY NO=56227-27-1
##MP= -300
##BP= -300
##MW= 372
##$RETENTION INDEX=0
##$CONDENSED SPECTRUM=NO
##NPOINTS= 192
##XYDATA=(XY..XY) 1 
    41        104
    42          7
    43         61
    44         16
    45         52
    47         10
    51          7
    53         27
    55        103
    56         10
    57         17
    59         22
    61          9
    63          6
    65         19
    67         44
    68          8
    69        141
    70          9
    71         10
    72         22
    73        999
    74         89
    75        138
    76         13
    77         67
    78         14
    79         63
    80         11
    81         72
    82          8
    83         40
    84          9
    85         10
    91        120
    92         20
    93         79
    94         12
    95         83
    96         16
    97         20
   103         27
   104         14
   105        134
   106         30
   107         83
   108         20
   109         35
   110          8
   111         29
   113          7
   115         45
   116         25
   117         64
   118         60
   119        110
   120         30
   121         79
   122         31
   123         35
   124          6
   125          6
   127         19
   128         46
   129         56
   130         30
   131         80
   132         35
   133         69
   134         30
   135         42
   136         13
   137         20
   138          8
   141         35
   142         24
   143         64
   144         33
   145         82
   146         72
   147         52
   148         13
   149         25
   150         13
   151         11
   152         11
   153         25
   154         17
   155         36
   156         30
   157         72
   158         41
   159        130
   160         35
   161         64
   162         13
   163          8
   164         16
   165         17
   166         11
   167         16
   168         13
   169         49
   170         46
   171        121
   172         36
   173         64
   174         24
   175         64
   176         26
   177         46
   178         17
   179         20
   180         14
   181         21
   182         19
   183        201
   184         45
   185        111
   186         30
   187         27
   188          6
   191          9
   192         30
   193         11
   194         11
   195         14
   196         11
   197         46
   198         30
   199         63
   200         20
   201         72
   202         20
   203          8
   204          7
   206          6
   207         10
   208          6
   209         12
   210          8
   211         36
   212         11
   213         27
   214         10
   215          6
   217          8
   221          8
   223         16
   224         10
   225         20
   226          8
   227          6
   233         11
   235         75
   236         31
   237         14
   238          8
   239         74
   240         22
   241         10
   242          8
   247          6
   248          8
   249         19
   250          8
   254         39
   255        250
   256         52
   257         13
   261          6
   267         35
   268          6
   282         16
   283          6
   285          6
   287          7
   289          7
   299         19
   301         11
   302          6
   303          8
   313         13
   314          6
   315          6
   328         11
   341          6
   357        101
   358         29
   372        273
   373         89
   374         27