##TITLE=Library Entry 72319
##JCAMP-DX=Revision 4.10 
##DATA TYPE=MASS SPECTRUM
##SAMPLE DESCRIPTION=Japan AIST/NIMC Database- Spectrum MS-IW-7233
##NAMES=HP
##CAS NAME=4,4-Ethylenedioxy-1-(m-methoxyphenyl)cyclohexanecarbonamide
##MOLFORM=C16H21NO4
##CAS REGISTRY NO=56231-45-9
##MP= -300
##BP= -300
##MW= 291
##$RETENTION INDEX=0
##$CONDENSED SPECTRUM=NO
##NPOINTS= 186
##XYDATA=(XY..XY) 1 
    15          4
    17         12
    18          1
    26          3
    27         13
    28          9
    29          8
    30          2
    31          1
    36          1
    38          2
    39         11
    40          1
    41          8
    42         33
    43         27
    44         21
    45         17
    50          6
    51         11
    52          9
    53          8
    54          1
    55         72
    56          5
    57          4
    58          1
    62          1
    63          8
    64          5
    65          9
    66          1
    67         20
    68          2
    69          5
    70          8
    71          7
    72          1
    73          5
    74          3
    75          3
    76          5
    77         28
    78         56
    79         11
    80          2
    81          3
    82          1
    83          2
    84          1
    85          2
    86        313
    87         33
    88         15
    89         13
    90          8
    91         26
    92          5
    93          3
    94          4
    95         14
    96          3
    97          2
    98          1
    99        999
   100         61
   101         11
   102         11
   103         15
   104          7
   105          6
   106          2
   107          7
   108          5
   109          9
   110          1
   113          2
   114          1
   115         23
   116         14
   117          9
   118          9
   119          6
   120          2
   121         63
   122          8
   123          5
   124          1
   125          2
   126          2
   127          7
   128         14
   129         24
   130          8
   131         11
   132          7
   133         31
   134         21
   135         13
   136          2
   137          3
   139          2
   140          2
   141          5
   142          5
   143          3
   144          8
   145         12
   146         21
   147         11
   148         12
   149          4
   150          1
   151          1
   152          4
   153          9
   154          6
   155          4
   156          1
   157          3
   158          7
   159         85
   160         23
   161         32
   162          9
   163          2
   165          1
   167          2
   168          1
   169          2
   170         18
   171          6
   172          5
   173         11
   174          6
   175         22
   176         24
   177        196
   178         26
   179          3
   183          1
   184          7
   185        168
   186         33
   187         15
   188          4
   189          4
   190          3
   191         17
   192          3
   198          1
   199         10
   200          6
   201          8
   202          9
   203         92
   204         16
   205          4
   214          1
   216          5
   217         11
   218          7
   219          6
   220          1
   227          1
   228          2
   229         15
   230          6
   231          5
   232          1
   245         12
   246         26
   247        154
   248         31
   249          4
   261          6
   262          1
   263        142
   264         22
   265          3
   273          7
   274          3
   290          5
   291        183
   292         33
   293          4