##TITLE=Library Entry 6008
##JCAMP-DX=Revision 4.10 
##DATA TYPE=MASS SPECTRUM
##SAMPLE DESCRIPTION=Exported from NIST MS Search
##NAMES=HP
##CAS NAME=4-Heneicosanone, 1-cyclopentyl-
##MOLFORM=C26H50O
##CAS REGISTRY NO=56247-96-2
##MP= -300
##BP= -300
##MW= 378
##$RETENTION INDEX=0
##$CONDENSED SPECTRUM=NO
##NPOINTS= 171
##XYDATA=(XY..XY) 1 
    39        155
    40         40
    41        905
    42        197
    43        999
    44         37
    45          8
    50          5
    51         10
    52          7
    53         67
    54         98
    55        788
    56        153
    57        584
    58        536
    59        250
    60          9
    61          1
    62          1
    63          3
    65         13
    66         21
    67        286
    68        110
    69        520
    70        106
    71        563
    72         49
    73          6
    74          1
    77         14
    78          6
    79         91
    80        100
    81        163
    82        115
    83        188
    84         57
    85        155
    86         14
    87          2
    91         14
    92          9
    93         86
    94        413
    95        397
    96        219
    97        150
    98         44
    99         23
   100         20
   101          2
   105          4
   106          2
   107         45
   108         36
   109         56
   110         39
   111        104
   112         26
   113         22
   114         11
   115          2
   117          1
   118          1
   119          6
   120          9
   121        616
   122         78
   123         27
   124         11
   125         13
   126          9
   127         23
   128          3
   129          1
   131          1
   132          1
   133          2
   134          3
   135         18
   136        206
   137         73
   138         18
   139        308
   140         33
   141          5
   142          1
   147          1
   148          1
   149         27
   150          5
   151          4
   152          6
   153          3
   154         48
   155         82
   156         10
   157          1
   163          3
   164          2
   165          3
   166          5
   167         16
   168          3
   169          2
   170          1
   177          1
   178          2
   179          2
   180          8
   181          8
   182          2
   183          2
   184          1
   191          1
   192          1
   193          2
   194          4
   195          2
   196          2
   197          1
   207          1
   208          4
   209          2
   210          1
   211          1
   221          1
   222         23
   223          5
   224          6
   225          3
   226          2
   235          1
   236          1
   237          1
   238          1
   239          4
   240          2
   249          2
   250          1
   253          1
   254          1
   264         10
   265          3
   266          1
   267         95
   268         20
   269          2
   278          2
   282         33
   283         28
   284          5
   295         14
   296          3
   309          6
   310          1
   334          1
   335         10
   336          4
   337          1
   349          1
   350          1
   359          2
   360         13
   361          4
   362          1
   377          1
   378          3
   379          2