##TITLE=Library Entry 26630
##JCAMP-DX=Revision 4.10 
##DATA TYPE=MASS SPECTRUM
##SAMPLE DESCRIPTION=AC73-348-4A
##NAMES=HP
##CAS NAME=Cycloheptanone, 3-(3,3-dimethylbutyl)-5-methyl-
##MOLFORM=C14H26O
##CAS REGISTRY NO=56248-40-9
##MP= -300
##BP= -300
##MW= 210
##$RETENTION INDEX=0
##$CONDENSED SPECTRUM=NO
##NPOINTS= 57
##XYDATA=(XY..XY) 1 
    41        375
    42         50
    43        214
    44         21
    45         55
    53         47
    54         42
    55        449
    56        113
    57        999
    58         42
    59         89
    66         21
    67         87
    68         76
    69        283
    70         76
    71         74
    72        238
    73         15
    74         66
    76         15
    77         18
    78         13
    79         34
    80         26
    81        127
    82         89
    83        494
    84         84
    85        161
    86         21
    91         18
    93         31
    94         18
    95        127
    96         79
    97        235
    98         79
    99         31
   121         47
   122         15
   123         50
   124         15
   125        944
   126        182
   127         15
   135         21
   136         10
   137         15
   138         42
   139        264
   140         21
   181         21
   182         18
   210        349
   211         60