##TITLE=Library Entry 76056
##JCAMP-DX=Revision 4.10 
##DATA TYPE=MASS SPECTRUM
##SAMPLE DESCRIPTION=E.J.BROWNE UNIV. OF TASMANIA, HOBART, TASMANIA
##NAMES=HP
##CAS NAME=1H-Imidazole-2-carboxaldehyde, 4-phenyl-
##MOLFORM=C10H8N2O
##CAS REGISTRY NO=56248-10-3
##MP= -300
##BP= -300
##MW= 172
##$RETENTION INDEX=0
##$CONDENSED SPECTRUM=NO
##NPOINTS= 23
##XYDATA=(XY..XY) 1 
    50        210
    51        310
    52        100
    62         50
    63        400
    64        120
    74         60
    75         80
    76        170
    77        210
    88         80
    89        710
    90        520
    91         50
   102        999
   103        160
   104        100
   116        250
   117        180
   143        140
   144         60
   172        600
   173         60