##TITLE=Library Entry 44469
##JCAMP-DX=Revision 4.10 
##DATA TYPE=MASS SPECTRUM
##SAMPLE DESCRIPTION=Exported from NIST MS Search
##NAMES=HP
##CAS NAME=Pregn-20-en-11-ol, 3,20,21-tris[(trimethylsilyl)oxy]-, (3.alpha.,
5.beta.,11.beta.)-
##MOLFORM=C30H58O4Si3
##CAS REGISTRY NO=56248-33-0
##MP= -300
##BP= -300
##MW= 566
##$RETENTION INDEX=0
##$CONDENSED SPECTRUM=NO
##NPOINTS= 25
##XYDATA=(XY..XY) 1 
    73        999
    74         84
    75        261
    76         56
    77         98
    78        129
   145         47
   146         92
   147        264
   148         68
   149         57
   151         55
   152         38
   153         37
   230        304
   231        153
   232         86
   476         35
   477         25
   549         32
   551         53
   552         25
   566        739
   567        399
   568        184