##TITLE=Library Entry 6995
##JCAMP-DX=Revision 4.10 
##DATA TYPE=MASS SPECTRUM
##SAMPLE DESCRIPTION=Exported from NIST MS Search
##NAMES=HP
##CAS NAME=Heneicosanoic acid, 20-oxo-, methyl ester
##MOLFORM=C22H42O3
##CAS REGISTRY NO=56247-70-2
##MP= -300
##BP= -300
##MW= 354
##$RETENTION INDEX=0
##$CONDENSED SPECTRUM=NO
##NPOINTS= 126
##XYDATA=(XY..XY) 1 
    39         42
    40         14
    41        314
    42         64
    43        999
    44         50
    45         39
    52         25
    53         50
    54        457
    56         71
    57        210
    58        428
    59        203
    60         21
    61          7
    65          7
    66          7
    67        100
    68         60
    69        267
    70         50
    71        257
    72         32
    73         42
    74        300
    75         50
    76         14
    77         14
    78         14
    79         21
    80         28
    81        103
    82         64
    83        200
    84        157
    85         96
    86         10
    87        192
    88         21
    89         10
    91          7
    92         10
    93         21
    94         21
    95        114
    96         92
    97        192
    98        267
    99         50
   100         25
   101         28
   102          7
   105         10
   106         10
   107         28
   108         21
   109         89
   110         42
   111        100
   112         89
   113         28
   114         21
   115         32
   116          7
   119          7
   120         10
   121         42
   122         10
   123         42
   124         21
   125         82
   126         28
   127         21
   128         21
   129         39
   130         21
   131         10
   132         10
   133         10
   134         10
   135         39
   136          7
   137         21
   138         21
   139         39
   140         17
   141         17
   142         17
   143         35
   246         14
   247         42
   248         14
   249         14
   250         14
   251         14
   252         14
   253         14
   254         14
   255         14
   261         14
   262         14
   263         14
   264        128
   265        117
   266         32
   267         14
   268         14
   269         14
   270         14
   293         10
   294         25
   295         10
   296         53
   297        142
   298         39
   299         10
   320         17
   321         17
   322         53
   323         64
   324         25
   325         10
   326         10
   354        110
   355         25