##TITLE=Library Entry 59198
##JCAMP-DX=Revision 4.10 
##DATA TYPE=MASS SPECTRUM
##SAMPLE DESCRIPTION=SHELL OIL CO., HOUSTON, TEXAS, USA
##NAMES=HP
##CAS NAME=Benzene, (1-tetradecylpentadecyl)-
##MOLFORM=C35H64
##CAS REGISTRY NO=56247-97-3
##MP= -300
##BP= -300
##MW= 484
##$RETENTION INDEX=0
##$CONDENSED SPECTRUM=NO
##NPOINTS= 259
##XYDATA=(XY..XY) 1 
    38          2
    39         27
    40          6
    41        200
    42         50
    43        435
    44         15
    45          0
    49          0
    50          1
    51          3
    52          1
    53          9
    54         13
    55        145
    56         43
    57        260
    58         12
    59          0
    60          0
    61          0
    62          0
    63          1
    64          0
    65          5
    66          2
    67         20
    68         10
    69         76
    70         23
    71        113
    72          6
    73          0
    74          0
    75          0
    76          0
    77          8
    78         10
    79         10
    80          2
    81         13
    82          6
    83         50
    84          9
    85         65
    86          4
    87          0
    88          0
    89          1
    90          2
    91        999
    92        112
    93          8
    94          1
    95          8
    96          3
    97         28
    98          4
    99         14
   100          1
   101          1
   102          1
   103          9
   104        139
   105        179
   106         17
   107          2
   108          1
   109          3
   110          1
   111         11
   112          2
   113         10
   114          1
   115         10
   116          6
   117         87
   118         62
   119         80
   120         11
   121          1
   122          0
   123          1
   124          0
   125          3
   126          1
   127          7
   128          4
   129          8
   130          6
   131         37
   132          8
   133         58
   134          7
   135          1
   136          0
   137          0
   138          0
   139          1
   140          0
   141          5
   142          1
   143          3
   144          1
   145          7
   146          1
   147         52
   148          6
   149          0
   150          0
   151          0
   152          0
   153          0
   154          0
   155          3
   156          1
   157          1
   158          0
   159          2
   160          1
   161         39
   162          5
   163          0
   164          0
   165          0
   166          0
   167          0
   168          0
   169          2
   170          0
   171          0
   172          0
   173          1
   174          1
   175         34
   176          5
   177          0
   178          0
   179          0
   180          0
   181          0
   182          0
   183          6
   184          1
   185          0
   186          0
   187          0
   188          0
   189         26
   190          4
   191          0
   192          0
   193          0
   194          0
   195          0
   196          0
   197          1
   198          0
   199          0
   200          0
   201          0
   202          0
   203         20
   204          3
   205          0
   206          0
   207          0
   208          0
   209          0
   210          0
   211          5
   212          0
   213          0
   214          0
   215          0
   216          0
   217         13
   218          2
   219          0
   220          0
   221          0
   222          0
   223          0
   224          0
   225          0
   226          0
   227          0
   228          0
   229          0
   230          0
   231          9
   232          1
   233          0
   236          0
   237          0
   238          0
   239          0
   240          0
   241          0
   243          0
   244          0
   245          5
   246          1
   247          0
   257          0
   258          0
   259          1
   260          0
   261          0
   262          0
   267          0
   268          0
   269          0
   270          0
   271          0
   272          0
   273          1
   274          0
   275          0
   284          0
   285          4
   286         30
   287        279
   288         92
   289         13
   290          1
   291          0
   299          0
   300          2
   301          2
   302          2
   303          0
   315          0
   316          0
   317          0
   318          0
   319          0
   320          0
   324          0
   325          0
   326          0
   327          0
   328          0
   329          1
   330          0
   331          0
   343          0
   344          0
   476          0
   477          0
   478          0
   479          0
   480          0
   482          1
   483          0
   484         42
   485         16
   486          3
   487          0