##TITLE=Library Entry 76674
##JCAMP-DX=Revision 4.10 
##DATA TYPE=MASS SPECTRUM
##SAMPLE DESCRIPTION=Japan AIST/NIMC Database- Spectrum MS-IW- 378
##NAMES=HP
##CAS NAME=N-Cyclohexyl-2-thiazolin-2-amine
##MOLFORM=C9H16N2S
##CAS REGISTRY NO=56242-66-1
##MP= -300
##BP= -300
##MW= 184
##$RETENTION INDEX=0
##$CONDENSED SPECTRUM=NO
##NPOINTS= 115
##XYDATA=(XY..XY) 1 
    15          3
    26          2
    27         32
    28         29
    29         31
    30         17
    34          1
    35          2
    39         33
    40          5
    41        127
    42         25
    43         52
    44        120
    45         14
    46          4
    47          2
    48          1
    50          1
    51          3
    52          2
    53         22
    54         35
    55        204
    56         53
    57         11
    58          8
    59         43
    60        214
    61         47
    62         10
    63          2
    65          4
    66          3
    67         43
    68          9
    69         17
    70          5
    71          4
    72          4
    73          6
    74         10
    75          3
    76          1
    77          8
    78          6
    79         16
    80         10
    81         43
    82         20
    83         42
    84          4
    85          3
    86         10
    87          9
    88         13
    89          3
    90          1
    93          1
    94          1
    95         17
    96         12
    97          9
    98         25
    99          4
   100         13
   101         90
   102        251
   103        999
   104         58
   105         54
   106          3
   107          1
   108          1
   109          6
   110         10
   111          1
   112          3
   113         53
   114         46
   115         15
   116          8
   117          1
   123         16
   124          8
   125         12
   126          1
   127         71
   128         18
   129         48
   130         12
   131          2
   137          9
   138          9
   139          2
   140          2
   141        162
   142         34
   143         18
   144          2
   151         42
   152          4
   153          1
   155         52
   156        125
   157         13
   158          6
   169         12
   170          2
   182          2
   183         39
   184        735
   185         98
   186         37
   187          4