##TITLE=Library Entry 59554
##JCAMP-DX=Revision 4.10 
##DATA TYPE=MASS SPECTRUM
##SAMPLE DESCRIPTION=Exported from NIST MS Search
##NAMES=HP
##CAS NAME=2,3,5-Trioxabicyclo[2.1.0]pentane, 1,4-bis(phenylmethyl)-
##MOLFORM=C16H14O3
##CAS REGISTRY NO=56247-48-4
##MP= -300
##BP= -300
##MW= 254
##$RETENTION INDEX=0
##$CONDENSED SPECTRUM=NO
##NPOINTS= 32
##XYDATA=(XY..XY) 1 
    26         22
    27         54
    28        129
    29        129
    37         27
    38         59
    39        272
    40         27
    41         68
    44         90
    45         59
    46         81
    50         68
    51        136
    52         40
    61         22
    62         63
    63        140
    64         36
    65        454
    66         31
    74         22
    77         63
    78         18
    89         90
    90         56
    91        999
    92        118
   105         31
   119         22
   120        170
   121         22