##TITLE=Library Entry 54324
##JCAMP-DX=Revision 4.10 
##DATA TYPE=MASS SPECTRUM
##SAMPLE DESCRIPTION=Exported from NIST MS Search
##NAMES=HP
##CAS NAME=Acetamide, N-(6-ethoxy-3,6-dihydro-2-methyl-2H-pyran-3-yl)-
##MOLFORM=C10H17NO3
##CAS REGISTRY NO=56248-09-0
##MP= -300
##BP= -300
##MW= 199
##$RETENTION INDEX=0
##$CONDENSED SPECTRUM=NO
##NPOINTS= 24
##XYDATA=(XY..XY) 1 
    42         93
    43        781
    44        166
    45         48
    54         48
    55        100
    56        208
    57         97
    58         62
    81         62
    82         90
    83         76
    84        999
    85        166
    86         24
   109         17
   110         24
   111         34
   112        354
   113        597
   114         69
   154        204
   155        892
   156         86