##TITLE=Library Entry 18585
##JCAMP-DX=Revision 4.10 
##DATA TYPE=MASS SPECTRUM
##SAMPLE DESCRIPTION=EP-1309
##NAMES=HP
##CAS NAME=Urea, N-3-butynyl-N'-(4-chlorophenyl)-N-methyl-
##MOLFORM=C12H13ClN2O
##CAS REGISTRY NO=56247-81-5
##MP= -300
##BP= -300
##MW= 236
##$RETENTION INDEX=0
##$CONDENSED SPECTRUM=NO
##NPOINTS= 59
##XYDATA=(XY..XY) 1 
    50         50
    51         60
    52         40
    53        999
    54         55
    55         15
    56         50
    57         15
    58        135
    61         15
    62         30
    63         95
    64         50
    65         35
    66         55
    67         20
    68        360
    69        120
    81         50
    82         70
    83         25
    89         40
    90        120
    91         40
    92         35
    99        120
   100         25
   101         40
   125         15
   126         15
   127        350
   128         50
   129        120
   153        350
   154         35
   155        120
   164        120
   165         20
   166         40
   177         10
   178         25
   179         20
   180         10
   183          5
   184         45
   185         10
   186         15
   187         25
   189         13
   207         15
   209          5
   221         85
   222         10
   223         30
   235         40
   236        530
   237        100
   238        165
   239         25