##TITLE=Library Entry 63259
##JCAMP-DX=Revision 4.10 
##DATA TYPE=MASS SPECTRUM
##SAMPLE DESCRIPTION=NIST Mass Spectrometry Data Center
##NAMES=HP
##CAS NAME=1-Benzyl-4-cyano-4-phenylpiperidine
##MOLFORM=C19H20N2
##CAS REGISTRY NO=56243-25-5
##MP= -300
##BP= -300
##MW= 276
##$RETENTION INDEX=0
##$CONDENSED SPECTRUM=NO
##NPOINTS= 113
##XYDATA=(XY..XY) 1 
    15          2
    26          1
    27         10
    29          5
    30          6
    38          2
    39         35
    40          2
    41         32
    42        235
    43         13
    44          1
    50         12
    51         42
    52         11
    53         13
    54         20
    55         39
    56        109
    57          5
    62          4
    63         24
    64          8
    65        139
    66          9
    67          1
    68          3
    69          6
    70          2
    74          3
    75          6
    76         10
    77         44
    78         20
    79          7
    80          8
    81          1
    87          1
    88          3
    89         36
    90         22
    91        999
    92        222
    93         14
    95          3
   101          5
   102         23
   103         41
   104         44
   105         19
   106          5
   107          5
   113          2
   114          4
   115         63
   116         31
   117         26
   118         50
   119         13
   120          5
   121          1
   124          1
   126          1
   127          9
   128         29
   129         42
   130         19
   131         29
   132         75
   133         49
   134          6
   140          9
   141          4
   142          9
   143         12
   144         10
   145          5
   146        144
   147         21
   148          1
   153          1
   154          3
   155          4
   156          6
   157          4
   158         22
   159          3
   167          1
   168          1
   169          2
   170          2
   171          1
   172          8
   173          1
   183          2
   184         16
   185        257
   186         35
   187          2
   197          2
   198         14
   199        119
   200         17
   201          1
   234          4
   235          1
   248         11
   249         43
   250          8
   275         95
   276        120
   277         23
   278          2