##TITLE=Library Entry 49994
##JCAMP-DX=Revision 4.10 
##DATA TYPE=MASS SPECTRUM
##SAMPLE DESCRIPTION=Exported from NIST MS Search
##NAMES=HP
##CAS NAME=Cyclohexene, 1-methyl-4-(1,5,9-trimethyl-1,5,9-decatrienyl)-
##MOLFORM=C20H32
##CAS REGISTRY NO=56248-11-4
##MP= -300
##BP= -300
##MW= 272
##$RETENTION INDEX=0
##$CONDENSED SPECTRUM=NO
##NPOINTS= 35
##XYDATA=(XY..XY) 1 
    41        589
    43        360
    44        579
    53        180
    55        669
    67        390
    68        120
    69        260
    77        130
    79        340
    80        100
    81        999
    83        160
    84        290
    91        170
    93        170
    94        270
    95        240
    96        150
    97        210
    98        200
   105        120
   107        400
   108        110
   109        160
   110        290
   111        130
   119        210
   121        310
   122        130
   123        220
   132        100
   133        110
   149        390
   272        100