##TITLE=Library Entry 55819
##JCAMP-DX=Revision 4.10 
##DATA TYPE=MASS SPECTRUM
##SAMPLE DESCRIPTION=Exported from NIST MS Search
##NAMES=HP
##CAS NAME=DL-Norleucine, N-acetyl-, methyl ester
##MOLFORM=C9H17NO3
##CAS REGISTRY NO=56247-43-9
##MP= -300
##BP= -300
##MW= 187
##$RETENTION INDEX=0
##$CONDENSED SPECTRUM=NO
##NPOINTS= 48
##XYDATA=(XY..XY) 1 
    14          4
    15        121
    17         10
    18         59
    26          4
    27        102
    28        163
    29         95
    30        295
    31         17
    33         46
    39         51
    40          4
    41        131
    42         76
    43        591
    44         72
    45         17
    53          8
    54         14
    55         38
    56         89
    57         68
    58          6
    59         29
    60         42
    67          8
    68         12
    69         51
    70         19
    71         14
    74         14
    84         38
    85         17
    86        999
    87         63
    88        191
    89         25
    99         76
   102         14
   112         14
   113         12
   128        408
   129         36
   131         51
   144          6
   155          4
   187          8