##TITLE=Library Entry 83556
##JCAMP-DX=Revision 4.10 
##DATA TYPE=MASS SPECTRUM
##SAMPLE DESCRIPTION=Div. of Experiment Therapeutics WRAIR, WRAMC, Washingto
n DC 20307
##NAMES=HP
##CAS NAME=1-.beta.-d-Ribofuranosyl-1H-imidazole-4-carboxamide
##MOLFORM=C9H13N3O5
##CAS REGISTRY NO=5624-04-4
##MP= -300
##BP= -300
##MW= 243
##$RETENTION INDEX=0
##$CONDENSED SPECTRUM=NO
##NPOINTS= 116
##XYDATA=(XY..XY) 1 
    41        187
    42         68
    43        292
    44        147
    45        127
    46          5
    47         13
    49         25
    50         29
    51         66
    52         36
    53         40
    54          8
    55        113
    56         26
    57        239
    58         19
    59         17
    60         24
    61         79
    62         11
    63         40
    64         12
    65         60
    66         25
    67         61
    68        113
    69        131
    70        105
    71        221
    73        148
    74         29
    75         29
    76         57
    77        401
    78        799
    79         79
    81         60
    82         29
    83         67
    84         32
    85         55
    86         10
    87         20
    89         11
    91         13
    93         21
    95        343
    96          4
    97         57
    98         14
    99         22
   100          6
   101         13
   103         25
   104         30
   105        348
   106         23
   107        999
   109         12
   110          6
   111        233
   112        118
   113         34
   114         11
   115         24
   116          2
   117          3
   119         11
   121         24
   122         30
   123          9
   124        213
   125         20
   126          3
   127          5
   129          9
   131          3
   132          4
   133         81
   134          3
   135          6
   136          8
   137         31
   138          2
   139         10
   140         18
   141          3
   143          4
   145          3
   146          2
   147          2
   149        133
   150         14
   151         16
   153         12
   154         19
   155          4
   156          2
   157          2
   159          3
   161          3
   163         71
   164          4
   165          2
   167         50
   169          2
   170          6
   171          1
   175          3
   180          2
   195          4
   207          5
   213         24
   243          2
   244          1