##TITLE=Library Entry 18582
##JCAMP-DX=Revision 4.10 
##DATA TYPE=MASS SPECTRUM
##SAMPLE DESCRIPTION=DS14-138-3A
##NAMES=HP
##CAS NAME=Carbamic acid, (3-chlorophenyl)-, 3-butynyl ester
##MOLFORM=C11H10ClNO2
##CAS REGISTRY NO=56247-86-0
##MP= -300
##BP= -300
##MW= 223
##$RETENTION INDEX=0
##$CONDENSED SPECTRUM=NO
##NPOINTS= 76
##XYDATA=(XY..XY) 1 
    36          9
    37         19
    38         31
    39         52
    40         12
    41         21
    42         19
    43         31
    44         21
    49          9
    50         47
    51         59
    52         35
    53        999
    54         47
    55         67
    61         16
    62         31
    63         86
    64         35
    65         35
    69         52
    70        134
    73         23
    74         16
    75         33
    76          9
    88          9
    89         21
    90        114
    91         43
    92         28
    93         12
    97         12
    99         78
   100         23
   101         31
   102          9
   111         47
   112         12
   113         19
   115          7
   116          7
   117          7
   119          7
   124          9
   125         88
   126         43
   127        406
   128         43
   129        124
   130          7
   136          9
   143         23
   144         76
   145          7
   153        447
   154         86
   155        150
   156         21
   164        303
   165         31
   166         88
   167          7
   170          7
   171        157
   172         19
   173         47
   178         55
   179          9
   180         19
   189         14
   223        473
   224         59
   225        153
   226         19