##TITLE=Library Entry 10019
##JCAMP-DX=Revision 4.10 
##DATA TYPE=MASS SPECTRUM
##SAMPLE DESCRIPTION=Exported from NIST MS Search
##NAMES=HP
##CAS NAME=DL-Isoleucine, N-acetyl-, methyl ester
##MOLFORM=C9H17NO3
##CAS REGISTRY NO=56247-42-8
##MP= -300
##BP= -300
##MW= 187
##$RETENTION INDEX=0
##$CONDENSED SPECTRUM=NO
##NPOINTS= 65
##XYDATA=(XY..XY) 1 
    14         12
    15        229
    17         33
    18        143
    26         16
    27        158
    28        270
    29        281
    30        264
    31         20
    33         79
    38          2
    39         87
    40         12
    41        245
    42         75
    43        999
    44        104
    45         52
    51          2
    52          4
    53         18
    54         27
    55         41
    56        143
    57        229
    58         29
    59         45
    60        102
    61         20
    67         12
    68         16
    69        114
    70         77
    71         70
    72         27
    73          8
    74         47
    84         39
    85         16
    86        770
    87         47
    88        364
    89        139
    90         16
    96         22
    97          6
    98          4
    99        445
   100         16
   101          2
   102          4
   113         14
   116          8
   126         16
   127          4
   128        716
   129         60
   130         12
   131        125
   132          4
   143          4
   155          2
   156          4
   187          2