##TITLE=Library Entry 78400
##JCAMP-DX=Revision 4.10 
##DATA TYPE=MASS SPECTRUM
##SAMPLE DESCRIPTION=Exported from NIST MS Search
##NAMES=HP
##CAS NAME=2H-Pyran-2-methanol, 3-(benzoyloxy)-3,6-dihydro-6-methoxy-, benzo
ate
##MOLFORM=C21H20O6
##CAS REGISTRY NO=56248-18-1
##MP= -300
##BP= -300
##MW= 368
##$RETENTION INDEX=0
##$CONDENSED SPECTRUM=NO
##NPOINTS= 16
##XYDATA=(XY..XY) 1 
    40         17
    41         44
    42         17
    43         34
    44        187
    45         27
    75         10
    76         20
    77        554
    78         54
   105        999
   106         61
   122         91
   123         17
   124         17
   204         54