##TITLE=Library Entry 48849
##JCAMP-DX=Revision 4.10 
##DATA TYPE=MASS SPECTRUM
##SAMPLE DESCRIPTION=Exported from NIST MS Search
##NAMES=HP
##CAS NAME=2H-Pyran-2-methanol, 3-azido-6-ethoxy-3,6-dihydro-, methanesulfon
ate (ester)
##MOLFORM=C9H15N3O5S
##CAS REGISTRY NO=56248-60-3
##MP= -300
##BP= -300
##MW= 277
##$RETENTION INDEX=0
##$CONDENSED SPECTRUM=NO
##NPOINTS= 48
##XYDATA=(XY..XY) 1 
    39         98
    41        301
    42         54
    43         54
    44         13
    45         71
    47         98
    52        603
    53        196
    54        122
    55        352
    56         98
    57         81
    64         23
    65         13
    66         54
    67        301
    68        277
    69        196
    70        159
    71         40
    78         94
    79        999
    80        705
    81        352
    82        508
    83        372
    84        145
    85         88
    93         10
    94         54
    95         81
    96        400
    97        135
    98         50
    99         50
   107         23
   108        118
   109        196
   110         47
   111         98
   112         50
   139         94
   140         13
   148         74
   168         50
   189         20
   232        115