##TITLE=Library Entry 16000
##JCAMP-DX=Revision 4.10 
##DATA TYPE=MASS SPECTRUM
##SAMPLE DESCRIPTION=NIST Mass Spectrometry Data Center
##NAMES=HP
##CAS NAME=3,6-Dimethylpiperazine-2,5-dione
##MOLFORM=C6H10N2O2
##CAS REGISTRY NO=5625-46-7
##MP= -300
##BP= -300
##MW= 142
##$RETENTION INDEX=0
##$CONDENSED SPECTRUM=NO
##NPOINTS= 25
##XYDATA=(XY..XY) 1 
    14         16
    15         39
    18         36
    26         20
    27         75
    28        201
    29         25
    39          9
    40         32
    41         51
    42        189
    43        125
    44        999
    45         25
    55         36
    56        139
    57         13
    70         39
    71        125
    72         15
    99        598
   100         39
   114         31
   142        133
   143         13