##TITLE=Library Entry 19747
##JCAMP-DX=Revision 4.10 
##DATA TYPE=MASS SPECTRUM
##SAMPLE DESCRIPTION=CARL DJERASSI DEPT OF CHEM STANFORD UNIV STANFORD CALIF
 94305
##NAMES=HP
##CAS NAME=1-Propanone, 2-methyl-1-[2-(1-methylethyl)cyclopropyl]-
##MOLFORM=C10H18O
##CAS REGISTRY NO=56259-15-5
##MP= -300
##BP= -300
##MW= 154
##$RETENTION INDEX=0
##$CONDENSED SPECTRUM=NO
##NPOINTS= 28
##XYDATA=(XY..XY) 1 
    41        130
    42         20
    43        280
    44         10
    51         10
    53         20
    54         10
    55        999
    56         80
    57         10
    67         20
    68         10
    69         90
    70         10
    71         50
    81         10
    83         60
    84         10
    86         10
    93         20
    97         10
    99         30
   111        250
   112         30
   125         10
   139         30
   154         90
   155         30