##TITLE=Library Entry 5971
##JCAMP-DX=Revision 4.10 
##DATA TYPE=MASS SPECTRUM
##SAMPLE DESCRIPTION=CARL DJERASSI DEPT OF CHEM STANFORD UNIV STANFORD CALIF
 94305
##NAMES=HP
##CAS NAME=Akuammilan-17-ol, 10-methoxy-
##MOLFORM=C20H24N2O2
##CAS REGISTRY NO=56259-10-0
##MP= -300
##BP= -300
##MW= 324
##$RETENTION INDEX=0
##$CONDENSED SPECTRUM=NO
##NPOINTS= 181
##XYDATA=(XY..XY) 1 
    41        880
    42        370
    43        999
    44        210
    45        110
    48         30
    49         10
    50         40
    51         80
    52         40
    53        130
    54         70
    55        610
    56        200
    57        490
    58         30
    60         50
    63         30
    65         80
    66         10
    67        130
    68         60
    69        280
    70         70
    71        150
    73         30
    76         10
    77         50
    78         20
    79         60
    80         20
    81        120
    82         30
    83        100
    84         20
    85         40
    91         30
    92        100
    93         40
    94         10
    95         80
    96         20
    97         60
    98         10
    99         10
   104         10
   105         20
   106         50
   107         90
   108         10
   109         40
   110         10
   111         30
   115         10
   121         20
   123         20
   125         10
   127         10
   128         10
   129         10
   137         60
   138         30
   139         40
   140         30
   141         16
   142         16
   143         26
   144         16
   145         13
   146          3
   147         10
   148          3
   149         56
   150          6
   151         16
   152         13
   153         13
   154         20
   155         20
   156         30
   157         13
   158         10
   159         10
   160          6
   161          6
   162          3
   163         10
   164          3
   165         16
   166          6
   167         33
   168         10
   169         10
   170          3
   171         10
   172         23
   173         13
   174          3
   175          3
   177          3
   178          3
   179         10
   180         10
   181         10
   182         16
   183         13
   184         20
   185         13
   186         43
   187         53
   188         13
   189          6
   191         13
   192         10
   193         10
   194          3
   195          6
   196          6
   197         10
   198         16
   199         36
   200         13
   201         10
   202          6
   203          3
   204          3
   205          6
   206          6
   207          3
   208         13
   209          3
   210          3
   211          3
   213          3
   215          3
   217         20
   218         10
   219          6
   220          3
   222          3
   223          3
   224         13
   225          6
   228         10
   231          3
   232          3
   233          3
   235          3
   236          3
   237          3
   239          3
   242          6
   250          3
   252          3
   253          3
   256         26
   257          6
   261          3
   262          3
   263          6
   264         10
   265          3
   266          3
   267          3
   276          3
   277          3
   278          3
   279         16
   280          6
   291          3
   292          3
   293         10
   294          3
   306         10
   308         10
   309          3
   322          3
   323          3
   324         20
   325          3
   326          3