##TITLE=Library Entry 13310
##JCAMP-DX=Revision 4.10 
##DATA TYPE=MASS SPECTRUM
##SAMPLE DESCRIPTION=CARL DJERASSI DEPT OF CHEM STANFORD UNIV STANFORD CALIF
 94305
##NAMES=HP
##CAS NAME=Lanost-9(11)-en-18-oic acid, 23-(acetyloxy)-3-[(4-bromobenzoyl)ox
y]-20-hydroxy-, .gamma.-lactone, (3.beta.,20.xi.)-
##MOLFORM=C39H53BrO6
##CAS REGISTRY NO=56259-26-8
##MP= -300
##BP= -300
##MW= 696
##$RETENTION INDEX=0
##$CONDENSED SPECTRUM=NO
##NPOINTS= 207
##XYDATA=(XY..XY) 1 
    41        212
    42         30
    43        999
    44         60
    45         40
    50         70
    51         30
    53         30
    55        343
    56         20
    57        171
    59         10
    60         20
    61         10
    65         20
    67        111
    68         20
    69        434
    70         30
    71         80
    73         20
    74         30
    75         60
    76         70
    77         60
    78         10
    79         90
    80         30
    81        373
    82         60
    83        111
    84         10
    85         60
    91        101
    92         20
    93        181
    94         40
    95        232
    96         30
    97         50
   103         10
   104        121
   105        161
   106         20
   107        161
   108         30
   109        242
   110         20
   111         80
   115         20
   117         40
   118         20
   119        131
   120         30
   121        131
   122         40
   123        101
   124         20
   125         60
   127        181
   128         20
   129         50
   130         20
   131        111
   132         30
   133        101
   134         50
   135        121
   136         80
   137         40
   141         20
   142         20
   143         80
   144         30
   145        141
   146         30
   147         80
   148         10
   149         30
   150         10
   151         10
   155        121
   156         20
   157        161
   158         50
   159         80
   160         20
   161         30
   163         20
   165         10
   167         10
   169         60
   170         20
   171         90
   172         20
   173         70
   174         10
   175         30
   177         20
   181         20
   182         10
   183        565
   184         50
   185        575
   186         50
   187         60
   188         10
   189         20
   195         20
   196         10
   197         60
   198         10
   199         40
   200        121
   201         30
   202        111
   203         30
   209         20
   211         40
   212         10
   213         30
   223         20
   225         40
   226         10
   227         10
   237         10
   239         50
   240         10
   241         20
   251         10
   253         50
   254         10
   255         60
   257         10
   265         40
   266         10
   267         70
   268         10
   269         20
   271         10
   279         30
   280         10
   281         50
   282         10
   283         20
   284         10
   293         20
   295         10
   299         30
   307         30
   309         30
   311         10
   314         10
   323         10
   325         50
   326         10
   327         10
   351         10
   353         10
   365         10
   367         20
   368         10
   375         40
   377         90
   378         20
   381         10
   391         40
   392         10
   393         30
   418         10
   420        303
   421         80
   422         10
   436         30
   437         30
   453         20
   455         20
   465         30
   467         20
   479         20
   481         60
   482         10
   496         70
   497         20
   498         10
   507         10
   508         10
   509         20
   510         10
   577        151
   578         50
   579        151
   580         60
   591         10
   592         10
   593         20
   594         10
   621         10
   623         10
   631         40
   632         20
   633         40
   634         20
   696         90
   697         40
   698        101
   699         40