##TITLE=Library Entry 41314
##JCAMP-DX=Revision 4.10 
##DATA TYPE=MASS SPECTRUM
##SAMPLE DESCRIPTION=O A MAMER, MCGILL UNIVERSITY, MONTRE
##NAMES=HP
##CAS NAME=9,12-Octadecadienoic acid (Z,Z)-, TMS derivative
##MOLFORM=C21H40O2Si
##CAS REGISTRY NO=56259-07-5
##MP= -300
##BP= -300
##MW= 352
##$RETENTION INDEX=2212
##$CONDENSED SPECTRUM=NO
##NPOINTS= 165
##XYDATA=(XY..XY) 1 
    13          3
    14         11
    15         28
    16          6
    18          5
    26         16
    27         84
    28         52
    29        179
    30          6
    31          5
    32          4
    39         76
    40         16
    41        465
    42         50
    43        187
    44         26
    45        108
    46          9
    47         56
    48          4
    50          7
    51         13
    52         17
    53         76
    54        265
    55        508
    56         46
    57         69
    58         19
    59         30
    60         13
    61         68
    62          6
    65         36
    66         47
    67        650
    68        243
    69        211
    70         23
    71         28
    72         38
    73        999
    74        107
    75        986
    76         74
    77        119
    78         40
    79        277
    80        191
    81        501
    82        248
    83        119
    84         31
    85         25
    86          9
    87          8
    89         31
    91         81
    92         24
    93        147
    94        122
    95        316
    96        212
    97         88
    98         25
    99         18
   101         10
   105         39
   106         20
   107         88
   108         79
   109        154
   110        120
   111         38
   112          8
   116         46
   117        230
   118         28
   119         37
   120         21
   121        103
   122         62
   123         81
   124         63
   125         20
   129        253
   130         37
   131         78
   132         50
   133         40
   134         17
   135         94
   136         83
   137         49
   138         39
   139         14
   143         21
   145         81
   146         16
   147         35
   149         65
   150        114
   151         39
   152         24
   153         10
   155         17
   157         14
   159         22
   161          8
   163         36
   164         59
   165         21
   166         16
   167          7
   169          9
   171         18
   173         30
   174          7
   177         24
   178         63
   179         20
   180          7
   183         10
   185         20
   187         29
   188          7
   191         15
   192         12
   199         23
   201         21
   202          5
   205         10
   207         19
   208          7
   211          6
   213         11
   215         15
   218         10
   220         61
   221         27
   222          6
   225          7
   227          9
   229         12
   234         25
   235          7
   239          7
   241          6
   243         11
   244          5
   249          3
   257          7
   262        128
   263         28
   267          5
   281         12
   282          4
   295          8
   309          3
   337        286
   338         81
   340          6
   352         39