##TITLE=Library Entry 11079
##JCAMP-DX=Revision 4.10 
##DATA TYPE=MASS SPECTRUM
##SAMPLE DESCRIPTION=N.W. DAVIES, UNIVERSITY OF TASMANIA, TASMANIA, AUSTRALI
A
##NAMES=HP
##CAS NAME=N1,N4-Diacetyl sulphanilamide
##MOLFORM=C10H12N2O4S
##CAS REGISTRY NO=5626-90-4
##MP= -300
##BP= -300
##MW= 256
##$RETENTION INDEX=0
##$CONDENSED SPECTRUM=NO
##NPOINTS= 72
##XYDATA=(XY..XY) 1 
    27         13
    36         59
    38         26
    39         61
    40         49
    42         71
    43        999
    44         53
    45        154
    46         32
    50         19
    51         20
    52         30
    53         26
    54         15
    59         18
    60         53
    62         13
    63         57
    64         60
    65        197
    66         27
    73         55
    74         13
    75         12
    76         12
    77         12
    78         12
    79         20
    80         36
    81         23
    83         10
    84         22
    87         16
    90         18
    91         67
    92        170
    93         57
    94         12
    98         10
    99         24
   101         35
   106         14
   107         46
   108        134
   109        509
   110         40
   113         12
   115         11
   121         14
   124         12
   127         19
   129         22
   133         10
   134         59
   135         22
   139         10
   140         24
   149         16
   150         15
   151        381
   152         38
   155         14
   156        146
   157         16
   167         13
   172        106
   173         30
   192         24
   198         18
   214         23
   256         52