##TITLE=Library Entry 86906
##JCAMP-DX=Revision 4.10 
##DATA TYPE=MASS SPECTRUM
##SAMPLE DESCRIPTION=Chemical Concepts
##NAMES=HP
##CAS NAME=2-Pyrrolidinecarbonitrile, 5-oxo
##MOLFORM=C5H6N2O
##CAS REGISTRY NO=5626-50-6
##MP= -300
##BP= -300
##MW= 110
##$RETENTION INDEX=0
##$CONDENSED SPECTRUM=NO
##NPOINTS= 36
##XYDATA=(XY..XY) 1 
    25         16
    26        123
    27        241
    28        599
    29         62
    30         24
    31         28
    36         42
    37         30
    38         67
    39        176
    40        186
    41        828
    42         84
    43         40
    44         44
    52        122
    53        171
    54        204
    55        380
    56        449
    57         27
    63         13
    64         33
    65         19
    66        164
    67        308
    68         30
    81         46
    82         68
    83         88
    84        109
    85         12
   109         59
   110        999
   111         99