##TITLE=Library Entry 43393
##JCAMP-DX=Revision 4.10 
##DATA TYPE=MASS SPECTRUM
##SAMPLE DESCRIPTION=VERN REINHOLD,A.D.LITTLE INC.,CAMBRIDGE,MASS
##NAMES=HP
##CAS NAME=D-Ribopyranose, 4TMS derivative
##MOLFORM=C17H42O5Si4
##CAS REGISTRY NO=56271-70-6
##MP= -300
##BP= -300
##MW= 438
##$RETENTION INDEX=0
##$CONDENSED SPECTRUM=NO
##NPOINTS= 143
##XYDATA=(XY..XY) 1 
    30         14
    31         13
    36          9
    38          5
    39         12
    41         38
    42          9
    43         45
    44         46
    45        265
    46         21
    47         42
    49         10
    50          8
    51         14
    52          8
    53         21
    54         12
    55         25
    56          9
    57         13
    58         20
    59        102
    60         14
    61         22
    65          9
    66         15
    67         12
    68          9
    69        165
    71         15
    72         32
    73        999
    74        181
    75        313
    76         25
    77         25
    79          7
    81          8
    85         15
    86          5
    87         10
    88          9
    89         25
    91          8
    95          7
    97         21
    99         19
   101         97
   102         20
   103        111
   104         13
   105         16
   111         12
   113         15
   115         28
   116         40
   117         42
   118         16
   119         20
   127         18
   129        111
   130         18
   131         56
   132         12
   133        119
   134         20
   135         21
   141         18
   142         14
   143         46
   144          9
   145         16
   147        520
   148         81
   149         54
   150         16
   151         10
   157         35
   161         14
   163         15
   169         23
   170          8
   171         11
   173          8
   175         19
   176         10
   177         17
   185          8
   187          7
   189        227
   190         38
   191        668
   192        117
   193         51
   194         15
   201         12
   203         29
   204        925
   205        224
   206         95
   207         28
   208         10
   215         38
   216         18
   217        979
   218        259
   219        125
   220         22
   221         34
   222         16
   223         11
   229          6
   230         20
   231         36
   232         18
   233          9
   234          8
   243         34
   244         14
   245         18
   259         35
   260         14
   261          9
   265         20
   266          8
   267          5
   279         17
   290          8
   291         34
   292         16
   293         10
   305         74
   306         31
   307         21
   308          7
   317          5
   318          7
   319          7
   320          6
   333         28
   334         16
   335          8