##TITLE=Library Entry 235
##JCAMP-DX=Revision 4.10 
##DATA TYPE=MASS SPECTRUM
##SAMPLE DESCRIPTION=Exported from NIST MS Search
##NAMES=HP
##CAS NAME=Uridine, 5,6-dihydro-
##MOLFORM=C9H14N2O6
##CAS REGISTRY NO=5627-05-4
##MP= -300
##BP= -300
##MW= 246
##$RETENTION INDEX=0
##$CONDENSED SPECTRUM=NO
##NPOINTS= 124
##XYDATA=(XY..XY) 1 
    25          4
    26        102
    27        301
    28        999
    29        233
    30        180
    31        122
    32         20
    36          4
    37          4
    38         22
    39         77
    40         57
    41        110
    42        266
    43        264
    44        198
    45         51
    46          6
    47          6
    50          4
    51         22
    52         30
    53         57
    54         49
    55        229
    56        141
    57        221
    58        163
    59         24
    60        184
    61         28
    64          4
    65          4
    66          8
    67         14
    68         94
    69         69
    70        135
    71        100
    72         82
    73        602
    74         28
    75         22
    76          8
    77          8
    78          6
    79          6
    80         16
    81         28
    82         28
    83         14
    84         77
    85         47
    86         94
    87         24
    88          6
    89          8
    91         10
    93          6
    94          4
    95         24
    96         47
    97         36
    98         49
    99         14
   100        217
   101         16
   102          6
   103          4
   104         71
   105          6
   108          6
   109          4
   110         16
   111         38
   112         26
   113        200
   114        122
   115          6
   123          8
   125          8
   126         14
   127         55
   128         24
   129          6
   130          8
   132         24
   133          8
   138         10
   139          8
   140         20
   141          8
   142          8
   143        571
   144         43
   145          6
   149          8
   152          6
   153         10
   154          6
   155         28
   156         41
   157         22
   167          6
   169         16
   173         47
   174          6
   181         14
   182          6
   184          6
   185         32
   195         14
   197          8
   198          6
   199         10
   200         10
   201          6
   202         14
   210          6
   211         16
   215         20
   228         36
   229          8