##TITLE=Library Entry 43715
##JCAMP-DX=Revision 4.10 
##DATA TYPE=MASS SPECTRUM
##SAMPLE DESCRIPTION=J.A.MCCLOSKEY,BAYLOR COL OF MEDICIN,HOUSTON,TEX.77025
##NAMES=HP
##CAS NAME=4-Pyrimidinecarboxaldehyde, 2,6-bis[(trimethylsilyl)oxy]-
##MOLFORM=C11H20N2O3Si2
##CAS REGISTRY NO=56272-56-1
##MP= -300
##BP= -300
##MW= 284
##$RETENTION INDEX=0
##$CONDENSED SPECTRUM=NO
##NPOINTS= 133
##XYDATA=(XY..XY) 1 
    39          7
    40         65
    41          7
    42         12
    43        135
    44         69
    45        360
    46         24
    47         32
    52         10
    53         10
    54          9
    55         21
    56         13
    57         30
    58         40
    59        165
    60         17
    61         15
    66         20
    67          8
    68         17
    69         15
    70         50
    71         20
    72         90
    73        999
    74         97
    75        132
    76         10
    77         21
    80          6
    83         12
    84         21
    85         25
    86         35
    87         10
    93          6
    95          6
    96         10
    97         21
    98         18
    99        270
   100        220
   101         38
   102         20
   103          9
   105          8
   110          7
   111         12
   112          9
   113         13
   114          6
   115         12
   116          7
   117         15
   119          6
   120          5
   123          5
   124         10
   125         14
   126        150
   127        190
   128         27
   129          7
   130          6
   131         61
   132         12
   133         43
   134          8
   138          6
   139         10
   140         27
   141         10
   142          7
   143         14
   144          5
   147        515
   148         80
   149         48
   150          6
   154        268
   155         36
   156         18
   157         15
   158         21
   159          6
   166          9
   167         10
   168          7
   169          8
   170          8
   171         10
   173         24
   174          5
   182          6
   183          7
   185          9
   188         15
   192         16
   194          5
   195         13
   196          5
   197         15
   198         12
   199          5
   211         29
   212          8
   213          5
   225         10
   226          8
   239         10
   240          8
   241        123
   242         32
   243         12
   252         10
   253         10
   254         20
   255         80
   256         25
   257         17
   267         21
   268         37
   269        940
   270        219
   271         97
   272         15
   283        115
   284        920
   285        225
   286        100
   287         15