##TITLE=Library Entry 10283
##JCAMP-DX=Revision 4.10 
##DATA TYPE=MASS SPECTRUM
##SAMPLE DESCRIPTION=NIST Mass Spectrometry Data Center
##NAMES=HP
##CAS NAME=3-(Phenylazo)-2,4-pentanedione
##MOLFORM=C11H12N2O2
##CAS REGISTRY NO=56276-49-4
##MP= -300
##BP= -300
##MW= 204
##$RETENTION INDEX=0
##$CONDENSED SPECTRUM=NO
##NPOINTS= 89
##XYDATA=(XY..XY) 1 
    13          1
    14         12
    15        110
    18          1
    25          1
    26          3
    27         18
    28         13
    37         10
    38         34
    39        139
    40         20
    41         17
    43        999
    44         22
    50         23
    51         85
    52         25
    53          7
    54          6
    55         18
    56          1
    61          3
    62         10
    63         45
    64         59
    65        222
    66         38
    67          6
    68          1
    69          3
    70          7
    71          3
    73          1
    75          4
    77        149
    78         14
    79          3
    83          3
    84          1
    85          4
    88          1
    89          2
    91         46
    92        333
    93        226
    94         23
    95          1
    99         31
   100          1
   101          1
   103          1
   104          4
   105         26
   106         42
   107          5
   112         11
   113          2
   115          2
   116          1
   117          1
   118          7
   119         20
   120          2
   127         17
   128          1
   133          2
   134          2
   135          7
   136         13
   137          1
   143          5
   144          1
   145          2
   149          1
   161         29
   162          6
   169          1
   171         31
   172          3
   175          1
   186         16
   187         15
   188          2
   189          1
   203         36
   204        271
   205         34
   206          3