##TITLE=Library Entry 44076
##JCAMP-DX=Revision 4.10 
##DATA TYPE=MASS SPECTRUM
##SAMPLE DESCRIPTION=WASHINGTON UNIVERSITY MEDICAL SCHOOL W.R. SHERMAN
##NAMES=HP
##CAS NAME=Galactaric acid, (R,S,R,S)-, 6TMS derivative
##MOLFORM=C24H58O8Si6
##CAS REGISTRY NO=56272-61-8
##MP= -300
##BP= -300
##MW= 642
##$RETENTION INDEX=2092
##$CONDENSED SPECTRUM=NO
##NPOINTS= 119
##XYDATA=(XY..XY) 1 
    55          6
    59          8
    72         12
    73        999
    74         79
    75         53
    93          9
    95          4
   101          3
   102         11
   103         29
   117         13
   119          3
   129         14
   130          5
   131         17
   133         37
   134          4
   135          3
   143         43
   144          5
   145          4
   147        324
   148         51
   149         36
   150          3
   161          3
   171         15
   173          3
   175          4
   189         79
   190         20
   191         36
   192          6
   193          3
   203          3
   204         63
   205         16
   206          6
   207         16
   208          3
   215          4
   217         91
   218         17
   219         65
   220         14
   221         58
   222         13
   223          7
   229          8
   231          7
   233          3
   245         13
   246          3
   257          8
   263          3
   265          3
   277        112
   278         34
   279         18
   280          4
   291         23
   292        294
   293         91
   294         44
   295         10
   303          3
   305        153
   306         46
   307         22
   308          4
   318          7
   319          6
   320          5
   321         20
   322          6
   331         12
   333        840
   334        250
   335        125
   336         27
   337          6
   345         20
   346          8
   347          6
   373         18
   374          6
   375          3
   379         12
   380          4
   393         28
   394         11
   395          6
   407          3
   419         18
   420          7
   421          6
   423         71
   424         27
   425         13
   426          3
   435         28
   436         11
   437          5
   447         45
   448         16
   449         11
   493         11
   494          4
   495          3
   509         12
   510          5
   537         14
   538          6
   539          4
   627         41
   628         22
   629         15
   630          5