##TITLE=Library Entry 19766
##JCAMP-DX=Revision 4.10 
##DATA TYPE=MASS SPECTRUM
##SAMPLE DESCRIPTION=LAC, NIDDK, NIH, Bethesda, MD 20892
##NAMES=HP
##CAS NAME=Cholestan-16-one
##MOLFORM=C27H46O
##CAS REGISTRY NO=56272-02-7
##MP= -300
##BP= -300
##MW= 386
##$RETENTION INDEX=0
##$CONDENSED SPECTRUM=NO
##NPOINTS= 111
##XYDATA=(XY..XY) 1 
    41        663
    43        897
    44         32
    47         18
    49          9
    51          4
    53        117
    55        999
    56         30
    57        262
    59         11
    60         10
    65         41
    67        481
    69        554
    70         28
    71        113
    73         17
    74         19
    77         69
    79        192
    81        505
    82         33
    83        311
    84         81
    85         48
    86         41
    88          7
    91        141
    93        303
    95        562
    96         46
    97        136
    98         69
   102         11
   105        129
   106         80
   107        193
   108         81
   109        259
   110         53
   111         68
   113         13
   115         23
   117         21
   119         49
   120         10
   121        217
   122         84
   123         99
   124         17
   125         19
   129         22
   131         26
   133         65
   135        217
   136         13
   137         70
   139         34
   141          4
   143         12
   145         34
   147         61
   148         21
   149         87
   150         14
   151         34
   153         43
   154         57
   155         10
   159         23
   161         51
   162         26
   163         41
   165         12
   168          5
   173         18
   175         41
   177         22
   185         13
   187         17
   189         29
   201         35
   203         36
   205          5
   207         17
   215         22
   216        117
   217        665
   218        106
   231          4
   232        169
   233         64
   243          4
   257         17
   259        768
   260        107
   261          9
   273         35
   274         25
   283         22
   301        200
   302         58
   369         16
   370         23
   371        882
   372        255
   373         40
   385         16
   386        110
   387         32