##TITLE=Library Entry 75983
##JCAMP-DX=Revision 4.10 
##DATA TYPE=MASS SPECTRUM
##SAMPLE DESCRIPTION=Exported from NIST MS Search
##NAMES=HP
##CAS NAME=Aminocaproic acid, 2TMS derivative
##MOLFORM=C12H29NO2Si2
##CAS REGISTRY NO=56272-91-4
##MP= -300
##BP= -300
##MW= 275
##$RETENTION INDEX=0
##$CONDENSED SPECTRUM=NO
##NPOINTS= 65
##XYDATA=(XY..XY) 1 
    28         20
    29         10
    30         89
    41         36
    42         16
    43         28
    44         26
    45         81
    46          8
    47         28
    55         49
    56         24
    57         12
    58         20
    59         65
    67         12
    68          4
    69         26
    70          6
    72         30
    73        489
    74         81
    75        236
    76         18
    77         24
    78          6
    79          8
    84         12
    85         12
    86         28
    87         14
    88          8
    89         12
    96         63
   100         18
   101          8
   102        999
   103        114
   104         49
   117         18
   128         16
   129         40
   130         10
   131         14
   133         14
   144         28
   145         32
   146          8
   147        134
   148         26
   149         14
   158         12
   170        114
   171         20
   172          4
   186         14
   188         28
   217         26
   218          6
   246         14
   260         91
   261         16
   262          6
   275         30
   276          8