##TITLE=Library Entry 42501
##JCAMP-DX=Revision 4.10 
##DATA TYPE=MASS SPECTRUM
##SAMPLE DESCRIPTION=S. MARKEY UNIV. OF COLO. MED. CTR., DENVER, COLORADO, U
SA
##NAMES=HP
##CAS NAME=Oct-2-enoic acid, 2-(trimethylsilyl)oxy-, trimethylsilyl ester
##MOLFORM=C14H30O3Si2
##CAS REGISTRY NO=56272-73-2
##MP= -300
##BP= -300
##MW= 302
##$RETENTION INDEX=0
##$CONDENSED SPECTRUM=NO
##NPOINTS= 97
##XYDATA=(XY..XY) 1 
    47         19
    53         15
    54          6
    55        218
    56         10
    57         12
    58         12
    59         44
    60          1
    61         14
    66         14
    67         11
    68         14
    69         21
    70          3
    71          4
    72         32
    73        999
    74         87
    75        150
    76         13
    77         20
    81         10
    83          8
    84          1
    85         13
    87          4
    94          8
    95         69
    96          3
    97          1
    99          6
   101          6
   103         10
   112          1
   113         22
   115          8
   116          9
   117         18
   119          8
   127         21
   129         20
   130          1
   131         34
   132          7
   133         67
   134         10
   135          5
   141         15
   142         18
   143         11
   145          8
   146          3
   147        990
   148        163
   149         91
   150          9
   151          2
   155         38
   156         10
   157         18
   158          1
   159          3
   169         11
   170          2
   171          1
   175          2
   177          7
   183          1
   184         18
   185        174
   186         44
   187         12
   188          1
   190          6
   201         34
   202          8
   203         36
   204          8
   205          2
   215         17
   216          8
   217         11
   229         11
   230          4
   231          2
   243         16
   245         40
   246         11
   247          1
   259         24
   260          6
   287        173
   288         43
   289         20
   302         38
   303         11