##TITLE=Library Entry 44046
##JCAMP-DX=Revision 4.10 
##DATA TYPE=MASS SPECTRUM
##SAMPLE DESCRIPTION=Chemical Concepts
##NAMES=HP
##CAS NAME=Silane, 9,10-anthracenediylbis[trimethyl-
##MOLFORM=C20H26Si2
##CAS REGISTRY NO=56272-36-7
##MP= -300
##BP= -300
##MW= 322
##$RETENTION INDEX=0
##$CONDENSED SPECTRUM=NO
##NPOINTS= 276
##XYDATA=(XY..XY) 1 
    27          1
    29          9
    30          0
    31          5
    39          1
    42          1
    43         50
    44          6
    45        134
    46          8
    47          2
    50          0
    51          0
    52          0
    53         16
    54          1
    55          3
    56          0
    57          3
    58         13
    59         28
    60          2
    61          1
    63          1
    65          0
    66          0
    67          3
    69          1
    70          0
    71          0
    72          1
    73        999
    74         80
    75         33
    76          1
    77          5
    78          0
    79          1
    80          0
    81          0
    83          2
    85          0
    86          0
    87          1
    88          0
    89          1
    90          1
    91          1
    92          1
    93          1
    96          0
    97          2
    98          1
    99          1
   100          0
   102          1
   104          1
   105          1
   106          0
   107          0
   108          0
   109          1
   110          2
   111          2
   112          0
   113          1
   114          0
   115          4
   116          5
   117          4
   118          2
   119          2
   120          0
   121          0
   122          4
   123         10
   124          5
   125          2
   126          2
   127          1
   128          2
   129         10
   130         13
   131         12
   132          5
   133          0
   134          0
   135          1
   136          3
   137         11
   138         30
   139          9
   140          1
   141          1
   142          1
   143          1
   144          2
   145         10
   146         68
   147          7
   148          0
   149          1
   150          2
   151          2
   152          3
   153          5
   154          2
   155          3
   156          3
   157          2
   158          0
   159          0
   161          0
   162          1
   163          4
   164          2
   165         16
   166          4
   167          5
   168          1
   169          1
   170          0
   171          0
   172          0
   173          0
   174          1
   175          1
   176          5
   177          8
   178         16
   179         13
   180          3
   181          3
   182          1
   183          1
   184          0
   185          0
   186          0
   187          2
   188          2
   189         20
   190          8
   191         20
   192         12
   193         10
   194          3
   195          4
   196          1
   197          0
   198          0
   199          0
   200          1
   201          3
   202         21
   203         21
   204         18
   205         28
   206          7
   207          6
   208          1
   209          2
   210          1
   211          1
   212          1
   213          2
   214          3
   215         15
   216         12
   217         68
   218         31
   219        236
   220         51
   221         14
   222          2
   223          1
   224          0
   225          1
   226          1
   227          3
   228          5
   229         13
   230         11
   231         33
   232         21
   233        100
   234         54
   235         26
   236          6
   237          2
   238          0
   239          1
   240          1
   241          6
   242          4
   243         10
   244          6
   245         18
   246          7
   247         18
   248         17
   249        246
   250         63
   251         16
   252          2
   253          0
   254          0
   255          2
   256          2
   257          8
   258          4
   259          9
   260          3
   261          8
   262          4
   263          4
   264          6
   265          2
   266          0
   267          0
   268          0
   269          2
   270          1
   271          5
   272          2
   273          7
   274          3
   275         11
   276          3
   277          5
   278          1
   279          1
   280          0
   281          0
   282          0
   283          0
   284          0
   285          1
   286          0
   287          4
   288          2
   289          8
   290          3
   291         20
   292         10
   293          8
   294          2
   295          1
   296          0
   297          0
   298          0
   299          0
   300          0
   301          1
   302          1
   303          2
   304          2
   305         11
   307        230
   308         67
   309         23
   310          4
   311          0
   313          0
   314          0
   315          0
   316          0
   317          0
   318          0
   319          0
   320          5
   322        502
   323        159
   324         54
   325          9
   326          1
   327          0