##TITLE=Library Entry 53235
##JCAMP-DX=Revision 4.10 
##DATA TYPE=MASS SPECTRUM
##SAMPLE DESCRIPTION=NIST Mass Spectrometry Data Center, 1998.
##NAMES=HP
##CAS NAME=Clobenztropine
##MOLFORM=C21H24ClNO
##CAS REGISTRY NO=5627-46-3
##MP= -300
##BP= -300
##MW= 341
##$RETENTION INDEX=0
##$CONDENSED SPECTRUM=NO
##NPOINTS= 101
##XYDATA=(XY..XY) 1 
    27         12
    29         10
    30         12
    39         22
    41         57
    42        232
    43         28
    44         32
    50         12
    51         28
    52          6
    53         18
    54         21
    55         68
    56         40
    57         42
    58         15
    63         15
    65         18
    66          3
    67        120
    68         51
    69         19
    70         28
    71          3
    73          2
    75         21
    76         11
    77         83
    78         18
    79         13
    80         19
    81         38
    82        658
    83        999
    84        134
    85          8
    86          3
    87          2
    89         15
    91         17
    93         12
    94         72
    95         21
    96        283
    97        194
    98         79
    99          9
   100         13
   104          2
   105         42
   106          6
   107          3
   108         10
   109          5
   110         43
   111         35
   112         32
   113         19
   114          7
   115         20
   116          2
   117          7
   122         19
   123          5
   124        472
   125        176
   126         18
   127          7
   138          6
   139         65
   140        831
   141         93
   142          6
   149          5
   151          9
   152         24
   153         21
   154         10
   162          2
   163         33
   164         41
   165        385
   166        201
   167         27
   172         12
   173          2
   181          3
   199         12
   200          3
   201        130
   202         19
   203         19
   206          8
   207          6
   216          8
   235         52
   236         10
   237         19
   250          2
   341          8