##TITLE=Library Entry 43391
##JCAMP-DX=Revision 4.10 
##DATA TYPE=MASS SPECTRUM
##SAMPLE DESCRIPTION=VERN REINHOLD,A.D.LITTLE INC.,CAMBRIDGE,MASS
##NAMES=HP
##CAS NAME=.beta.-Lyxopyranose, 4TMS derivative
##MOLFORM=C17H42O5Si4
##CAS REGISTRY NO=56271-66-0
##MP= -300
##BP= -300
##MW= 438
##$RETENTION INDEX=0
##$CONDENSED SPECTRUM=NO
##NPOINTS= 141
##XYDATA=(XY..XY) 1 
    30         15
    31         16
    36         10
    39         16
    40         12
    41         30
    42         14
    43         47
    44         52
    45        271
    46         23
    47         48
    51          7
    53         15
    54         11
    55         27
    56          7
    57         16
    58         15
    59        108
    60         14
    62          6
    67         14
    68          9
    69        106
    70         18
    71         11
    72         26
    73        999
    74        172
    75        290
    76         25
    77         31
    78          7
    79         11
    81         12
    85         15
    87         16
    88          7
    89         23
    90          5
    93         10
    95          8
    96          6
    97         20
    99         18
   101         87
   102         22
   103        136
   104         25
   105         18
   111         13
   113         12
   115         34
   116         45
   117         62
   118         15
   119         21
   127         16
   129        139
   130         21
   131         46
   132         14
   133        122
   134         22
   135         20
   140          7
   141         20
   142         12
   143         48
   144         11
   145         18
   146          7
   147        469
   148         71
   149         57
   150         16
   151         11
   153          7
   157         20
   159         11
   161         13
   163         11
   164          8
   169         37
   171         11
   173          8
   175         21
   176          8
   177         15
   178          7
   179          8
   187         16
   189        212
   190         44
   191        414
   192         66
   193         35
   194          5
   195          6
   201         12
   203         36
   204        955
   205        240
   206        104
   207         30
   208          9
   215         46
   216         15
   217        962
   218        230
   219        123
   220         22
   221         31
   222          8
   229         11
   230         29
   231         33
   232         16
   233          6
   243         22
   244         16
   245         18
   258          8
   259         28
   260         13
   261          7
   264          8
   265         16
   279         13
   291         32
   292         14
   293          7
   304         12
   305         56
   306         26
   307         20
   319          7
   333         26
   334         11
   335         13