##TITLE=Library Entry 2305
##JCAMP-DX=Revision 4.10 
##DATA TYPE=MASS SPECTRUM
##SAMPLE DESCRIPTION=Chemical Concepts
##NAMES=HP
##CAS NAME=Aziridine, 1-ethenyl-
##MOLFORM=C4H7N
##CAS REGISTRY NO=5628-99-9
##MP= -300
##BP= -300
##MW= 69
##$RETENTION INDEX=0
##$CONDENSED SPECTRUM=NO
##NPOINTS= 24
##XYDATA=(XY..XY) 1 
    25          6
    26         77
    27        235
    28        267
    29          9
    30         15
    37          8
    38         21
    39        118
    40        127
    41        999
    42        638
    43         63
    44          4
    51          8
    52         16
    53          3
    54         54
    55          3
    58         10
    67         11
    68        182
    69        527
    70         25