##TITLE=Library Entry 73243
##JCAMP-DX=Revision 4.10 
##DATA TYPE=MASS SPECTRUM
##SAMPLE DESCRIPTION=Chemical Concepts
##NAMES=HP
##CAS NAME=Aziridine, 1-(2-chloro-1-ethoxyethyl)-
##MOLFORM=C6H12ClNO
##CAS REGISTRY NO=5628-98-8
##MP= -300
##BP= -300
##MW= 149
##$RETENTION INDEX=0
##$CONDENSED SPECTRUM=NO
##NPOINTS= 66
##XYDATA=(XY..XY) 1 
    26         31
    27        190
    28        160
    29        270
    30         25
    31         29
    38          4
    39         22
    40         29
    41        138
    42        434
    43        271
    44        173
    45        349
    46         12
    47          6
    48          8
    49         55
    50          7
    51         19
    52          8
    53          2
    54         40
    55         23
    56         20
    57          8
    58          4
    61         11
    62          3
    63         22
    64          3
    65          6
    68         20
    69         57
    70         15
    71          7
    72        257
    73         59
    74          4
    75         24
    76         13
    77         10
    78         39
    79        761
    80         32
    81        276
    82          6
    88          5
    90         32
    91          2
    92         11
   100        999
   101         60
   102          4
   103          8
   104        298
   105         25
   106        110
   107        228
   108         15
   109         74
   110          4
   120          3
   122          1
   149         11
   151          3