##TITLE=Library Entry 57032
##JCAMP-DX=Revision 4.10 
##DATA TYPE=MASS SPECTRUM
##SAMPLE DESCRIPTION=D.HENNEBERG, MAX-PLANCK INSTITUTE, MULHEIM, WEST GERMAN
Y
##NAMES=HP
##CAS NAME=2-Nonanone, O-methyloxime
##MOLFORM=C10H21NO
##CAS REGISTRY NO=56292-72-9
##MP= -300
##BP= -300
##MW= 171
##$RETENTION INDEX=0
##$CONDENSED SPECTRUM=NO
##NPOINTS= 113
##XYDATA=(XY..XY) 1 
    24          1
    25          2
    26         19
    27        169
    28        120
    29        254
    30        107
    31        156
    32        107
    33          8
    34          0
    35          1
    36          2
    37          7
    38         20
    39        140
    40        101
    41        522
    42        776
    43        202
    44         44
    45         37
    46          1
    47          7
    48          5
    49          1
    50          6
    51         13
    52         10
    53         31
    54         66
    55        215
    56         96
    57        257
    58         25
    59          7
    60          3
    61          0
    62          2
    63          4
    64          1
    65          8
    66          5
    67         26
    68         44
    69        119
    70         55
    71         10
    72         22
    73          3
    74         17
    75          0
    76          2
    77         13
    78         10
    79         17
    80          6
    81         31
    82         54
    83         70
    84         17
    85          3
    86         10
    87        999
    88         47
    89          4
    90          1
    91          9
    92          3
    93          4
    94          7
    95         19
    96         30
    97         14
    98         10
    99          2
   100        251
   101         25
   102          2
   103          9
   104          3
   105          2
   106          2
   107          6
   108          3
   109          3
   110          6
   111          4
   112          2
   114         41
   115          4
   116          2
   117          3
   118          1
   120          2
   124         36
   125         14
   126          1
   127          0
   128          7
   129          5
   130          5
   131          4
   132          3
   133          2
   135          0
   140          5
   141          0
   142          8
   143          1
   156          5
   170          1
   171         11