##TITLE=Library Entry 24264
##JCAMP-DX=Revision 4.10 
##DATA TYPE=MASS SPECTRUM
##SAMPLE DESCRIPTION=TECH. UNIVERSITY OF KARLSRUHE, KARLSRUHE, W. GERMANY
##NAMES=HP
##CAS NAME=Tridecane, 2,5-dimethyl-
##MOLFORM=C15H32
##CAS REGISTRY NO=56292-66-1
##MP= -300
##BP= -300
##MW= 212
##$RETENTION INDEX=0
##$CONDENSED SPECTRUM=NO
##NPOINTS= 132
##XYDATA=(XY..XY) 1 
    12          0
    13          0
    14          0
    15          1
    16          0
    19          0
    20          0
    24          0
    25          0
    26          2
    27         47
    28         11
    29        111
    30          2
    31          0
    32          0
    36          1
    37          0
    38          0
    39         26
    40          6
    41        195
    42         41
    43        442
    44         14
    45          0
    46          0
    47          0
    48          0
    49          0
    50          1
    51          1
    52          0
    53          9
    54          7
    55        107
    56        149
    57        999
    58         46
    59          2
    60          0
    62          0
    63          0
    64          0
    65          1
    66          1
    67          8
    68          7
    69         59
    70        110
    71        276
    72         15
    73          0
    74          0
    77          1
    78          0
    79          1
    80          0
    81          3
    82          7
    83         31
    84         19
    85        222
    86         14
    87          0
    88          0
    91          0
    92          0
    93          0
    94          0
    95          0
    96          4
    97         20
    98         71
    99        136
   100         10
   101          1
   102          0
   109          0
   110          1
   111         13
   112         19
   113         15
   114          1
   115          0
   116          0
   123          1
   124          0
   125          2
   126          2
   127          8
   128          0
   129          0
   133          0
   135          0
   138          0
   139          1
   140         80
   141         61
   142          6
   143          1
   144          0
   152          0
   153          0
   154          4
   155          5
   156          0
   157          0
   167          0
   168          6
   169         11
   170          1
   171          0
   181          0
   182          3
   183          6
   184          0
   185          0
   195          0
   196          2
   197         13
   198          1
   199          0
   200          0
   201          0
   202          0
   204          0
   210          0
   211          0
   212          9
   213          1
   214          0