##TITLE=Library Entry 24292
##JCAMP-DX=Revision 4.10 
##DATA TYPE=MASS SPECTRUM
##SAMPLE DESCRIPTION=TECH. UNIVERSITY OF KARLSRUHE, KARLSRUHE, W. GERMANY
##NAMES=HP
##CAS NAME=Tetradecane, 2,5-dimethyl-
##MOLFORM=C16H34
##CAS REGISTRY NO=56292-69-4
##MP= -300
##BP= -300
##MW= 226
##$RETENTION INDEX=0
##$CONDENSED SPECTRUM=NO
##NPOINTS= 133
##XYDATA=(XY..XY) 1 
    12          0
    13          0
    14          0
    15          1
    16          0
    19          0
    20          0
    21          0
    24          0
    25          0
    26          2
    27         39
    28          9
    29        103
    30          2
    31          0
    32          0
    36          0
    37          0
    38          0
    39         22
    40          5
    41        181
    42         39
    43        407
    44         13
    45          0
    46          0
    47          0
    48          0
    49          0
    50          1
    51          1
    52          0
    53          8
    54          7
    55        106
    56        145
    57        999
    58         44
    59          0
    60          0
    62          0
    63          0
    64          0
    65          1
    66          0
    67          7
    68          7
    69         58
    70        108
    71        266
    72         14
    73          0
    74          0
    77          1
    78          0
    79          1
    80          0
    81          2
    82          6
    83         25
    84         17
    85        185
    86         12
    87          0
    91          0
    92          0
    93          0
    94          0
    95          0
    96          4
    97         20
    98         71
    99        153
   100         11
   101          0
   102          0
   109          0
   110          2
   111         12
   112          9
   113         34
   114          3
   115          0
   123          0
   124          1
   125          7
   126         16
   127         12
   128          1
   129          0
   138          0
   139          0
   140          2
   141          7
   142          0
   143          0
   147          0
   152          0
   153          1
   154         69
   155         59
   156          6
   157          0
   167          0
   168          3
   169          5
   170          0
   171          0
   181          0
   182          4
   183         10
   184          1
   185          0
   195          0
   196          3
   197          8
   198          1
   199          0
   200          0
   201          0
   202          0
   204          0
   210          1
   211         12
   212          2
   213          0
   224          0
   225          0
   226          7
   227          1
   228          0