##TITLE=Library Entry 33457
##JCAMP-DX=Revision 4.10 
##DATA TYPE=MASS SPECTRUM
##SAMPLE DESCRIPTION=Exported from NIST MS Search
##NAMES=HP
##CAS NAME=Cyclohexanol, 4-ethenyl-4-methyl-3-(1-methylethenyl)-, (1.alpha.,
3.beta.,4.alpha.)-
##MOLFORM=C12H20O
##CAS REGISTRY NO=56298-46-5
##MP= -300
##BP= -300
##MW= 180
##$RETENTION INDEX=0
##$CONDENSED SPECTRUM=NO
##NPOINTS= 14
##XYDATA=(XY..XY) 1 
    39        400
    41        829
    43        709
    53        400
    55        739
    67        949
    68        999
    69        460
    79        619
    81        939
    82        909
    93        460
   147        609
   162        400