##TITLE=Library Entry 14939
##JCAMP-DX=Revision 4.10 
##DATA TYPE=MASS SPECTRUM
##SAMPLE DESCRIPTION=CARL DJERASSI DEPT OF CHEM STANFORD UNIV STANFORD CALIF
 94305
##NAMES=HP
##CAS NAME=Lanosta-7,9(11)-diene-3,18-diol, diacetate, (3.beta.,20.xi.)-
##MOLFORM=C34H54O4
##CAS REGISTRY NO=56298-04-5
##MP= -300
##BP= -300
##MW= 526
##$RETENTION INDEX=0
##$CONDENSED SPECTRUM=NO
##NPOINTS= 308
##XYDATA=(XY..XY) 1 
    41        269
    42         27
    43        999
    44         27
    45         13
    50         13
    51          6
    52          6
    53         27
    54          6
    55        400
    56         41
    57        393
    58         20
    59          6
    60         13
    61         13
    67        117
    68         20
    69        441
    70         48
    71        200
    72         13
    73         13
    74          6
    77         34
    78          6
    79         82
    80         13
    81        227
    82         69
    83        206
    84         20
    85         62
    86          6
    91         89
    92         13
    93        137
    94         13
    95        241
    96         34
    97        117
    98          6
    99         20
   100          6
   101          6
   103          6
   104          6
   105        151
   106         27
   107        151
   108         27
   109        144
   110         13
   111         96
   112         13
   113         20
   115         13
   116          6
   117         69
   118         27
   119        151
   120         34
   121        117
   122         27
   123        206
   124         20
   125         27
   127         13
   128         34
   129         89
   130         34
   131        206
   132         48
   133        117
   134         20
   135        103
   136         20
   137         27
   138          6
   139         13
   141         48
   142         55
   143        193
   144        103
   145        275
   146         55
   147         75
   148         20
   149         55
   150         13
   151         13
   152          6
   153         20
   154         20
   155        144
   156         62
   157        227
   158         96
   159        158
   160         34
   161         62
   162         13
   163         20
   165         20
   166         13
   167         48
   168         34
   169        144
   170         62
   171        269
   172         82
   173        103
   174         13
   175         34
   176          6
   177         13
   178          6
   179         20
   180         13
   181         55
   182         34
   183        131
   184         48
   185        110
   186         34
   187         82
   188         20
   189         20
   191          6
   192          6
   193         34
   194         13
   195         75
   196         34
   197        103
   198         34
   199        103
   200         27
   201         34
   202          6
   203         13
   204          6
   205         13
   206          6
   207         20
   208         13
   209         69
   210         34
   211         89
   212         34
   213         75
   214         27
   215         27
   216          6
   217         13
   219         13
   220          6
   221         20
   222         13
   223         96
   224         27
   225        117
   226         34
   227         55
   228         27
   229         27
   230          6
   231         13
   232          6
   233         13
   235         13
   236          6
   237         75
   238         41
   239        117
   240         41
   241         48
   242         20
   243         27
   245         13
   247          6
   249         13
   250          6
   251         41
   252         20
   253         75
   254         20
   256         34
   257        448
   258         96
   259         20
   263         13
   264          6
   265         34
   266         13
   267         34
   268         13
   269         34
   270         20
   271         96
   272         27
   273         34
   274          6
   277         13
   278          6
   279         27
   280          6
   281         34
   282          6
   283         75
   284        151
   285         48
   286         20
   287         27
   289         34
   290          6
   291          6
   292        117
   293        117
   294         34
   295         48
   296         13
   297        262
   298         96
   299         62
   300         34
   301         27
   302          6
   307         13
   309         34
   310         13
   311         34
   312        117
   314         34
   315         20
   316          6
   321         20
   322         13
   323         69
   324         27
   325         27
   326         20
   327         41
   328         13
   329          6
   335         20
   336         13
   337         41
   338         13
   339         48
   340         20
   341         13
   342          6
   343          6
   349         13
   350          6
   351         20
   352         13
   353        262
   354         89
   356         20
   363         13
   364          6
   365         13
   377          6
   378          6
   379         20
   380         13
   381         41
   391        193
   392        689
   393        227
   394         62
   396         13
   397         20
   398         13
   405         13
   406         41
   407         27
   408         34
   410          6
   411         48
   412         20
   413         13
   423         13
   424          6
   425          6
   437         13
   438         13
   439          6
   440          6
   451         82
   452         27
   453        234
   454         82
   455         27
   456          6
   465         13
   466        324
   467        124
   468         82
   469         34
   470          6
   511         13
   512          6
   526         89
   527         34