##TITLE=Library Entry 50432
##JCAMP-DX=Revision 4.10 
##DATA TYPE=MASS SPECTRUM
##SAMPLE DESCRIPTION=ARCO CHEMICAL CO., PHILADELPHIA, PA, USA
##NAMES=HP
##CAS NAME=Naphthalene, 1-(1,1-dimethylethyl)decahydro-
##MOLFORM=C14H26
##CAS REGISTRY NO=56292-64-9
##MP= -300
##BP= -300
##MW= 194
##$RETENTION INDEX=0
##$CONDENSED SPECTRUM=NO
##NPOINTS= 112
##XYDATA=(XY..XY) 1 
    37          3
    38          7
    39        259
    40         48
    41        897
    42         62
    43        130
    44         18
    45          0
    46          0
    47          0
    48          4
    49          0
    50          7
    51         31
    52         21
    53        160
    54         91
    55        397
    56        491
    57        599
    58         27
    59          0
    60          0
    61          1
    62          1
    63          6
    64          2
    65         47
    66         34
    67        444
    68        103
    69        359
    70         29
    71          9
    72          0
    74          0
    75          2
    76          0
    77         76
    78         21
    79        142
    80         55
    81        999
    82        167
    83        112
    84          8
    85          1
    89          1
    90          0
    91         48
    92          8
    93         62
    94         74
    95        987
    96        196
    97         51
    98          3
    99          0
   101          0
   102          0
   103          3
   104          1
   105          9
   106          2
   107         40
   108         28
   109         69
   110         15
   111          5
   112          0
   113          0
   114          0
   115          2
   116          0
   117          1
   118          0
   119          1
   120          0
   121         39
   122          4
   123         49
   124          5
   125          0
   127          0
   128          1
   129          0
   130          0
   131          0
   132          0
   133          0
   134          1
   135         11
   136        478
   137        862
   138        264
   139         22
   140          1
   141          0
   149          0
   150          0
   151          2
   152          0
   177          0
   178          0
   179         14
   180          2
   192          0
   193          0
   194         12
   195          1
   196          0