##TITLE=Library Entry 33628
##JCAMP-DX=Revision 4.10 
##DATA TYPE=MASS SPECTRUM
##SAMPLE DESCRIPTION=Exported from NIST MS Search
##NAMES=HP
##CAS NAME=Cyclohexanol, 4-ethenyl-4-methyl-3-(1-methylethenyl)-, (1.alpha.,
3.alpha.,4.beta.)-
##MOLFORM=C12H20O
##CAS REGISTRY NO=56298-45-4
##MP= -300
##BP= -300
##MW= 180
##$RETENTION INDEX=0
##$CONDENSED SPECTRUM=NO
##NPOINTS= 14
##XYDATA=(XY..XY) 1 
    39        350
    41        769
    43        649
    53        350
    55        709
    67        889
    68        999
    69        460
    79        629
    81        899
    82        839
    93        490
   147        440
   162        220