##TITLE=Library Entry 6932
##JCAMP-DX=Revision 4.10 
##DATA TYPE=MASS SPECTRUM
##SAMPLE DESCRIPTION=CARL DJERASSI DEPT OF CHEM STANFORD UNIV STANFORD CALIF
 94305
##NAMES=HP
##CAS NAME=Condyfolan, 14,19-didehydro-16-methylene-, (14E)-
##MOLFORM=C19H22N2
##CAS REGISTRY NO=56293-10-8
##MP= -300
##BP= -300
##MW= 278
##$RETENTION INDEX=0
##$CONDENSED SPECTRUM=NO
##NPOINTS= 131
##XYDATA=(XY..XY) 1 
    41        187
    42        234
    43        999
    44        140
    45        843
    51         15
    52         15
    53         15
    55        109
    56         93
    57        140
    58        171
    60        671
    61         23
    65         23
    67         39
    68         31
    69         78
    70         55
    71         63
    72         55
    73         23
    74         15
    77         55
    78         39
    79         63
    80         15
    81         39
    82         47
    83         55
    84         31
    85         31
    86          7
    87         15
    91         47
    93         23
    94         23
    95         31
    96         31
    97         47
    98          7
    99          7
   100          7
   101          7
   102          7
   103         15
   104          7
   105         23
   106          7
   107          7
   108         15
   109         23
   110         15
   111         15
   112          7
   115         71
   116          7
   117         31
   118          7
   119         39
   120         23
   121         15
   122         71
   123         23
   124         15
   125         15
   127          7
   128         15
   129          7
   130         63
   131         23
   132          7
   133          7
   134         15
   135          7
   136         15
   138          7
   139         86
   140          7
   141          7
   142          7
   143         31
   144         55
   148        591
   149        142
   150          7
   154          7
   155          7
   156          7
   167         23
   168         23
   169          7
   170          7
   180         23
   181         23
   182         15
   191          7
   192         15
   193         31
   194         39
   195         15
   196         23
   197          7
   204         15
   205         23
   206         55
   207         39
   208         31
   209         15
   210          7
   218         15
   219         15
   220         55
   221         47
   222         47
   223         15
   233          7
   234         31
   235         78
   236         23
   237          7
   248          7
   249         55
   250         47
   263        110
   264         15
   276          7
   277         86
   278        781
   279        165
   280         15