##TITLE=Library Entry 24254
##JCAMP-DX=Revision 4.10 
##DATA TYPE=MASS SPECTRUM
##SAMPLE DESCRIPTION=TECH. UNIVERSITY OF KARLSRUHE, KARLSRUHE, W. GERMANY
##NAMES=HP
##CAS NAME=Dodecane, 2,5-dimethyl-
##MOLFORM=C14H30
##CAS REGISTRY NO=56292-65-0
##MP= -300
##BP= -300
##MW= 198
##$RETENTION INDEX=0
##$CONDENSED SPECTRUM=NO
##NPOINTS= 115
##XYDATA=(XY..XY) 1 
    12          0
    13          0
    14          0
    15          1
    16          0
    19          0
    20          0
    24          0
    25          0
    26          3
    27         55
    28         11
    29        119
    30          2
    31          0
    32          0
    36          0
    37          0
    38          0
    39         31
    40          7
    41        207
    42         44
    43        479
    44         16
    45          0
    46          0
    47          0
    48          0
    49          0
    50          1
    51          1
    52          0
    53         10
    54          7
    55        105
    56        154
    57        999
    58         44
    59          0
    62          0
    63          0
    64          0
    65          1
    66          0
    67          7
    68          6
    69         52
    70        115
    71        365
    72         20
    73          0
    77          1
    78          0
    79          1
    80          0
    81          2
    82          7
    83         25
    84         22
    85        204
    86         13
    87          0
    91          0
    92          0
    93          0
    94          0
    95          0
    96          3
    97         23
    98         76
    99        102
   100          7
   101          0
   102          0
   109          0
   110          0
   111          2
   112          4
   113         13
   114          1
   115          0
   120          0
   123          0
   124          0
   125          2
   126         91
   127         59
   128          5
   129          0
   138          0
   139          0
   140          5
   141          7
   142          0
   143          0
   153          0
   154          7
   155         12
   156          1
   157          0
   167          0
   168          3
   169          9
   170          1
   171          0
   182          2
   183         13
   184          1
   185          0
   196          0
   197          0
   198         11
   199          1
   200          0