##TITLE=Library Entry 7681
##JCAMP-DX=Revision 4.10 
##DATA TYPE=MASS SPECTRUM
##SAMPLE DESCRIPTION=CARL DJERASSI DEPT OF CHEM STANFORD UNIV STANFORD CALIF
 94305
##NAMES=HP
##CAS NAME=2,5-Ethano-2H-azocino[4,3-b]indole-6-carboxylic acid, 6-[(acetylo
xy)methyl]-4-ethylidene-1,3,4,5,6,7-hexahydro-, methyl ester, [5S-[4E,5.alph
a.,6.beta.]]-
##MOLFORM=C22H26N2O4
##CAS REGISTRY NO=56293-11-9
##MP= -300
##BP= -300
##MW= 382
##$RETENTION INDEX=0
##$CONDENSED SPECTRUM=NO
##NPOINTS= 242
##XYDATA=(XY..XY) 1 
    40         60
    41        481
    42        337
    43        999
    44        301
    45        421
    46         24
    50         24
    51         60
    52         36
    53        144
    54         72
    55        397
    56        208
    57        879
    58        180
    59        289
    60        144
    61         40
    62          4
    63         40
    64         16
    65         60
    66         32
    67        170
    68        105
    69        332
    70         89
    71        182
    72         16
    73         93
    74        109
    75         16
    76         12
    77         60
    78         32
    79         56
    80         32
    81        170
    82         73
    83        141
    84         56
    85        113
    86          8
    87         16
    88          4
    89          8
    90          4
    91         44
    92         12
    93         52
    94         28
    95         97
    96         52
    97        121
    98         36
    99         48
   100          4
   101         20
   102         16
   103         16
   104          8
   105         28
   106         20
   107         36
   108         56
   109         81
   110         40
   111         73
   112         24
   113         32
   114         12
   115         48
   116         16
   117         24
   118          8
   119         24
   120         16
   121         40
   122         52
   123         60
   124        174
   125         56
   126         24
   127         48
   128         36
   129         44
   130         85
   131         24
   132          8
   133         16
   134         16
   135         32
   136         24
   137         48
   138         16
   139         24
   140         24
   141         32
   142         20
   143         36
   144         32
   145         12
   146          4
   147          8
   148         12
   149         52
   150         12
   151         20
   152         28
   153         32
   154        137
   155         77
   156         32
   157         20
   158          8
   159          8
   160          8
   161          8
   162          4
   163         12
   164          8
   165         20
   166         24
   167         60
   168         36
   169         40
   170         40
   171         24
   172         12
   173          4
   174          4
   175          4
   177          8
   178         12
   179         12
   180         44
   181         52
   182         40
   183         32
   184          8
   185         12
   186          4
   189          8
   190          8
   191         20
   192         20
   193         28
   194         81
   195         28
   196         16
   197         12
   198         36
   199         28
   200          4
   201         12
   202          4
   203          8
   204         24
   205         20
   206         40
   207         24
   208         28
   209         12
   210          8
   211          4
   212          4
   213         68
   214        190
   215         32
   216          4
   217          4
   218         20
   219         20
   220         44
   221         28
   222         16
   223          4
   224          4
   227          4
   230         28
   231         16
   232         12
   233          8
   234         36
   235         24
   236         16
   237         16
   238         20
   239          8
   240          4
   241          4
   247          8
   248         16
   249         12
   250          4
   251          4
   252         24
   253          8
   256          4
   257         20
   260          4
   262          4
   263         81
   264         20
   265          4
   266         48
   267         40
   268          8
   273         48
   274          4
   277         24
   278          4
   279         12
   280         32
   281         20
   293          4
   294          4
   307         12
   309        121
   310         36
   311         12
   312         12
   321         12
   322         28
   323        141
   324         32
   325         12
   326        312
   327         60
   338          8
   339         56
   340         32
   341          8
   362          4
   367         28
   368          4
   380         12
   381         20
   382        401
   383         97
   384         12