##TITLE=Library Entry 43377
##JCAMP-DX=Revision 4.10 
##DATA TYPE=MASS SPECTRUM
##SAMPLE DESCRIPTION=WASHINGTON UNIVERSITY MEDICAL SCHOOL W.R. SHERMAN
##NAMES=HP
##CAS NAME=L-Glucono-1,4-lactone (2S,3R,4S,5S)-, 4TMS derivative
##MOLFORM=C18H42O6Si4
##CAS REGISTRY NO=56298-43-2
##MP= -300
##BP= -300
##MW= 466
##$RETENTION INDEX=0
##$CONDENSED SPECTRUM=NO
##NPOINTS= 137
##XYDATA=(XY..XY) 1 
    53          3
    55          9
    58          4
    59         21
    61          3
    69          7
    72         15
    73        999
    74         75
    75         71
    76          3
    81         36
    87          3
    89         10
    97         19
    99          5
   101         13
   102         15
   103        200
   104         21
   105         10
   113          4
   115          5
   116          9
   117         70
   118          7
   119          7
   127          4
   129         93
   130         22
   131         31
   132          5
   133         72
   134         11
   135          8
   142          4
   143         27
   144          4
   145          6
   147        380
   148         62
   149         48
   150          5
   153          6
   155         11
   157         17
   159          3
   161          4
   163          5
   169         13
   171         13
   173          4
   175          9
   177         10
   189        174
   190         34
   191         53
   192          9
   193         16
   197         15
   201          6
   202          6
   203         20
   204        199
   205        183
   206         43
   207         21
   208          4
   215         13
   216         11
   217        438
   218         93
   219        179
   220         48
   221         33
   222          7
   227          5
   229         24
   230         34
   231         24
   232          6
   233          7
   243        103
   244         26
   245         37
   246         21
   247          8
   257          5
   258          4
   259         14
   260          4
   262         14
   263          3
   265          6
   269          3
   271         33
   272          7
   273          5
   277          5
   291         13
   292         18
   293          7
   304         10
   305         92
   306         26
   307         21
   308          5
   317         21
   318         22
   319         26
   320          9
   321          3
   331         15
   332         36
   333        116
   334         76
   335         78
   336         22
   337          9
   348         38
   349         12
   350          5
   361         98
   362         32
   363         38
   364         11
   365          4
   376          3
   393          4
   423          3
   451         24
   452          8
   453          5
   466         98
   467         39
   468         21
   469          6