##TITLE=Library Entry 52416
##JCAMP-DX=Revision 4.10 
##DATA TYPE=MASS SPECTRUM
##SAMPLE DESCRIPTION=T. CLERC
##NAMES=HP
##CAS NAME=2-Butenoic acid, 2-methyl-, 4,4a,5,6,7,8,8a,9-octahydro-8a-hydrox
y-3,4a,5-trimethylnaphtho[2,3-b]furan-6-yl ester
##MOLFORM=C20H28O4
##CAS REGISTRY NO=56298-88-5
##MP= -300
##BP= -300
##MW= 332
##$RETENTION INDEX=0
##$CONDENSED SPECTRUM=NO
##NPOINTS= 99
##XYDATA=(XY..XY) 1 
    30         52
    31        736
    39        289
    40         78
    41        684
    42        136
    43        605
    44        342
    50         52
    51        105
    52         31
    53        194
    54        126
    55        789
    56        315
    57        289
    60        100
    65        105
    66         73
    67        263
    68         68
    69        278
    70        126
    71        157
    77        226
    78        136
    79        257
    80         78
    81        205
    82        136
    83        999
    84        200
    85        289
    91        289
    92         89
    93        178
    94         73
    95        221
    96        105
    97         73
    98         68
   105        226
   106         84
   107        189
   108        631
   109        763
   110        110
   111         73
   115        105
   117         84
   118        152
   119        210
   120        121
   121        136
   122         78
   123        105
   124         36
   131        131
   132         52
   133        115
   134        105
   135        136
   145         68
   146        194
   147        115
   148         63
   149         78
   160        105
   161         52
   162        105
   163        131
   164        121
   172        105
   173         78
   174         52
   175        115
   176         57
   177         63
   187         68
   188         78
   189         78
   199        173
   200         52
   201         84
   202        105
   205        168
   214        178
   215        152
   218        115
   220         89
   224         68
   228         52
   230        168
   231        152
   232        136
   233         52
   249         52
   314        136
   332         57