##TITLE=Library Entry 39538
##JCAMP-DX=Revision 4.10 
##DATA TYPE=MASS SPECTRUM
##SAMPLE DESCRIPTION=CARL DJERASSI DEPT OF CHEM STANFORD UNIV STANFORD CALIF
 94305
##NAMES=HP
##CAS NAME=3,5-Cyclo-28,33-dinorgorgostan-24-ol, 6-methoxy-, (3.beta.,5.alph
a.,6.beta.)-
##MOLFORM=C29H48O2
##CAS REGISTRY NO=56298-03-4
##MP= -300
##BP= -300
##MW= 428
##$RETENTION INDEX=0
##$CONDENSED SPECTRUM=NO
##NPOINTS= 272
##XYDATA=(XY..XY) 1 
    40         10
    41        400
    42         20
    43        700
    44         20
    45        150
    53         80
    54         10
    55        710
    56         30
    57        270
    58         10
    59         70
    65         30
    66         20
    67        390
    68         50
    69        390
    70         20
    71        999
    72         40
    73         90
    77        130
    78         30
    79        400
    80         70
    81        740
    82        360
    83        180
    84         60
    85        110
    86         40
    87         10
    91        380
    92         80
    93        500
    94        230
    95        620
    96         90
    97        120
    98         20
    99        130
   100         20
   103         20
   104         20
   105        500
   106        140
   107        540
   108        130
   109        280
   110         40
   111         60
   112         10
   113         20
   115         40
   116         20
   117        130
   118         80
   119        290
   120        140
   121        500
   122        110
   123        270
   124         40
   125         40
   127         20
   128         30
   129         70
   130         40
   131        240
   132         80
   133        350
   134        110
   135        260
   136         50
   137        230
   138         90
   139        220
   140         30
   141        240
   142         30
   143        130
   144         50
   145        390
   146        130
   147        350
   148         90
   149        150
   150         50
   151         60
   152         40
   153         30
   155         30
   156         40
   157        140
   158        110
   159        390
   160        150
   161        260
   162         70
   163         90
   164         30
   165         50
   169         30
   170         30
   171        110
   172         50
   173        180
   174         70
   175        150
   176         50
   177         60
   178         30
   179         20
   183         40
   184         20
   185        120
   186         50
   187        140
   188         50
   189         90
   190         30
   191         90
   192         30
   193         30
   197         50
   198         30
   199        170
   200         60
   201        160
   202         60
   203         60
   204         30
   205         50
   206         30
   211         80
   212         50
   213        340
   214        140
   215        160
   216         50
   217         40
   218         30
   219         30
   225         60
   226         40
   227        290
   228        160
   229        110
   230         40
   231         60
   232         30
   233         40
   234         80
   235         30
   239         80
   240         60
   241        110
   242         40
   243         60
   244         30
   245        100
   246         40
   247         30
   251         30
   252         40
   253        990
   254        300
   255        330
   256        200
   257        160
   258         50
   259         80
   260         40
   261         30
   265         30
   267         60
   268         40
   269         50
   270        130
   271         80
   272         40
   273        200
   274         70
   275         40
   279         40
   281        160
   282         70
   283        120
   284         90
   285        270
   286        140
   287        100
   288         40
   289         40
   291         40
   293         40
   295        160
   296        410
   297        180
   298         60
   299         60
   300         40
   301         40
   305         40
   307         40
   309         40
   310         50
   311         50
   312         90
   313        260
   314        100
   315         40
   316         40
   323         50
   324         40
   325         40
   327        120
   328        450
   329        180
   330         50
   331         90
   332         60
   335        120
   336         60
   337         50
   341         40
   342         50
   343         40
   344         60
   345         80
   346         50
   352         50
   353        910
   354        290
   355        120
   356         50
   357         50
   359         40
   363        100
   364         50
   365         50
   367         50
   369         50
   370        180
   371        100
   372         60
   373        830
   374        270
   375         70
   378        130
   379         70
   380         60
   381         80
   382         50
   385        170
   386         90
   387         90
   388         50
   395         70
   396        390
   397        160
   398         60
   410         90
   411         60
   413        440
   414        170
   415         60
   427         50
   428        580
   429        220
   430         70