##TITLE=Library Entry 16825
##JCAMP-DX=Revision 4.10 
##DATA TYPE=MASS SPECTRUM
##SAMPLE DESCRIPTION=CONTINENTAL OIL CO., PONCA CITY, OKLA, USA
##NAMES=HP
##CAS NAME=2-Heptanol, 4-methyl-
##MOLFORM=C8H18O
##CAS REGISTRY NO=56298-90-9
##MP= -300
##BP= -300
##MW= 130
##$RETENTION INDEX=1372
##$CONDENSED SPECTRUM=NO
##NPOINTS= 82
##XYDATA=(XY..XY) 1 
    13          1
    14         12
    15         61
    16          4
    17          5
    18         18
    19         21
    24          0
    25          0
    26         12
    27        201
    28         56
    29        155
    30          4
    31         32
    32          7
    33          0
    35          0
    36          0
    37          2
    38          7
    39        108
    40         21
    41        208
    42        131
    43        416
    44         76
    45        999
    46         23
    47          3
    48          0
    49          0
    50          3
    51          6
    52          2
    53         18
    54          5
    55        169
    56         49
    57         47
    58         13
    59         16
    60          1
    61          0
    62          1
    63          2
    64          0
    65          3
    66          1
    67          8
    68          8
    69        102
    70        192
    71        126
    72          7
    73          2
    77          1
    79          1
    81          2
    82          4
    83         32
    84         65
    85         63
    86         12
    87          2
    88          2
    93          0
    95          2
    96          0
    97         50
    98          4
    99          0
   101          0
   110          0
   111          0
   112         16
   113          2
   115         19
   116          1
   128          0
   129          1
   130          0