##TITLE=Library Entry 109
##JCAMP-DX=Revision 4.10 
##DATA TYPE=MASS SPECTRUM
##SAMPLE DESCRIPTION=Japan AIST/NIMC Database- Spectrum MS-NW-2724
##NAMES=HP
##CAS NAME=2-Bromopropionyl bromide
##MOLFORM=C3H4Br2O
##CAS REGISTRY NO=563-76-8
##MP= -300
##BP= -300
##MW= 214
##$RETENTION INDEX=0
##$CONDENSED SPECTRUM=NO
##NPOINTS= 76
##XYDATA=(XY..XY) 1 
    12          3
    13          6
    14          5
    15          9
    16          1
    17          1
    18          3
    24          5
    25         29
    26        193
    27        999
    28        213
    29         11
    32          1
    35          1
    36          9
    37          9
    38          9
    39         10
    40          1
    41          8
    42          3
    43          3
    44          5
    45          2
    52          2
    53         12
    54         10
    55         47
    56         55
    57          8
    63          5
    65          1
    69          1
    73          1
    79         69
    80         31
    81         70
    82         30
    91          5
    92          5
    93          6
    94          5
    95          2
    96          1
   104          3
   105         11
   106         16
   107        747
   108         30
   109        718
   110         17
   120          3
   121          3
   122          3
   123          3
   127          2
   134          9
   135        604
   136         28
   137        592
   138         19
   139          2
   154          1
   155          4
   158          4
   160          8
   162          4
   173          1
   183          6
   185          2
   187          4
   189          2
   197          1
   199          2
   201          1