##TITLE=Library Entry 6843
##JCAMP-DX=Revision 4.10 
##DATA TYPE=MASS SPECTRUM
##SAMPLE DESCRIPTION=G.D. ROBERTS & E. WHITE, V SMITH KLINE CORP PHILA., PA.
, USA
##NAMES=HP
##CAS NAME=Silver acetate
##MOLFORM=C2H3AgO2
##CAS REGISTRY NO=563-63-3
##MP= -300
##BP= -300
##MW= 166
##$RETENTION INDEX=0
##$CONDENSED SPECTRUM=NO
##NPOINTS= 38
##XYDATA=(XY..XY) 1 
    15         10
    28         90
    29         65
    30         12
    31         18
    40         10
    41         33
    42        131
    43        999
    44        321
    45        392
    46         10
    60        263
    61         10
   107         23
   109         23
   151          6
   153          6
   214         12
   216         23
   218         11
   229          2
   230          1
   231          4
   232          3
   233          2
   234          1
   273         35
   274          1
   275         63
   276          1
   277         30
   317          3
   319          5
   321          2
   332          1
   334          2
   336          1