##TITLE=Library Entry 7880
##JCAMP-DX=Revision 4.10 
##DATA TYPE=MASS SPECTRUM
##SAMPLE DESCRIPTION=NIST Mass Spectrometry Data Center, 1990.
##NAMES=HP
##CAS NAME=Hexane, 3,3-dimethyl-
##MOLFORM=C8H18
##CAS REGISTRY NO=563-16-6
##MP= -300
##BP= -300
##MW= 114
##$RETENTION INDEX=744
##$CONDENSED SPECTRUM=NO
##NPOINTS= 34
##XYDATA=(XY..XY) 1 
    15         13
    27        180
    28         65
    29        180
    30          4
    39        192
    40         39
    41        443
    42          4
    43        999
    44         42
    50          8
    51         17
    52          7
    53         51
    54          7
    55        178
    56        106
    57        636
    58         27
    63          3
    65          8
    67         15
    69         71
    70        297
    71        613
    72         34
    77          4
    84        161
    85        501
    86         32
    98          7
    99         68
   100          6