##TITLE=Library Entry 44955
##JCAMP-DX=Revision 4.10 
##DATA TYPE=MASS SPECTRUM
##SAMPLE DESCRIPTION=J.VOTH, UNIV. OF CALIFORNIA, DAVIS, CALIFORNIA, 95616,
 USA
##NAMES=HP
##CAS NAME=1-Propene, 3,3-dichloro-
##MOLFORM=C3H4Cl2
##CAS REGISTRY NO=563-57-5
##MP= -300
##BP= -300
##MW= 110
##$RETENTION INDEX=656
##$CONDENSED SPECTRUM=NO
##NPOINTS= 56
##XYDATA=(XY..XY) 1 
     2          2
    12         20
    13         20
    14         23
    15          7
    24          7
    25         21
    26         57
    27         86
    28          3
    29          3
    35         61
    36         44
    37        132
    38         41
    39        536
    40         33
    41          4
    43          0
    47         26
    48         23
    49        176
    50          9
    51         53
    52          0
    54          0
    59          1
    60          5
    61          8
    62          2
    63          2
    70          0
    71          2
    72          7
    73         29
    74          9
    75        999
    76         37
    77        318
    78         11
    79          1
    82          3
    83         31
    84          2
    85         19
    86          0
    87          3
    95          0
    97          0
   107          0
   109          8
   110         26
   111          5
   112         16
   113          1
   114          2