##TITLE=Library Entry 20338
##JCAMP-DX=Revision 4.10 
##DATA TYPE=MASS SPECTRUM
##SAMPLE DESCRIPTION=Japan AIST/NIMC Database- Spectrum MS-NW-1330
##NAMES=HP
##CAS NAME=2-Methyl-1-butene
##MOLFORM=C5H10
##CAS REGISTRY NO=563-46-2
##MP= -300
##BP= -300
##MW= 70
##$RETENTION INDEX=488
##$CONDENSED SPECTRUM=NO
##NPOINTS= 37
##XYDATA=(XY..XY) 1 
    14          2
    15         12
    25          1
    26         15
    27        146
    28         18
    29        227
    30          6
    31          6
    37          9
    38         26
    39        253
    40         39
    41        242
    42        303
    43         21
    44          2
    49          4
    50         19
    51         22
    52          8
    53         80
    54         23
    55        999
    56         45
    57          2
    61          3
    62          4
    63          4
    65          5
    66          2
    67         13
    68          2
    69         29
    70        380
    71         20
    72          1