##TITLE=Library Entry 26790
##JCAMP-DX=Revision 4.10 
##DATA TYPE=MASS SPECTRUM
##SAMPLE DESCRIPTION=RADIAN CORP
##NAMES=HP
##CAS NAME=Stannane, dibutyldifluoro-
##MOLFORM=C8H18F2Sn
##CAS REGISTRY NO=563-25-7
##MP= -300
##BP= -300
##MW= 272
##$RETENTION INDEX=0
##$CONDENSED SPECTRUM=NO
##NPOINTS= 190
##XYDATA=(XY..XY) 1 
    15          2
    20          1
    26         17
    27        124
    28         54
    29        315
    38          8
    39        132
    40         23
    41        483
    42         33
    43         21
    44          6
    47          1
    50          6
    51         11
    52          5
    53         23
    54         13
    55         76
    56         87
    57        999
    58         50
    60          1
    67          4
    68          2
    69         10
    70          2
    71          6
    77          5
    78          1
    79          6
    81          8
    82          2
    83          8
    84          3
    85         26
    86          1
    91          2
    93          1
    94          1
    95          3
    96          2
    97          5
    98          1
   109          3
   111          2
   112          2
   113          3
   114          1
   115          2
   116         18
   117         28
   118         37
   119         40
   120         48
   121         38
   122          7
   123          8
   124          8
   125          8
   130          1
   131         24
   132          5
   133         29
   134         12
   135        302
   136        176
   137        480
   138        193
   139        622
   141         95
   143        114
   144          3
   145          7
   146          2
   147          8
   148          1
   149          7
   150          2
   151         16
   152         14
   153         18
   154         12
   155         61
   156         28
   157         80
   158         31
   159         98
   160          2
   161         19
   162         15
   163         58
   164         60
   165         77
   166         84
   167         86
   168         65
   169         16
   170         16
   171         21
   172         28
   173         40
   174         40
   175         62
   176         46
   177         66
   178         13
   179         19
   180          8
   181         14
   182          5
   183          5
   184          5
   185          3
   186          6
   187          9
   188         14
   189          9
   190         16
   191         88
   192        202
   193        238
   194        311
   195        296
   196        334
   197         58
   198         50
   199         40
   200         58
   201          8
   203          2
   207          5
   208          5
   209         10
   210         12
   211         43
   212         33
   213         63
   214         30
   215         77
   216          9
   217         19
   218          2
   219         21
   220          5
   221         13
   222          3
   223         10
   225          3
   227          7
   228          1
   229          8
   230          4
   231         10
   232          4
   233          8
   234          3
   235          6
   237          2
   239          2
   241          3
   243          4
   245          4
   247          4
   248         10
   249         48
   250         41
   251         76
   252         48
   253         94
   254          8
   255         19
   256          6
   257         19
   258          2
   259          2
   265          1
   267          7
   268          6
   269         14
   270          8
   271         20
   272         11
   273         19
   274          6
   275         13
   276          3
   277          6
   279          3