##TITLE=Library Entry 3440
##JCAMP-DX=Revision 4.10 
##DATA TYPE=MASS SPECTRUM
##SAMPLE DESCRIPTION=Japan AIST/NIMC Database- Spectrum MS-NW-3539
##NAMES=HP
##CAS NAME=2-Butene, 2,3-dimethyl-
##MOLFORM=C6H12
##CAS REGISTRY NO=563-79-1
##MP= -300
##BP= -300
##MW= 84
##$RETENTION INDEX=625
##$CONDENSED SPECTRUM=NO
##NPOINTS= 39
##XYDATA=(XY..XY) 1 
    14          2
    15         21
    24          1
    26          9
    27        113
    28          4
    29         42
    37          7
    38         15
    39        179
    40         41
    41        999
    42         90
    43         69
    44          3
    49          1
    50          9
    51         15
    52          7
    53         69
    54         13
    55         83
    56         64
    57          7
    61          1
    62          2
    63          4
    65          7
    66          4
    67         55
    68         11
    69        899
    70         52
    71          1
    79          1
    81          1
    83          9
    84        295
    85         20