##TITLE=Library Entry 18945
##JCAMP-DX=Revision 4.10 
##DATA TYPE=MASS SPECTRUM
##SAMPLE DESCRIPTION=NIST Mass Spectrometry Data Center, 1990.
##NAMES=HP
##CAS NAME=1-Butene, 3-chloro-
##MOLFORM=C4H7Cl
##CAS REGISTRY NO=563-52-0
##MP= -300
##BP= -300
##MW= 90
##$RETENTION INDEX=576
##$CONDENSED SPECTRUM=NO
##NPOINTS= 43
##XYDATA=(XY..XY) 1 
    12          3
    13          4
    14          9
    15         17
    18          3
    24          3
    25         18
    26         99
    27        324
    28         85
    29        222
    30          4
    32          0
    35         11
    36         13
    37         40
    38         64
    39        373
    40         27
    41         19
    47          3
    48          7
    49         55
    50         86
    51         82
    52         29
    53        168
    54        169
    55        999
    56         39
    60          3
    61          6
    62         28
    63         16
    64          9
    65          4
    73          7
    75        104
    76          5
    77         31
    90         91
    91          9
    92         29