##TITLE=Library Entry 44959
##JCAMP-DX=Revision 4.10 
##DATA TYPE=MASS SPECTRUM
##SAMPLE DESCRIPTION=Chuck Anderson, Aldrich Chemical Co.
##NAMES=HP
##CAS NAME=1-Propene, 1,1-dichloro-
##MOLFORM=C3H4Cl2
##CAS REGISTRY NO=563-58-6
##MP= -300
##BP= -300
##MW= 110
##$RETENTION INDEX=655
##$CONDENSED SPECTRUM=NO
##NPOINTS= 63
##XYDATA=(XY..XY) 1 
    12          1
    13          1
    14          2
    15          5
    24          2
    25         12
    26         30
    27         44
    28         14
    29          0
    31          0
    32          1
    35         17
    36         32
    37        107
    38        101
    39        448
    40         15
    41          0
    47         45
    48         14
    49        119
    50          5
    51         32
    53          1
    54          2
    55          3
    56          1
    59          3
    60         25
    61         13
    62          9
    63          4
    70          0
    71         11
    72         37
    73        128
    74         62
    75        999
    76         44
    77        290
    78          9
    82         34
    83         78
    84         22
    85         52
    86          4
    87          8
    94          2
    95          5
    96          1
    97          3
    98          0
    99          0
   107          5
   108          2
   109         84
   110        354
   111         59
   112        219
   113         14
   114         36
   115          1