##TITLE=Library Entry 15381
##JCAMP-DX=Revision 4.10 
##DATA TYPE=MASS SPECTRUM
##SAMPLE DESCRIPTION=Japan AIST/NIMC Database- Spectrum MS-NW-5080
##NAMES=HP
##CAS NAME=Propanamide, 2-methyl-
##MOLFORM=C4H9NO
##CAS REGISTRY NO=563-83-7
##MP= -300
##BP= -300
##MW= 87
##$RETENTION INDEX=923
##$CONDENSED SPECTRUM=NO
##NPOINTS= 55
##XYDATA=(XY..XY) 1 
    12          1
    13          1
    14          5
    15         28
    16         14
    17         11
    18          3
    25          3
    26         36
    27        242
    28         84
    29         41
    30          9
    31          1
    32          1
    34          1
    36          2
    37         15
    38         25
    39        126
    40         34
    41        376
    42        313
    43        702
    44        999
    45         72
    46        144
    47          3
    50          2
    51          9
    52         21
    53         22
    54         63
    55         76
    56          9
    57          1
    58          8
    59        255
    60          8
    61          1
    63          1
    64          3
    66          3
    67          4
    68        119
    69         18
    70         18
    71         69
    72        435
    73         16
    74          1
    86         43
    87        251
    88         16
    89          1