##TITLE=Library Entry 4328
##JCAMP-DX=Revision 4.10 
##DATA TYPE=MASS SPECTRUM
##SAMPLE DESCRIPTION=Exported from NIST MS Search
##NAMES=HP
##CAS NAME=Annotine, 2,3-dihydro-
##MOLFORM=C16H23NO3
##CAS REGISTRY NO=5630-43-3
##MP= -300
##BP= -300
##MW= 277
##$RETENTION INDEX=0
##$CONDENSED SPECTRUM=NO
##NPOINTS= 185
##XYDATA=(XY..XY) 1 
    41        999
    42        514
    43        537
    44        200
    45         28
    50          2
    51         22
    52         28
    53        271
    54        228
    55        651
    56        214
    57        108
    58         42
    59          2
    60          5
    61          5
    63          5
    64          5
    65        105
    66         62
    67        257
    68        165
    69        257
    70        137
    71         37
    72          8
    73          5
    74          5
    77        171
    78         51
    79        200
    80        114
    81        151
    82        171
    83        222
    84         91
    85         22
    86         20
    87          5
    88          5
    89          5
    90          5
    91        200
    92         51
    93        114
    94        114
    95        108
    96        194
    97         85
    98         31
    99          5
   100          5
   102          5
   103         28
   104         22
   105        100
   106         71
   107         85
   108        120
   109         71
   110         85
   111        185
   112        171
   113          2
   115         22
   116         20
   117         71
   118         65
   119         60
   120        114
   121         91
   122        157
   123        634
   124        165
   125         51
   126         17
   127          2
   128          8
   129         14
   130         48
   131         51
   132         85
   133         57
   134        185
   135        214
   136        205
   137         51
   138         34
   139         22
   140          2
   141          5
   142          5
   143         17
   144         62
   145         34
   146        348
   147         71
   148        122
   149        194
   150        285
   151        442
   152        657
   153        200
   154         22
   155          2
   156          5
   157          5
   158         28
   159         14
   160        108
   161         57
   162        514
   163        114
   164        394
   165        137
   166         34
   167          5
   168          2
   170         31
   171          8
   172        142
   173        100
   174        348
   175         57
   176         85
   177         37
   178        100
   179         22
   180         28
   181          5
   184          5
   186         22
   187         14
   188         57
   189         51
   190        457
   191         80
   192         57
   193         14
   194          2
   198          2
   200          8
   202         14
   203          5
   204         22
   205         65
   206         57
   207         14
   208          5
   214          8
   215          8
   216         37
   217          2
   218          8
   220         22
   221         22
   222          2
   230          8
   231          8
   232         34
   233         22
   234        108
   235         22
   236          5
   244          5
   245          5
   246          5
   247          2
   248         51
   249        257
   250         37
   251          5
   258         91
   259         62
   260        491
   261         85
   262        214
   263         34
   264          2
   275          5
   276        185
   277        794
   278        142
   279         17