##TITLE=Library Entry 48992
##JCAMP-DX=Revision 4.10 
##DATA TYPE=MASS SPECTRUM
##SAMPLE DESCRIPTION=NIST Mass Spectrometry Data Center
##NAMES=HP
##CAS NAME=5-Pentylcyclohexa-1,3-diene
##MOLFORM=C11H18
##CAS REGISTRY NO=56318-84-4
##MP= -300
##BP= -300
##MW= 150
##$RETENTION INDEX=1161
##$CONDENSED SPECTRUM=NO
##NPOINTS= 82
##XYDATA=(XY..XY) 1 
    26          2
    27         37
    29         39
    30          1
    37          1
    38          5
    39         88
    40         13
    41        115
    42          8
    43         44
    44          1
    48          1
    49          1
    50         14
    51         51
    52         27
    53         47
    54         16
    55         26
    56          3
    57         10
    58          1
    61          1
    62          3
    63         20
    64          6
    65        115
    66         52
    67         45
    68          8
    69          6
    70          3
    71          6
    72          1
    74          3
    75          3
    76          3
    77        434
    78        246
    79        999
    80        289
    81         42
    82          5
    83          2
    84          1
    85          1
    86          1
    87          1
    89         12
    90          3
    91        515
    92        165
    93        492
    94        358
    95         40
    96         10
    97          2
    98          1
   102          3
   103         15
   104          7
   105         40
   106         10
   107         91
   108         24
   109          7
   110          1
   111          1
   112          2
   115         11
   116          3
   120          2
   121         31
   122          6
   135         21
   136          2
   148         47
   149          5
   150        345
   151         37
   152          4