##TITLE=Library Entry 14305
##JCAMP-DX=Revision 4.10 
##DATA TYPE=MASS SPECTRUM
##SAMPLE DESCRIPTION=CARL DJERASSI DEPT OF CHEM STANFORD UNIV STANFORD CALIF
 94305
##NAMES=HP
##CAS NAME=Cholesta-9(11),20(22)-dien-23-one, 6-(acetyloxy)-3-[(2,3,4-tri-O-
acetyl-deoxy-.beta.-D-galactopyranosyl)oxy]-, (3.beta.,5.alpha.,6.alpha.)-
##MOLFORM=C41H60O11
##CAS REGISTRY NO=56312-53-9
##MP= -300
##BP= -300
##MW= 728
##$RETENTION INDEX=0
##$CONDENSED SPECTRUM=NO
##NPOINTS= 138
##XYDATA=(XY..XY) 1 
     2         50
    41         70
    42         20
    43        999
    44         30
    45         30
    55         70
    57        252
    58         10
    59         20
    61         30
    67         70
    69         70
    71        101
    79         40
    80         10
    81        141
    82         30
    83        191
    84         20
    85        343
    86         20
    91         40
    92         10
    93         60
    94         10
    95        141
    96         10
    97         40
    98         10
    99         40
   100         30
   101         10
   102         30
   103         20
   105         70
   106         10
   107         50
   109         30
   111        383
   112         30
   113         20
   115         40
   117         30
   119         50
   120         20
   121         70
   125         20
   126         10
   127         40
   128         10
   129         50
   130         10
   131         60
   132         10
   133         20
   135         20
   140         40
   141         10
   142         30
   143         50
   145         50
   147         20
   151         50
   152         10
   153        353
   154         40
   155         30
   156         20
   157         50
   158         10
   159         40
   161         20
   164         30
   165         20
   166         10
   167         40
   169         30
   170         10
   172        131
   173         10
   174         20
   184         10
   185         10
   186         20
   195         30
   196         10
   197         30
   198         20
   199         30
   209         50
   210         20
   211         90
   212         30
   213        101
   214         10
   223         20
   224         10
   225         20
   226         30
   227         30
   237         10
   238         10
   239         10
   252         50
   253         20
   254         30
   273        434
   274         60
   278         10
   279         40
   280         10
   285         30
   286         20
   293         70
   294         40
   295         30
   311        121
   312         30
   331         30
   332         10
   337         20
   338         30
   339         20
   351         10
   353         20
   363         70
   364         10
   378        141
   379        242
   380        111
   392         10
   393         40
   394         10
   438         40
   439         50
   440         10
   671         10