##TITLE=Library Entry 109089
##JCAMP-DX=Revision 4.10 
##DATA TYPE=MASS SPECTRUM
##SAMPLE DESCRIPTION=CARL DJERASSI DEPT OF CHEM STANFORD UNIV STANFORD CALIF
 94305
##NAMES=HP
##CAS NAME=5-Undecen-4-one
##MOLFORM=C11H20O
##CAS REGISTRY NO=56312-55-1
##MP= -300
##BP= -300
##MW= 168
##$RETENTION INDEX=0
##$CONDENSED SPECTRUM=NO
##NPOINTS= 43
##XYDATA=(XY..XY) 1 
    41        250
    42         20
    43        230
    44         10
    51         10
    52         10
    53         50
    54         10
    55        810
    56         30
    57         40
    58         10
    65         10
    66         10
    67         40
    68         60
    69         70
    70         60
    71        200
    72         10
    79         10
    81         50
    82         30
    83         30
    84         10
    85         10
    86         10
    91         10
    93         10
    95         10
    97        390
    98         30
    99         20
   107         10
   111         30
   125        999
   126        100
   127         10
   139         10
   140         60
   141         10
   153         20
   168         20