##TITLE=Library Entry 3559
##JCAMP-DX=Revision 4.10 
##DATA TYPE=MASS SPECTRUM
##SAMPLE DESCRIPTION=NIST Mass Spectrometry Data Center, 1994
##NAMES=HP
##CAS NAME=1,8-Octane diisothiocyanate
##MOLFORM=C10H16N2S2
##CAS REGISTRY NO=56312-14-2
##MP= -300
##BP= -300
##MW= 228
##$RETENTION INDEX=0
##$CONDENSED SPECTRUM=NO
##NPOINTS= 124
##XYDATA=(XY..XY) 1 
    14          2
    15         16
    18          6
    26         26
    27        297
    28        171
    29        305
    30         41
    32         27
    39        309
    40         81
    41        999
    42        116
    43        168
    44         40
    45        100
    46         11
    47          8
    50          9
    51         20
    52         14
    53         98
    54        112
    55        790
    56         81
    57         46
    58         54
    59        102
    60         95
    61         11
    62         27
    63          3
    64          6
    65         19
    66          3
    67        211
    68         72
    69        478
    70         89
    71          3
    72        907
    73         59
    74         81
    75         25
    76          9
    77         13
    78         10
    79         34
    80         33
    81         64
    82         64
    83         33
    84         53
    85        138
    86        112
    87         58
    88         13
    89          3
    91          9
    92          3
    93         21
    94         21
    95         28
    96         34
    97         15
    98         63
    99         28
   100        109
   101        194
   102         31
   103         10
   106          5
   107         13
   108         27
   109         28
   110         29
   111          9
   112         25
   113         27
   114        125
   115        382
   116         34
   117         21
   119          6
   121         10
   122         17
   123         16
   124         25
   125          6
   126         23
   127          9
   128         76
   129         13
   130          7
   132         11
   134         17
   135         14
   136         74
   137         45
   138          8
   139          9
   140         28
   141          7
   142         11
   151          9
   152         10
   153          5
   154         10
   156         18
   161          4
   162          6
   163         10
   164         10
   167          9
   168         30
   169          8
   170         59
   171          7
   195        312
   196         40
   197         17
   228        203
   229         32
   230         19