##TITLE=Library Entry 38379
##JCAMP-DX=Revision 4.10 
##DATA TYPE=MASS SPECTRUM
##SAMPLE DESCRIPTION=CARL DJERASSI DEPT OF CHEM STANFORD UNIV STANFORD CALIF
 94305
##NAMES=HP
##CAS NAME=3-Nonen-2-one, 3-ethyl-
##MOLFORM=C11H20O
##CAS REGISTRY NO=56312-56-2
##MP= -300
##BP= -300
##MW= 168
##$RETENTION INDEX=0
##$CONDENSED SPECTRUM=NO
##NPOINTS= 59
##XYDATA=(XY..XY) 1 
    41        330
    42         40
    43        680
    44         20
    50         10
    51         20
    52         10
    53         50
    54         30
    55        390
    56         40
    57        100
    58         80
    59         10
    60         30
    67         60
    68         20
    69        280
    70         40
    71        999
    72         70
    73         10
    77         10
    79         90
    81         50
    82         20
    83        120
    84         30
    85         80
    86         40
    91         20
    93         10
    95         30
    96         10
    97        110
    98         20
    99        110
   100         10
   107         20
   109         20
   111         70
   112         20
   113         30
   114         10
   121         10
   123         20
   125        380
   126         30
   127         20
   137         10
   139         50
   140         20
   141         10
   153        170
   154         30
   167         10
   168        170
   169         20
   170         10