##TITLE=Library Entry 83663
##JCAMP-DX=Revision 4.10 
##DATA TYPE=MASS SPECTRUM
##SAMPLE DESCRIPTION=Chemical Concepts
##NAMES=HP
##CAS NAME=Carbamic acid, 3-hydroxy-3-phenylpropyl ester
##MOLFORM=C10H13NO3
##CAS REGISTRY NO=56323-46-7
##MP= -300
##BP= -300
##MW= 195
##$RETENTION INDEX=0
##$CONDENSED SPECTRUM=NO
##NPOINTS= 125
##XYDATA=(XY..XY) 1 
    26          7
    27         69
    28         33
    29         71
    30          7
    31         46
    36          1
    37          2
    38         10
    39         67
    40          8
    41         35
    42         55
    43        271
    44        129
    45         81
    46         22
    47          2
    49          3
    50         70
    51        208
    52         70
    53         39
    54          4
    55         66
    56         50
    57         30
    58          4
    59          2
    60          4
    61         27
    62        653
    63         58
    64         12
    65         52
    66          7
    67         14
    68          7
    69         11
    70          7
    71          9
    72          1
    73         11
    74         23
    75         26
    76         27
    77        617
    78        226
    79        791
    80         72
    81          8
    82          4
    83          9
    84          3
    85          2
    86          4
    87          3
    88         18
    89        407
    90         30
    91        127
    92         66
    93         18
    94         10
    95          8
    96          3
    97          5
    98          4
    99          3
   101          5
   102         14
   103         98
   104         92
   105        766
   106        158
   107        999
   108         96
   109         22
   110          4
   111          2
   112          4
   113          4
   114          1
   115         59
   116         26
   117         95
   118         67
   119         15
   120         14
   121         10
   122          4
   123          6
   124          2
   125          4
   126          1
   127          2
   128          1
   129          2
   130          1
   131          6
   132         22
   133        684
   134        769
   135         84
   136         10
   137          4
   138          4
   139          3
   141          4
   142          2
   143          2
   145          2
   146          1
   147          1
   148          1
   151          6
   152        147
   153         34
   154          5
   177         10
   178          8
   179          2
   194          1
   195          8
   196          1