##TITLE=Library Entry 76403
##JCAMP-DX=Revision 4.10 
##DATA TYPE=MASS SPECTRUM
##SAMPLE DESCRIPTION=CARL DJERASSI DEPT OF CHEM STANFORD UNIV STANFORD CALIF
 94305
##NAMES=HP
##CAS NAME=2,4,22-Docosanetriol, 3,5-dimethyl-
##MOLFORM=C24H50O3
##CAS REGISTRY NO=56324-80-2
##MP= -300
##BP= -300
##MW= 386
##$RETENTION INDEX=0
##$CONDENSED SPECTRUM=NO
##NPOINTS= 189
##XYDATA=(XY..XY) 1 
    60         55
    61         12
    63         12
    65         12
    66         12
    67        234
    68        166
    69        925
    70        240
    71        290
    72        142
    73         43
    74         12
    75         18
    77         12
    79         24
    80         18
    81        321
    82        179
    83          4
    84        401
    85        629
    86         74
    87         18
    93         18
    94         12
    95        271
    96        104
    97        296
    98         49
    99         30
   101         12
   102         37
   103        999
   104         55
   105         12
   107         12
   109         43
   110         49
   111        111
   112         24
   113         49
   114         12
   120          6
   123         86
   124         18
   125         43
   126         12
   127         12
   131          1
   133          1
   134          1
   135          7
   136          3
   137         38
   138         11
   139         15
   140          4
   141          4
   143          1
   145          2
   147          1
   149          5
   150          1
   151         21
   152          6
   153          7
   154          3
   155          3
   159          8
   160          1
   163          2
   165         11
   166          4
   167          6
   168          2
   169          3
   171          1
   177          1
   179          7
   180          3
   181          5
   182          2
   183          2
   184          1
   185          2
   191          1
   193          5
   194          3
   195          3
   196          1
   197          1
   199          1
   205          1
   207          6
   208          3
   209          2
   210          1
   211          1
   213          1
   221          8
   222          4
   223          1
   224          0
   225          1
   226          0
   235          3
   236          3
   237          1
   238          1
   239          1
   240          0
   241          1
   242          0
   246          0
   247          1
   248          0
   249          1
   250          1
   251          1
   252          0
   253          1
   254          0
   255          1
   256          1
   257          0
   261          1
   262          0
   263          6
   264          4
   265          1
   266          3
   267          3
   268          1
   275          1
   276          1
   277         40
   278         11
   279          3
   280          5
   281         11
   282          3
   283          1
   284          1
   290          1
   291          1
   292          1
   293          3
   294          6
   295         37
   296          9
   297          2
   298          0
   305          1
   306          9
   307          3
   308          0
   309          0
   311          4
   312          2
   313         61
   314         13
   315          1
   321          2
   322          1
   323          3
   324         20
   325          5
   326          1
   335          1
   336          1
   337          0
   338          1
   349          1
   350          2
   351          2
   352          0
   353          3
   354          1
   355          0
   366          0
   367          1
   368          3
   369          3
   370          1
   379          0
   387          1
   388          1
   393          1