##TITLE=Library Entry 31032
##JCAMP-DX=Revision 4.10 
##DATA TYPE=MASS SPECTRUM
##SAMPLE DESCRIPTION=Exported from NIST MS Search
##NAMES=HP
##CAS NAME=8-Thiabicyclo[3.2.1]octan-3-ol, 6-methoxy-, (3-endo,6-exo)-
##MOLFORM=C8H14O2S
##CAS REGISTRY NO=56323-65-0
##MP= -300
##BP= -300
##MW= 174
##$RETENTION INDEX=0
##$CONDENSED SPECTRUM=NO
##NPOINTS= 56
##XYDATA=(XY..XY) 1 
    41        591
    42         82
    43        226
    44         34
    45        586
    46         34
    47        100
    53         37
    54        152
    55         78
    56        232
    57         39
    58        210
    59        186
    60        999
    61        121
    62         43
    69         50
    70         21
    71         56
    72         45
    73        232
    74         97
    75         60
    76         17
    77         17
    78         39
    79         56
    80         26
    81         69
    82         26
    83        115
    84         39
    85        169
    86         32
    87         73
    88        234
    89         34
    90         60
    91         32
    97        130
    98         60
    99         41
   113         52
   114         41
   115         69
   116        730
   117         39
   118         28
   141         65
   142        102
   143         26
   156         32
   174        332
   175         34
   176         15