##TITLE=Library Entry 48846
##JCAMP-DX=Revision 4.10 
##DATA TYPE=MASS SPECTRUM
##SAMPLE DESCRIPTION=CARL DJERASSI DEPT OF CHEM STANFORD UNIV STANFORD CALIF
 94305
##NAMES=HP
##CAS NAME=Bicyclo[2.2.2]octan-2-one, 5-chloro-, exo-
##MOLFORM=C8H11ClO
##CAS REGISTRY NO=56324-75-5
##MP= -300
##BP= -300
##MW= 158
##$RETENTION INDEX=0
##$CONDENSED SPECTRUM=NO
##NPOINTS= 81
##XYDATA=(XY..XY) 1 
    41        420
    42        100
    43        750
    44        300
    45        760
    46         70
    47         20
    49         30
    50         50
    51        120
    52         60
    53        310
    54        360
    55        250
    56         40
    57         50
    58         10
    60         30
    61        270
    62         20
    63        100
    64         10
    65         70
    66         70
    67        360
    68        130
    69         20
    70         20
    71         10
    73        150
    74         10
    75         90
    76         10
    77        150
    78        390
    79        999
    80        850
    81        560
    82         80
    83         10
    84         10
    86         10
    87         10
    88        140
    89        100
    90         40
    91        100
    92         40
    93        110
    94        290
    95        370
    96         60
    97         20
   101         10
   102         20
   103         10
   104         40
   105         20
   106         10
   107         10
   108         10
   109         10
   110         10
   111         10
   112         20
   113         10
   114        350
   115         40
   116        140
   117         20
   118         10
   122         80
   123        120
   124         10
   130         20
   132         10
   149         10
   158        750
   159         70
   160        240
   161         30