##TITLE=Library Entry 29474
##JCAMP-DX=Revision 4.10 
##DATA TYPE=MASS SPECTRUM
##SAMPLE DESCRIPTION=CARL DJERASSI DEPT OF CHEM STANFORD UNIV STANFORD CALIF
 94305
##NAMES=HP
##CAS NAME=2,5-Ethano-2H-azocino[4,3-b]indole-6-carboxylic acid, 4-ethyliden
e-1,3,4,5,6,7-hexahydro-6-(hydroxymethyl)-, methyl ester
##MOLFORM=C20H24N2O3
##CAS REGISTRY NO=56324-22-2
##MP= -300
##BP= -300
##MW= 340
##$RETENTION INDEX=0
##$CONDENSED SPECTRUM=NO
##NPOINTS= 196
##XYDATA=(XY..XY) 1 
    41        350
    42        250
    43        360
    44        320
    45         70
    50         20
    51         50
    52         30
    53        120
    54         40
    55        260
    56        110
    57        400
    58        999
    59        130
    60         30
    61         10
    63         20
    65         50
    66         20
    67        110
    68         50
    69        130
    70        320
    71        140
    72         20
    73         30
    74         10
    75         20
    76         30
    77        130
    78         70
    79        100
    80         60
    81        160
    82        100
    83         90
    84         70
    85         70
    87         10
    89         20
    90         20
    91         70
    92         20
    93         60
    94         80
    95         80
    96         40
    97         60
    98         10
    99         20
   101         20
   102         40
   103         50
   104         20
   105         30
   106         30
   107         40
   108        250
   109        160
   110         70
   111         40
   112         10
   113         20
   114         20
   115        120
   116         40
   117         50
   118         20
   119         10
   120         10
   121         30
   122        110
   123        130
   124         30
   125         50
   126         10
   127         80
   128         90
   129         60
   130        250
   131         60
   132         10
   138         10
   139         90
   140         80
   141         70
   142         80
   143        180
   144        110
   145         20
   146         10
   149        140
   150         10
   151         10
   152         40
   153         50
   154        310
   155        190
   156         60
   157         20
   158         20
   165         30
   166         50
   167        180
   168        130
   169        200
   170        230
   171        180
   172         50
   177         10
   178         40
   179         30
   180        130
   181        110
   182         80
   183         40
   184         10
   190         10
   191         50
   192         70
   193         90
   194        170
   195         70
   196         40
   197         20
   198        110
   199        220
   200         30
   201         60
   202         60
   203         10
   204         60
   205         60
   206        110
   207         80
   208        100
   209         40
   210         20
   211         40
   212         10
   213         50
   214        100
   215         10
   217         10
   218         50
   219         40
   222         70
   223         30
   224         20
   226         10
   227         20
   230         10
   231         90
   232         50
   233         30
   234        110
   235         60
   236         40
   237         60
   238         60
   239         50
   240         30
   241         10
   248         30
   249         60
   250         50
   251         40
   252         60
   253         40
   254         40
   263         30
   266        100
   267        150
   268         40
   277         90
   278         40
   279         10
   280         20
   281        150
   282         40
   283         20
   284         40
   295         20
   296         10
   297         10
   298         10
   309        470
   310        710
   311        140
   323         20
   325         70
   339         40
   340        990
   341        210
   342         10