##TITLE=Library Entry 50435
##JCAMP-DX=Revision 4.10 
##DATA TYPE=MASS SPECTRUM
##SAMPLE DESCRIPTION=D.HENNEBERG, MAX-PLANCK INSTITUTE, MULHEIM, WEST GERMAN
Y
##NAMES=HP
##CAS NAME=Cyclodecene, 3-bromo-
##MOLFORM=C10H17Br
##CAS REGISTRY NO=56325-56-5
##MP= -300
##BP= -300
##MW= 216
##$RETENTION INDEX=0
##$CONDENSED SPECTRUM=NO
##NPOINTS= 129
##XYDATA=(XY..XY) 1 
    25          1
    26         78
    27        258
    28         70
    29        136
    30          4
    31          0
    32          4
    33          0
    35          0
    36         11
    37          5
    38         16
    39        326
    40         55
    41        599
    42         57
    43         48
    44          6
    45          2
    46          1
    47          1
    48          3
    49          3
    50         20
    51         53
    52         38
    53        160
    54        204
    55        427
    56         28
    57         19
    58          2
    59          1
    60          1
    61          0
    62          5
    63         14
    64          6
    65         73
    66         59
    67        574
    68         98
    69        303
    70         19
    71          3
    72          0
    73          3
    74          1
    75          3
    77        103
    78         34
    79        254
    80        101
    81        999
    82        133
    83         78
    84          4
    85          0
    86          0
    87          2
    88         17
    89          3
    90          5
    91         65
    92         13
    93         98
    94         72
    95        898
    96         95
    97          7
    98          1
    99          0
   101          1
   102          2
   103          3
   104          2
   105          8
   106          2
   107         41
   108         24
   109         20
   110         13
   111          1
   112          0
   115          2
   116          1
   117          1
   118          0
   119          4
   120          0
   121         34
   122          3
   123          1
   126          0
   127          2
   128          2
   129          0
   130          0
   131          0
   132          8
   133          2
   134         10
   135          8
   136         62
   137        353
   138         60
   139          4
   140          0
   142          0
   144          0
   145          0
   146          0
   147          0
   149          2
   150          0
   152          1
   156          0
   172          2
   173          0
   174          0
   183          0
   185          0
   189          0
   194          0
   199          0
   201          0
   216          3
   218          4