##TITLE=Library Entry 2992
##JCAMP-DX=Revision 4.10 
##DATA TYPE=MASS SPECTRUM
##SAMPLE DESCRIPTION=CARL DJERASSI DEPT OF CHEM STANFORD UNIV STANFORD CALIF
 94305
##NAMES=HP
##CAS NAME=Cyclobutanone, 3-ethyl-
##MOLFORM=C6H10O
##CAS REGISTRY NO=56335-73-0
##MP= -300
##BP= -300
##MW= 98
##$RETENTION INDEX=0
##$CONDENSED SPECTRUM=NO
##NPOINTS= 24
##XYDATA=(XY..XY) 1 
    26         30
    27        222
    28        202
    29        131
    38         30
    39        292
    40         50
    41        999
    42        464
    43        252
    50         20
    51         30
    52         10
    53         40
    54         20
    55        353
    56        616
    57         20
    70        545
    71         20
    80         40
    83         30
    98        212
    99         10