##TITLE=Library Entry 5721
##JCAMP-DX=Revision 4.10 
##DATA TYPE=MASS SPECTRUM
##SAMPLE DESCRIPTION=B. F. SMITH
##NAMES=HP
##CAS NAME=Octanenitrile, 2-methylene-
##MOLFORM=C9H15N
##CAS REGISTRY NO=5633-86-3
##MP= -300
##BP= -300
##MW= 137
##$RETENTION INDEX=0
##$CONDENSED SPECTRUM=NO
##NPOINTS= 77
##XYDATA=(XY..XY) 1 
    14          8
    15         73
    16          1
    17          3
    18         12
    25          2
    26         71
    27        666
    28        176
    29        522
    30         23
    37         19
    38         43
    39        483
    40        160
    41        712
    42        320
    43        999
    44         36
    49          2
    50         21
    51         85
    52        119
    53        218
    54         83
    55        458
    56         63
    57         49
    58          2
    61          3
    62          7
    63         18
    64         33
    65         40
    66         87
    67        371
    68        440
    69         70
    70        258
    71         62
    72          3
    74          2
    75          4
    76          5
    77         22
    78         12
    79         34
    80         88
    81        167
    82         52
    83        312
    84         23
    85          1
    91         13
    92         12
    93         22
    94        259
    95        175
    96         42
    97         19
   104          1
   105          8
   106          6
   107          8
   108        130
   109         80
   110         13
   111          2
   113          3
   119          2
   120          2
   121          2
   122         80
   123          7
   136         42
   137          5
   138          2