##TITLE=Library Entry 2544
##JCAMP-DX=Revision 4.10 
##DATA TYPE=MASS SPECTRUM
##SAMPLE DESCRIPTION=CARL DJERASSI DEPT OF CHEM STANFORD UNIV STANFORD CALIF
 94305
##NAMES=HP
##CAS NAME=1-Propanone, 1-cyclopropyl-,O-methyloxime
##MOLFORM=C7H13NO
##CAS REGISTRY NO=56336-10-8
##MP= -300
##BP= -300
##MW= 127
##$RETENTION INDEX=0
##$CONDENSED SPECTRUM=NO
##NPOINTS= 46
##XYDATA=(XY..XY) 1 
    39        640
    40        200
    41        999
    42        380
    43        970
    44        440
    45         80
    51         30
    52         80
    53        130
    54        210
    55        280
    56        410
    57        100
    58        850
    59         60
    64         20
    65         40
    66        110
    67        520
    68        920
    69        270
    70         30
    71         40
    72         40
    75         10
    76         30
    77         30
    78         10
    79         60
    80        130
    81         80
    82        170
    83        160
    84         60
    86         90
    94        100
    95         30
    96        180
    97         60
    98         80
   112        930
   113         50
   126        100
   127        690
   128         40