##TITLE=Library Entry 55126
##JCAMP-DX=Revision 4.10 
##DATA TYPE=MASS SPECTRUM
##SAMPLE DESCRIPTION=CARL DJERASSI DEPT OF CHEM STANFORD UNIV STANFORD CALIF
 94305
##NAMES=HP
##CAS NAME=2,6-Decadiene-4,5-diol, 6-ethyl-
##MOLFORM=C12H22O2
##CAS REGISTRY NO=56335-76-3
##MP= -300
##BP= -300
##MW= 198
##$RETENTION INDEX=0
##$CONDENSED SPECTRUM=NO
##NPOINTS= 52
##XYDATA=(XY..XY) 1 
    39        140
    40         10
    41        500
    42         40
    43        450
    44         20
    45         40
    51         10
    53        120
    54         20
    55        560
    56         40
    57        570
    58         40
    59        120
    65         10
    67        130
    68         30
    69        460
    70         60
    71        480
    72        710
    73         70
    77         20
    79         30
    81         60
    82         10
    83        330
    84         30
    85        999
    86         60
    87         20
    91         10
    93         10
    95         30
    97         70
    98         30
    99         50
   100         10
   101         10
   109        140
   110         30
   111        110
   112         20
   125         40
   126         60
   127        700
   128        470
   129        130
   139         10
   151         20
   198         30