##TITLE=Library Entry 2857
##JCAMP-DX=Revision 4.10 
##DATA TYPE=MASS SPECTRUM
##SAMPLE DESCRIPTION=D.HENNEBERG, MAX-PLANCK INSTITUTE, MULHEIM, WEST GERMAN
Y
##NAMES=HP
##CAS NAME=Thiirane, hexyl-
##MOLFORM=C8H16S
##CAS REGISTRY NO=5633-78-3
##MP= -300
##BP= -300
##MW= 144
##$RETENTION INDEX=0
##$CONDENSED SPECTRUM=NO
##NPOINTS= 63
##XYDATA=(XY..XY) 1 
    26          7
    27        354
    28         58
    29        369
    38          3
    39        292
    40         32
    41        999
    42        189
    43        337
    44          4
    45        289
    46         77
    47        166
    50          0
    51         11
    52          0
    53         95
    54        215
    55        837
    56        129
    57         52
    58         34
    59        123
    60        188
    61         62
    62          3
    65         10
    66         15
    67        251
    68        180
    69        554
    70        133
    71         19
    72          2
    73        104
    74        565
    75         53
    76         18
    77          2
    79         12
    80          4
    81        286
    82        101
    83         21
    84          5
    85         15
    87        206
    88         18
    89         13
    95         65
    96          2
    97         70
   101         67
   102          4
   103         49
   110        128
   111         29
   112          0
   115        101
   116          0
   144        133
   145         10