##TITLE=Library Entry 54544
##JCAMP-DX=Revision 4.10 
##DATA TYPE=MASS SPECTRUM
##SAMPLE DESCRIPTION=Exported from NIST MS Search
##NAMES=HP
##CAS NAME=Propanoic acid, 2-(hydroxyimino)-, methyl ester
##MOLFORM=C4H7NO3
##CAS REGISTRY NO=5634-53-7
##MP= -300
##BP= -300
##MW= 117
##$RETENTION INDEX=0
##$CONDENSED SPECTRUM=NO
##NPOINTS= 39
##XYDATA=(XY..XY) 1 
    12          7
    13          7
    14         30
    15        587
    25         17
    26         28
    27         84
    28        199
    29        119
    30         87
    31        210
    32         17
    33          7
    38         28
    39         40
    40        119
    41         80
    42        290
    43         31
    44         19
    45         16
    50          3
    52          7
    53         16
    54         38
    55         26
    56         28
    57        196
    58        580
    59         98
    60         14
    81          7
    82          7
    85        999
    86        171
    87         21
   117        217
   118         17
   119          5