##TITLE=Library Entry 100221
##JCAMP-DX=Revision 4.10 
##DATA TYPE=MASS SPECTRUM
##SAMPLE DESCRIPTION=Japan AIST/NIMC Database- Spectrum MS-IW-1244
##NAMES=HP
##CAS NAME=1,5-Dimethyl-2-pyrrolecarbonitrile
##MOLFORM=C7H8N2
##CAS REGISTRY NO=56341-36-7
##MP= -300
##BP= -300
##MW= 120
##$RETENTION INDEX=1612
##$CONDENSED SPECTRUM=NO
##NPOINTS= 58
##XYDATA=(XY..XY) 1 
    15         17
    26          5
    27         19
    28         15
    29          1
    30          1
    37          9
    38          9
    39         27
    40          7
    41         10
    42         29
    43          1
    44          1
    45          1
    49          2
    50         11
    51         37
    52         28
    53         20
    54          6
    55          2
    56          6
    59          2
    60          7
    61          4
    62          6
    63         16
    64         24
    65         62
    66         17
    67         21
    68          3
    75          3
    76          8
    77          7
    78         61
    79          9
    80          2
    87          1
    88          2
    89          1
    90          6
    91         14
    92         99
    93         15
    94         12
    95          1
   103         18
   104          2
   105         14
   106          1
   117          7
   118         25
   119        999
   120        606
   121         52
   122          2