##TITLE=Library Entry 57474
##JCAMP-DX=Revision 4.10 
##DATA TYPE=MASS SPECTRUM
##SAMPLE DESCRIPTION=Institute of Organic Chemistry, Novosibirsk, USSR 1988
##NAMES=HP
##CAS NAME=Methyl 4,6-di-O-acetyl-2-deoxy-3-O-methyl-2-(N-methylacetamido)-.
alpha.-D-glucopyranoside
##MOLFORM=C15H25NO8
##CAS REGISTRY NO=56341-51-6
##MP= -300
##BP= -300
##MW= 347
##$RETENTION INDEX=2109
##$CONDENSED SPECTRUM=NO
##NPOINTS= 86
##XYDATA=(XY..XY) 1 
    43        599
    44         39
    45         19
    58          4
    59         29
    60          3
    69         89
    70         69
    71        119
    72        199
    73        239
    75        399
    80         11
    81         24
    82         51
    83         49
    84         79
    86         89
    87        999
    88         34
    94        129
    96         83
    97         83
    98        689
    99        159
   100        159
   101        189
   112        249
   115        529
   122         43
   124         87
   126        179
   128        299
   129        759
   130        209
   138         34
   139         34
   140        139
   141        159
   142        339
   143         47
   144         30
   152         56
   153         39
   154        169
   155         35
   156         35
   157         70
   158         26
   168         79
   169         52
   170        145
   171         61
   172         75
   182        109
   183         17
   184         19
   185         26
   186         26
   195         21
   196         23
   197          7
   198         16
   199          9
   200         14
   214         96
   215         20
   224         25
   225          3
   227         19
   228         17
   242         79
   243         10
   244          5
   245         43
   255         43
   256         48
   274         75
   275         19
   284         35
   285          4
   287         10
   288         10
   316         14
   347          7
   348          5