##TITLE=Library Entry 57389
##JCAMP-DX=Revision 4.10 
##DATA TYPE=MASS SPECTRUM
##SAMPLE DESCRIPTION=Institute of Organic Chemistry, Novosibirsk, USSR 1988
##NAMES=HP
##CAS NAME=Methyl 4-O-acetyl-2-deoxy-3,6-di-O-methyl-2-(N-methylacetamido)-.
alpha.-d-glucopyranoside
##MOLFORM=C14H25NO7
##CAS REGISTRY NO=56341-49-2
##MP= -300
##BP= -300
##MW= 319
##$RETENTION INDEX=0
##$CONDENSED SPECTRUM=NO
##NPOINTS= 52
##XYDATA=(XY..XY) 1 
    45        599
    56        179
    72        249
    75        699
    87        999
    88         19
    98        599
    99        199
   110         24
   111         39
   112         99
   116          9
   117         29
   118         19
   123         19
   124         69
   125         69
   126         99
   128        199
   129        499
   130        109
   141        199
   142         59
   143         49
   144         59
   151         19
   154        149
   155         19
   156         39
   168         29
   170        149
   171         17
   172         36
   182         29
   184         21
   185         45
   186         69
   187          9
   196         21
   199          9
   200         12
   214         29
   215         13
   216          5
   227         59
   228         99
   245         69
   246         22
   256        109
   274         13
   277         64
   288          9