##TITLE=Library Entry 29435
##JCAMP-DX=Revision 4.10 
##DATA TYPE=MASS SPECTRUM
##SAMPLE DESCRIPTION=H. Fales, LC, NHLBI, NIH, Bethesda, MD 20892
##NAMES=HP
##CAS NAME=Dimetindene
##MOLFORM=C20H24N2
##CAS REGISTRY NO=5636-83-9
##MP= -300
##BP= -300
##MW= 292
##$RETENTION INDEX=2272
##$CONDENSED SPECTRUM=NO
##NPOINTS= 127
##XYDATA=(XY..XY) 1 
    42         61
    43         16
    44         13
    45         16
    46          2
    50          1
    51          6
    52          5
    53          5
    54          3
    55          6
    56         10
    57         15
    58        999
    59         41
    60          0
    63          1
    65          2
    70          2
    71          6
    72         13
    73          0
    74          0
    75          0
    76          0
    77          4
    78         13
    79          8
    80          3
    82          0
    84          0
    86          5
    87          0
    88          0
    89          2
    90          0
    91          2
    92          2
    93          4
    94          0
    97          0
    98          0
    99          2
   100          0
   101          0
   102          3
   103          0
   104          2
   105          0
   106         16
   107          8
   109          2
   113          0
   114          0
   115         16
   116          3
   117          2
   118          0
   126          2
   127          6
   128         12
   129          5
   130          1
   131          0
   138          0
   139          5
   140          1
   141         16
   142          4
   143          0
   145          0
   150          1
   151          3
   152          9
   153          7
   154          3
   155          2
   156          0
   163          1
   164          0
   165          3
   166          1
   167          2
   168          1
   170          1
   176          2
   177          0
   178          1
   180          1
   182          1
   184          2
   185          3
   187          0
   189          3
   190          1
   191          1
   192          1
   193          0
   202          2
   203          2
   204         12
   205          4
   206          3
   207          0
   214          1
   215          2
   216          7
   217         27
   218         41
   219          8
   220          5
   221          2
   228          1
   229          0
   230          5
   231          3
   232          8
   233          1
   234          9
   235          2
   246          1
   247          1
   248          1
   291          0
   292         76
   293         18
   294          2