##TITLE=Library Entry 9472
##JCAMP-DX=Revision 4.10 
##DATA TYPE=MASS SPECTRUM
##SAMPLE DESCRIPTION=CARL DJERASSI DEPT OF CHEM STANFORD UNIV STANFORD CALIF
 94305
##NAMES=HP
##CAS NAME=Ergost-9(11)-ene-3,6,20-triol, 3,6-diacetate, (3.beta.,5.alpha.,6
.alpha.,20R)-
##MOLFORM=C32H52O5
##CAS REGISTRY NO=56362-38-0
##MP= -300
##BP= -300
##MW= 516
##$RETENTION INDEX=0
##$CONDENSED SPECTRUM=NO
##NPOINTS= 142
##XYDATA=(XY..XY) 1 
    40        141
    41        404
    42         50
    43        999
    44        636
    55        535
    56         70
    57        373
    58        101
    67        272
    68        101
    69        565
    70        111
    71        333
    77         70
    79        212
    80         20
    81        686
    82        202
    83        424
    84        111
    85        111
    91        252
    92         20
    93        383
    94         90
    95        373
    96        191
    97        131
   105        343
   106         60
   107        252
   108         90
   109        393
   110         40
   117         70
   118         50
   119        252
   120         70
   121        424
   122        202
   123        101
   124         20
   125        141
   128         20
   129        111
   130         40
   131        282
   132         70
   133        111
   134         10
   135         60
   141         70
   142         40
   143        333
   144        101
   145        252
   146         70
   147         60
   148         70
   149         80
   152         80
   155        121
   156         60
   157        232
   158         80
   159        131
   160         30
   167         50
   168         20
   169        171
   170         40
   171        121
   172         50
   173        111
   174         10
   181        101
   182         20
   183        131
   184         40
   185         80
   195        252
   196         60
   197        161
   198         40
   199         60
   206         40
   209        171
   210        171
   211        464
   212        141
   213        161
   223         80
   224         30
   225        131
   226        101
   227        171
   228         20
   237         40
   238         40
   239        141
   240         20
   251        121
   252         40
   253         80
   254        272
   255         90
   270         80
   271         60
   272         80
   279        222
   280         50
   285        161
   286         50
   294        141
   295         40
   297        252
   298        121
   299         20
   311         90
   312         30
   314        161
   315         30
   329         30
   339         70
   340         20
   354        161
   355         40
   357         20
   363        383
   364        121
   365         30
   371         60
   378        404
   379        121
   380         30
   417        252
   418         60
   438        141
   439         40
   498        121
   499         40