##TITLE=Library Entry 55052
##JCAMP-DX=Revision 4.10 
##DATA TYPE=MASS SPECTRUM
##SAMPLE DESCRIPTION=V.Zaikin,Topchiev Inst.Petrochem.Synth.,Moscow
##NAMES=HP
##CAS NAME=Ethenyl(octyl)dimethylsilane
##MOLFORM=C12H26Si
##CAS REGISTRY NO=56361-40-1
##MP= -300
##BP= -300
##MW= 198
##$RETENTION INDEX=0
##$CONDENSED SPECTRUM=NO
##NPOINTS= 94
##XYDATA=(XY..XY) 1 
    26          8
    27         54
    28         25
    29         69
    31         17
    38          4
    39         48
    40         10
    41         96
    42         42
    43        131
    44         22
    45         60
    46          4
    47          4
    51          5
    53         17
    54         12
    55         65
    56         25
    57         32
    58         50
    59        375
    60         28
    61         18
    63          2
    65          3
    66          5
    67         13
    68          4
    69         29
    70         27
    71        226
    72         34
    73         62
    74          4
    75          7
    77          4
    79          4
    81          4
    82          2
    83         20
    84         14
    85        999
    86        113
    87         91
    88          6
    89          4
    91          2
    93          4
    95          8
    96          4
    97         22
    98          5
    99         50
   100          7
   101          7
   103          2
   109          5
   111         20
   112          6
   113         41
   114         10
   115          9
   117          2
   123          2
   125          4
   127         85
   128         13
   129          6
   133          3
   137          4
   138          2
   139          6
   141         34
   142         21
   143          7
   145          4
   155          9
   156          5
   157          4
   159          8
   161          2
   169          3
   170         36
   171         46
   172          9
   173          2
   183        118
   184         22
   185          9
   186          2
   198         12
   199          3