##TITLE=Library Entry 35741
##JCAMP-DX=Revision 4.10 
##DATA TYPE=MASS SPECTRUM
##SAMPLE DESCRIPTION=CARL DJERASSI DEPT OF CHEM STANFORD UNIV STANFORD CALIF
 94305
##NAMES=HP
##CAS NAME=Cholestane-3,6,20-triol, (3.beta.,5.alpha.,6.alpha.,20R)-
##MOLFORM=C27H48O3
##CAS REGISTRY NO=56362-86-8
##MP= -300
##BP= -300
##MW= 420
##$RETENTION INDEX=0
##$CONDENSED SPECTRUM=NO
##NPOINTS= 160
##XYDATA=(XY..XY) 1 
    41        356
    42         39
    43        504
    44         19
    45         89
    53         59
    54         19
    55        762
    56         69
    57        227
    67        277
    68        148
    69        999
    70         99
    71        277
    72         19
    73        138
    77         49
    78          9
    79        217
    80         59
    81        485
    82        237
    83        168
    84         29
    85        108
    91        188
    92         39
    93        297
    94        623
    95        900
    96        118
    97        128
   105        198
   106         69
   107        336
   108        128
   109        267
   110         69
   111        277
   112         29
   117         49
   118         29
   119        158
   120         99
   121        257
   122         59
   123        168
   124         39
   125         29
   128         29
   129        544
   130         49
   131         89
   132         39
   133        227
   134         79
   135        227
   136         49
   137         49
   138        128
   139         19
   141         39
   142         19
   143         29
   144         19
   145        128
   146         39
   147        188
   148         99
   149        128
   150         29
   151         59
   152         79
   157         59
   158         29
   159        188
   160         49
   161        108
   162         39
   163         49
   164         19
   171         19
   172          9
   173         49
   174         19
   175         89
   176         29
   177         19
   178          9
   179          9
   185         39
   186          9
   187         39
   188          9
   189         39
   190          9
   191         29
   199         39
   200          9
   201         29
   202         19
   203         19
   210         19
   211         19
   213         49
   214         19
   215         49
   216         39
   217         39
   218          9
   219         19
   227         39
   228         19
   229         69
   230         29
   231         59
   232         19
   233         19
   241        128
   242          9
   243         19
   245         59
   246         19
   247         79
   248          9
   253         59
   254          9
   255         49
   256        237
   257         79
   258         39
   259        158
   260         19
   271        633
   272        138
   273        168
   274        297
   275         49
   276         49
   281         59
   289         59
   290         19
   291         39
   292         49
   299        415
   300        108
   318         89
   334        356
   335        900
   336        198
   351         19
   369         69
   370         19
   384        148
   385         49
   386         49
   387          9
   402        316
   403         89