##TITLE=Library Entry 9500
##JCAMP-DX=Revision 4.10 
##DATA TYPE=MASS SPECTRUM
##SAMPLE DESCRIPTION=CARL DJERASSI DEPT OF CHEM STANFORD UNIV STANFORD CALIF
 94305
##NAMES=HP
##CAS NAME=Ethanone, 1-(octahydro-1H-inden-1-yl)-, (1.alpha.,3a.beta.,7a.alp
ha.)-
##MOLFORM=C11H18O
##CAS REGISTRY NO=56362-33-5
##MP= -300
##BP= -300
##MW= 166
##$RETENTION INDEX=0
##$CONDENSED SPECTRUM=NO
##NPOINTS= 64
##XYDATA=(XY..XY) 1 
    40         60
    41        150
    42         60
    43        999
    44         70
    45         30
    50         20
    51         60
    52         30
    53        190
    54        120
    55        300
    56         20
    57         30
    58         10
    59         10
    63         20
    65         80
    66         50
    67        490
    68         90
    69        120
    70         20
    71        790
    72         40
    73         10
    77        110
    78         30
    79        270
    80        110
    81        860
    82         70
    83         20
    84         50
    85         30
    91         70
    92         40
    93        130
    94         50
    95        130
    96        390
    97         50
    98         10
   105         30
   106         30
   107         20
   108        690
   109         80
   110         10
   111         10
   119         40
   120         10
   121         60
   122         20
   123        140
   124         20
   133         40
   137         10
   138         10
   148        300
   149         30
   151         40
   166         50
   167         20