##TITLE=Library Entry 1279
##JCAMP-DX=Revision 4.10 
##DATA TYPE=MASS SPECTRUM
##SAMPLE DESCRIPTION=NIST Mass Spectrometry Data Center, 1994
##NAMES=HP
##CAS NAME=4-Ethoxyphenethylamine
##MOLFORM=C10H15NO
##CAS REGISTRY NO=56370-30-0
##MP= -300
##BP= -300
##MW= 165
##$RETENTION INDEX=0
##$CONDENSED SPECTRUM=NO
##NPOINTS= 70
##XYDATA=(XY..XY) 1 
    14          2
    15          7
    18          4
    26         15
    27         99
    28         83
    29         87
    30        999
    31         15
    32          3
    37          1
    38          7
    39         57
    40          8
    41         12
    42         13
    43         14
    50         24
    51         63
    52         43
    53         36
    54          6
    55         14
    56          2
    58          2
    61          2
    62         12
    63         33
    64         14
    65         39
    66          7
    67          5
    68          2
    74          4
    75          4
    77        180
    78         71
    79         45
    80         25
    81          8
    89         38
    90         33
    91         51
    92          7
    93          5
    94          5
   103          2
   104          3
   105          6
   106          2
   107        619
   108        335
   109         25
   110          1
   117          3
   118          3
   119          5
   120          8
   121          4
   133          2
   134          9
   135         96
   136        506
   137         49
   138          3
   148          2
   163          2
   164          2
   165         34
   166          4