##TITLE=Library Entry 6390
##JCAMP-DX=Revision 4.10 
##DATA TYPE=MASS SPECTRUM
##SAMPLE DESCRIPTION=Chemical Concepts
##NAMES=HP
##CAS NAME=Isopropyl phosphorodichloridate
##MOLFORM=C3H7Cl2O2P
##CAS REGISTRY NO=56376-11-5
##MP= -300
##BP= -300
##MW= 176
##$RETENTION INDEX=0
##$CONDENSED SPECTRUM=NO
##NPOINTS= 81
##XYDATA=(XY..XY) 1 
    26         64
    27        256
    29         41
    30          1
    31          7
    35         29
    36         20
    37         44
    38         66
    39        375
    40         85
    41        637
    42        614
    43        999
    44         40
    45          3
    46          0
    47        260
    48          6
    49          3
    50          1
    51          1
    53          1
    55          2
    56          0
    57          1
    58          8
    59         70
    60          3
    62          1
    63         61
    64          3
    65         15
    66         15
    68          5
    73          0
    78          0
    79          0
    82         23
    83         10
    84          6
    85          5
    89          0
    91          4
    94          0
    97          1
    98         43
    99         99
   100         13
   101         42
   103          3
   105          0
   113          1
   115          1
   117        106
   118         11
   119         68
   120          6
   121         13
   122          1
   125          1
   126          0
   127          0
   131          1
   132          0
   133          2
   134          6
   135        631
   136          4
   137        414
   138          1
   139         67
   141         11
   143          3
   147          0
   161        249
   162          5
   163        177
   164          3
   165         24
   166          0