##TITLE=Library Entry 73510
##JCAMP-DX=Revision 4.10 
##DATA TYPE=MASS SPECTRUM
##SAMPLE DESCRIPTION=Japan AIST/NIMC Database- Spectrum MS-NW-8620
##NAMES=HP
##CAS NAME=tri-n-Butylmethylammonium chloride
##MOLFORM=C13H30ClN
##CAS REGISTRY NO=56375-79-2
##MP= -300
##BP= -300
##MW= 235
##$RETENTION INDEX=0
##$CONDENSED SPECTRUM=NO
##NPOINTS= 86
##XYDATA=(XY..XY) 1 
    14          2
    15         28
    24          1
    26          8
    27         82
    28         47
    29        190
    30         70
    31          1
    35          2
    36          9
    37          1
    38          4
    39         38
    40          8
    41        261
    42        109
    43        128
    44        291
    45          8
    47          6
    48          3
    49         15
    50        123
    51          7
    52         39
    53          8
    54          6
    55         54
    56        270
    57        132
    58        351
    59         12
    61          1
    62          3
    63         10
    64          1
    65          3
    67          2
    68          4
    69          3
    70         22
    71          7
    72         13
    73          1
    75          1
    77          1
    80          1
    81          1
    82          4
    83          1
    84         30
    85          3
    86         41
    87          3
    88          1
    92          1
    94          1
    96          2
    97          1
    98         41
    99          4
   100        999
   101         71
   102          2
   112          4
   114          7
   115          1
   126          3
   128         11
   129          2
   140          9
   141          2
   142        958
   143        176
   144         14
   156          5
   157          1
   168          2
   170          1
   183          1
   184          9
   185         69
   186         10
   200          9
   201          1