##TITLE=Library Entry 65134
##JCAMP-DX=Revision 4.10 
##DATA TYPE=MASS SPECTRUM
##SAMPLE DESCRIPTION=Exported from NIST MS Search
##NAMES=HP
##CAS NAME=Benzene, (3-octylundecyl)-
##MOLFORM=C25H44
##CAS REGISTRY NO=5637-96-7
##MP= -300
##BP= -300
##MW= 344
##$RETENTION INDEX=0
##$CONDENSED SPECTRUM=NO
##NPOINTS= 250
##XYDATA=(XY..XY) 1 
    37          1
    38          2
    39         31
    40          6
    41        194
    42         30
    43        296
    44         10
    45          1
    46          1
    47          1
    48          1
    49          1
    50          2
    51          6
    52          3
    53         12
    54         12
    55        129
    56         39
    57        194
    58          9
    59          1
    60          1
    61          1
    62          1
    63          3
    64          1
    65         18
    66          3
    67         18
    68         11
    69         60
    70         19
    71        102
    72          6
    73          1
    74          1
    75          1
    76          1
    77         12
    78          9
    79         14
    80          2
    81         11
    82          6
    83         42
    84          8
    85         65
    86          5
    87          1
    88          1
    89          3
    90          4
    91        483
    92        999
    93         83
    94          4
    95          6
    96          6
    97         27
    98          6
    99         14
   100          1
   101          1
   102          1
   103          7
   104         61
   105         68
   106          9
   107          1
   108          1
   109          2
   110          2
   111         11
   112          3
   113          9
   114          1
   115          5
   116          2
   117         19
   118          4
   119         10
   120          3
   121          1
   122          1
   123          1
   124          1
   125          4
   126          2
   127          7
   128          3
   129          3
   130          2
   131          8
   132          2
   133          6
   134          1
   135          1
   136          1
   137          1
   138          2
   139          6
   140          2
   141          5
   142          1
   143          1
   144          1
   145          2
   146          7
   147          4
   148          1
   149          1
   150          1
   151          1
   152          2
   153          2
   154          7
   155          6
   156          1
   157          1
   158          1
   159          1
   160          1
   161          2
   162          1
   163          1
   164          1
   165          1
   166          1
   167          1
   168          1
   169          4
   170          1
   171          1
   172          1
   173          1
   174          1
   175          1
   176          1
   177          1
   178          1
   179          1
   180          1
   181          1
   182          1
   183          3
   184          1
   185          1
   187          1
   188          1
   189          1
   190          1
   191          1
   192          1
   193          1
   194          1
   195          1
   196          1
   197          2
   198          1
   199          1
   200          1
   201          1
   202          1
   203          1
   204          1
   205          1
   206          1
   207          1
   208          1
   209          1
   210          1
   211          1
   212          1
   213          1
   214          1
   215          1
   216          1
   217          1
   218          1
   219          1
   220          1
   221          1
   222          1
   223          1
   224          1
   225          1
   226          1
   227          1
   228          1
   229          3
   230          1
   231          3
   232          1
   233          1
   234          1
   235          1
   236          2
   237          3
   238          2
   239          1
   240          1
   241          1
   242          1
   243          1
   244          2
   245          3
   246          1
   247          1
   248          1
   249          1
   250          1
   251          1
   252          6
   253         25
   254          5
   255          1
   256          1
   257          1
   258          1
   259          1
   260          1
   261          1
   262          1
   263          1
   264          1
   265          1
   266          1
   267          1
   268          1
   269          1
   270          1
   271          1
   272          1
   273          1
   274          1
   289          1
   290          1
   291          1
   292          1
   340          1
   341          1
   342          1
   343          1
   344         21
   345          6
   346          1
   347          1
   348          1