##TITLE=Library Entry 58080
##JCAMP-DX=Revision 4.10 
##DATA TYPE=MASS SPECTRUM
##SAMPLE DESCRIPTION=J.G.VOGEL UTAH STATE UNIVERSITY, LOGAN, UTAH, USA
##NAMES=HP
##CAS NAME=Beryllium, hexakis[.mu.-(benzeneacetato-O:O')]-.mu.4-oxotetra-
##MOLFORM=C48H42Be4O13
##CAS REGISTRY NO=56377-80-1
##MP= -300
##BP= -300
##MW= 862
##$RETENTION INDEX=0
##$CONDENSED SPECTRUM=NO
##NPOINTS= 39
##XYDATA=(XY..XY) 1 
    38         85
    41        161
    43        292
    46        151
    50        252
    52        282
    56         65
    57         15
    60         65
    62        222
    65        459
    67        222
    70        176
    85        858
    88        999
    90        595
   119        909
   140         50
   274         40
   275         10
   278         10
   295         50
   330         20
   339         10
   341         10
   352         70
   372         18
   374         24
   418         25
   437         15
   440         12
   447        171
   473        116
   638         20
   652         15
   695         40
   708         20
   713         28
   728        505