##TITLE=Library Entry 65857
##JCAMP-DX=Revision 4.10 
##DATA TYPE=MASS SPECTRUM
##SAMPLE DESCRIPTION=Japan AIST/NIMC Database- Spectrum MS-IW- 198
##NAMES=HP
##CAS NAME=Betahistine
##MOLFORM=C8H12N2
##CAS REGISTRY NO=5638-76-6
##MP= -300
##BP= -300
##MW= 136
##$RETENTION INDEX=1235
##$CONDENSED SPECTRUM=NO
##NPOINTS= 53
##XYDATA=(XY..XY) 1 
    15          7
    26          2
    27         10
    28          6
    29          1
    30          7
    39         20
    40          5
    41          7
    42         31
    43          9
    44        423
    45         10
    50          7
    51         22
    52         17
    53         10
    54          4
    56          4
    57          9
    58          6
    62          1
    63          4
    64          3
    65         25
    66         43
    67         13
    68          2
    76          1
    77          8
    78         35
    79         29
    80         19
    81          1
    91          2
    92         27
    93        999
    94        139
    95          7
   104          9
   105          6
   106         98
   107         22
   108          2
   118          2
   119          7
   120          1
   121         33
   122          3
   133          1
   135         12
   136         20
   137         10