##TITLE=Library Entry 7670
##JCAMP-DX=Revision 4.10 
##DATA TYPE=MASS SPECTRUM
##SAMPLE DESCRIPTION=Exported from NIST MS Search
##NAMES=HP
##CAS NAME=Cyclopentane, (4-octyldodecyl)-
##MOLFORM=C25H50
##CAS REGISTRY NO=5638-09-5
##MP= -300
##BP= -300
##MW= 350
##$RETENTION INDEX=0
##$CONDENSED SPECTRUM=NO
##NPOINTS= 157
##XYDATA=(XY..XY) 1 
    36          1
    37          2
    38          4
    39        102
    40         26
    41        841
    42        163
    43        999
    44         34
    45          1
    49          1
    50          2
    51          4
    52          4
    53         47
    54         85
    55        724
    56        188
    57        843
    58         36
    59          1
    62          1
    63          1
    65          8
    66         21
    67        216
    68        111
    69        631
    70        117
    71        483
    72         27
    73          1
    76          1
    77          7
    78          2
    79         19
    80         10
    81         87
    82        206
    83        639
    84         80
    85        339
    86         21
    87          1
    91          4
    92          1
    93          5
    94          8
    95         84
    96         51
    97        502
    98         60
    99         86
   100          6
   101          1
   103          1
   104          1
   105          1
   106          1
   107          1
   108          2
   109         25
   110         24
   111        254
   112         38
   113         51
   114          5
   115          1
   117          1
   119          1
   120          1
   121          1
   122          5
   123         23
   124         22
   125        128
   126         22
   127         35
   128          3
   129          1
   135          1
   136          3
   137         21
   138         17
   139         70
   140         16
   141         30
   142          3
   143          1
   149          1
   150          1
   151          3
   152          6
   153         43
   154         19
   155         32
   156          3
   165          1
   166          4
   167         29
   168          9
   169         16
   170          2
   171          1
   179          5
   180          8
   181         21
   182          5
   183         11
   184          1
   193          2
   194          6
   195         10
   196          4
   197          6
   198          1
   207          1
   208         13
   209          6
   210          7
   211          2
   212          1
   221          1
   222          9
   223          7
   224          6
   225          4
   226          1
   233          1
   234          1
   235          2
   236        307
   237        233
   238        184
   239        139
   240         22
   241          2
   250          8
   251          6
   252          6
   253          4
   254          1
   264          3
   265          3
   266          2
   267          1
   268          1
   278          1
   279          1
   280          1
   281          1
   282          1
   292          1
   293          1
   294          1
   306          1
   307          1