##TITLE=Library Entry 57493
##JCAMP-DX=Revision 4.10 
##DATA TYPE=MASS SPECTRUM
##SAMPLE DESCRIPTION=Institute of Organic Chemistry, Novosibirsk, USSR 1988
##NAMES=HP
##CAS NAME=Methyl 6-O-acetyl-2-deoxy-3,4-di-O-methyl-2-(N-methylacetamido)-D
-glucopyranoside
##MOLFORM=C14H25NO7
##CAS REGISTRY NO=56389-84-5
##MP= -300
##BP= -300
##MW= 319
##$RETENTION INDEX=0
##$CONDENSED SPECTRUM=NO
##NPOINTS= 81
##XYDATA=(XY..XY) 1 
    41         24
    42        149
    43        549
    44         49
    45        129
    53         16
    55         36
    56        129
    57         29
    58         29
    59         49
    68         36
    69         54
    70         54
    71        124
    72        211
    73         86
    74         49
    75        149
    82         14
    83         14
    84         24
    85         36
    86         49
    87        999
    88        239
    94         36
    95         19
    96         19
    97         16
    98        249
    99         49
   100        209
   110         16
   111         19
   112        199
   113         11
   114         16
   115         61
   116         29
   117         74
   122         16
   124         19
   126         54
   128         49
   129        599
   130        189
   131         24
   140         16
   141         14
   142        749
   143         49
   152         14
   154         56
   155         16
   156         11
   157         14
   158          9
   168         11
   170          4
   172         16
   182         24
   183         11
   184          6
   186         16
   188         16
   195         11
   196          9
   200          9
   214         16
   217         31
   224          4
   227         11
   228          4
   246         36
   247          4
   256         49
   257          9
   288          4
   319          1
   320          1