##TITLE=Library Entry 57494
##JCAMP-DX=Revision 4.10 
##DATA TYPE=MASS SPECTRUM
##SAMPLE DESCRIPTION=Institute of Organic Chemistry, Novosibirsk, USSR 1988
##NAMES=HP
##CAS NAME=Methyl 2-deoxy-3,4,6-tri-O-methyl-2-(N-methylacetamido)-.alpha.-D
-glucopyranoside
##MOLFORM=C13H25NO6
##CAS REGISTRY NO=56389-85-6
##MP= -300
##BP= -300
##MW= 291
##$RETENTION INDEX=0
##$CONDENSED SPECTRUM=NO
##NPOINTS= 81
##XYDATA=(XY..XY) 1 
    45        419
    53         29
    54         14
    55         39
    56        199
    57         29
    58         22
    59         69
    68         49
    69         17
    70         39
    71        179
    72        309
    73         39
    74         39
    75        239
    76         17
    82         17
    83         14
    84         17
    85         39
    86         59
    87        999
    88        379
    89         29
    94         19
    95         12
    96         11
    97         11
    98        299
    99         39
   100        199
   101        174
   102         89
   110          6
   111         11
   112         17
   113         12
   114         12
   115         16
   116         18
   117        129
   126         59
   127         17
   128         19
   129        479
   130         59
   141          5
   142        559
   143         49
   152          7
   154         29
   155         15
   156         11
   157         21
   158         14
   168          7
   172         14
   173          4
   174          2
   182         14
   183          1
   184          4
   185          1
   186         24
   187          1
   188         12
   196          3
   199         11
   200          3
   214          5
   216          0
   217         39
   218         17
   228         39
   229          4
   244          0
   259          0
   260          3
   291          1
   292          0