##TITLE=Library Entry 29372
##JCAMP-DX=Revision 4.10 
##DATA TYPE=MASS SPECTRUM
##SAMPLE DESCRIPTION=Div. of Experiment Therapeutics WRAIR, WRAMC, Washingto
n DC 20307
##NAMES=HP
##CAS NAME=Quinoxaline, 5,8-dimethoxy-6-((2-(dimethylamino)ethyl)amino)-2,3-
dimethyl-
##MOLFORM=C16H24N4O2
##CAS REGISTRY NO=56393-41-0
##MP= -300
##BP= -300
##MW= 304
##$RETENTION INDEX=0
##$CONDENSED SPECTRUM=NO
##NPOINTS= 135
##XYDATA=(XY..XY) 1 
    42         88
    43         20
    44         19
    45          3
    47          1
    49          4
    50         11
    51          7
    53         44
    54          9
    56         19
    58        999
    59         28
    61          0
    62          0
    63          7
    64          5
    65          5
    66          5
    67          4
    68          6
    69          2
    70          5
    71          8
    72          7
    74          3
    75          1
    76          4
    77          7
    78          6
    79          5
    80          6
    81          1
    82          5
    84          3
    85          3
    86          1
    87          1
    88          1
    89          1
    90          7
    91          5
    92          4
    93          3
    94          2
    95          0
    98          0
   100          0
   101          0
   102          1
   103          1
   104          3
   105          3
   106          3
   107          5
   108          2
   109          1
   114          0
   115          0
   116          2
   117          2
   118          2
   119          2
   120          1
   121          0
   122          1
   129          1
   130          0
   131          5
   132          6
   133          5
   134          2
   135          1
   143          2
   144          1
   145          2
   146          1
   147          1
   148          0
   156          0
   157          2
   158          2
   159          2
   160          4
   161          4
   162          1
   171          1
   172          1
   174          6
   175          6
   176          1
   184          1
   185          1
   186          1
   187          9
   189         24
   190          3
   198          1
   200          1
   201          6
   202          6
   204         31
   205          4
   212          0
   214          5
   216         28
   217          8
   218         12
   219          1
   226          1
   228          6
   231         49
   232          5
   233          1
   242          0
   245         23
   246        165
   247         15
   248          1
   257          0
   259          2
   260          1
   271          5
   272          1
   273          6
   274          0
   280          1
   287          7
   288          1
   289          1
   302          1
   303         10
   304        124
   305         21
   306          2