##TITLE=Library Entry 48761
##JCAMP-DX=Revision 4.10 
##DATA TYPE=MASS SPECTRUM
##SAMPLE DESCRIPTION=D.HENNEBERG, MAX-PLANCK INSTITUTE, MULHEIM, WEST GERMAN
Y
##NAMES=HP
##CAS NAME=2-Nonen-4-yne, (E)-
##MOLFORM=C9H14
##CAS REGISTRY NO=56392-49-5
##MP= -300
##BP= -300
##MW= 122
##$RETENTION INDEX=0
##$CONDENSED SPECTRUM=NO
##NPOINTS= 92
##XYDATA=(XY..XY) 1 
    23          1
    24          0
    25          1
    26         15
    27        256
    28         23
    29        139
    30          4
    31          1
    32          3
    33          2
    34          4
    35          2
    36          0
    37         10
    38         23
    39        293
    40         60
    41        279
    42         23
    43         99
    44          7
    45          2
    46          1
    47          1
    48          2
    49          6
    50         67
    51        190
    52        106
    53        154
    54         21
    55         57
    56         11
    57          3
    58          5
    59          2
    60          0
    61          7
    62         19
    63         63
    64         21
    65        142
    66        190
    67         87
    68         24
    69          5
    70          2
    71          6
    72          1
    73          3
    74         13
    75         47
    76         14
    77        804
    78        152
    79        999
    80        162
    81        106
    82          8
    85          1
    86          2
    87          3
    88          1
    89         15
    90          6
    91        369
    92         55
    93        365
    94         53
    95          7
    96          0
    98          0
   101          0
   102          2
   103         12
   104          3
   105         62
   106          9
   107        349
   108         31
   109          1
   115          7
   116          2
   117          5
   118          2
   119          3
   120          9
   121         15
   122        259
   123         27
   124          1