##TITLE=Library Entry 28110
##JCAMP-DX=Revision 4.10 
##DATA TYPE=MASS SPECTRUM
##SAMPLE DESCRIPTION=Div. of Experiment Therapeutics WRAIR, WRAMC, Washingto
n DC 20307
##NAMES=HP
##CAS NAME=2,3-Dimethyl-5,8-dimethoxy-6-[N-trifluoroacetyl-N-[.gamma.-dimeth
ylamino-n-propyl]amino]quinoxaline
##MOLFORM=C19H25F3N4O3
##CAS REGISTRY NO=56393-64-7
##MP= -300
##BP= -300
##MW= 414
##$RETENTION INDEX=0
##$CONDENSED SPECTRUM=NO
##NPOINTS= 197
##XYDATA=(XY..XY) 1 
    42         94
    43          8
    44         93
    45        158
    47          3
    50         16
    51         69
    53         33
    54          8
    55          5
    56          9
    58        999
    59         34
    60         13
    61         11
    63          5
    64          3
    65          4
    66          5
    67          5
    69        115
    70         28
    72         65
    73          2
    74          1
    75          2
    76          0
    77          9
    78          7
    79          5
    80          7
    81          1
    82          4
    84         47
    85         45
    86         15
    87          1
    88          2
    89          2
    90          3
    91          5
    92          3
    93          2
    94          4
    95          6
    97          8
    99          3
   100          1
   102          1
   103          2
   104          4
   105          4
   106          2
   107          7
   108          5
   109          1
   110          0
   114          5
   115          1
   116          2
   117          3
   118          2
   119          2
   120          1
   121          1
   122          2
   123          2
   127          0
   129          1
   130          1
   131          4
   132          7
   133          5
   134          2
   135          1
   137          0
   139          1
   142          0
   143          2
   144          1
   145          2
   146          2
   147          1
   148          1
   149          0
   157          2
   158          3
   159          4
   160          5
   161          3
   162          2
   164          0
   170          1
   171          2
   172          1
   173          1
   174          3
   175          4
   176          0
   177          3
   179          0
   180          0
   184          1
   185          1
   186          4
   187          5
   188          5
   189         11
   190          4
   191          2
   194          0
   196          3
   198          1
   199          1
   200          2
   201          2
   202          4
   203         29
   204         14
   205          9
   212          1
   213          2
   214          5
   215          9
   216         17
   217          4
   218         30
   219          6
   220          3
   225          1
   226          8
   227          3
   228          5
   229          4
   230         18
   231         10
   232         24
   233         32
   234          4
   239          1
   240          4
   241          4
   242         33
   243          8
   244         10
   245          5
   246         16
   247          5
   248          0
   254          0
   256          1
   258         25
   259          5
   260          9
   261          1
   270          1
   271          1
   272          1
   273          7
   274          7
   275          0
   285          4
   286          2
   287          1
   288          2
   290          3
   300          2
   301          1
   303          6
   304          3
   312          1
   314          2
   315          3
   316          3
   318         99
   319         22
   320          3
   328          2
   329          1
   330          2
   338          8
   339          2
   340          1
   343          2
   356          2
   369          1
   371          2
   374          6
   375          1
   383         18
   384          4
   389          3
   399          3
   400          1
   413          1
   414         14
   415          3