##TITLE=Library Entry 29515
##JCAMP-DX=Revision 4.10 
##DATA TYPE=MASS SPECTRUM
##SAMPLE DESCRIPTION=Div. of Experiment Therapeutics WRAIR, WRAMC, Washingto
n DC 20307
##NAMES=HP
##CAS NAME=Quinoxaline, 5,8-dimethoxy-6-((3-(dimethylamino)propyl)amino)-2,3
-diphenyl-
##MOLFORM=C27H30N4O2
##CAS REGISTRY NO=56393-44-3
##MP= -300
##BP= -300
##MW= 442
##$RETENTION INDEX=0
##$CONDENSED SPECTRUM=NO
##NPOINTS= 232
##XYDATA=(XY..XY) 1 
    41         53
    43         24
    44         40
    45         16
    46          2
    49          3
    50          6
    51         10
    52          6
    53         11
    54          4
    55          5
    56          8
    58        999
    59         34
    60          2
    61          1
    63          9
    64          4
    65          5
    66          2
    68         14
    70         41
    72        139
    73          5
    75          3
    77         35
    78          9
    79          5
    80          3
    81          1
    82          6
    85        131
    86         20
    87          2
    89          7
    90          5
    91         10
    92          3
    93          2
    94          2
    95          2
    96          2
    97          1
    99          4
   100          2
   101          1
   103         11
   104         15
   105          8
   106          4
   107          4
   108          2
   109          1
   110          0
   112          0
   113          1
   114          1
   115          4
   116          2
   117          3
   118          3
   119          2
   120          1
   121          0
   122          2
   125          4
   126          1
   127          3
   128          3
   129          2
   130          1
   131          1
   132          2
   133          1
   134          5
   135          0
   137          0
   139          2
   140          3
   141          2
   142          2
   143          0
   144          0
   146          3
   147          1
   149          2
   151          5
   152          5
   153          4
   154          2
   155          1
   156          0
   157          0
   161          0
   162          0
   163          5
   165          7
   166          2
   167          2
   168          1
   169          3
   171          4
   175          1
   176          9
   177          2
   178         22
   179          5
   180          1
   181          1
   182          0
   189          1
   190          1
   191          1
   192          1
   193          2
   194          0
   195          2
   196          1
   201          2
   202          2
   203          5
   204          4
   205          2
   206          0
   207          1
   209          0
   214          0
   216          0
   217          0
   221          4
   228          1
   229          3
   230          1
   231          1
   232          0
   235          0
   239          0
   240          0
   241          0
   242          1
   243          1
   252          0
   253          0
   254          2
   255          3
   256          1
   257          0
   262          0
   266          1
   267          1
   268          1
   269          2
   270          1
   271          0
   280          1
   281          1
   282          1
   283          1
   284          2
   285          2
   286          1
   294          0
   295          0
   296          1
   297          2
   298          2
   299          3
   300          0
   301          0
   310          4
   311          4
   312          3
   313         14
   314          3
   315          1
   322          1
   324          2
   325          2
   326          1
   327         25
   328         12
   329          4
   330          1
   334          0
   336          1
   337          0
   338          5
   339          8
   340         28
   342         37
   343          6
   344          1
   350          5
   351          1
   352          4
   353          1
   354         13
   356         25
   357         32
   358          7
   359          1
   364          1
   365          2
   366         26
   367          7
   368          7
   369          4
   370         10
   371          4
   372          0
   381          0
   382         12
   384         20
   385          4
   395          1
   396          1
   397          1
   398          2
   400          0
   409          3
   410          0
   411          2
   413          1
   427          2
   428          1
   439          2
   440          3
   442        147
   443         36
   444          6
   445          1