##TITLE=Library Entry 59967
##JCAMP-DX=Revision 4.10 
##DATA TYPE=MASS SPECTRUM
##SAMPLE DESCRIPTION=Div. of Experiment Therapeutics WRAIR, WRAMC, Washingto
n DC 20307
##NAMES=HP
##CAS NAME=2,3-Di[p-chlorophenyl]-5,8-dimethoxy-6-p-tosylamido quinoxaline
##MOLFORM=C29H23Cl2N3O4S
##CAS REGISTRY NO=56393-38-5
##MP= -300
##BP= -300
##MW= 579
##$RETENTION INDEX=0
##$CONDENSED SPECTRUM=NO
##NPOINTS= 232
##XYDATA=(XY..XY) 1 
    41         42
    42         30
    43         24
    44          8
    45         12
    50         61
    51         42
    52         52
    53         56
    54         25
    55         25
    57          6
    58          6
    59          6
    61          4
    63         74
    65        297
    66          8
    68        143
    69         52
    71          5
    73          6
    75         44
    76         11
    77         99
    78         33
    79         34
    80         15
    82         71
    83          4
    84          6
    85          5
    87          4
    89         44
    91        999
    92         85
    93         29
    94          7
    95         17
    97          4
    99          8
   100          5
   101         12
   102         20
   103         10
   104         12
   105         10
   107         40
   108         12
   109          8
   111         57
   113         24
   114          8
   115          6
   117          5
   119         18
   120          9
   122         20
   123         27
   125         38
   126         10
   127         17
   129          5
   131          9
   132         10
   133          8
   134          9
   137         82
   138         51
   139         48
   140         22
   141         10
   147          6
   149          9
   150         10
   151         11
   152         19
   155        207
   156         19
   157          9
   158          4
   160          6
   162         30
   163         13
   164         13
   165          9
   166          5
   167          4
   169          5
   174         23
   175          6
   176         72
   177         12
   178          5
   179          6
   180          3
   181          4
   186          6
   187         11
   188          9
   189          9
   190         18
   191          5
   192          4
   194          4
   199         17
   201         38
   202         14
   203          7
   204          5
   210          8
   211          4
   212         10
   213          7
   214          8
   215          6
   216          5
   219         11
   224          6
   225          4
   226          6
   227          7
   228          6
   229         10
   230          8
   231          3
   235          6
   237         36
   238          8
   239         11
   240          5
   241          6
   242          5
   243          4
   244          6
   246         50
   248         35
   249          5
   250          6
   253          4
   254          6
   255          4
   256          4
   259          6
   262          3
   263          7
   264          6
   265          4
   266          5
   267          5
   269          3
   271          4
   272          5
   276          4
   277          4
   278          3
   284          9
   286          5
   289         10
   290          6
   291          4
   297          4
   302          4
   303          4
   314          4
   315          3
   316          4
   317          4
   323          5
   324          6
   325         10
   326          9
   327          5
   328          4
   329          3
   331          4
   339          4
   344          4
   345          4
   346          5
   347          5
   352          9
   353         14
   354          9
   355         10
   356          4
   362          4
   364          5
   366          6
   367          7
   368          4
   369          4
   374          4
   378          4
   379          4
   380          9
   381         28
   382         11
   383         19
   384          6
   385          4
   389          3
   394          8
   395         12
   396         46
   397        128
   398         51
   399         78
   400         18
   401         12
   408         17
   409          4
   410         19
   411          5
   412          7
   422         10
   424        293
   425         26
   426        239
   427         46
   428         35
   429          7
   564         19
   565          9
   566         10
   567          6
   579         96
   580         21
   581         81
   582         21
   583         16
   584          4