##TITLE=Library Entry 29458
##JCAMP-DX=Revision 4.10 
##DATA TYPE=MASS SPECTRUM
##SAMPLE DESCRIPTION=Div. of Experiment Therapeutics WRAIR, WRAMC, Washingto
n DC 20307
##NAMES=HP
##CAS NAME=Quinoxaline, 5,8-dimethoxy-6-((3-(dimethylamino)propyl)amino)-2,3
-dimethyl-
##MOLFORM=C17H26N4O2
##CAS REGISTRY NO=56393-42-1
##MP= -300
##BP= -300
##MW= 318
##$RETENTION INDEX=0
##$CONDENSED SPECTRUM=NO
##NPOINTS= 173
##XYDATA=(XY..XY) 1 
    41         14
    42         88
    43         29
    44         50
    45         20
    46          5
    47          2
    49         29
    50          7
    51         21
    52         12
    53         37
    54         12
    55          7
    56         12
    58        999
    59         41
    60          1
    62          1
    63          7
    64          5
    65          6
    66          7
    67          6
    68         13
    70         54
    72        134
    73          1
    74          0
    75          3
    76          5
    77         11
    78          9
    79          8
    80         11
    81          3
    82          7
    84         46
    85        106
    86         34
    87          4
    88          2
    89          3
    90          6
    91          8
    92          5
    93          4
    94          3
    95          2
    96          1
    99          4
   100          1
   101          1
   102          1
   103          2
   104          6
   105          6
   106          5
   107          9
   108          5
   109          1
   111          0
   113          1
   114          0
   115          2
   116          4
   117          4
   118          4
   119          4
   120          2
   121          2
   122          2
   123          1
   129          2
   130          2
   131          8
   132         17
   133         11
   134          6
   135          2
   136          0
   142          1
   143          3
   144          2
   145          4
   146          3
   147          3
   148          2
   149          1
   151          0
   155          0
   156          1
   157          3
   158          5
   159          8
   160         11
   161          9
   162          3
   163          1
   170          1
   171          2
   172          4
   173          3
   174          7
   175         10
   176          2
   177          0
   184          2
   185          2
   186          9
   187          9
   188         10
   189         24
   190          5
   191          1
   197          1
   198          2
   199          1
   200          3
   201          4
   203         63
   204         26
   205         10
   206          1
   210          1
   211          0
   212          3
   213          3
   214          7
   215         17
   216         41
   218         46
   219          5
   220          0
   225          0
   226          8
   227          3
   228          5
   229          3
   230         32
   231          8
   232         50
   233         55
   234          8
   235          0
   240          4
   241          5
   242         56
   243         11
   244         12
   245          7
   246         18
   247          7
   248          1
   256          1
   257          0
   258         34
   259          3
   260         21
   261          2
   271          1
   272          1
   273          1
   274          3
   275          0
   285          4
   286          2
   287          0
   303          7
   304          1
   318        163
   319         36
   320          4