##TITLE=Library Entry 14778
##JCAMP-DX=Revision 4.10 
##DATA TYPE=MASS SPECTRUM
##SAMPLE DESCRIPTION=Div. of Experiment Therapeutics WRAIR, WRAMC, Washingto
n DC 20307
##NAMES=HP
##CAS NAME=2,3-Diphenyl-5,8-dimethoxy-6-acetamidoquinoxaline
##MOLFORM=C24H21N3O3
##CAS REGISTRY NO=56393-32-9
##MP= -300
##BP= -300
##MW= 399
##$RETENTION INDEX=0
##$CONDENSED SPECTRUM=NO
##NPOINTS= 229
##XYDATA=(XY..XY) 1 
    43        999
    44         18
    45          1
    50         32
    51         44
    52         33
    53         45
    54         12
    55          4
    56          2
    58          3
    59          1
    61          0
    63         37
    64         15
    65         29
    66          9
    68         64
    69         10
    70          5
    74          2
    77        141
    78         29
    79         15
    80         21
    82         12
    84          2
    86          1
    87          1
    89         25
    91         42
    92         12
    93         15
    94          6
    95          7
    97          0
    98          2
    99          1
   100          3
   101          1
   103         45
   104         43
   105         16
   106         17
   107         17
   108          6
   109          3
   110          1
   112          1
   113          1
   114          3
   115         12
   116          3
   117          1
   118         14
   119          7
   120          4
   121          4
   122          4
   123          2
   126         12
   127         10
   128         10
   129          4
   130          1
   131          0
   132          1
   133          8
   134          4
   135          2
   136          3
   137          0
   139          4
   140         14
   141          9
   142          4
   143          1
   144          1
   147          3
   148          3
   150          9
   151         14
   152         20
   153          8
   154          5
   155          2
   157          4
   163         19
   165         19
   166          8
   167          8
   168          8
   169          3
   171         16
   176         33
   178         68
   179         14
   180          3
   181          3
   182          1
   183          0
   188          0
   189          4
   190          6
   191          3
   192          3
   193          4
   194          2
   195          7
   196         13
   197          2
   200          0
   201          6
   202          8
   203         14
   204         14
   205          3
   206          3
   207          4
   208          2
   209          0
   210          2
   211          0
   214          3
   215          1
   216          5
   217          4
   218          2
   219          1
   220          2
   221          1
   222          1
   223          1
   224          1
   225          1
   226          1
   227          2
   229         14
   230          6
   231          6
   232          3
   233          0
   235          3
   236          2
   237          1
   238          0
   240          2
   241          1
   242          8
   243          6
   244          2
   245          2
   246          4
   247          4
   248          1
   250          3
   251          1
   253          5
   255          9
   256          4
   257          6
   258          3
   259          2
   260          1
   264          1
   265          1
   266          3
   267          4
   268          5
   269          8
   270          6
   271          4
   278          1
   279          1
   280          0
   281          3
   282          4
   283          4
   284          7
   285         12
   286         12
   287          4
   293          0
   294          3
   295          2
   296          6
   297          5
   298          9
   299          4
   300          2
   308          2
   310         10
   312         44
   313         55
   314         22
   315         14
   316          2
   322          1
   324          4
   326         18
   327         13
   328         13
   329         15
   330          3
   338         10
   340         44
   342        397
   343         59
   344          7
   352          2
   354         18
   356        127
   357         34
   358          5
   366         11
   368         19
   370        180
   371         34
   372          4
   380          1
   382          1
   384         45
   385         10
   386          1
   398          6
   399        377
   400         91
   401         22
   402          4