##TITLE=Library Entry 29188
##JCAMP-DX=Revision 4.10 
##DATA TYPE=MASS SPECTRUM
##SAMPLE DESCRIPTION=Div. of Experiment Therapeutics WRAIR, WRAMC, Washingto
n DC 20307
##NAMES=HP
##CAS NAME=Quinoxaline, 2,3-dibenzyl-5,8-dimethoxy-6-((2-(dimethylamino)ethy
l)-
##MOLFORM=C28H32N4O2
##CAS REGISTRY NO=56393-47-6
##MP= -300
##BP= -300
##MW= 456
##$RETENTION INDEX=0
##$CONDENSED SPECTRUM=NO
##NPOINTS= 194
##XYDATA=(XY..XY) 1 
    41         17
    42         37
    43         31
    44        120
    45         67
    47         19
    49         96
    50         23
    51         53
    52          8
    53         17
    54          4
    55         11
    57         75
    58        999
    59         11
    61         13
    62         34
    63         66
    64         21
    65         27
    66          3
    68          6
    69          7
    71        212
    74         29
    75         21
    76         11
    77         38
    78         10
    79          3
    81          3
    82          4
    84         81
    85         66
    86         72
    87         34
    88         50
    89         26
    91         89
    92         10
    94         16
    97          5
    98          6
    99          5
   101         11
   102         15
   103         17
   104          1
   105         14
   106          3
   107          3
   108          1
   109          6
   110          5
   111          4
   113         93
   114        268
   115         78
   116         10
   117          3
   118          1
   119         20
   120          6
   122          3
   123          1
   124          2
   125          7
   126         18
   127         34
   128         41
   129          9
   130          3
   131          6
   133          1
   134          5
   137          1
   139         32
   140          3
   142        353
   143         30
   144          7
   146         17
   147          3
   150          4
   151          3
   152          7
   153          5
   154         12
   155         17
   156         53
   157          4
   159          4
   162          2
   165          3
   166          2
   167          5
   168          3
   169          4
   170        531
   171         53
   172          3
   176         21
   178          5
   179          1
   181          6
   183         20
   184         40
   185          6
   188        288
   189         33
   190          6
   192          6
   193          5
   200          4
   201          4
   202         36
   203          7
   205          5
   206          2
   210          1
   216          3
   232          1
   237          3
   239          8
   248          3
   249          5
   250          5
   251          2
   259          3
   260          4
   262          3
   263          6
   264          5
   265          3
   268          4
   276          5
   277          4
   278          7
   280          7
   288          3
   290          4
   292          3
   303          1
   304          4
   324         25
   325          9
   326          4
   327          2
   338          1
   339          5
   340          6
   341         10
   342          9
   343          4
   352          5
   353          7
   354          8
   355         13
   356         37
   357         41
   358          9
   366          7
   367          6
   368         25
   369          5
   370         64
   371         44
   372         23
   373          4
   380         11
   381          9
   382         14
   383          9
   384         19
   385         40
   386         12
   388         18
   389          3
   395          2
   396         10
   397         39
   398        153
   399         46
   400          8
   410          1
   411          4
   412         12
   413          5
   425          1
   455          1
   456         92
   457         28
   458          5