##TITLE=Library Entry 28087
##JCAMP-DX=Revision 4.10 
##DATA TYPE=MASS SPECTRUM
##SAMPLE DESCRIPTION=Div. of Experiment Therapeutics WRAIR, WRAMC, Washingto
n DC 20307
##NAMES=HP
##CAS NAME=2,3-Bis[p-nitrostyryl]-5,8-dimethoxy-6-N-[.gamma.-dimethylamino-n
-propyl]aminoquinoxaline
##MOLFORM=C31H32N6O6
##CAS REGISTRY NO=56393-52-3
##MP= -300
##BP= -300
##MW= 584
##$RETENTION INDEX=0
##$CONDENSED SPECTRUM=NO
##NPOINTS= 74
##XYDATA=(XY..XY) 1 
    41         61
    42         40
    43         33
    44        129
    45         28
    50         17
    51         21
    53          5
    55         21
    56         14
    58        999
    59         37
    60          6
    61          4
    68         34
    69          4
    70         35
    71         10
    72         50
    75          4
    76          6
    77         37
    78         28
    84         33
    85         77
    86         17
    89          5
    91          5
   106          5
   114          4
   119          4
   128         19
   139         20
   140          4
   150         43
   151         43
   159         11
   180          7
   189         10
   219          5
   226         17
   227          4
   228          6
   240         14
   242          4
   270         16
   290          5
   330          4
   361          5
   452          5
   469          5
   470          4
   482         23
   483          4
   484        111
   485         41
   486          4
   492         37
   493          4
   498         18
   499         79
   500         26
   508         23
   510          9
   512         29
   513          5
   524        122
   525         39
   526         10
   539         97
   540         37
   541         12
   584         42
   585         12