##TITLE=Library Entry 13392
##JCAMP-DX=Revision 4.10 
##DATA TYPE=MASS SPECTRUM
##SAMPLE DESCRIPTION=Div. of Experiment Therapeutics WRAIR, WRAMC, Washingto
n DC 20307
##NAMES=HP
##CAS NAME=Acetamide, N-(5,8-dimethoxy-6-quinoxalinyl)-
##MOLFORM=C12H13N3O3
##CAS REGISTRY NO=56393-30-7
##MP= -300
##BP= -300
##MW= 247
##$RETENTION INDEX=0
##$CONDENSED SPECTRUM=NO
##NPOINTS= 115
##XYDATA=(XY..XY) 1 
    41         20
    43        999
    44         16
    45          3
    47         14
    49         81
    50         30
    51         19
    52        181
    53        106
    54         41
    55         13
    56          6
    57          1
    58          1
    59          1
    61         10
    62          3
    63         33
    64         26
    65         18
    66         21
    68        144
    69         22
    70          2
    73          0
    74          0
    76         45
    77         41
    78         40
    79         58
    80         56
    81          8
    82         16
    84         29
    86         23
    87          1
    88         11
    89          7
    90         16
    91         18
    92         17
    93         19
    95        114
    96          5
   100          0
   101          2
   102          1
   103         10
   104         77
   105         31
   106         24
   107         19
   108          5
   109          4
   110          1
   115          1
   117         26
   118         18
   119         23
   120          6
   121          6
   122          1
   123          2
   129          1
   130         14
   131         15
   132         25
   133         28
   134         47
   135         11
   142          2
   144         13
   145          8
   146          8
   147         12
   148          6
   149          2
   156          1
   158         17
   159         19
   160         27
   161         40
   162        141
   163         45
   164          3
   172          6
   174         13
   175          6
   176         26
   177         20
   178          2
   186          8
   188         40
   190        961
   191         62
   192          6
   200          1
   202         18
   204         94
   205         46
   206         11
   207          0
   214          5
   216         21
   218         44
   219          4
   230          2
   232         85
   233          9
   245          1
   247        440
   248        103
   249         14
   250          1