##TITLE=Library Entry 28926
##JCAMP-DX=Revision 4.10 
##DATA TYPE=MASS SPECTRUM
##SAMPLE DESCRIPTION=Div. of Experiment Therapeutics WRAIR, WRAMC, Washingto
n DC 20307
##NAMES=HP
##CAS NAME=2,3-Bis[p-fluorostyryl]-5,8-dimethoxy-6-N-[.gamma.-dimethylamino-
n-propyl]aminoquinoxaline
##MOLFORM=C31H32F2N4O2
##CAS REGISTRY NO=56393-50-1
##MP= -300
##BP= -300
##MW= 530
##$RETENTION INDEX=0
##$CONDENSED SPECTRUM=NO
##NPOINTS= 232
##XYDATA=(XY..XY) 1 
    43          4
    44          6
    56          5
    57         10
    58        999
    59         27
    60          7
    67          5
    68         19
    69         10
    70         28
    71         17
    72         58
    77         12
    78         14
    79          8
    82          6
    83          5
    84         36
    85         83
    86         22
    89          6
    90          6
    91         10
    92          4
    93          5
    95         12
    96          8
    98          7
    99         10
   101         19
   106          6
   107          8
   109        334
   110         12
   113          5
   115          4
   117          7
   118         18
   119         10
   120         24
   121         16
   122          5
   123         17
   124          6
   126          9
   127          4
   129         10
   131          7
   133         98
   134         16
   135          8
   139         10
   140          6
   144          5
   145         15
   146         25
   147         17
   148         15
   149         15
   151          6
   152         13
   155          5
   157         15
   158         13
   159         26
   160         11
   161          5
   162         26
   163          8
   164          7
   165          6
   167         11
   168          5
   169         18
   170         26
   171         18
   172         13
   173         11
   175         12
   176          5
   180         52
   181          9
   182         15
   183         19
   184         14
   185         10
   186          5
   189          7
   191          6
   193          5
   194          4
   195         11
   196         12
   197         10
   198         12
   199          8
   200          8
   201          8
   203         50
   204          7
   207          6
   208          9
   209          9
   210         13
   211          8
   212          7
   213          5
   214          6
   218          6
   220         10
   221          8
   222          9
   223         16
   224         11
   225          7
   226          5
   227          6
   233          6
   234          5
   236          7
   237          9
   238          9
   239         14
   240         15
   244         15
   245          6
   247          7
   248          8
   249         11
   250          9
   251         22
   252          8
   253          7
   260          6
   261          8
   262         15
   263         14
   264         26
   265         21
   266          7
   267          5
   273          5
   276          5
   277          9
   278         15
   279         23
   280         10
   281          9
   289          7
   290         15
   291         16
   292         13
   293         12
   294          9
   295          6
   301          7
   302          6
   303          8
   304         11
   305         13
   306         16
   307         13
   308          6
   309          6
   310          5
   316          6
   317         13
   318         12
   319          8
   320         15
   321         16
   323          8
   324          7
   330          6
   331          9
   332         21
   334         17
   335          5
   336          6
   339          4
   343          4
   344          5
   346         10
   348         10
   352          6
   399          8
   400          7
   401         10
   402          6
   412          6
   413          5
   414          6
   415         47
   416         25
   417          9
   424         20
   425          8
   426          9
   427         13
   428         46
   429         17
   430         59
   431         23
   432         11
   438         10
   439          5
   440         10
   441         11
   442         37
   443         13
   444         52
   445         57
   446         16
   454         39
   455         15
   456         14
   457         10
   458         29
   459         24
   460          5
   470         29
   471          7
   472         32
   473         11
   485         14
   486          7
   487         20
   488          5
   530        175
   531         51
   532         10