##TITLE=Library Entry 32833
##JCAMP-DX=Revision 4.10 
##DATA TYPE=MASS SPECTRUM
##SAMPLE DESCRIPTION=CARL DJERASSI DEPT OF CHEM STANFORD UNIV STANFORD CALIF
 94305
##NAMES=HP
##CAS NAME=5.alpha.-Androstan-11-one, 19-hydroxy-
##MOLFORM=C19H30O2
##CAS REGISTRY NO=564-29-4
##MP= -300
##BP= -300
##MW= 290
##$RETENTION INDEX=0
##$CONDENSED SPECTRUM=NO
##NPOINTS= 141
##XYDATA=(XY..XY) 1 
    60         10
    63         20
    64         10
    65        160
    66         80
    67        999
    68        140
    69        250
    70         30
    71         60
    72         10
    73         40
    74         10
    76         10
    77        360
    78        100
    79        590
    80        150
    81        730
    82        120
    83        100
    84         20
    85         30
    87         10
    89         10
    91        520
    92        100
    93        430
    94        120
    95        490
    96        110
    97         50
    98         10
    99         10
   101         10
   102         10
   103         30
   104         20
   105        230
   106         70
   107        200
   108        160
   109        190
   110         20
   111        140
   112         10
   115         40
   116         20
   117         90
   118         40
   119        110
   120         40
   121        190
   122        100
   123         50
   124         50
   125         20
   127         10
   128         20
   129         30
   130         20
   131        140
   132         20
   133        110
   134         70
   135        230
   136         40
   137         20
   138         10
   139         10
   141         10
   142         10
   143         10
   144         10
   145         90
   146         20
   147        170
   148         60
   149        150
   150         20
   151        530
   152         60
   153         10
   155         10
   157         20
   158         10
   159         40
   160         20
   161         30
   162         20
   163         30
   164        240
   165         60
   171         20
   172         10
   173         30
   174         10
   175         20
   176         10
   177        390
   178         70
   179         10
   183         10
   185         10
   186         10
   187         20
   189         10
   191         10
   193         20
   199         20
   200         10
   202         10
   204         10
   207         10
   215         20
   216         10
   217         60
   221         10
   227         30
   228         20
   229         10
   230         10
   239         10
   241         20
   242         40
   243         20
   244         10
   245         10
   254         30
   255         10
   257        150
   258         20
   259         20
   260        310
   261         60
   262         10
   272        110
   273         30
   274         10
   290         30
   291         10