##TITLE=Library Entry 6376
##JCAMP-DX=Revision 4.10 
##DATA TYPE=MASS SPECTRUM
##SAMPLE DESCRIPTION=Exported from NIST MS Search
##NAMES=HP
##CAS NAME=Sclareolide
##MOLFORM=C16H26O2
##CAS REGISTRY NO=564-20-5
##MP= -300
##BP= -300
##MW= 250
##$RETENTION INDEX=2089
##$CONDENSED SPECTRUM=NO
##NPOINTS= 65
##XYDATA=(XY..XY) 1 
    41        810
    43        999
    44         30
    52        210
    54        500
    55         30
    56         80
    65         30
    67        400
    68        230
    69        400
    70         20
    71         30
    77        120
    79        180
    80         40
    81        510
    82        510
    83         70
    91         80
    93        100
    94         20
    95        500
    96        110
    97         20
    99         20
   105         40
   107        180
   108         40
   109        360
   110         30
   111         90
   121        130
   122        100
   123        680
   124        230
   125        420
   126         40
   135        100
   136        230
   137        120
   138         10
   139         50
   147         20
   149         80
   150        130
   152         20
   153         40
   161         20
   163         40
   164         20
   165         20
   167         40
   175         40
   177         60
   179         20
   189         40
   191         80
   193         40
   206        380
   207        100
   235        360
   236         50
   250        130
   251         20