##TITLE=Library Entry 37257
##JCAMP-DX=Revision 4.10 
##DATA TYPE=MASS SPECTRUM
##SAMPLE DESCRIPTION=Humboldt-Universitat zu Berlin, Department of Chemistry
, Analytical Group
##NAMES=HP
##CAS NAME=Ergocornine
##MOLFORM=C31H39N5O5
##CAS REGISTRY NO=564-36-3
##MP= -300
##BP= -300
##MW= 561
##$RETENTION INDEX=0
##$CONDENSED SPECTRUM=NO
##NPOINTS= 223
##XYDATA=(XY..XY) 1 
    12          2
    14          2
    15         42
    16          6
    17         10
    18         22
    26         14
    27        224
    28        187
    29         65
    30         29
    31          3
    32          1
    37          2
    38          7
    39        133
    40         34
    41        455
    42        242
    43        835
    44        214
    45         13
    46          4
    50          7
    51         18
    52         11
    53         27
    54         37
    55        227
    56         86
    57         19
    58          5
    59          2
    62          6
    63         19
    64          6
    65          7
    66          7
    67         15
    68        104
    69        158
    70        999
    71        515
    72         92
    73         10
    74          9
    75         20
    76         18
    77         28
    78          8
    79          5
    80         11
    81         12
    82         29
    83         59
    84         17
    85          5
    86          6
    87          7
    88          8
    89         22
    91          4
    92          3
    93          5
    94          7
    96         29
    97         38
    98        112
    99         16
   100          8
   101         11
   102         16
   103         24
   104         14
   107          2
   108          3
   110         57
   111         60
   112         26
   113         11
   114         10
   115         21
   116          6
   117          5
   122          2
   123          7
   124         12
   125         99
   126         47
   127         86
   128         26
   129          7
   130          7
   131          2
   135          2
   136          2
   137         13
   138         31
   139         41
   140         28
   141         33
   142          9
   143          4
   144          3
   149          5
   150         29
   151         80
   152        114
   153        160
   154        556
   155         77
   156          9
   157          1
   162          2
   163         14
   164         23
   165         42
   166         33
   167        143
   168         52
   169         11
   170          3
   171          2
   175          3
   176          7
   177         18
   178        111
   179        130
   180        215
   181        145
   182         55
   183         12
   184          2
   185          1
   188          2
   189          2
   190         12
   191         50
   192        137
   193         65
   194         45
   195        434
   196        360
   197         93
   198         10
   203          4
   205        108
   206         77
   207        352
   208        111
   209        153
   210         27
   211          7
   217          2
   218          5
   219         24
   220         74
   221        356
   222        122
   223        190
   224        293
   225         75
   226          9
   230          2
   232          2
   233          4
   234          4
   235         11
   236          5
   237          5
   238         10
   239          4
   240          2
   247          2
   248         15
   249         35
   250         28
   251         15
   252         33
   253          5
   260          2
   261          5
   262          3
   263          3
   264          5
   265          9
   266         86
   267        675
   268        136
   269         15
   270          2
   275          2
   276          4
   277          6
   278          3
   279          7
   280          2
   289          2
   294         43
   295          9
   304         24
   305         10
   306          3
   308          2
   319         20
   320          6
   322         10
   323          2
   337          5
   338          4
   346          2
   347         12
   348          6
   349          2
   365         20
   366          5
   403          2
   518          2
   543          8
   544          3
   561         79
   562         27
   563          5