##TITLE=Library Entry 41664
##JCAMP-DX=Revision 4.10 
##DATA TYPE=MASS SPECTRUM
##SAMPLE DESCRIPTION=Exported from NIST MS Search
##NAMES=HP
##CAS NAME=Scyllo-Inositol, 1-C-methyl-
##MOLFORM=C7H14O6
##CAS REGISTRY NO=564-92-1
##MP= -300
##BP= -300
##MW= 194
##$RETENTION INDEX=0
##$CONDENSED SPECTRUM=NO
##NPOINTS= 43
##XYDATA=(XY..XY) 1 
    31         32
    41         37
    42         22
    43        164
    44         22
    45         27
    47          8
    53          1
    54          4
    55         23
    56         15
    57         26
    58          7
    59          4
    60         70
    61         19
    69         24
    70          7
    71        113
    72         12
    73        999
    74        135
    75         18
    85         55
    86        108
    87        173
    88         11
    89         15
    91         17
    97         15
   102         43
   103         27
   111          2
   115         17
   116         11
   125          5
   129          1
   140          2
   143          5
   158          7
   161          2
   176          2
   179          4