##TITLE=Library Entry 49177
##JCAMP-DX=Revision 4.10 
##DATA TYPE=MASS SPECTRUM
##SAMPLE DESCRIPTION=Exported from NIST MS Search
##NAMES=HP
##CAS NAME=Bicyclo[3.1.1]hept-2-ene-2-carboxaldehyde, 6,6-dimethyl-
##MOLFORM=C10H14O
##CAS REGISTRY NO=564-94-3
##MP= -300
##BP= -300
##MW= 150
##$RETENTION INDEX=1193
##$CONDENSED SPECTRUM=NO
##NPOINTS= 79
##XYDATA=(XY..XY) 1 
    15          9
    26         13
    27        199
    28         40
    29        135
    37          6
    38         16
    39        275
    40         49
    41        328
    42         21
    43        177
    50         42
    51        133
    52         60
    53        182
    54         27
    55        103
    56         12
    57         10
    58          5
    59         31
    60         10
    62         11
    63         42
    64         12
    65        105
    66        140
    67        111
    68         45
    69         42
    70          7
    74          8
    75         24
    76          9
    77        377
    78         94
    79        999
    80        118
    81         89
    82         20
    83         12
    89         11
    90         17
    91        334
    92         71
    93        140
    94        136
    95         67
    96         19
   102          8
   103         31
   104         21
   105        280
   106        378
   107        825
   108        422
   109         78
   110          6
   115         27
   116          8
   117         76
   118          8
   119         24
   120          7
   121         89
   122         28
   128          6
   131         12
   132         11
   133         15
   135        167
   136         15
   145          6
   146          6
   147          6
   148          7
   149         12
   150         42