##TITLE=Library Entry 24840
##JCAMP-DX=Revision 4.10 
##DATA TYPE=MASS SPECTRUM
##SAMPLE DESCRIPTION=NIST Mass Spectrometry Data Center, 1998.
##NAMES=HP
##CAS NAME=Pentane, 2,2,3-trimethyl-
##MOLFORM=C8H18
##CAS REGISTRY NO=564-02-3
##MP= -300
##BP= -300
##MW= 114
##$RETENTION INDEX=737
##$CONDENSED SPECTRUM=NO
##NPOINTS= 46
##XYDATA=(XY..XY) 1 
    15          7
    26          5
    27         73
    28         14
    29        136
    30          3
    37          1
    38          5
    39        125
    40         21
    41        444
    42         39
    43        234
    44          8
    50          6
    51         14
    52          5
    53         38
    54          8
    55        123
    56        756
    57        999
    58         66
    59          1
    62          1
    63          2
    65          6
    66          2
    67         12
    68          2
    69         24
    70         18
    71          8
    77          3
    78          1
    79          3
    81          2
    83         12
    84          4
    85         61
    86          4
    97          1
    98          2
    99         77
   100          6
   114          1