##TITLE=Library Entry 39329
##JCAMP-DX=Revision 4.10 
##DATA TYPE=MASS SPECTRUM
##SAMPLE DESCRIPTION=ASES Database, Dalian Institute, P.R. China
##NAMES=HP
##CAS NAME=4,4-Dimethyl-thiazolidine
##MOLFORM=C5H11NS
##CAS REGISTRY NO=56400-70-5
##MP= -300
##BP= -300
##MW= 117
##$RETENTION INDEX=0
##$CONDENSED SPECTRUM=NO
##NPOINTS= 10
##XYDATA=(XY..XY) 1 
    45        108
    55        290
    56        161
    70        228
    71        999
    72        179
    73        129
    88         19
   102        180
   117        308