##TITLE=Library Entry 63366
##JCAMP-DX=Revision 4.10 
##DATA TYPE=MASS SPECTRUM
##SAMPLE DESCRIPTION=NIST Mass Spectrometry Data Center, 2010
##NAMES=HP
##CAS NAME=Butanoic acid, 2-methyl-, phenylmethyl ester
##MOLFORM=C12H16O2
##CAS REGISTRY NO=56423-40-6
##MP= -300
##BP= -300
##MW= 192
##$RETENTION INDEX=1392
##$CONDENSED SPECTRUM=NO
##NPOINTS= 70
##XYDATA=(XY..XY) 1 
    15          1
    26          2
    27         18
    28          8
    29         47
    30          1
    31          1
    37          1
    38          3
    39         36
    40          4
    41         67
    42          4
    43          2
    44          1
    45          2
    50          9
    51         27
    52          8
    53          5
    54          1
    55         12
    56         11
    57        242
    58         12
    61          1
    62          4
    63         18
    64          6
    65         84
    66          5
    69          4
    71          2
    73          1
    74          5
    75          2
    77         53
    78         12
    79         43
    80          3
    82          1
    85        113
    86          7
    87          1
    89         40
    90         59
    91        999
    92         96
    93          4
   101          1
   104          3
   105         16
   106          3
   107         39
   108        229
   109         18
   110          1
   115          1
   117          1
   118          4
   119          5
   120          1
   131          1
   146          1
   164          2
   174          9
   175          1
   192        265
   193         35
   194          3