##TITLE=Library Entry 26345
##JCAMP-DX=Revision 4.10 
##DATA TYPE=MASS SPECTRUM
##SAMPLE DESCRIPTION=NIST Mass Spectrometry Data Center
##NAMES=HP
##CAS NAME=Butanoic acid, 3-methyl-, heptyl ester
##MOLFORM=C12H24O2
##CAS REGISTRY NO=56423-43-9
##MP= -300
##BP= -300
##MW= 200
##$RETENTION INDEX=1338
##$CONDENSED SPECTRUM=NO
##NPOINTS= 84
##XYDATA=(XY..XY) 1 
    26          2
    27         45
    28         19
    29        108
    30          3
    31          6
    36          1
    37          1
    38          2
    39         93
    40         21
    41        432
    42        161
    43        328
    44         18
    45         15
    47          1
    50          2
    51          5
    52          2
    53         24
    54         35
    55        279
    56        512
    57        999
    58         56
    59         39
    60        113
    61        229
    62          6
    63          1
    65          3
    66          2
    67         20
    68         80
    69        302
    70        581
    71         45
    72          8
    73          4
    74          1
    79          3
    81          7
    82          5
    83         73
    84         12
    85        718
    86         44
    87        149
    88          7
    89          1
    91          1
    96          7
    97         19
    98        455
    99         38
   100         16
   101         16
   102         60
   103        903
   104         49
   105          5
   111          1
   113         12
   114          2
   115         21
   116         10
   125          1
   127          1
   128          4
   129          7
   130          2
   140          3
   141          1
   142          1
   143         31
   144          2
   149          1
   153          1
   155          1
   157          1
   158         11
   185          1
   200          1