##TITLE=Library Entry 35195
##JCAMP-DX=Revision 4.10 
##DATA TYPE=MASS SPECTRUM
##SAMPLE DESCRIPTION=A.A.Kutin, Moscow, Russia
##NAMES=HP
##CAS NAME=[1,2,4]Triazolo[1,5-a]pyrimidin-5-ol, 7-methyl-6-nitro-
##MOLFORM=C6H5N5O3
##CAS REGISTRY NO=56424-00-1
##MP= -300
##BP= -300
##MW= 195
##$RETENTION INDEX=0
##$CONDENSED SPECTRUM=NO
##NPOINTS= 101
##XYDATA=(XY..XY) 1 
    45         15
    46        717
    47        189
    48         24
    50         25
    51        282
    52        600
    53        817
    54        713
    55        420
    56        167
    57        418
    58          5
    59        158
    60        297
    61         48
    62          4
    63         47
    64         71
    65        105
    66        302
    67        861
    68        556
    69        999
    70         35
    71        227
    72         66
    73         21
    74         43
    75         11
    76         20
    77         61
    78        146
    79        235
    80        128
    81        109
    82        126
    83        200
    84        634
    85         71
    86         29
    87          8
    88          9
    91         21
    92         35
    93        117
    94        341
    95        502
    96        174
    97         41
    98         14
    99         48
   101         26
   104         25
   105         21
   106         23
   107        596
   108        615
   109        409
   110         91
   111         23
   114         11
   118         11
   119         24
   120         39
   121        505
   122        185
   123         80
   124         65
   125         59
   128          8
   131          8
   133         24
   134         76
   135        156
   136        132
   137        386
   138         51
   139         19
   141         16
   145          6
   148         46
   149        210
   150        121
   151         12
   152         18
   161         12
   162         22
   163        110
   164         26
   165        487
   166         65
   171          9
   175         10
   178        148
   179        472
   180         28
   181          8
   191         25
   195        500
   196         79