##TITLE=Library Entry 3082
##JCAMP-DX=Revision 4.10 
##DATA TYPE=MASS SPECTRUM
##SAMPLE DESCRIPTION=CARL DJERASSI DEPT OF CHEM STANFORD UNIV STANFORD CALIF
 94305
##NAMES=HP
##CAS NAME=1,5-Digermacyclooctane, 1,1,5,5-tetrabutyl-
##MOLFORM=C22H48Ge2
##CAS REGISTRY NO=56437-93-5
##MP= -300
##BP= -300
##MW= 460
##$RETENTION INDEX=0
##$CONDENSED SPECTRUM=NO
##NPOINTS= 172
##XYDATA=(XY..XY) 1 
    41        999
    42        110
    43        320
    50         10
    51         20
    53         20
    55        320
    56         80
    57        460
    58         20
    70         10
    71         10
    72         30
    73         70
    74         30
    75         80
    76         20
    77         70
    79         20
    85         80
    87        300
    88         40
    89        410
    90         90
    91        450
    92         10
    93         90
    97         10
    99         60
   101        120
   102         20
   103        170
   104         30
   105        150
   106         50
   107         90
   109         10
   113         30
   115        120
   116         30
   117        160
   118         50
   119        150
   120         10
   121         30
   127         80
   128         20
   129        300
   130         60
   131        400
   132        100
   133        390
   134         30
   135         90
   143         20
   145         80
   146         30
   147        100
   148         50
   149        120
   150         30
   151         30
   157         30
   159         60
   160         30
   161        100
   162         30
   163        110
   164         20
   165        100
   166         20
   167         70
   168         20
   169         40
   171         60
   173         70
   174         30
   175         90
   177         20
   185         30
   187         80
   188         30
   189        100
   191         30
   192         80
   194         20
   201         90
   202         20
   203        130
   204         60
   205        220
   206         50
   207        110
   208         30
   209         70
   210         20
   211         40
   213         10
   217         20
   219         40
   221         60
   223         60
   225         40
   227         10
   231         10
   249         20
   251         20
   259         20
   260         10
   261         40
   262         20
   263         70
   264         20
   265         60
   266         20
   267         30
   275         20
   277         20
   279         20
   281         20
   303         20
   305         30
   307         40
   309         30
   315         30
   317         60
   318         20
   319         80
   320         30
   321         80
   322         20
   323         50
   325         20
   332         20
   335         20
   357         20
   359         50
   360         20
   361         90
   362         30
   363        100
   364         40
   365         70
   367         20
   371         20
   372         40
   373         20
   374         90
   375         30
   376         90
   377         30
   378         70
   380         20
   393         40
   395        110
   396         60
   397        220
   398         80
   399        240
   400        100
   401        160
   402         40
   403         50
   407         20
   409         40
   410         20
   411         90
   412         40
   413         90
   414         40
   415         70
   417         20