##TITLE=Library Entry 7631
##JCAMP-DX=Revision 4.10 
##DATA TYPE=MASS SPECTRUM
##SAMPLE DESCRIPTION=CARL DJERASSI DEPT OF CHEM STANFORD UNIV STANFORD CALIF
 94305
##NAMES=HP
##CAS NAME=1,1-Dodecanediol, diacetate
##MOLFORM=C16H30O4
##CAS REGISTRY NO=56438-07-4
##MP= -300
##BP= -300
##MW= 286
##$RETENTION INDEX=0
##$CONDENSED SPECTRUM=NO
##NPOINTS= 49
##XYDATA=(XY..XY) 1 
    41        560
    42        370
    43        999
    44        330
    45        220
    53         20
    54        100
    55        440
    56        270
    57        650
    58         50
    60         90
    66         30
    67        200
    68        260
    69        240
    71        200
    72         40
    81        160
    82        320
    83        170
    84        100
    85        110
    86         10
    94         10
    95        130
    96        180
    97        110
    98         60
    99         20
   109         60
   110         70
   111         40
   112         20
   123         26
   124         30
   125          6
   126          3
   127          3
   128          3
   129          3
   137         13
   138         46
   139          3
   140         83
   141         10
   142          3
   156         10
   166         16