##TITLE=Library Entry 76587
##JCAMP-DX=Revision 4.10 
##DATA TYPE=MASS SPECTRUM
##SAMPLE DESCRIPTION=CARL DJERASSI DEPT OF CHEM STANFORD UNIV STANFORD CALIF
 94305
##NAMES=HP
##CAS NAME=1,4-Digermacyclohexane, 1,1-dibutyl-4,4-diethyl-
##MOLFORM=C16H36Ge2
##CAS REGISTRY NO=56437-95-7
##MP= -300
##BP= -300
##MW= 376
##$RETENTION INDEX=0
##$CONDENSED SPECTRUM=NO
##NPOINTS= 208
##XYDATA=(XY..XY) 1 
    41        495
    42         49
    43        108
    44         39
    50          9
    51          9
    53         29
    54          9
    55        346
    56         49
    57        128
    70        138
    71        188
    72        178
    73        336
    74        306
    75        405
    76         79
    77        148
    79         19
    85        217
    86         19
    87        316
    88        108
    89        405
    90         29
    91        128
    93          9
    95          9
    97        108
    98         29
    99        554
   100        118
   101        841
   102        267
   103        999
   104        158
   105        435
   106         29
   107         69
   108          9
   109         19
   110         19
   111         39
   112          9
   113         29
   114         19
   115         59
   116         49
   117         59
   118         29
   119         19
   123          9
   125         59
   126         59
   127        148
   128        148
   129        316
   130        247
   131        356
   132        207
   133        198
   134         39
   135         39
   141         29
   142         59
   143        158
   144        168
   145        356
   146        277
   147        505
   148        287
   149        475
   150        207
   151        277
   152         49
   153         89
   155         49
   156         19
   157        108
   158         29
   159        128
   160         49
   161        118
   162         19
   163         59
   164          9
   165         29
   167         29
   169         59
   170         39
   171        198
   172         89
   173        396
   174        217
   175        613
   176        247
   177        604
   178        227
   179        405
   180         79
   181        138
   182          9
   183         29
   185         39
   186          9
   187         39
   188         19
   189         49
   191          9
   198         19
   199         79
   200         69
   201        207
   202        198
   203        405
   204        306
   205        435
   206        316
   207        346
   208        188
   209        138
   210         49
   211         29
   213          9
   215          9
   217         19
   219          9
   221          9
   223          9
   227        128
   228         39
   229        297
   230        168
   231        594
   232        257
   233        613
   234        287
   235        475
   236        148
   237        168
   238         49
   239         29
   255        118
   256         39
   257        306
   258        188
   259        633
   260        287
   261        673
   262        336
   263        534
   264        188
   265        178
   266         49
   267         29
   273          9
   275         19
   277         19
   283         99
   284         19
   285        257
   286        138
   287        534
   288        207
   289        564
   290        247
   291        425
   292        108
   293        148
   294         39
   295         19
   301          9
   303         29
   305         19
   311         59
   312         39
   313        168
   314        138
   315        356
   316        247
   317        396
   318        277
   319        336
   320        158
   321        108
   322         59
   323         29
   339         29
   340         29
   341         59
   342         79
   343        118
   344        148
   345        128
   346        148
   347        108
   348         89
   349         49
   350         29
   370         29
   372         39
   373          9
   374         39
   375         29
   376         29
   377         19
   378         19