##TITLE=Library Entry 99938
##JCAMP-DX=Revision 4.10 
##DATA TYPE=MASS SPECTRUM
##SAMPLE DESCRIPTION=CARL DJERASSI DEPT OF CHEM STANFORD UNIV STANFORD CALIF
 94305
##NAMES=HP
##CAS NAME=Benzamide, 3-bromo-N-[(phenylamino)carbonyl]-
##MOLFORM=C14H11BrN2O2
##CAS REGISTRY NO=56437-97-9
##MP= -300
##BP= -300
##MW= 318
##$RETENTION INDEX=0
##$CONDENSED SPECTRUM=NO
##NPOINTS= 118
##XYDATA=(XY..XY) 1 
    41        170
    42         40
    43        210
    44        120
    45         90
    46         30
    47        100
    48         40
    49         40
    50        150
    51        120
    52         40
    53         20
    54         20
    55        150
    56         50
    57        170
    58         10
    59         20
    60         40
    61         20
    62         20
    63         70
    64        110
    65        210
    66         80
    67         50
    68         20
    69        130
    70         70
    71         80
    72         10
    73         50
    74         60
    75        180
    76        230
    77        190
    78         40
    79         20
    80         10
    81         60
    82         30
    83        340
    84         30
    85        220
    87         30
    90         20
    91        200
    92        100
    93        520
    94         40
    95         40
    96         20
    97         60
    98         20
    99         10
   102         10
   103         20
   104         40
   105         50
   107         20
   109         30
   110         20
   111         60
   112         20
   113         20
   115         30
   118         20
   119        999
   120        170
   121         20
   123         20
   124         10
   125         20
   127         10
   128         10
   129         20
   135         20
   136         10
   137         10
   139         80
   140         20
   141         40
   149         80
   150         10
   151         10
   152         10
   155        240
   156         20
   157        230
   158         10
   167         20
   168         30
   169         10
   173         20
   175         10
   177         10
   182         10
   183        400
   184         50
   185        380
   186         30
   199         30
   201         30
   223         10
   225         30
   227         30
   231         10
   240         30
   242         10
   256         20
   260         10
   274         10
   279         20
   318        380
   319         60
   320        390
   321         60