##TITLE=Library Entry 9040
##JCAMP-DX=Revision 4.10 
##DATA TYPE=MASS SPECTRUM
##SAMPLE DESCRIPTION=ORMSBG,10(1)74(1975); F. COMPERNOLLE
##NAMES=HP
##CAS NAME=Butanamide, N-formyl-2-hydroxy-3-methyl-2-(1-methylethyl)-
##MOLFORM=C9H17NO3
##CAS REGISTRY NO=56440-42-7
##MP= -300
##BP= -300
##MW= 187
##$RETENTION INDEX=0
##$CONDENSED SPECTRUM=NO
##NPOINTS= 23
##XYDATA=(XY..XY) 1 
    41        380
    42         70
    43        999
    44        130
    45        240
    46        310
    55        340
    56         30
    57         70
    59        140
    71        790
    72         70
    73        170
    83        140
    84         30
    97         50
    99         70
   115        760
   116         60
   127         25
   144         25
   169         10
   187          0