##TITLE=Library Entry 31073
##JCAMP-DX=Revision 4.10 
##DATA TYPE=MASS SPECTRUM
##SAMPLE DESCRIPTION=ORMSBG,10(1)74(1975); F. COMPERNOLLE
##NAMES=HP
##CAS NAME=4-Oxazolidinone, 2-methoxy-5,5-bis(1-methylethyl)-
##MOLFORM=C10H19NO3
##CAS REGISTRY NO=56440-37-0
##MP= -300
##BP= -300
##MW= 201
##$RETENTION INDEX=0
##$CONDENSED SPECTRUM=NO
##NPOINTS= 27
##XYDATA=(XY..XY) 1 
    41        200
    42         40
    43        550
    44         20
    55        150
    60        999
    61         40
    67         15
    69         20
    70         20
    71        300
    72         10
    83        280
    84         10
    85         10
    86         10
    97         50
   112         80
   115         50
   125        180
   126         20
   127        110
   158        900
   159        200
   169         30
   170         80
   201         50