##TITLE=Library Entry 64188
##JCAMP-DX=Revision 4.10 
##DATA TYPE=MASS SPECTRUM
##SAMPLE DESCRIPTION=A.A.Kutin, Moscow, Russia
##NAMES=HP
##CAS NAME=Ethyl 4-(benzyloxy)benzoate
##MOLFORM=C16H16O3
##CAS REGISTRY NO=56441-55-5
##MP= -300
##BP= -300
##MW= 256
##$RETENTION INDEX=0
##$CONDENSED SPECTRUM=NO
##NPOINTS= 93
##XYDATA=(XY..XY) 1 
    37          0
    38          4
    39         21
    40          1
    41          7
    42          0
    43          1
    44          0
    45          2
    50          5
    51          9
    52          3
    53          4
    54          0
    55          1
    57          0
    61          0
    62          2
    63         18
    64         15
    65         86
    66          6
    67          0
    68          0
    69          0
    71          0
    74          0
    75          2
    76          6
    77          5
    78          1
    79          0
    81          7
    82          0
    85          0
    86          0
    87          0
    89         11
    91        999
    92        107
    93          8
    94          0
    95          0
   101          0
   102          0
   103          0
   104          1
   105          1
   106          0
   107          0
   109         10
   110          0
   115          0
   116          0
   120          7
   121          3
   122          0
   126          0
   127          0
   128          0
   129          0
   131          0
   137          1
   138          0
   139          0
   141          0
   150          0
   151          0
   152          2
   153          2
   154          0
   155          1
   156          0
   165          2
   166          0
   171          0
   172          0
   179          0
   181          2
   182          0
   183          1
   184          0
   209          0
   211         29
   212          4
   213          0
   225          0
   227          0
   229          0
   256        112
   257         19
   258          2
   259          0