##TITLE=Library Entry 93252
##JCAMP-DX=Revision 4.10 
##DATA TYPE=MASS SPECTRUM
##SAMPLE DESCRIPTION=NIST Mass Spectrometry Data Center, 1994
##NAMES=HP
##CAS NAME=2,4-Difluorobenzyl alcohol
##MOLFORM=C7H6F2O
##CAS REGISTRY NO=56456-47-4
##MP= -300
##BP= -300
##MW= 144
##$RETENTION INDEX=0
##$CONDENSED SPECTRUM=NO
##NPOINTS= 101
##XYDATA=(XY..XY) 1 
    13          4
    14          5
    17         14
    18         18
    19          8
    20          8
    25          5
    26         25
    27         17
    28         41
    29        322
    30         64
    31        373
    32         11
    33         16
    36          8
    37         71
    38         96
    39        121
    40         11
    42          5
    43          2
    44         20
    45         14
    46          6
    47         13
    48         15
    49         49
    50        239
    51        205
    52         36
    53         16
    55         12
    56         59
    57        194
    58         10
    60         11
    61         92
    62        141
    63        384
    64         36
    65         14
    66          6
    67          6
    68        128
    69        113
    70         75
    71         37
    72          6
    73         33
    74        123
    75        481
    76         53
    77        100
    78          9
    79         13
    80         40
    81        122
    82         13
    83         22
    84         10
    85         19
    86         24
    87         31
    88         74
    89         17
    92         36
    93         69
    94         97
    95        970
    96        223
    97        123
    98         10
    99         31
   100         17
   101        172
   102         12
   103          5
   104          6
   105         21
   106          5
   107        110
   108         10
   110          6
   111          6
   112         23
   113        204
   114        199
   115        999
   116         75
   123        734
   124        239
   125        152
   126         77
   127        591
   128         42
   141        129
   143        699
   144        968
   145         76
   146          5