##TITLE=Library Entry 70464
##JCAMP-DX=Revision 4.10 
##DATA TYPE=MASS SPECTRUM
##SAMPLE DESCRIPTION=NIST Mass Spectrometry Data Center
##NAMES=HP
##CAS NAME=2-Chloro-6-fluorobenzyl alcohol
##MOLFORM=C7H6ClFO
##CAS REGISTRY NO=56456-50-9
##MP= -300
##BP= -300
##MW= 160
##$RETENTION INDEX=0
##$CONDENSED SPECTRUM=NO
##NPOINTS= 123
##XYDATA=(XY..XY) 1 
    14          1
    17          1
    25          1
    26          8
    27         14
    28         10
    29         86
    30         13
    31         96
    32          2
    33          4
    35          4
    36          9
    37         36
    38         46
    39         47
    40          3
    42          2
    43         12
    44         11
    45         10
    46          3
    47         16
    48         13
    49         33
    50        173
    51        155
    52         57
    53         11
    55          8
    56         26
    57         90
    58          4
    59          2
    60         11
    61         61
    62         89
    63         80
    64          8
    65          7
    66          4
    67          8
    68         84
    69         69
    70         52
    71         14
    72         11
    73         51
    74        163
    75        425
    76         65
    77        305
    78         27
    79         35
    81         68
    82         12
    83         22
    84         23
    85         32
    86         27
    87         23
    88          6
    89          8
    90          4
    91         18
    92         26
    93         91
    94        144
    95        661
    96        182
    97        999
    98         68
    99          7
   100          1
   101          1
   102          5
   103         13
   104         12
   105         52
   106         11
   107        241
   108         61
   109         57
   110         18
   111        173
   112         48
   113         65
   114         16
   115          9
   116          1
   117         46
   118          3
   119         15
   120          1
   121          2
   123        483
   124        273
   125        899
   126         70
   127          5
   128          6
   129         76
   130         67
   131        116
   132         28
   133         28
   134          2
   139        289
   140         33
   141        100
   142         22
   143        284
   144         28
   145         87
   146          8
   157         87
   158         19
   159        330
   160        678
   161        147
   162        212
   163         16
   164          1