##TITLE=Library Entry 55082
##JCAMP-DX=Revision 4.10 
##DATA TYPE=MASS SPECTRUM
##SAMPLE DESCRIPTION=Chemical Concepts
##NAMES=HP
##CAS NAME=Cyclopentanol, 2,4,4-trimethyl-
##MOLFORM=C8H16O
##CAS REGISTRY NO=56470-83-8
##MP= -300
##BP= -300
##MW= 128
##$RETENTION INDEX=1365
##$CONDENSED SPECTRUM=NO
##NPOINTS= 63
##XYDATA=(XY..XY) 1 
    25          7
    27        118
    28         17
    29        138
    30          5
    31         30
    38          6
    39        135
    40         25
    41        430
    42         48
    43        235
    44         25
    45         28
    48          3
    49          2
    50          5
    51         14
    52          6
    53         62
    54         22
    55        198
    56        124
    57        322
    58         33
    59        104
    60          4
    63          3
    65         10
    66          4
    67         66
    68         47
    69        571
    70         63
    71        238
    72         93
    73         20
    77          9
    78          2
    79          9
    80          3
    81         25
    82         12
    83        113
    84        200
    85        999
    86         63
    87          5
    91          4
    93          6
    95        248
    96         20
    97         15
    98          1
    99          2
   100          2
   109          6
   110         32
   111         10
   113         52
   114          4
   128         33
   129          3