##TITLE=Library Entry 90786
##JCAMP-DX=Revision 4.10 
##DATA TYPE=MASS SPECTRUM
##SAMPLE DESCRIPTION=B. Derendyaev, Novosibirsk Institute of Organic Chemist
ry
##NAMES=HP
##CAS NAME=Acetoxy-(3-dimethylaminopropyl)butylborane
##MOLFORM=C11H24BNO2
##CAS REGISTRY NO=56471-72-8
##MP= -300
##BP= -300
##MW= 213
##$RETENTION INDEX=0
##$CONDENSED SPECTRUM=NO
##NPOINTS= 18
##XYDATA=(XY..XY) 1 
    41         59
    42         69
    43        639
    56         79
    58        319
    60        169
    71         59
    72        179
    83         59
    98        119
   112         59
   113        209
   114        999
   115         69
   154         69
   155        139
   156        639
   157         59