##TITLE=Library Entry 88361
##JCAMP-DX=Revision 4.10 
##DATA TYPE=MASS SPECTRUM
##SAMPLE DESCRIPTION=Japan AIST/NIMC Database- Spectrum MS-IW-6203
##NAMES=HP
##CAS NAME=3-Ethyl-3-buten-2-one semicarbazone
##MOLFORM=C7H13N3O
##CAS REGISTRY NO=5648-02-2
##MP= -300
##BP= -300
##MW= 155
##$RETENTION INDEX=0
##$CONDENSED SPECTRUM=NO
##NPOINTS= 83
##XYDATA=(XY..XY) 1 
    15          7
    16          2
    17          6
    18          7
    26          4
    27         51
    28         36
    29         47
    30         33
    31          5
    32          6
    37          1
    38          3
    39         73
    40         11
    41         86
    42        131
    43         67
    44         75
    45          4
    50          6
    51         13
    52          9
    53         69
    54         81
    55        106
    56         84
    57         63
    58          4
    59          2
    60          1
    61          6
    62          1
    63          2
    64          1
    65         10
    66          9
    67         50
    68         39
    69         30
    70         44
    71          7
    72          9
    73          1
    74          9
    75          1
    77          7
    78          2
    79         17
    80         24
    81         56
    82         20
    83        167
    84         25
    85          5
    93          2
    94         47
    95         32
    96         84
    97        470
    98         30
    99          2
   100         13
   109          7
   110          8
   111        999
   112        257
   113         18
   114          1
   115          1
   123         12
   124          1
   125          1
   126          2
   137          4
   138          3
   139          2
   140         51
   141          4
   154         25
   155        397
   156         52
   157          4