##TITLE=Library Entry 71073
##JCAMP-DX=Revision 4.10 
##DATA TYPE=MASS SPECTRUM
##SAMPLE DESCRIPTION=Chemical Concepts
##NAMES=HP
##CAS NAME=1-Aziridinecarboxylic acid, 2,2,3,3-tetramethyl-, ethyl ester
##MOLFORM=C9H17NO2
##CAS REGISTRY NO=56488-02-9
##MP= -300
##BP= -300
##MW= 171
##$RETENTION INDEX=0
##$CONDENSED SPECTRUM=NO
##NPOINTS= 101
##XYDATA=(XY..XY) 1 
    26         17
    27        196
    28         89
    29        492
    30        127
    31         27
    36          6
    37          2
    38          9
    39        194
    40         52
    41        429
    42        559
    43        156
    44        157
    45         39
    46         10
    47          2
    50          4
    51         14
    52         10
    53         42
    54         35
    55        258
    56         85
    57        145
    58        698
    59         79
    60          2
    61          4
    62        116
    63          7
    64          2
    65         23
    66         13
    67        177
    68         46
    69         58
    70         34
    71         14
    72          2
    73          2
    74          6
    77          8
    78          2
    79         13
    80          6
    81         23
    82         94
    83        396
    84        533
    85         43
    86        133
    87         21
    88          4
    89          2
    90         26
    91          5
    92          6
    93          5
    94          3
    95         10
    96         12
    97         14
    98        999
    99         94
   100         10
   101          4
   102         31
   103          3
   104          2
   105          2
   107          2
   109          4
   110         59
   111          9
   112         22
   113         18
   114          4
   115          2
   116         19
   117          3
   124          2
   125          2
   126         91
   127         12
   128         70
   129         29
   130        434
   131         36
   132          5
   141          3
   142         61
   143          8
   156        382
   157         41
   158          3
   169          3
   171         89
   172         11
   173          1