##TITLE=Library Entry 6087
##JCAMP-DX=Revision 4.10 
##DATA TYPE=MASS SPECTRUM
##SAMPLE DESCRIPTION=NIST Mass Spectrometry Data Center, 1990.
##NAMES=HP
##CAS NAME=2-Pentanone, 3-methyl-
##MOLFORM=C6H12O
##CAS REGISTRY NO=565-61-7
##MP= -300
##BP= -300
##MW= 100
##$RETENTION INDEX=752
##$CONDENSED SPECTRUM=NO
##NPOINTS= 23
##XYDATA=(XY..XY) 1 
    15         96
    26         41
    27        215
    28         25
    29        229
    38         22
    39        191
    40         36
    41        445
    42        102
    43        999
    44         29
    50         20
    51         28
    53         31
    55         53
    56        122
    57        380
    58         20
    71         18
    72        185
    85         51
   100        117