##TITLE=Library Entry 8777
##JCAMP-DX=Revision 4.10 
##DATA TYPE=MASS SPECTRUM
##SAMPLE DESCRIPTION=NIST Mass Spectrometry Data Center, 1994
##NAMES=HP
##CAS NAME=3-Pentanone, 2,4-dimethyl-
##MOLFORM=C7H14O
##CAS REGISTRY NO=565-80-0
##MP= -300
##BP= -300
##MW= 114
##$RETENTION INDEX=793
##$CONDENSED SPECTRUM=NO
##NPOINTS= 39
##XYDATA=(XY..XY) 1 
    13          0
    14          2
    15         17
    16          0
    18          0
    26         17
    27        138
    28         41
    29         10
    31          1
    32          0
    37          3
    38         11
    39        103
    40         23
    41        211
    42          0
    43        999
    44         32
    45          1
    50          2
    51          3
    52          0
    53          5
    55         18
    56         10
    57          4
    58          0
    59          0
    68          0
    70         89
    71        423
    72         19
    73          1
    85          0
    99          1
   114        111
   115         10
   116          0