##TITLE=Library Entry 19741
##JCAMP-DX=Revision 4.10 
##DATA TYPE=MASS SPECTRUM
##SAMPLE DESCRIPTION=D.D.FAULK CENTRAL MISSOURI STATE COLLEGE, WARRENSBURG,
 USA
##NAMES=HP
##CAS NAME=3-Penten-2-one, 3-methyl-
##MOLFORM=C6H10O
##CAS REGISTRY NO=565-62-8
##MP= -300
##BP= -300
##MW= 98
##$RETENTION INDEX=859
##$CONDENSED SPECTRUM=NO
##NPOINTS= 74
##XYDATA=(XY..XY) 1 
    12          4
    13         11
    14         47
    15        214
    16          4
    17          2
    18          7
    19          0
    24          0
    25          4
    26         52
    27        317
    28         84
    29        287
    30          7
    31          3
    32          2
    36          2
    37         17
    38         31
    39        215
    40         22
    41         88
    42         42
    43        551
    44         14
    45          8
    47          0
    48          1
    49         10
    50         52
    51         60
    52         23
    53         99
    54         30
    55        999
    56         65
    57          4
    58          3
    59          0
    60          0
    61          3
    62          4
    63          4
    64          0
    65          3
    66          1
    67          4
    68          1
    69         21
    70          4
    71          3
    72          1
    73          9
    74          1
    75          0
    77          3
    78          1
    79          6
    80          1
    81          2
    82         10
    83        249
    84         14
    85          1
    86          0
    87          0
    88          0
    91          0
    96          0
    97          1
    98        328
    99         22
   100          1