##TITLE=Library Entry 14737
##JCAMP-DX=Revision 4.10 
##DATA TYPE=MASS SPECTRUM
##SAMPLE DESCRIPTION=Exported from NIST MS Search
##NAMES=HP
##CAS NAME=Renanolone
##MOLFORM=C21H32O3
##CAS REGISTRY NO=565-99-1
##MP= -300
##BP= -300
##MW= 332
##$RETENTION INDEX=0
##$CONDENSED SPECTRUM=NO
##NPOINTS= 124
##XYDATA=(XY..XY) 1 
    41        251
    43        999
    44         39
    45         15
    53         85
    54         10
    55        259
    56         10
    57         39
    59         20
    67        213
    68         46
    69         98
    70         13
    71         88
    77        101
    78         31
    79        249
    80         59
    81        329
    82         28
    83         54
    84         46
    85        379
    86         18
    91        210
    92         39
    93        306
    94        129
    95        223
    96         36
    97         26
    98         10
   105        194
   106         83
   107        246
   108        285
   109         20
   110         18
   117         28
   118         72
   119        116
   120         57
   121        155
   122         77
   123        103
   124         28
   125         18
   129         10
   131         62
   132         20
   133        119
   134         36
   135        161
   136         36
   137         36
   143         18
   144         10
   145         36
   146         15
   147        153
   148         41
   149         51
   150          7
   151         46
   156          5
   157         23
   158          5
   159         83
   160         62
   161          7
   162          7
   171         18
   172         13
   173         85
   174         23
   175        103
   176         18
   177         98
   178        155
   179         18
   187         15
   188         23
   189         28
   190         15
   191        202
   192         18
   193        137
   194          5
   197          7
   199         10
   201         18
   203         13
   204         20
   206        179
   207         41
   219        631
   220         88
   221         13
   238         18
   239         13
   241         15
   242         15
   243         33
   244         15
   245         20
   253         57
   254          7
   260        587
   261        109
   262          7
   271         18
   273         10
   281         20
   299        290
   300         59
   314        410
   315        101
   316         13
   317         72
   318         15
   332        680
   333        166
   334         18