##TITLE=Library Entry 14613
##JCAMP-DX=Revision 4.10 
##DATA TYPE=MASS SPECTRUM
##SAMPLE DESCRIPTION=Exported from NIST MS Search
##NAMES=HP
##CAS NAME=Pregnane-3,20-dione, 11-hydroxy-, (5.alpha.,11.beta.)-
##MOLFORM=C21H32O3
##CAS REGISTRY NO=565-94-6
##MP= -300
##BP= -300
##MW= 332
##$RETENTION INDEX=0
##$CONDENSED SPECTRUM=NO
##NPOINTS= 119
##XYDATA=(XY..XY) 1 
    41        246
    43        999
    45         20
    53         62
    55        308
    56         10
    57         44
    67        167
    68         36
    69        115
    70         20
    71        227
    77         70
    78         18
    79        164
    80         41
    81        256
    82         31
    83         57
    84        151
    85         99
    91        128
    92         39
    93        206
    94         57
    95        212
    96         28
    97         78
    98         18
    99         20
   105        146
   106         44
   107        175
   108         57
   109         96
   110         49
   111         89
   117         18
   118         20
   119         94
   120         62
   121        136
   122         60
   123         70
   124         89
   125         60
   131         55
   132         39
   133         91
   134         28
   135         65
   136         41
   137         39
   138         20
   139         10
   143         31
   144         20
   145         68
   146         18
   147         78
   148         20
   149         78
   150         10
   151         10
   157         26
   158         13
   159         57
   160          7
   161         96
   162         18
   163         47
   171         60
   172         26
   173         47
   174         18
   175         18
   176         39
   177         20
   185         23
   186         18
   187         34
   189         20
   190         15
   191         31
   197         15
   199         10
   201         20
   202          7
   203         18
   205         10
   211         49
   213         31
   215         20
   226         10
   227         18
   228         20
   229        209
   230         60
   231         15
   241         52
   243         31
   244         91
   245         18
   256         68
   257         31
   269         31
   270         18
   271        455
   272         78
   281         75
   282         10
   296         62
   297         15
   299        120
   300         18
   314        989
   315        219
   316         31
   332         15