##TITLE=Library Entry 9484
##JCAMP-DX=Revision 4.10 
##DATA TYPE=MASS SPECTRUM
##SAMPLE DESCRIPTION=LAC, NIDDK, NIH, Bethesda, MD 20892
##NAMES=HP
##CAS NAME=Pregnan-20-one, 3,11-dihydroxy-, (3.beta.,5.alpha.,11.alpha.)-
##MOLFORM=C21H34O3
##CAS REGISTRY NO=565-91-3
##MP= -300
##BP= -300
##MW= 334
##$RETENTION INDEX=0
##$CONDENSED SPECTRUM=NO
##NPOINTS= 231
##XYDATA=(XY..XY) 1 
    41        173
    43        999
    45         56
    47          9
    48          1
    49          6
    51          4
    53         55
    55        180
    57         86
    58         11
    59          5
    60          0
    61          1
    63          0
    65         19
    67        135
    69         91
    70         10
    71        101
    73          6
    76          0
    77         49
    79        150
    80         13
    81        189
    83         46
    84        104
    85         63
    86         16
    88          4
    89          0
    91        101
    93        134
    94         40
    95        123
    96         20
    97         27
    98         12
    99          8
   100          1
   101          0
   102          2
   103          3
   105         99
   106         50
   107        127
   108         56
   109         69
   110          8
   111         16
   113          3
   115          9
   116          2
   117         27
   118          9
   119         63
   120         53
   121         65
   122         26
   123         29
   124         41
   125         20
   126          1
   127          2
   129         14
   131         59
   132         41
   133         67
   134         22
   135         40
   136         12
   137         19
   138         13
   139          6
   141          8
   142          2
   143         28
   144         15
   145         54
   146         20
   147         66
   149         45
   150          4
   151         17
   152          7
   153          3
   155          6
   157         24
   158         11
   159         43
   160         19
   161         47
   162          9
   163         17
   164          9
   165          8
   166          3
   167          2
   168          1
   169          6
   170          2
   171         20
   172         16
   173         25
   174          8
   175         17
   176          6
   177         11
   178         95
   179         13
   181          3
   182          0
   183          6
   184          3
   185         15
   186          9
   187         18
   188          4
   189         18
   190         42
   191         22
   192          7
   193          5
   194          8
   195          3
   197          7
   198          1
   199         16
   200          5
   201          8
   202          6
   203         12
   204         11
   205          7
   206          4
   207          4
   208          0
   209          4
   210          0
   211          8
   212          2
   213         61
   214          6
   215         35
   216          9
   217          8
   218          8
   219          3
   220          1
   221          2
   222          0
   223          4
   225          9
   227         14
   228         17
   229         14
   230          8
   231         18
   232         13
   233         12
   234          0
   235          3
   237          1
   238          1
   239          5
   240          9
   241          8
   243         14
   244          5
   245          2
   246         25
   247          6
   248          2
   249          9
   250          1
   251          6
   252          0
   253          7
   255         50
   256         12
   257         17
   258         21
   259          8
   260          1
   261          2
   262          1
   263          0
   264         14
   265         15
   266          2
   267          0
   269          6
   270          3
   271         26
   272         11
   273         28
   274          6
   275          1
   276          4
   277          1
   279          1
   280          6
   281         12
   283         43
   284          9
   285          1
   287          7
   288          2
   289          1
   290          1
   291          1
   296          2
   297          4
   298         76
   299         54
   301         63
   302         11
   303          1
   314          0
   315          9
   316        143
   317         52
   318          9
   319          3
   331          0
   332          3
   333          4
   334         20
   335          6
   336          1