##TITLE=Library Entry 14605
##JCAMP-DX=Revision 4.10 
##DATA TYPE=MASS SPECTRUM
##SAMPLE DESCRIPTION=Exported from NIST MS Search
##NAMES=HP
##CAS NAME=Pregnane-3,20-dione, 11-hydroxy-, (5.alpha.,11.alpha.)-
##MOLFORM=C21H32O3
##CAS REGISTRY NO=565-96-8
##MP= -300
##BP= -300
##MW= 332
##$RETENTION INDEX=0
##$CONDENSED SPECTRUM=NO
##NPOINTS= 127
##XYDATA=(XY..XY) 1 
    41        310
    43        999
    53         78
    55        352
    57         39
    67        210
    68         21
    69        152
    70         15
    71        210
    77         97
    78         18
    79        250
    80         52
    81        368
    82         52
    83         68
    84        121
    85        147
    91        168
    92         18
    93        234
    94         86
    95        276
    96         26
    97        105
    98         15
   105        168
   106         47
   107        247
   108        150
   109        142
   110         47
   111         50
   117         15
   118          5
   119        118
   120         92
   121        157
   122        181
   123        115
   124         65
   125         39
   131         68
   132         23
   133        105
   134         57
   135        105
   136         26
   137         57
   138          7
   157         42
   158         10
   159         86
   160         18
   161        100
   162         50
   163         78
   164         10
   169         10
   170          5
   171         50
   172         31
   173         63
   174         21
   175         50
   176         47
   177         36
   178          5
   185         18
   186         10
   187         39
   188         13
   189         36
   190         26
   191         28
   192         21
   193          7
   197          7
   199         31
   200          5
   201         26
   203         31
   204          7
   205         15
   206          7
   207          7
   211         50
   213         31
   215         18
   216         10
   217         68
   218          5
   220          7
   225         10
   226          7
   227         10
   228         76
   229        181
   230         60
   231         10
   239          5
   241         23
   242          7
   243         15
   244        105
   245         18
   253         26
   256         55
   257         55
   258          2
   259          2
   262         47
   263          5
   271        252
   272         68
   281         47
   286          5
   287          7
   296        115
   297         36
   299        134
   300         15
   314        686
   315        147
   332        136
   333         15