##TITLE=Library Entry 31441
##JCAMP-DX=Revision 4.10 
##DATA TYPE=MASS SPECTRUM
##SAMPLE DESCRIPTION=Japan AIST/NIMC Database- Spectrum MS-IW-1282
##NAMES=HP
##CAS NAME=Propanoic acid, 2,3-dichloro-
##MOLFORM=C3H4Cl2O2
##CAS REGISTRY NO=565-64-0
##MP= -300
##BP= -300
##MW= 142
##$RETENTION INDEX=1124
##$CONDENSED SPECTRUM=NO
##NPOINTS= 81
##XYDATA=(XY..XY) 1 
    12          4
    13          6
    14          9
    15         16
    16          3
    17          2
    18          7
    24         10
    25         52
    26        292
    27        634
    28         86
    29         42
    30          1
    31          5
    32          2
    35         37
    36        241
    37         15
    38         77
    39          2
    40          2
    41          8
    42         26
    43         29
    44         85
    45        350
    46         10
    47         13
    48         19
    49        102
    50         22
    51         31
    52         11
    53         48
    54         11
    55        109
    56          5
    59          6
    60         48
    61        433
    62        999
    63        176
    64        367
    65         28
    67          5
    70          1
    71        179
    72         98
    73          8
    76         45
    77          3
    78         28
    79          2
    80          5
    81          1
    82          1
    87          1
    89        118
    90          4
    91         38
    92          1
    93          1
    95          3
    96         10
    97         80
    98          9
    99         51
   100          2
   101          8
   105          3
   106        287
   107        566
   108        109
   109        184
   110          7
   111          1
   125          3
   127          2
   143          1
   145          1