##TITLE=Library Entry 69806
##JCAMP-DX=Revision 4.10 
##DATA TYPE=MASS SPECTRUM
##SAMPLE DESCRIPTION=Exported from NIST MS Search
##NAMES=HP
##CAS NAME=2-Pentene, 2,3,4-trimethyl-
##MOLFORM=C8H16
##CAS REGISTRY NO=565-77-5
##MP= -300
##BP= -300
##MW= 112
##$RETENTION INDEX=766
##$CONDENSED SPECTRUM=NO
##NPOINTS= 77
##XYDATA=(XY..XY) 1 
    12          1
    13          2
    14          9
    15        127
    16          6
    25          1
    26         15
    27        274
    28         36
    29        137
    30          3
    31          1
    36          1
    37          6
    38         22
    39        312
    40         45
    41        495
    42         43
    43        166
    44          6
    45          2
    46          4
    47          1
    48          1
    49          2
    50         24
    51         54
    52         23
    53        121
    54         25
    55        881
    56         54
    57        208
    58          9
    61          2
    62          6
    63         14
    64          3
    65         25
    66         11
    67         56
    68         11
    69        246
    70         34
    71          2
    73          1
    74          2
    75          1
    76          1
    77         25
    78          6
    79         31
    80          6
    81         61
    82          7
    83          5
    84          1
    85          1
    86          1
    87          1
    89          1
    91          6
    92          1
    93          3
    94          1
    95         17
    96         15
    97        999
    98         77
    99          3
   109          1
   110          1
   111          3
   112        255
   113         27
   114          1