##TITLE=Library Entry 1773
##JCAMP-DX=Revision 4.10 
##DATA TYPE=MASS SPECTRUM
##SAMPLE DESCRIPTION=THE M.W. KELLOGG CO., JERSEY CITY, N.J., USA
##NAMES=HP
##CAS NAME=1,3-Butadiene, 1,1,2-trifluoro-
##MOLFORM=C4H3F3
##CAS REGISTRY NO=565-65-1
##MP= -300
##BP= -300
##MW= 108
##$RETENTION INDEX=0
##$CONDENSED SPECTRUM=NO
##NPOINTS= 61
##XYDATA=(XY..XY) 1 
    19          9
    20          3
    24         16
    25         31
    26         85
    27        142
    28          3
    31        503
    32         23
    33         10
    36         34
    37        158
    38        215
    39        999
    40         33
    41          1
    43          8
    44         43
    45         27
    46          2
    48          7
    49         20
    50         68
    51        100
    52          1
    53          8
    54         41
    55         30
    56        160
    57        892
    58        184
    59          6
    62          9
    63         13
    64        221
    65          5
    67          2
    68         32
    69        103
    70          6
    74          7
    75        141
    76          6
    77         39
    78          1
    81         12
    82        137
    83          3
    86          3
    87         33
    88        160
    89         37
    90          2
    93         31
    94          2
   105          1
   106         40
   107         38
   108        830
   109         36
   110          1