##TITLE=Library Entry 14073
##JCAMP-DX=Revision 4.10 
##DATA TYPE=MASS SPECTRUM
##SAMPLE DESCRIPTION=N.W. Davies, Centr. Sci. Lab., Univ. Tasmania, Hobart,
 Australia
##NAMES=HP
##CAS NAME=Acetamide, N-[4-[(4-aminophenyl)sulfonyl]phenyl]-
##MOLFORM=C14H14N2O3S
##CAS REGISTRY NO=565-20-8
##MP= -300
##BP= -300
##MW= 290
##$RETENTION INDEX=0
##$CONDENSED SPECTRUM=NO
##NPOINTS= 87
##XYDATA=(XY..XY) 1 
    26         26
    27         56
    30         10
    31         17
    33          6
    37         13
    38         30
    39        127
    41         43
    42         60
    43        999
    44         33
    45         27
    50         12
    51         21
    52         36
    53         29
    54         16
    55         16
    56          7
    57         19
    58        267
    59         13
    60         14
    62         13
    63         56
    64         50
    65        267
    66         53
    67          9
    69         15
    70          6
    71          8
    74          7
    75          9
    76         12
    77         12
    78         12
    79         11
    80         75
    81         18
    83          8
    90         11
    91         38
    92        227
    93        181
    94         16
    95          8
    97          6
   105          9
   108        699
   109        120
   110          9
   111         12
   112          6
   115          9
   117          8
   123         16
   124         38
   125         17
   127         43
   128          8
   129         15
   130          9
   139         10
   140        502
   141        182
   142         39
   143         15
   156         55
   166          9
   167         19
   168         11
   169          6
   182         15
   183         46
   184         59
   185          9
   234          9
   247          9
   248        746
   249        121
   250         46
   274         10
   290        632
   291        114
   292         39