##TITLE=Library Entry 72934
##JCAMP-DX=Revision 4.10 
##DATA TYPE=MASS SPECTRUM
##SAMPLE DESCRIPTION=Japan AIST/NIMC Database- Spectrum MS-IW-1352
##NAMES=HP
##CAS NAME=2-Butenoic acid, 2-methyl-, (Z)-
##MOLFORM=C5H8O2
##CAS REGISTRY NO=565-63-9
##MP= -300
##BP= -300
##MW= 100
##$RETENTION INDEX=909
##$CONDENSED SPECTRUM=NO
##NPOINTS= 60
##XYDATA=(XY..XY) 1 
    14          1
    15          7
    17          3
    18         11
    25          4
    26         39
    27        240
    28        101
    29        360
    30          9
    31         10
    32          1
    36          1
    37         11
    38         19
    39        309
    40         22
    41        146
    42         16
    43         81
    44         11
    45         95
    46          4
    47          3
    48          1
    49         12
    50         53
    51         58
    52         21
    53        200
    54        314
    55        897
    56         92
    57         55
    58         14
    59          1
    60         20
    61          1
    66          1
    67          9
    68          1
    69         16
    70          2
    71         17
    72         25
    73         20
    74          7
    81         30
    82        312
    83        133
    84          8
    85        303
    86         12
    87          1
    97          5
    98          3
    99         44
   100        999
   101         69
   102          6