##TITLE=Library Entry 14501
##JCAMP-DX=Revision 4.10 
##DATA TYPE=MASS SPECTRUM
##SAMPLE DESCRIPTION=Exported from NIST MS Search
##NAMES=HP
##CAS NAME=Pregnan-20-one, 3,11-dihydroxy-, (3.alpha.,5.beta.,11.beta.)-
##MOLFORM=C21H34O3
##CAS REGISTRY NO=565-92-4
##MP= -300
##BP= -300
##MW= 334
##$RETENTION INDEX=0
##$CONDENSED SPECTRUM=NO
##NPOINTS= 119
##XYDATA=(XY..XY) 1 
    41        261
    43        999
    44         20
    45         15
    53         50
    55        296
    57         45
    67        216
    68         30
    69        120
    70         17
    71        188
    77         62
    79        206
    80         30
    81        366
    82         30
    83         70
    84         67
    85        148
    91        160
    92         37
    93        221
    94         82
    95        236
    96         22
    97         45
    98         17
   105        160
   106         85
   107        221
   108         80
   109        120
   110         20
   111          5
   117         25
   118         32
   119        113
   120        135
   121        118
   122         42
   123         37
   124         37
   125         17
   131         95
   132        100
   133        100
   134         35
   135         65
   136         17
   137         17
   143         30
   144         22
   145         90
   146         32
   147        118
   148         37
   149         90
   150         10
   157         37
   158         15
   159         70
   160         37
   161         60
   162         12
   163         12
   165         62
   171         35
   172         20
   173         57
   174         22
   175         30
   185         20
   187         30
   188         17
   189         17
   190         40
   191          2
   199         25
   200          2
   201          2
   202         27
   203         10
   213        193
   214         57
   215         20
   225         17
   227         42
   228         62
   229         17
   231         17
   232         17
   240         25
   241         20
   242         15
   243         20
   244         42
   245          7
   246         30
   255        180
   256         45
   257         20
   258         17
   265         17
   273         20
   280         65
   281         32
   282          5
   283        130
   284         17
   298        708
   299        165
   300         15
   301         65
   302          7
   316        326
   317         60
   318          5
   334          7