##TITLE=Library Entry 29598
##JCAMP-DX=Revision 4.10 
##DATA TYPE=MASS SPECTRUM
##SAMPLE DESCRIPTION=CONTINENTAL OIL COMPANY, PONCA CITY, OKLAHOMA, USA
##NAMES=HP
##CAS NAME=3-Pentanol, 2-methyl-
##MOLFORM=C6H14O
##CAS REGISTRY NO=565-67-3
##MP= -300
##BP= -300
##MW= 102
##$RETENTION INDEX=775
##$CONDENSED SPECTRUM=NO
##NPOINTS= 67
##XYDATA=(XY..XY) 1 
    12          0
    13          2
    14         16
    15         77
    16          5
    17          2
    18          5
    19          0
    25          1
    26         33
    27        265
    28         67
    29        214
    30         22
    31        452
    32          9
    33          1
    34          0
    36          0
    37          5
    38         15
    39        137
    40         23
    41        277
    42         43
    43        217
    44         15
    45        148
    46          3
    47          0
    50          4
    51          6
    52          2
    53         16
    54          4
    55        211
    56         24
    57         94
    58        184
    59        999
    60         33
    61          3
    62          0
    63          1
    64          0
    65          1
    66          0
    67          3
    68          0
    69         23
    70          2
    71          8
    72         13
    73        414
    74         18
    75          1
    76          0
    83          1
    84          2
    85          4
    86          0
    87          2
    88          0
    89          0
   101          2
   102          2
   103          0