##TITLE=Library Entry 3975
##JCAMP-DX=Revision 4.10 
##DATA TYPE=MASS SPECTRUM
##SAMPLE DESCRIPTION=TNO Volatile Compounds in Food - Chemical Concepts
##NAMES=HP
##CAS NAME=2(3H)-Thiophenone, dihydro-5-methyl-
##MOLFORM=C5H8OS
##CAS REGISTRY NO=5650-74-8
##MP= -300
##BP= -300
##MW= 116
##$RETENTION INDEX=0
##$CONDENSED SPECTRUM=NO
##NPOINTS= 41
##XYDATA=(XY..XY) 1 
    26         41
    27        172
    28         24
    29         42
    30          5
    34         11
    37         11
    38         16
    39        135
    40          8
    41        999
    42         60
    44          6
    45        162
    46         23
    47         28
    50         13
    51         10
    54         14
    55        330
    56        624
    57         23
    58         42
    59        134
    60        128
    61        190
    62          5
    63          8
    68          1
    71          4
    73         28
    74         17
    82          5
    83          1
    86          3
    87          5
    88          5
   101         44
   116        911
   117         44
   118         30