##TITLE=Library Entry 52980
##JCAMP-DX=Revision 4.10 
##DATA TYPE=MASS SPECTRUM
##SAMPLE DESCRIPTION=V.G.Zaikin, TIPS RAS, Moscow, Russia
##NAMES=HP
##CAS NAME=3-Methyl-2-butenoic acid, octyl ester
##MOLFORM=C13H24O2
##CAS REGISTRY NO=56500-47-1
##MP= -300
##BP= -300
##MW= 212
##$RETENTION INDEX=0
##$CONDENSED SPECTRUM=NO
##NPOINTS= 60
##XYDATA=(XY..XY) 1 
    26         48
    27        399
    28         84
    29        525
    30         21
    31         17
    36         16
    37         16
    38         47
    39        448
    40         99
    41        578
    42        163
    43        434
    44         52
    45         12
    49          7
    50         38
    51         66
    52         20
    53        177
    54         77
    55        652
    56        138
    57        235
    58         15
    59         35
    60          3
    65         18
    66         12
    67         71
    68         19
    69         82
    70         66
    71        121
    72         11
    74          3
    75          3
    77          9
    78          3
    79         12
    81         17
    82        171
    83        999
    84         95
    85         89
    91          9
    95         11
    97          6
    98          6
    99         11
   100        711
   101        433
   102         18
   111          7
   112         14
   113          3
   212         39
   213          7
   214          1