##TITLE=Library Entry 64958
##JCAMP-DX=Revision 4.10 
##DATA TYPE=MASS SPECTRUM
##SAMPLE DESCRIPTION=Chemical Concepts
##NAMES=HP
##CAS NAME=2-Oxobicyclo[2.2.1]heptane-1-carbonitrile
##MOLFORM=C8H9NO
##CAS REGISTRY NO=56505-62-5
##MP= -300
##BP= -300
##MW= 135
##$RETENTION INDEX=0
##$CONDENSED SPECTRUM=NO
##NPOINTS= 101
##XYDATA=(XY..XY) 1 
    20          0
    25          2
    26         42
    27        159
    28         81
    29         28
    30          4
    31          3
    32         12
    34          0
    36          1
    37         30
    38         60
    39        374
    40         73
    41        491
    42        105
    43         35
    44         15
    45          6
    46          3
    48          0
    49          6
    50         56
    51        120
    52        195
    53        104
    54        177
    55         45
    56          5
    57          3
    58          0
    59          6
    60          2
    61          8
    62         14
    63         45
    64         72
    65        220
    66        260
    67        145
    68         19
    69          5
    70          1
    71          1
    72          4
    73          3
    74          6
    75         18
    76         22
    77         94
    78         55
    79        475
    80        373
    81         81
    82         12
    83          3
    84          1
    85          1
    86          2
    87          4
    88          3
    89          7
    90         23
    91        252
    92        999
    93        110
    94         11
    95          3
    96          1
    97          1
    98          0
    99          1
   100          0
   101          0
   102          6
   103          6
   104         25
   105         17
   106        281
   107         67
   108        315
   109         27
   110          2
   111          0
   113          0
   114          1
   115          6
   116         26
   117         67
   118         34
   119          4
   120         24
   121          2
   130          0
   131          0
   133          1
   134         18
   135        368
   136         38
   137          3