##TITLE=Library Entry 52979
##JCAMP-DX=Revision 4.10 
##DATA TYPE=MASS SPECTRUM
##SAMPLE DESCRIPTION=V.G.Zaikin, TIPS RAS, Moscow, Russia
##NAMES=HP
##CAS NAME=3-Methyl-2-butenoic acid, decyl ester
##MOLFORM=C15H28O2
##CAS REGISTRY NO=56500-46-0
##MP= -300
##BP= -300
##MW= 240
##$RETENTION INDEX=1719
##$CONDENSED SPECTRUM=NO
##NPOINTS= 67
##XYDATA=(XY..XY) 1 
    26         29
    27        308
    28         71
    29        479
    30         17
    31         18
    35          4
    36         17
    37         11
    38         38
    39        361
    40         72
    41        571
    42        159
    43        512
    44         56
    45         19
    49          7
    50         19
    51         45
    52         21
    53        156
    54         77
    55        601
    56        127
    57        215
    58         11
    59         23
    63          3
    64          3
    65          3
    66         11
    67         69
    68         41
    69        109
    70         88
    71         79
    72          3
    75          3
    77         17
    78         12
    79         12
    81         36
    82        149
    83        999
    84        138
    85        111
    86          7
    87          7
    91          3
    95         17
    96          7
    97         31
    98         22
    99         31
   100        802
   101        531
   102         39
   103          2
   110          4
   111         18
   112         12
   140         19
   141          2
   225          2
   240         48
   241          5