##TITLE=Library Entry 26060
##JCAMP-DX=Revision 4.10 
##DATA TYPE=MASS SPECTRUM
##SAMPLE DESCRIPTION=ASES Database, Dalian Institute, P.R. China
##NAMES=HP
##CAS NAME=t-Butyl-benzyl-phosphinyl chloride
##MOLFORM=C11H16ClP
##CAS REGISTRY NO=56522-07-7
##MP= -300
##BP= -300
##MW= 214
##$RETENTION INDEX=0
##$CONDENSED SPECTRUM=NO
##NPOINTS= 22
##XYDATA=(XY..XY) 1 
    39        121
    41        259
    50          9
    51         30
    57        999
    58         49
    63         29
    65        119
    76         29
    77         49
    90         20
    91        730
    92         80
   121         79
   122        120
   123         70
   157          9
   158         20
   159          9
   214        220
   215         10
   216         70