##TITLE=Library Entry 26061
##JCAMP-DX=Revision 4.10 
##DATA TYPE=MASS SPECTRUM
##SAMPLE DESCRIPTION=D.HENNEBERG, MAX-PLANCK INSTITUTE, MULHEIM, WEST GERMAN
Y
##NAMES=HP
##CAS NAME=Phosphine, (1,1-dimethylethyl)(phenylmethyl)-
##MOLFORM=C11H17P
##CAS REGISTRY NO=56522-08-8
##MP= -300
##BP= -300
##MW= 180
##$RETENTION INDEX=0
##$CONDENSED SPECTRUM=NO
##NPOINTS= 105
##XYDATA=(XY..XY) 1 
    25          0
    26         22
    27         42
    28         26
    29        177
    30          3
    32          4
    33          0
    34          0
    38          6
    39         93
    40         10
    41        283
    42          9
    43          8
    44          5
    45         31
    46          4
    47          5
    48          2
    49          2
    50         12
    51         35
    52         10
    53          9
    54          0
    55         16
    56         12
    57        999
    58         42
    59          8
    60          2
    61         21
    62          9
    63         20
    64          5
    65         95
    66          5
    67          0
    68          4
    69         11
    70          4
    71          6
    72          1
    73          3
    74          3
    75          2
    76          2
    77         44
    78         51
    79         21
    80          2
    81          3
    82          0
    83          2
    84          0
    85          1
    86          1
    87          1
    88          3
    89         16
    90          4
    91        487
    92         39
    93          2
    94          1
    95         12
    96          2
    97          1
   102          0
   103          0
   104          1
   105          1
   106          0
   107          3
   108          1
   109          3
   110          0
   115          1
   116          0
   117          1
   119          1
   120          4
   121         47
   122          8
   123         52
   124        161
   125         14
   126          0
   128          0
   129          0
   131          1
   132          0
   133          0
   137          0
   147          0
   149          0
   165          2
   166          0
   177          0
   178          1
   179          1
   180        176
   181         21
   182          4