##TITLE=Library Entry 25920
##JCAMP-DX=Revision 4.10 
##DATA TYPE=MASS SPECTRUM
##SAMPLE DESCRIPTION=NIST Mass Spectrometry Data Center, 2008
##NAMES=HP
##CAS NAME=tert-Butyldimethylsilyl nitrile
##MOLFORM=C7H15NSi
##CAS REGISTRY NO=56522-24-8
##MP= -300
##BP= -300
##MW= 141
##$RETENTION INDEX=0
##$CONDENSED SPECTRUM=NO
##NPOINTS= 77
##XYDATA=(XY..XY) 1 
    14          1
    15          8
    26          4
    27         47
    28         24
    29        154
    30          5
    31          9
    37          1
    38          4
    39         89
    40         14
    41        312
    42         36
    43        169
    44         18
    45         19
    46          1
    50          4
    51          6
    52          2
    53         23
    54         79
    55         54
    56        310
    57        999
    58        224
    59         75
    60         10
    61          2
    65          2
    66          5
    67         14
    68         40
    69         32
    70         36
    71          9
    72         13
    73         26
    74          3
    75          1
    77          1
    79          1
    80          2
    81          3
    82          8
    83         14
    84        423
    85        864
    86        272
    87         48
    88          8
    94          2
    95          1
    96          5
    97          8
    98          8
    99        172
   100         18
   101          7
   108          1
   110          4
   111          1
   112          1
   113          6
   114         66
   115          9
   116          3
   124          2
   125          3
   126         29
   127          4
   128          1
   140          3
   141         58
   142          8
   143          3