##TITLE=Library Entry 41113
##JCAMP-DX=Revision 4.10 
##DATA TYPE=MASS SPECTRUM
##SAMPLE DESCRIPTION=D.HENNEBERG, MAX-PLANCK INSTITUTE, MULHEIM, WEST GERMAN
Y
##NAMES=HP
##CAS NAME=Pentadecanoic acid, 15-bromo-
##MOLFORM=C15H29BrO2
##CAS REGISTRY NO=56523-59-2
##MP= -300
##BP= -300
##MW= 320
##$RETENTION INDEX=0
##$CONDENSED SPECTRUM=NO
##NPOINTS= 266
##XYDATA=(XY..XY) 1 
    26          8
    27         38
    28         42
    29        112
    30          3
    31          5
    32          1
    33          0
    35          1
    36          8
    37          0
    38          2
    39         22
    40         19
    41        356
    42         75
    43        429
    44         16
    45         41
    46          1
    47          1
    49          0
    50          0
    51          1
    52          1
    53         14
    54         46
    55        677
    56        113
    57        423
    58         20
    59         29
    60        905
    61        202
    62          7
    63          1
    64          1
    65          3
    66          4
    67         79
    68         76
    69        552
    70         88
    71        202
    72         10
    73        999
    74         80
    75          7
    76          1
    77          4
    78          3
    79         19
    80         11
    81         87
    82         78
    83        368
    84        121
    85        124
    86         12
    87        162
    88         20
    89          4
    91          7
    92          2
    93         16
    94         13
    95         79
    96         78
    97        294
    98        128
    99         59
   100         12
   101         67
   102         22
   103          3
   104          1
   105          5
   106          1
   107         15
   108          8
   109         47
   110         37
   111        149
   112         38
   113         30
   114         14
   115        125
   116         41
   117          4
   118          1
   119          5
   120          2
   121         19
   122         10
   123         39
   124         19
   125         85
   126         15
   127         14
   128          5
   129        383
   130         34
   131          4
   132          0
   133          4
   134          6
   135         34
   136          6
   137         37
   138         18
   139         42
   140          8
   141          6
   142          1
   143         51
   144          9
   145          1
   147          3
   148         33
   149         21
   150         31
   151         26
   152         11
   153         16
   154          4
   155          3
   156          0
   157         23
   158          9
   159          3
   160          1
   161          4
   162         19
   163         18
   164         18
   165         17
   166          5
   167          9
   168          2
   169          2
   170          1
   171         41
   172         10
   173          3
   174          1
   175          3
   176          5
   177         16
   178          9
   179         17
   180         14
   181         15
   182          5
   183          3
   185         37
   186          5
   187          1
   188          1
   189          3
   190          4
   191         16
   192          4
   193         19
   194          5
   195         17
   196          2
   197          3
   198          1
   199          7
   200          2
   201          0
   202          4
   203          4
   204          6
   205         28
   206          7
   207         18
   208          2
   209          4
   210          0
   211          0
   212          1
   213          7
   214          1
   215          0
   216          2
   217          5
   218          4
   219          9
   220          3
   221         21
   222         22
   223         65
   224         10
   225          1
   226          0
   227          1
   228          0
   229          0
   230          2
   231          3
   232          5
   233          2
   234          4
   235         15
   236          2
   237         15
   238          1
   240         11
   241        357
   242         66
   243          6
   244          1
   245          1
   246          0
   247          0
   248          1
   249          4
   250          0
   251          5
   252          1
   255          0
   256          2
   257          0
   258          9
   259          7
   260         28
   261         17
   262         21
   263         22
   264          2
   265         10
   266          2
   267          0
   273          2
   274          0
   275          2
   276          0
   277         57
   278          7
   279         58
   280          8
   281          0
   283          0
   284          2
   285          1
   286          1
   287          0
   291          9
   292          2
   293          7
   294          1
   301          1
   302          0
   303          3
   304          0
   305          3
   306          0
   315          0
   318          0
   320        131
   321         25
   322        127
   323         21
   324          2
   325          0