##TITLE=Library Entry 23585
##JCAMP-DX=Revision 4.10 
##DATA TYPE=MASS SPECTRUM
##SAMPLE DESCRIPTION=ASES Database, Dalian Institute, P.R. China
##NAMES=HP
##CAS NAME=Trifluoroacetyl-di-t-butylphosphine
##MOLFORM=C10H18F3OP
##CAS REGISTRY NO=56522-12-4
##MP= -300
##BP= -300
##MW= 242
##$RETENTION INDEX=0
##$CONDENSED SPECTRUM=NO
##NPOINTS= 11
##XYDATA=(XY..XY) 1 
    39         20
    41        200
    42         10
    43         19
    55         29
    56         20
    57        999
    58         80
    89         29
   145         20
   242         29