##TITLE=Library Entry 77
##JCAMP-DX=Revision 4.10 
##DATA TYPE=MASS SPECTRUM
##SAMPLE DESCRIPTION=J. SHAW, BORRISTON RESEARCH, ROCKVILLE, MD, USA
##NAMES=HP
##CAS NAME=.beta.-Chlordene
##MOLFORM=C10H6Cl6
##CAS REGISTRY NO=56534-03-3
##MP= -300
##BP= -300
##MW= 336
##$RETENTION INDEX=1965
##$CONDENSED SPECTRUM=NO
##NPOINTS= 236
##XYDATA=(XY..XY) 1 
    12          8
    13          7
    14         44
    15        280
    16         19
    17         63
    18        176
    19         11
    24          1
    25         20
    26        345
    27        999
    28         51
    29         32
    30          2
    31          5
    32          2
    35        294
    36        297
    37        313
    38        393
    39        850
    40         57
    41         25
    42          5
    43         37
    44         10
    45         35
    47        178
    48         74
    49        779
    50        623
    51        856
    52         62
    53         36
    54          3
    55         21
    56          3
    57          8
    58          1
    59         13
    60        199
    61        485
    62        512
    63        392
    64         39
    65         76
    66         64
    67         52
    68         17
    69          4
    71         50
    72        180
    73        540
    74        510
    75        572
    76         62
    77         60
    79         93
    80        202
    81         65
    82         29
    83        245
    84        249
    85        644
    86        340
    87        292
    88         66
    89         30
    90         18
    91          6
    93          1
    94         49
    95         66
    96        179
    97        469
    98        513
    99        424
   100         99
   101         62
   102         86
   103         63
   104         18
   106         30
   107        169
   108        159
   109        339
   110        114
   111        171
   112         23
   113         37
   114         61
   115        263
   116        237
   117         93
   118         37
   119         63
   120        112
   121        145
   122        133
   123        190
   124         99
   125        176
   126        268
   127         27
   130         22
   131         49
   132        138
   133        414
   134        192
   135        213
   136         97
   137         41
   138         18
   139          1
   141          9
   142          5
   143         46
   144         26
   145         99
   146         64
   147         90
   148         44
   149         35
   150          9
   151          4
   154          2
   155         13
   156         29
   157         49
   158         59
   159        114
   160        373
   161        202
   162        129
   163         50
   164          2
   165          2
   167         72
   168         40
   169        394
   170        108
   171        330
   172         60
   173         98
   174          8
   175          7
   178          1
   179         16
   180        106
   181         52
   182        125
   183         77
   184         51
   185         34
   186          7
   187          2
   190          1
   191         13
   192          9
   193         46
   194        114
   195        140
   196        367
   197        107
   198        199
   199         28
   200         26
   201          3
   202          4
   203         10
   204         46
   205         17
   206         40
   207          9
   208         10
   209          1
   214         20
   215          9
   216         36
   217         84
   218         40
   219         73
   220         22
   221         22
   222          4
   227          6
   228         19
   229         48
   230        594
   231        270
   232        562
   233        222
   234        182
   235         62
   236         21
   237          6
   238          6
   239          3
   240          6
   241          3
   242          2
   250          2
   251         11
   252          8
   253         20
   254          8
   255         10
   256          2
   257          1
   261          1
   263          6
   264         18
   265        173
   266         76
   267        217
   268         71
   269        100
   270         28
   271         19
   272          3
   301        294
   303        468
   304         57
   305        256
   306         29
   307         76
   308          5
   309          9
   336        172
   338        329
   340        273
   341         28
   342         93
   343          8
   344         17