##TITLE=Library Entry 42852
##JCAMP-DX=Revision 4.10 
##DATA TYPE=MASS SPECTRUM
##SAMPLE DESCRIPTION=Institute of Organic Chemistry, Novosibirsk, USSR 1988
##NAMES=HP
##CAS NAME=Ethylene, 1,1-bis(trimethylsilyl)-
##MOLFORM=C8H20Si2
##CAS REGISTRY NO=5654-07-9
##MP= -300
##BP= -300
##MW= 172
##$RETENTION INDEX=0
##$CONDENSED SPECTRUM=NO
##NPOINTS= 18
##XYDATA=(XY..XY) 1 
    45         57
    58         31
    59         50
    73        999
    74         78
    75         29
    83         38
    84         30
    98         26
    99        126
   100         19
   101          7
   157        300
   158         57
   159         28
   172        162
   173         39
   174         10