##TITLE=Library Entry 30604
##JCAMP-DX=Revision 4.10 
##DATA TYPE=MASS SPECTRUM
##SAMPLE DESCRIPTION=Chemical Concepts
##NAMES=HP
##CAS NAME=1-Propene-1,2,3-tricarboxylic acid, trimethyl ester, (Z)-
##MOLFORM=C9H12O6
##CAS REGISTRY NO=56547-01-4
##MP= -300
##BP= -300
##MW= 216
##$RETENTION INDEX=0
##$CONDENSED SPECTRUM=NO
##NPOINTS= 71
##XYDATA=(XY..XY) 1 
    31         50
    33          1
    37         19
    38        103
    39        566
    40         64
    41         59
    42         52
    43         33
    44         22
    45        108
    47         21
    50          0
    51          9
    52          7
    53        191
    54         30
    55        112
    56          7
    57         27
    58          2
    59        999
    60         19
    61          4
    65          4
    66         82
    67        164
    68        204
    69        182
    70         13
    71         16
    75        167
    76          4
    80          0
    81         66
    82         19
    83         50
    84          3
    85         25
    93          9
    95          8
    97         25
    98        237
    99         53
   100          2
   101         70
   110          2
   111         11
   112         29
   113        216
   114         13
   115          5
   125        380
   126        115
   127         43
   128          9
   129         40
   139          3
   141        123
   142         11
   143          1
   153        781
   154         63
   155          4
   156        517
   157        289
   158         30
   184        545
   185        320
   186         30
   187          0