##TITLE=Library Entry 53926
##JCAMP-DX=Revision 4.10 
##DATA TYPE=MASS SPECTRUM
##SAMPLE DESCRIPTION=A.Mazepa, Phys.-Chem.Institute, Odessa, Ukraine
##NAMES=HP
##CAS NAME=Octahydropyrrolo[1,2-a]pyrazine
##MOLFORM=C7H14N2
##CAS REGISTRY NO=5654-83-1
##MP= -300
##BP= -300
##MW= 126
##$RETENTION INDEX=0
##$CONDENSED SPECTRUM=NO
##NPOINTS= 42
##XYDATA=(XY..XY) 1 
    50         19
    51          2
    52          7
    53         19
    54         81
    55        174
    56        218
    57         91
    58         41
    61         92
    62          7
    63          3
    66          2
    67         31
    68        146
    69        459
    70        235
    71         34
    72          3
    73          2
    74         10
    80         15
    81        116
    82        155
    83         84
    84        999
    85         60
    86         10
    87          4
    94         13
    95         15
    96        222
    97        256
    98         23
   100          1
   111         22
   112         19
   113          1
   124          7
   125         30
   126        312
   127         25