##TITLE=Library Entry 38215
##JCAMP-DX=Revision 4.10 
##DATA TYPE=MASS SPECTRUM
##SAMPLE DESCRIPTION=R.T.HOLMAN,UNIVERSITY OF MINNESOTA
##NAMES=HP
##CAS NAME=1,9(Z)-Octadecadiene, 1-methoxy-
##MOLFORM=C19H36O
##CAS REGISTRY NO=56554-63-3
##MP= -300
##BP= -300
##MW= 280
##$RETENTION INDEX=0
##$CONDENSED SPECTRUM=NO
##NPOINTS= 89
##XYDATA=(XY..XY) 1 
    27         90
    28         50
    29        170
    30          5
    31          9
    32         10
    39         71
    40         16
    41        580
    42         60
    43        250
    44         11
    45         90
    51          6
    52          5
    53         60
    54        140
    55        300
    56         60
    57        120
    58         45
    59         17
    65         14
    66         24
    67        240
    68        130
    69        140
    70         30
    71        999
    72         60
    73          8
    77         16
    78         10
    79         80
    80         80
    81        180
    82        200
    83        100
    84         80
    85         50
    86          6
    87          5
    91         15
    92          5
    93         70
    94         60
    95        180
    96        160
    97        170
    98        260
    99          7
   105          7
   106          3
   107        430
   108         42
   109         70
   110         60
   111         70
   112         22
   113          6
   121         90
   122         46
   123         31
   124         39
   125        100
   126         15
   127          5
   135         80
   136         27
   137         17
   138         38
   139         18
   149         25
   150         10
   151          6
   152         24
   153          6
   163          8
   165          5
   166         18
   167          5
   170          6
   180          4
   184         16
   194          3
   248         13
   249          4
   280         37
   281          8