##TITLE=Library Entry 19315
##JCAMP-DX=Revision 4.10 
##DATA TYPE=MASS SPECTRUM
##SAMPLE DESCRIPTION=R.T.HOLMAN,UNIVERSITY OF MINNESOTA
##NAMES=HP
##CAS NAME=12-Octadecenoic acid, methyl ester
##MOLFORM=C19H36O2
##CAS REGISTRY NO=56554-46-2
##MP= -300
##BP= -300
##MW= 296
##$RETENTION INDEX=0
##$CONDENSED SPECTRUM=NO
##NPOINTS= 244
##XYDATA=(XY..XY) 1 
    26          6
    27        110
    28         61
    29        300
    30          8
    31         16
    32          8
    33          3
    35          1
    36          4
    37          2
    38          3
    39        100
    40         22
    41        770
    42        150
    43        430
    44         20
    45         29
    46          2
    47          1
    48          1
    49          1
    50          2
    51          5
    52          5
    53         70
    54        210
    55        999
    56        250
    57        240
    58         14
    59        180
    60         10
    61          4
    62          2
    63          2
    64          1
    65         16
    66         16
    67        270
    68        170
    69        720
    70        170
    71         90
    72         10
    73         46
    74        540
    75         85
    76          6
    77         18
    78          7
    79         50
    80         31
    81        230
    82        160
    83        430
    84        320
    85         73
    86          7
    87        370
    88         35
    89          4
    90          2
    91         15
    92          6
    93         29
    94         33
    95        180
    96        300
    97        350
    98        260
    99         42
   100          9
   101         56
   102          7
   103          2
   104          2
   105          9
   106          5
   107         24
   108         26
   109        100
   110        160
   111        170
   112         60
   113         23
   114         36
   115         60
   116         11
   117          3
   118          2
   119         18
   120          8
   121         28
   122         15
   123        100
   124         85
   125         90
   126         20
   127         25
   128         44
   129         44
   130         13
   131          3
   132          2
   133         19
   134         17
   135         31
   136         12
   137         63
   138         69
   139         58
   140         13
   141         53
   142         16
   143         46
   144          8
   145          3
   146          2
   147         15
   148         15
   149         23
   150         11
   151         42
   152         56
   153         40
   154          8
   155         17
   156          5
   157         19
   158          5
   159          2
   160          1
   161         12
   162          6
   163         14
   164         10
   165         29
   166         45
   167         24
   168          6
   169         21
   170          5
   171         15
   172          4
   173          2
   174          1
   175          9
   176          4
   177          7
   178          5
   179         18
   180         90
   181         30
   182          6
   183         13
   184          4
   185         12
   186          5
   187          2
   189          8
   190          3
   191          4
   192          3
   193         15
   194         20
   195         10
   196          3
   197          5
   198          2
   199         11
   200          6
   201          2
   203          4
   204          2
   205          2
   206          3
   207         15
   208         14
   209          8
   210          4
   211          3
   212          2
   213         10
   214          6
   215          2
   217          3
   218          2
   219          1
   220         34
   221         26
   222        130
   223         27
   224          4
   225          2
   226          1
   227          4
   228          4
   229          2
   231          1
   232          1
   233          1
   234          1
   235         18
   236         19
   237          4
   238          1
   239          3
   240          1
   241          4
   242          1
   245          2
   246         15
   247          6
   248          1
   249          3
   250          1
   251          1
   252          1
   253          8
   254          2
   255          2
   256          1
   257          1
   258          1
   260          1
   263          5
   264        310
   265        170
   266         29
   267          6
   268          2
   269          1
   278          3
   279          2
   280          1
   281          1
   294          2
   295          1
   296         66
   297         14
   298          3
   299          1