##TITLE=Library Entry 30097
##JCAMP-DX=Revision 4.10 
##DATA TYPE=MASS SPECTRUM
##SAMPLE DESCRIPTION=R.T.HOLMAN,UNIVERSITY OF MINNESOTA
##NAMES=HP
##CAS NAME=Dodecanoic acid, tricosafluoro-, methyl ester
##MOLFORM=C13H3F23O2
##CAS REGISTRY NO=56554-52-0
##MP= -300
##BP= -300
##MW= 628
##$RETENTION INDEX=0
##$CONDENSED SPECTRUM=NO
##NPOINTS= 116
##XYDATA=(XY..XY) 1 
    27          4
    28         42
    29         20
    30          5
    31         33
    32          8
    33          1
    39          3
    40          1
    41          4
    42          2
    43          7
    44         15
    45          7
    50          5
    51          8
    55          5
    56          3
    57          4
    58          2
    59        999
    60         25
    61          6
    62          1
    63          1
    64          3
    65         13
    69        284
    70          5
    71          2
    73          4
    74          4
    75          2
    78          3
    81         21
    82          4
    83          3
    84          3
    85          3
    93         12
    94          2
    95          9
    97          4
    98          3
   100         69
   101          4
   109         19
   110          3
   111          2
   112          5
   113          9
   119         85
   120          2
   131        186
   132          7
   133          7
   143          6
   144          2
   145          3
   147          2
   150          4
   151          4
   155          3
   159          2
   162          9
   163          5
   169         62
   170          4
   171          2
   175          3
   181         43
   182          3
   183          4
   193          5
   195          3
   201          2
   203          2
   205          3
   209          4
   213          3
   219         23
   220          3
   225          2
   231         27
   232          3
   233          4
   243          3
   253          3
   259          3
   263          2
   269         10
   281         11
   303          4
   309          2
   319          5
   331          5
   353          2
   359          3
   369          2
   381          4
   409          3
   431          3
   459          2
   481          4
   507          3
   525          2
   531          8
   553          4
   559          3
   569          4
   581         26
   582          5
   591          3
   599          4
   609         39
   610          7