##TITLE=Library Entry 49382
##JCAMP-DX=Revision 4.10 
##DATA TYPE=MASS SPECTRUM
##SAMPLE DESCRIPTION=R.T.HOLMAN,UNIVERSITY OF MINNESOTA
##NAMES=HP
##CAS NAME=9,12,15-Octadecatrienoic acid, 2-phenyl-1,3-dioxan-2-yl ester, (Z
,Z,Z)-
##MOLFORM=C28H40O4
##CAS REGISTRY NO=56554-38-2
##MP= -300
##BP= -300
##MW= 440
##$RETENTION INDEX=0
##$CONDENSED SPECTRUM=NO
##NPOINTS= 267
##XYDATA=(XY..XY) 1 
    26         25
    27        170
    28         96
    29        330
    30         13
    31         73
    32          8
    36         11
    37          9
    38         15
    39        170
    40         37
    41        740
    42        180
    43        360
    44         43
    45         34
    47          5
    49          5
    50         32
    51         85
    52         36
    53        120
    54        120
    55        660
    56         85
    57        480
    58         35
    59         40
    60         15
    61          9
    62          7
    63         19
    64         10
    65         78
    66         85
    67        710
    68        120
    69        290
    70         46
    71         65
    72          9
    73         28
    74         30
    75         18
    76         15
    77        390
    78        190
    79        999
    80        360
    81        390
    82         98
    83        110
    84         28
    85         35
    86          9
    87         16
    88          7
    89         25
    90         28
    91        570
    92        120
    93        410
    94        160
    95        530
    96         72
    97         60
    98         34
    99         29
   100         21
   101         22
   102          7
   103         25
   104         24
   105        730
   106        160
   107        370
   108        320
   109        150
   110         26
   111         29
   112         12
   113         19
   114          6
   115         19
   116         99
   117         64
   118         21
   119        120
   120         53
   121        170
   122         64
   123         46
   124         13
   125         14
   126          5
   127         45
   128         11
   129        300
   130         31
   131         52
   132         17
   133        100
   134         47
   135         96
   136         36
   137         21
   138          8
   139          9
   141         15
   142         10
   143         30
   144         14
   145         34
   146         14
   147         66
   148         29
   149        110
   150         24
   151         22
   152          8
   153          9
   155         34
   156          8
   157         33
   158         11
   159         28
   160         13
   161         39
   162         43
   163        230
   164         36
   165         12
   167          8
   169         10
   170          7
   171         26
   172         21
   173         32
   174         10
   175         21
   176          8
   177         18
   178          9
   179         22
   180          7
   181         11
   182          6
   183         13
   184         14
   185         53
   186         11
   187         12
   188          5
   189         16
   190          7
   191         19
   192          8
   193          7
   195          7
   197          8
   198          6
   199         18
   200          6
   201          7
   203         14
   204          6
   205          9
   206          5
   207          9
   209          8
   210          6
   211         11
   212          8
   213         12
   215          5
   217          8
   218          5
   219         11
   220         14
   221         11
   222          5
   223          9
   224          6
   225         20
   226         10
   227          9
   229          9
   230          6
   231          7
   232          9
   233         45
   234         10
   235          9
   236          6
   237          7
   238         10
   239         42
   240         16
   241          6
   242          6
   243          6
   247         24
   248          7
   249          7
   250          5
   251         10
   252         22
   253         12
   254          7
   255          8
   257         15
   258          6
   259          8
   260          8
   261         65
   262         16
   263          9
   264          5
   265        140
   266         36
   267         13
   268          6
   273          5
   275         14
   276         15
   277         23
   278        140
   279         54
   280         26
   281          7
   283          5
   287          7
   289          7
   291         15
   292         13
   293         14
   303         19
   304          7
   305         25
   306         17
   307          5
   317          6
   319         11
   320          5
   331         10
   332         12
   333         34
   334        960
   335        230
   336         41
   337          8
   344          5
   349         61
   350         16
   363         20
   364          6
   370          6
   371         10
   372          6
   377         10
   384         20
   385          7
   439         50
   440         83
   441         26
   442          6